Run 1, Result case LC1, 1: Case 1
Position      : Elements
Attribute     : G-STRESS
Shell surface : Lower

Superelement	Element	X-coord(1)	Y-coord(1)	Z-coord(1)	VONMISES(1)	X-coord(2)	Y-coord(2)	Z-coord(2)	VONMISES(2)	X-coord(3)	Y-coord(3)	Z-coord(3)	VONMISES(3)	X-coord(4)	Y-coord(4)	Z-coord(4)	VONMISES(4)	X-coord(5)	Y-coord(5)	Z-coord(5)	VONMISES(5)	X-coord(6)	Y-coord(6)	Z-coord(6)	VONMISES(6)	X-coord(7)	Y-coord(7)	Z-coord(7)	VONMISES(7)	X-coord(8)	Y-coord(8)	Z-coord(8)	VONMISES(8)	
         R10	      1	     72.25	     20.66	         6	        N/A	   72.6375	     20.66	         6	        N/A	    73.025	     20.66	         6	        N/A	       N/A	       N/A	       N/A	        N/A	       N/A	       N/A	       N/A	        N/A	       N/A	       N/A	       N/A	        N/A	       N/A	       N/A	       N/A	        N/A	       N/A	       N/A	       N/A	        N/A	
         R10	      2	    73.025	     20.66	         6	        N/A	   73.3845	     20.66	         6	        N/A	    73.744	     20.66	         6	        N/A	       N/A	       N/A	       N/A	        N/A	       N/A	       N/A	       N/A	        N/A	       N/A	       N/A	       N/A	        N/A	       N/A	       N/A	       N/A	        N/A	       N/A	       N/A	       N/A	        N/A	
         R10	      3	    73.744	     20.66	         6	        N/A	   74.0755	     20.66	         6	        N/A	   74.4071	     20.66	         6	        N/A	       N/A	       N/A	       N/A	        N/A	       N/A	       N/A	       N/A	        N/A	       N/A	       N/A	       N/A	        N/A	       N/A	       N/A	       N/A	        N/A	       N/A	       N/A	       N/A	        N/A	
         R10	      4	   74.4071	     20.66	         6	        N/A	   74.7107	     20.66	         6	        N/A	   75.0142	     20.66	         6	        N/A	       N/A	       N/A	       N/A	        N/A	       N/A	       N/A	       N/A	        N/A	       N/A	       N/A	       N/A	        N/A	       N/A	       N/A	       N/A	        N/A	       N/A	       N/A	       N/A	        N/A	
         R10	      5	   75.0142	     20.66	         6	        N/A	   75.2898	     20.66	         6	        N/A	   75.5654	     20.66	         6	        N/A	       N/A	       N/A	       N/A	        N/A	       N/A	       N/A	       N/A	        N/A	       N/A	       N/A	       N/A	        N/A	       N/A	       N/A	       N/A	        N/A	       N/A	       N/A	       N/A	        N/A	
         R10	      6	   75.5654	     20.66	         6	        N/A	   75.8131	     20.66	         6	        N/A	   76.0607	     20.66	         6	        N/A	       N/A	       N/A	       N/A	        N/A	       N/A	       N/A	       N/A	        N/A	       N/A	       N/A	       N/A	        N/A	       N/A	       N/A	       N/A	        N/A	       N/A	       N/A	       N/A	        N/A	
         R10	      7	   76.0607	     20.66	         6	        N/A	   76.2803	     20.66	         6	        N/A	      76.5	     20.66	         6	        N/A	       N/A	       N/A	       N/A	        N/A	       N/A	       N/A	       N/A	        N/A	       N/A	       N/A	       N/A	        N/A	       N/A	       N/A	       N/A	        N/A	       N/A	       N/A	       N/A	        N/A	
         R10	      8	      76.5	     20.66	         6	        N/A	   76.7279	     20.66	         6	        N/A	   76.9558	     20.66	         6	        N/A	       N/A	       N/A	       N/A	        N/A	       N/A	       N/A	       N/A	        N/A	       N/A	       N/A	       N/A	        N/A	       N/A	       N/A	       N/A	        N/A	       N/A	       N/A	       N/A	        N/A	
         R10	      9	   76.9558	     20.66	         6	        N/A	   77.2089	     20.66	         6	        N/A	   77.4619	     20.66	         6	        N/A	       N/A	       N/A	       N/A	        N/A	       N/A	       N/A	       N/A	        N/A	       N/A	       N/A	       N/A	        N/A	       N/A	       N/A	       N/A	        N/A	       N/A	       N/A	       N/A	        N/A	
         R10	     10	   77.4619	     20.66	         6	        N/A	   77.7401	     20.66	         6	        N/A	   78.0183	     20.66	         6	        N/A	       N/A	       N/A	       N/A	        N/A	       N/A	       N/A	       N/A	        N/A	       N/A	       N/A	       N/A	        N/A	       N/A	       N/A	       N/A	        N/A	       N/A	       N/A	       N/A	        N/A	
         R10	     11	   78.0183	     20.66	         6	        N/A	   78.3217	     20.66	         6	        N/A	    78.625	     20.66	         6	        N/A	       N/A	       N/A	       N/A	        N/A	       N/A	       N/A	       N/A	        N/A	       N/A	       N/A	       N/A	        N/A	       N/A	       N/A	       N/A	        N/A	       N/A	       N/A	       N/A	        N/A	
         R10	     12	     72.25	     19.83	         6	        N/A	   72.6515	     19.83	         6	        N/A	    73.053	     19.83	         6	        N/A	       N/A	       N/A	       N/A	        N/A	       N/A	       N/A	       N/A	        N/A	       N/A	       N/A	       N/A	        N/A	       N/A	       N/A	       N/A	        N/A	       N/A	       N/A	       N/A	        N/A	
         R10	     13	    73.053	     19.83	         6	        N/A	   73.4218	     19.83	         6	        N/A	   73.7907	     19.83	         6	        N/A	       N/A	       N/A	       N/A	        N/A	       N/A	       N/A	       N/A	        N/A	       N/A	       N/A	       N/A	        N/A	       N/A	       N/A	       N/A	        N/A	       N/A	       N/A	       N/A	        N/A	
         R10	     14	   73.7907	     19.83	         6	        N/A	   74.1269	     19.83	         6	        N/A	   74.4631	     19.83	         6	        N/A	       N/A	       N/A	       N/A	        N/A	       N/A	       N/A	       N/A	        N/A	       N/A	       N/A	       N/A	        N/A	       N/A	       N/A	       N/A	        N/A	       N/A	       N/A	       N/A	        N/A	
         R10	     15	   74.4631	     19.83	         6	        N/A	   74.7667	     19.83	         6	        N/A	   75.0702	     19.83	         6	        N/A	       N/A	       N/A	       N/A	        N/A	       N/A	       N/A	       N/A	        N/A	       N/A	       N/A	       N/A	        N/A	       N/A	       N/A	       N/A	        N/A	       N/A	       N/A	       N/A	        N/A	
         R10	     16	   75.0702	     19.83	         6	        N/A	   75.3412	     19.83	         6	        N/A	   75.6121	     19.83	         6	        N/A	       N/A	       N/A	       N/A	        N/A	       N/A	       N/A	       N/A	        N/A	       N/A	       N/A	       N/A	        N/A	       N/A	       N/A	       N/A	        N/A	       N/A	       N/A	       N/A	        N/A	
         R10	     17	   75.6121	     19.83	         6	        N/A	   75.8504	     19.83	         6	        N/A	   76.0887	     19.83	         6	        N/A	       N/A	       N/A	       N/A	        N/A	       N/A	       N/A	       N/A	        N/A	       N/A	       N/A	       N/A	        N/A	       N/A	       N/A	       N/A	        N/A	       N/A	       N/A	       N/A	        N/A	
         R10	     18	   76.0887	     19.83	         6	        N/A	   76.2943	     19.83	         6	        N/A	      76.5	     19.83	         6	        N/A	       N/A	       N/A	       N/A	        N/A	       N/A	       N/A	       N/A	        N/A	       N/A	       N/A	       N/A	        N/A	       N/A	       N/A	       N/A	        N/A	       N/A	       N/A	       N/A	        N/A	
         R10	     19	      76.5	     19.83	         6	        N/A	   76.7251	     19.83	         6	        N/A	   76.9503	     19.83	         6	        N/A	       N/A	       N/A	       N/A	        N/A	       N/A	       N/A	       N/A	        N/A	       N/A	       N/A	       N/A	        N/A	       N/A	       N/A	       N/A	        N/A	       N/A	       N/A	       N/A	        N/A	
         R10	     20	   76.9503	     19.83	         6	        N/A	   77.2024	     19.83	         6	        N/A	   77.4545	     19.83	         6	        N/A	       N/A	       N/A	       N/A	        N/A	       N/A	       N/A	       N/A	        N/A	       N/A	       N/A	       N/A	        N/A	       N/A	       N/A	       N/A	        N/A	       N/A	       N/A	       N/A	        N/A	
         R10	     21	   77.4545	     19.83	         6	        N/A	   77.7337	     19.83	         6	        N/A	   78.0128	     19.83	         6	        N/A	       N/A	       N/A	       N/A	        N/A	       N/A	       N/A	       N/A	        N/A	       N/A	       N/A	       N/A	        N/A	       N/A	       N/A	       N/A	        N/A	       N/A	       N/A	       N/A	        N/A	
         R10	     22	   78.0128	     19.83	         6	        N/A	   78.3189	     19.83	         6	        N/A	    78.625	     19.83	         6	        N/A	       N/A	       N/A	       N/A	        N/A	       N/A	       N/A	       N/A	        N/A	       N/A	       N/A	       N/A	        N/A	       N/A	       N/A	       N/A	        N/A	       N/A	       N/A	       N/A	        N/A	
         R10	     23	     72.25	      15.3	       0.8	        N/A	    72.618	      15.3	       0.8	        N/A	    72.986	      15.3	       0.8	        N/A	       N/A	       N/A	       N/A	        N/A	       N/A	       N/A	       N/A	        N/A	       N/A	       N/A	       N/A	        N/A	       N/A	       N/A	       N/A	        N/A	       N/A	       N/A	       N/A	        N/A	
         R10	     24	    72.986	      15.3	       0.8	        N/A	   73.2857	      15.3	       0.8	        N/A	   73.5855	      15.3	       0.8	        N/A	       N/A	       N/A	       N/A	        N/A	       N/A	       N/A	       N/A	        N/A	       N/A	       N/A	       N/A	        N/A	       N/A	       N/A	       N/A	        N/A	       N/A	       N/A	       N/A	        N/A	
         R10	     25	   73.5855	      15.3	       0.8	        N/A	    73.817	      15.3	       0.8	        N/A	   74.0485	      15.3	       0.8	        N/A	       N/A	       N/A	       N/A	        N/A	       N/A	       N/A	       N/A	        N/A	       N/A	       N/A	       N/A	        N/A	       N/A	       N/A	       N/A	        N/A	       N/A	       N/A	       N/A	        N/A	
         R10	     26	   74.0485	      15.3	       0.8	        N/A	   74.2117	      15.3	       0.8	        N/A	    74.375	      15.3	       0.8	        N/A	       N/A	       N/A	       N/A	        N/A	       N/A	       N/A	       N/A	        N/A	       N/A	       N/A	       N/A	        N/A	       N/A	       N/A	       N/A	        N/A	       N/A	       N/A	       N/A	        N/A	
         R10	     27	     72.25	      15.3	       1.6	        N/A	   72.6286	      15.3	       1.6	        N/A	   73.0071	      15.3	       1.6	        N/A	       N/A	       N/A	       N/A	        N/A	       N/A	       N/A	       N/A	        N/A	       N/A	       N/A	       N/A	        N/A	       N/A	       N/A	       N/A	        N/A	       N/A	       N/A	       N/A	        N/A	
         R10	     28	   73.0071	      15.3	       1.6	        N/A	   73.3104	      15.3	       1.6	        N/A	   73.6137	      15.3	       1.6	        N/A	       N/A	       N/A	       N/A	        N/A	       N/A	       N/A	       N/A	        N/A	       N/A	       N/A	       N/A	        N/A	       N/A	       N/A	       N/A	        N/A	       N/A	       N/A	       N/A	        N/A	
         R10	     29	   73.6137	      15.3	       1.6	        N/A	   73.8416	      15.3	       1.6	        N/A	   74.0696	      15.3	       1.6	        N/A	       N/A	       N/A	       N/A	        N/A	       N/A	       N/A	       N/A	        N/A	       N/A	       N/A	       N/A	        N/A	       N/A	       N/A	       N/A	        N/A	       N/A	       N/A	       N/A	        N/A	
         R10	     30	   74.0696	      15.3	       1.6	        N/A	   74.2223	      15.3	       1.6	        N/A	    74.375	      15.3	       1.6	        N/A	       N/A	       N/A	       N/A	        N/A	       N/A	       N/A	       N/A	        N/A	       N/A	       N/A	       N/A	        N/A	       N/A	       N/A	       N/A	        N/A	       N/A	       N/A	       N/A	        N/A	
         R10	     31	     72.25	      9.35	       2.4	        N/A	    72.675	      9.35	       2.4	        N/A	      73.1	      9.35	       2.4	        N/A	       N/A	       N/A	       N/A	        N/A	       N/A	       N/A	       N/A	        N/A	       N/A	       N/A	       N/A	        N/A	       N/A	       N/A	       N/A	        N/A	       N/A	       N/A	       N/A	        N/A	
         R10	     32	      73.1	      9.35	       2.4	        N/A	    73.525	      9.35	       2.4	        N/A	     73.95	      9.35	       2.4	        N/A	       N/A	       N/A	       N/A	        N/A	       N/A	       N/A	       N/A	        N/A	       N/A	       N/A	       N/A	        N/A	       N/A	       N/A	       N/A	        N/A	       N/A	       N/A	       N/A	        N/A	
         R10	     33	     73.95	      9.35	       2.4	        N/A	    74.375	      9.35	       2.4	        N/A	      74.8	      9.35	       2.4	        N/A	       N/A	       N/A	       N/A	        N/A	       N/A	       N/A	       N/A	        N/A	       N/A	       N/A	       N/A	        N/A	       N/A	       N/A	       N/A	        N/A	       N/A	       N/A	       N/A	        N/A	
         R10	     34	      74.8	      9.35	       2.4	        N/A	    75.225	      9.35	       2.4	        N/A	     75.65	      9.35	       2.4	        N/A	       N/A	       N/A	       N/A	        N/A	       N/A	       N/A	       N/A	        N/A	       N/A	       N/A	       N/A	        N/A	       N/A	       N/A	       N/A	        N/A	       N/A	       N/A	       N/A	        N/A	
         R10	     35	     75.65	      9.35	       2.4	        N/A	    76.075	      9.35	       2.4	        N/A	      76.5	      9.35	       2.4	        N/A	       N/A	       N/A	       N/A	        N/A	       N/A	       N/A	       N/A	        N/A	       N/A	       N/A	       N/A	        N/A	       N/A	       N/A	       N/A	        N/A	       N/A	       N/A	       N/A	        N/A	
         R10	     36	      76.5	      9.35	       2.4	        N/A	   77.0313	      9.35	       2.4	        N/A	   77.5625	      9.35	       2.4	        N/A	       N/A	       N/A	       N/A	        N/A	       N/A	       N/A	       N/A	        N/A	       N/A	       N/A	       N/A	        N/A	       N/A	       N/A	       N/A	        N/A	       N/A	       N/A	       N/A	        N/A	
         R10	     37	   77.5625	      9.35	       2.4	        N/A	   78.0938	      9.35	       2.4	        N/A	    78.625	      9.35	       2.4	        N/A	       N/A	       N/A	       N/A	        N/A	       N/A	       N/A	       N/A	        N/A	       N/A	       N/A	       N/A	        N/A	       N/A	       N/A	       N/A	        N/A	       N/A	       N/A	       N/A	        N/A	
         R10	     38	     72.25	      10.2	       2.4	        N/A	    72.675	      10.2	       2.4	        N/A	      73.1	      10.2	       2.4	        N/A	       N/A	       N/A	       N/A	        N/A	       N/A	       N/A	       N/A	        N/A	       N/A	       N/A	       N/A	        N/A	       N/A	       N/A	       N/A	        N/A	       N/A	       N/A	       N/A	        N/A	
         R10	     39	      73.1	      10.2	       2.4	        N/A	    73.525	      10.2	       2.4	        N/A	     73.95	      10.2	       2.4	        N/A	       N/A	       N/A	       N/A	        N/A	       N/A	       N/A	       N/A	        N/A	       N/A	       N/A	       N/A	        N/A	       N/A	       N/A	       N/A	        N/A	       N/A	       N/A	       N/A	        N/A	
         R10	     40	     73.95	      10.2	       2.4	        N/A	    74.375	      10.2	       2.4	        N/A	      74.8	      10.2	       2.4	        N/A	       N/A	       N/A	       N/A	        N/A	       N/A	       N/A	       N/A	        N/A	       N/A	       N/A	       N/A	        N/A	       N/A	       N/A	       N/A	        N/A	       N/A	       N/A	       N/A	        N/A	
         R10	     41	      74.8	      10.2	       2.4	        N/A	    75.225	      10.2	       2.4	        N/A	     75.65	      10.2	       2.4	        N/A	       N/A	       N/A	       N/A	        N/A	       N/A	       N/A	       N/A	        N/A	       N/A	       N/A	       N/A	        N/A	       N/A	       N/A	       N/A	        N/A	       N/A	       N/A	       N/A	        N/A	
         R10	     42	     75.65	      10.2	       2.4	        N/A	    76.075	      10.2	       2.4	        N/A	      76.5	      10.2	       2.4	        N/A	       N/A	       N/A	       N/A	        N/A	       N/A	       N/A	       N/A	        N/A	       N/A	       N/A	       N/A	        N/A	       N/A	       N/A	       N/A	        N/A	       N/A	       N/A	       N/A	        N/A	
         R10	     43	      76.5	      10.2	       2.4	        N/A	   77.0313	      10.2	       2.4	        N/A	   77.5625	      10.2	       2.4	        N/A	       N/A	       N/A	       N/A	        N/A	       N/A	       N/A	       N/A	        N/A	       N/A	       N/A	       N/A	        N/A	       N/A	       N/A	       N/A	        N/A	       N/A	       N/A	       N/A	        N/A	
         R10	     44	   77.5625	      10.2	       2.4	        N/A	   78.0938	      10.2	       2.4	        N/A	    78.625	      10.2	       2.4	        N/A	       N/A	       N/A	       N/A	        N/A	       N/A	       N/A	       N/A	        N/A	       N/A	       N/A	       N/A	        N/A	       N/A	       N/A	       N/A	        N/A	       N/A	       N/A	       N/A	        N/A	
         R10	     45	     72.25	     11.05	       2.4	        N/A	   72.6438	     11.05	       2.4	        N/A	   73.0377	     11.05	       2.4	        N/A	       N/A	       N/A	       N/A	        N/A	       N/A	       N/A	       N/A	        N/A	       N/A	       N/A	       N/A	        N/A	       N/A	       N/A	       N/A	        N/A	       N/A	       N/A	       N/A	        N/A	
         R10	     46	   73.0377	     11.05	       2.4	        N/A	   73.4156	     11.05	       2.4	        N/A	   73.7936	     11.05	       2.4	        N/A	       N/A	       N/A	       N/A	        N/A	       N/A	       N/A	       N/A	        N/A	       N/A	       N/A	       N/A	        N/A	       N/A	       N/A	       N/A	        N/A	       N/A	       N/A	       N/A	        N/A	
         R10	     47	   73.7936	     11.05	       2.4	        N/A	   74.1557	     11.05	       2.4	        N/A	   74.5178	     11.05	       2.4	        N/A	       N/A	       N/A	       N/A	        N/A	       N/A	       N/A	       N/A	        N/A	       N/A	       N/A	       N/A	        N/A	       N/A	       N/A	       N/A	        N/A	       N/A	       N/A	       N/A	        N/A	
         R10	     48	   74.5178	     11.05	       2.4	        N/A	    74.864	     11.05	       2.4	        N/A	   75.2102	     11.05	       2.4	        N/A	       N/A	       N/A	       N/A	        N/A	       N/A	       N/A	       N/A	        N/A	       N/A	       N/A	       N/A	        N/A	       N/A	       N/A	       N/A	        N/A	       N/A	       N/A	       N/A	        N/A	
         R10	     49	   75.2102	     11.05	       2.4	        N/A	   75.5406	     11.05	       2.4	        N/A	    75.871	     11.05	       2.4	        N/A	       N/A	       N/A	       N/A	        N/A	       N/A	       N/A	       N/A	        N/A	       N/A	       N/A	       N/A	        N/A	       N/A	       N/A	       N/A	        N/A	       N/A	       N/A	       N/A	        N/A	
         R10	     50	    75.871	     11.05	       2.4	        N/A	   76.1855	     11.05	       2.4	        N/A	      76.5	     11.05	       2.4	        N/A	       N/A	       N/A	       N/A	        N/A	       N/A	       N/A	       N/A	        N/A	       N/A	       N/A	       N/A	        N/A	       N/A	       N/A	       N/A	        N/A	       N/A	       N/A	       N/A	        N/A	
         R10	     51	      76.5	     11.05	       2.4	        N/A	   76.8799	     11.05	       2.4	        N/A	   77.2598	     11.05	       2.4	        N/A	       N/A	       N/A	       N/A	        N/A	       N/A	       N/A	       N/A	        N/A	       N/A	       N/A	       N/A	        N/A	       N/A	       N/A	       N/A	        N/A	       N/A	       N/A	       N/A	        N/A	
         R10	     52	   77.2598	     11.05	       2.4	        N/A	   77.6139	     11.05	       2.4	        N/A	   77.9681	     11.05	       2.4	        N/A	       N/A	       N/A	       N/A	        N/A	       N/A	       N/A	       N/A	        N/A	       N/A	       N/A	       N/A	        N/A	       N/A	       N/A	       N/A	        N/A	       N/A	       N/A	       N/A	        N/A	
         R10	     53	   77.9681	     11.05	       2.4	        N/A	   78.2966	     11.05	       2.4	        N/A	    78.625	     11.05	       2.4	        N/A	       N/A	       N/A	       N/A	        N/A	       N/A	       N/A	       N/A	        N/A	       N/A	       N/A	       N/A	        N/A	       N/A	       N/A	       N/A	        N/A	       N/A	       N/A	       N/A	        N/A	
         R10	     54	     72.25	      11.9	       2.4	        N/A	   72.6626	      11.9	       2.4	        N/A	   73.0751	      11.9	       2.4	        N/A	       N/A	       N/A	       N/A	        N/A	       N/A	       N/A	       N/A	        N/A	       N/A	       N/A	       N/A	        N/A	       N/A	       N/A	       N/A	        N/A	       N/A	       N/A	       N/A	        N/A	
         R10	     55	   73.0751	      11.9	       2.4	        N/A	   73.4514	      11.9	       2.4	        N/A	   73.8276	      11.9	       2.4	        N/A	       N/A	       N/A	       N/A	        N/A	       N/A	       N/A	       N/A	        N/A	       N/A	       N/A	       N/A	        N/A	       N/A	       N/A	       N/A	        N/A	       N/A	       N/A	       N/A	        N/A	
         R10	     56	   73.8276	      11.9	       2.4	        N/A	   74.1675	      11.9	       2.4	        N/A	   74.5074	      11.9	       2.4	        N/A	       N/A	       N/A	       N/A	        N/A	       N/A	       N/A	       N/A	        N/A	       N/A	       N/A	       N/A	        N/A	       N/A	       N/A	       N/A	        N/A	       N/A	       N/A	       N/A	        N/A	
         R10	     57	   74.5074	      11.9	       2.4	        N/A	    74.811	      11.9	       2.4	        N/A	   75.1146	      11.9	       2.4	        N/A	       N/A	       N/A	       N/A	        N/A	       N/A	       N/A	       N/A	        N/A	       N/A	       N/A	       N/A	        N/A	       N/A	       N/A	       N/A	        N/A	       N/A	       N/A	       N/A	        N/A	
         R10	     58	   75.1146	      11.9	       2.4	        N/A	   75.3818	      11.9	       2.4	        N/A	   75.6491	      11.9	       2.4	        N/A	       N/A	       N/A	       N/A	        N/A	       N/A	       N/A	       N/A	        N/A	       N/A	       N/A	       N/A	        N/A	       N/A	       N/A	       N/A	        N/A	       N/A	       N/A	       N/A	        N/A	
         R10	     59	   75.6491	      11.9	       2.4	        N/A	     75.88	      11.9	       2.4	        N/A	   76.1109	      11.9	       2.4	        N/A	       N/A	       N/A	       N/A	        N/A	       N/A	       N/A	       N/A	        N/A	       N/A	       N/A	       N/A	        N/A	       N/A	       N/A	       N/A	        N/A	       N/A	       N/A	       N/A	        N/A	
         R10	     60	   76.1109	      11.9	       2.4	        N/A	   76.3054	      11.9	       2.4	        N/A	      76.5	      11.9	       2.4	        N/A	       N/A	       N/A	       N/A	        N/A	       N/A	       N/A	       N/A	        N/A	       N/A	       N/A	       N/A	        N/A	       N/A	       N/A	       N/A	        N/A	       N/A	       N/A	       N/A	        N/A	
         R10	     61	      76.5	      11.9	       2.4	        N/A	   76.7141	      11.9	       2.4	        N/A	   76.9282	      11.9	       2.4	        N/A	       N/A	       N/A	       N/A	        N/A	       N/A	       N/A	       N/A	        N/A	       N/A	       N/A	       N/A	        N/A	       N/A	       N/A	       N/A	        N/A	       N/A	       N/A	       N/A	        N/A	
         R10	     62	   76.9282	      11.9	       2.4	        N/A	   77.1415	      11.9	       2.4	        N/A	   77.3548	      11.9	       2.4	        N/A	       N/A	       N/A	       N/A	        N/A	       N/A	       N/A	       N/A	        N/A	       N/A	       N/A	       N/A	        N/A	       N/A	       N/A	       N/A	        N/A	       N/A	       N/A	       N/A	        N/A	
         R10	     63	   77.3548	      11.9	       2.4	        N/A	   77.5673	      11.9	       2.4	        N/A	   77.7798	      11.9	       2.4	        N/A	       N/A	       N/A	       N/A	        N/A	       N/A	       N/A	       N/A	        N/A	       N/A	       N/A	       N/A	        N/A	       N/A	       N/A	       N/A	        N/A	       N/A	       N/A	       N/A	        N/A	
         R10	     64	   77.7798	      11.9	       2.4	        N/A	   77.9915	      11.9	       2.4	        N/A	   78.2032	      11.9	       2.4	        N/A	       N/A	       N/A	       N/A	        N/A	       N/A	       N/A	       N/A	        N/A	       N/A	       N/A	       N/A	        N/A	       N/A	       N/A	       N/A	        N/A	       N/A	       N/A	       N/A	        N/A	
         R10	     65	   78.2032	      11.9	       2.4	        N/A	   78.4141	      11.9	       2.4	        N/A	    78.625	      11.9	       2.4	        N/A	       N/A	       N/A	       N/A	        N/A	       N/A	       N/A	       N/A	        N/A	       N/A	       N/A	       N/A	        N/A	       N/A	       N/A	       N/A	        N/A	       N/A	       N/A	       N/A	        N/A	
         R10	     66	     72.25	     12.75	       2.4	        N/A	   72.6055	     12.75	       2.4	        N/A	    72.961	     12.75	       2.4	        N/A	       N/A	       N/A	       N/A	        N/A	       N/A	       N/A	       N/A	        N/A	       N/A	       N/A	       N/A	        N/A	       N/A	       N/A	       N/A	        N/A	       N/A	       N/A	       N/A	        N/A	
         R10	     67	    72.961	     12.75	       2.4	        N/A	   73.2867	     12.75	       2.4	        N/A	   73.6123	     12.75	       2.4	        N/A	       N/A	       N/A	       N/A	        N/A	       N/A	       N/A	       N/A	        N/A	       N/A	       N/A	       N/A	        N/A	       N/A	       N/A	       N/A	        N/A	       N/A	       N/A	       N/A	        N/A	
         R10	     68	   73.6123	     12.75	       2.4	        N/A	   73.9081	     12.75	       2.4	        N/A	   74.2039	     12.75	       2.4	        N/A	       N/A	       N/A	       N/A	        N/A	       N/A	       N/A	       N/A	        N/A	       N/A	       N/A	       N/A	        N/A	       N/A	       N/A	       N/A	        N/A	       N/A	       N/A	       N/A	        N/A	
         R10	     69	   74.2039	     12.75	       2.4	        N/A	   74.4699	     12.75	       2.4	        N/A	   74.7358	     12.75	       2.4	        N/A	       N/A	       N/A	       N/A	        N/A	       N/A	       N/A	       N/A	        N/A	       N/A	       N/A	       N/A	        N/A	       N/A	       N/A	       N/A	        N/A	       N/A	       N/A	       N/A	        N/A	
         R10	     70	   74.7358	     12.75	       2.4	        N/A	    74.972	     12.75	       2.4	        N/A	   75.2081	     12.75	       2.4	        N/A	       N/A	       N/A	       N/A	        N/A	       N/A	       N/A	       N/A	        N/A	       N/A	       N/A	       N/A	        N/A	       N/A	       N/A	       N/A	        N/A	       N/A	       N/A	       N/A	        N/A	
         R10	     71	   75.2081	     12.75	       2.4	        N/A	   75.4143	     12.75	       2.4	        N/A	   75.6206	     12.75	       2.4	        N/A	       N/A	       N/A	       N/A	        N/A	       N/A	       N/A	       N/A	        N/A	       N/A	       N/A	       N/A	        N/A	       N/A	       N/A	       N/A	        N/A	       N/A	       N/A	       N/A	        N/A	
         R10	     72	   75.6206	     12.75	       2.4	        N/A	    75.797	     12.75	       2.4	        N/A	   75.9734	     12.75	       2.4	        N/A	       N/A	       N/A	       N/A	        N/A	       N/A	       N/A	       N/A	        N/A	       N/A	       N/A	       N/A	        N/A	       N/A	       N/A	       N/A	        N/A	       N/A	       N/A	       N/A	        N/A	
         R10	     73	   75.9734	     12.75	       2.4	        N/A	     76.12	     12.75	       2.4	        N/A	   76.2666	     12.75	       2.4	        N/A	       N/A	       N/A	       N/A	        N/A	       N/A	       N/A	       N/A	        N/A	       N/A	       N/A	       N/A	        N/A	       N/A	       N/A	       N/A	        N/A	       N/A	       N/A	       N/A	        N/A	
         R10	     74	   76.2666	     12.75	       2.4	        N/A	   76.3833	     12.75	       2.4	        N/A	      76.5	     12.75	       2.4	        N/A	       N/A	       N/A	       N/A	        N/A	       N/A	       N/A	       N/A	        N/A	       N/A	       N/A	       N/A	        N/A	       N/A	       N/A	       N/A	        N/A	       N/A	       N/A	       N/A	        N/A	
         R10	     75	      76.5	     12.75	       2.4	        N/A	   76.6078	     12.75	       2.4	        N/A	   76.7156	     12.75	       2.4	        N/A	       N/A	       N/A	       N/A	        N/A	       N/A	       N/A	       N/A	        N/A	       N/A	       N/A	       N/A	        N/A	       N/A	       N/A	       N/A	        N/A	       N/A	       N/A	       N/A	        N/A	
         R10	     76	   76.7156	     12.75	       2.4	        N/A	   76.8305	     12.75	       2.4	        N/A	   76.9455	     12.75	       2.4	        N/A	       N/A	       N/A	       N/A	        N/A	       N/A	       N/A	       N/A	        N/A	       N/A	       N/A	       N/A	        N/A	       N/A	       N/A	       N/A	        N/A	       N/A	       N/A	       N/A	        N/A	
         R10	     77	   76.9455	     12.75	       2.4	        N/A	   77.0676	     12.75	       2.4	        N/A	   77.1897	     12.75	       2.4	        N/A	       N/A	       N/A	       N/A	        N/A	       N/A	       N/A	       N/A	        N/A	       N/A	       N/A	       N/A	        N/A	       N/A	       N/A	       N/A	        N/A	       N/A	       N/A	       N/A	        N/A	
         R10	     78	   77.1897	     12.75	       2.4	        N/A	   77.3189	     12.75	       2.4	        N/A	   77.4482	     12.75	       2.4	        N/A	       N/A	       N/A	       N/A	        N/A	       N/A	       N/A	       N/A	        N/A	       N/A	       N/A	       N/A	        N/A	       N/A	       N/A	       N/A	        N/A	       N/A	       N/A	       N/A	        N/A	
         R10	     79	   77.4482	     12.75	       2.4	        N/A	   77.5845	     12.75	       2.4	        N/A	   77.7209	     12.75	       2.4	        N/A	       N/A	       N/A	       N/A	        N/A	       N/A	       N/A	       N/A	        N/A	       N/A	       N/A	       N/A	        N/A	       N/A	       N/A	       N/A	        N/A	       N/A	       N/A	       N/A	        N/A	
         R10	     80	   77.7209	     12.75	       2.4	        N/A	   77.8645	     12.75	       2.4	        N/A	    78.008	     12.75	       2.4	        N/A	       N/A	       N/A	       N/A	        N/A	       N/A	       N/A	       N/A	        N/A	       N/A	       N/A	       N/A	        N/A	       N/A	       N/A	       N/A	        N/A	       N/A	       N/A	       N/A	        N/A	
         R10	     81	    78.008	     12.75	       2.4	        N/A	   78.1587	     12.75	       2.4	        N/A	   78.3093	     12.75	       2.4	        N/A	       N/A	       N/A	       N/A	        N/A	       N/A	       N/A	       N/A	        N/A	       N/A	       N/A	       N/A	        N/A	       N/A	       N/A	       N/A	        N/A	       N/A	       N/A	       N/A	        N/A	
         R10	     82	   78.3093	     12.75	       2.4	        N/A	   78.4672	     12.75	       2.4	        N/A	    78.625	     12.75	       2.4	        N/A	       N/A	       N/A	       N/A	        N/A	       N/A	       N/A	       N/A	        N/A	       N/A	       N/A	       N/A	        N/A	       N/A	       N/A	       N/A	        N/A	       N/A	       N/A	       N/A	        N/A	
         R10	     83	     72.25	      13.6	       2.4	        N/A	    72.618	      13.6	       2.4	        N/A	    72.986	      13.6	       2.4	        N/A	       N/A	       N/A	       N/A	        N/A	       N/A	       N/A	       N/A	        N/A	       N/A	       N/A	       N/A	        N/A	       N/A	       N/A	       N/A	        N/A	       N/A	       N/A	       N/A	        N/A	
         R10	     84	    72.986	      13.6	       2.4	        N/A	   73.2857	      13.6	       2.4	        N/A	   73.5855	      13.6	       2.4	        N/A	       N/A	       N/A	       N/A	        N/A	       N/A	       N/A	       N/A	        N/A	       N/A	       N/A	       N/A	        N/A	       N/A	       N/A	       N/A	        N/A	       N/A	       N/A	       N/A	        N/A	
         R10	     85	   73.5855	      13.6	       2.4	        N/A	    73.817	      13.6	       2.4	        N/A	   74.0485	      13.6	       2.4	        N/A	       N/A	       N/A	       N/A	        N/A	       N/A	       N/A	       N/A	        N/A	       N/A	       N/A	       N/A	        N/A	       N/A	       N/A	       N/A	        N/A	       N/A	       N/A	       N/A	        N/A	
         R10	     86	   74.0485	      13.6	       2.4	        N/A	   74.2117	      13.6	       2.4	        N/A	    74.375	      13.6	       2.4	        N/A	       N/A	       N/A	       N/A	        N/A	       N/A	       N/A	       N/A	        N/A	       N/A	       N/A	       N/A	        N/A	       N/A	       N/A	       N/A	        N/A	       N/A	       N/A	       N/A	        N/A	
         R10	     87	     72.25	     14.45	       2.4	        N/A	   72.6286	     14.45	       2.4	        N/A	   73.0071	     14.45	       2.4	        N/A	       N/A	       N/A	       N/A	        N/A	       N/A	       N/A	       N/A	        N/A	       N/A	       N/A	       N/A	        N/A	       N/A	       N/A	       N/A	        N/A	       N/A	       N/A	       N/A	        N/A	
         R10	     88	   73.0071	     14.45	       2.4	        N/A	   73.3104	     14.45	       2.4	        N/A	   73.6137	     14.45	       2.4	        N/A	       N/A	       N/A	       N/A	        N/A	       N/A	       N/A	       N/A	        N/A	       N/A	       N/A	       N/A	        N/A	       N/A	       N/A	       N/A	        N/A	       N/A	       N/A	       N/A	        N/A	
         R10	     89	   73.6137	     14.45	       2.4	        N/A	   73.8416	     14.45	       2.4	        N/A	   74.0696	     14.45	       2.4	        N/A	       N/A	       N/A	       N/A	        N/A	       N/A	       N/A	       N/A	        N/A	       N/A	       N/A	       N/A	        N/A	       N/A	       N/A	       N/A	        N/A	       N/A	       N/A	       N/A	        N/A	
         R10	     90	   74.0696	     14.45	       2.4	        N/A	   74.2223	     14.45	       2.4	        N/A	    74.375	     14.45	       2.4	        N/A	       N/A	       N/A	       N/A	        N/A	       N/A	       N/A	       N/A	        N/A	       N/A	       N/A	       N/A	        N/A	       N/A	       N/A	       N/A	        N/A	       N/A	       N/A	       N/A	        N/A	
         R10	     91	     72.25	   15.9164	   2.99973	        N/A	   72.6286	   15.9164	   2.99973	        N/A	   73.0071	   15.9164	   2.99973	        N/A	       N/A	       N/A	       N/A	        N/A	       N/A	       N/A	       N/A	        N/A	       N/A	       N/A	       N/A	        N/A	       N/A	       N/A	       N/A	        N/A	       N/A	       N/A	       N/A	        N/A	
         R10	     92	   73.0071	   15.9164	   2.99973	        N/A	   73.3104	   15.9164	   2.99973	        N/A	   73.6137	   15.9164	   2.99973	        N/A	       N/A	       N/A	       N/A	        N/A	       N/A	       N/A	       N/A	        N/A	       N/A	       N/A	       N/A	        N/A	       N/A	       N/A	       N/A	        N/A	       N/A	       N/A	       N/A	        N/A	
         R10	     93	   73.6137	   15.9164	   2.99973	        N/A	   73.8416	   15.9164	   2.99973	        N/A	   74.0696	   15.9164	   2.99973	        N/A	       N/A	       N/A	       N/A	        N/A	       N/A	       N/A	       N/A	        N/A	       N/A	       N/A	       N/A	        N/A	       N/A	       N/A	       N/A	        N/A	       N/A	       N/A	       N/A	        N/A	
         R10	     94	   74.0696	   15.9164	   2.99973	        N/A	   74.2223	   15.9164	   2.99973	        N/A	    74.375	   15.9164	   2.99973	        N/A	       N/A	       N/A	       N/A	        N/A	       N/A	       N/A	       N/A	        N/A	       N/A	       N/A	       N/A	        N/A	       N/A	       N/A	       N/A	        N/A	       N/A	       N/A	       N/A	        N/A	
         R10	     95	     72.25	   16.5328	   3.59945	        N/A	    72.618	   16.5328	   3.59945	        N/A	    72.986	   16.5328	   3.59945	        N/A	       N/A	       N/A	       N/A	        N/A	       N/A	       N/A	       N/A	        N/A	       N/A	       N/A	       N/A	        N/A	       N/A	       N/A	       N/A	        N/A	       N/A	       N/A	       N/A	        N/A	
         R10	     96	    72.986	   16.5328	   3.59945	        N/A	   73.2857	   16.5328	   3.59945	        N/A	   73.5855	   16.5328	   3.59945	        N/A	       N/A	       N/A	       N/A	        N/A	       N/A	       N/A	       N/A	        N/A	       N/A	       N/A	       N/A	        N/A	       N/A	       N/A	       N/A	        N/A	       N/A	       N/A	       N/A	        N/A	
         R10	     97	   73.5855	   16.5328	   3.59945	        N/A	    73.817	   16.5328	   3.59945	        N/A	   74.0485	   16.5328	   3.59945	        N/A	       N/A	       N/A	       N/A	        N/A	       N/A	       N/A	       N/A	        N/A	       N/A	       N/A	       N/A	        N/A	       N/A	       N/A	       N/A	        N/A	       N/A	       N/A	       N/A	        N/A	
         R10	     98	   74.0485	   16.5328	   3.59945	        N/A	   74.2117	   16.5328	   3.59945	        N/A	    74.375	   16.5328	   3.59945	        N/A	       N/A	       N/A	       N/A	        N/A	       N/A	       N/A	       N/A	        N/A	       N/A	       N/A	       N/A	        N/A	       N/A	       N/A	       N/A	        N/A	       N/A	       N/A	       N/A	        N/A	
         R10	     99	     72.25	   17.1492	   4.19918	        N/A	   72.5969	   17.1492	   4.19918	        N/A	   72.9439	   17.1492	   4.19918	        N/A	       N/A	       N/A	       N/A	        N/A	       N/A	       N/A	       N/A	        N/A	       N/A	       N/A	       N/A	        N/A	       N/A	       N/A	       N/A	        N/A	       N/A	       N/A	       N/A	        N/A	
         R10	    100	   72.9439	   17.1492	   4.19918	        N/A	   73.2631	   17.1492	   4.19918	        N/A	   73.5823	   17.1492	   4.19918	        N/A	       N/A	       N/A	       N/A	        N/A	       N/A	       N/A	       N/A	        N/A	       N/A	       N/A	       N/A	        N/A	       N/A	       N/A	       N/A	        N/A	       N/A	       N/A	       N/A	        N/A	
         R10	    101	   73.5823	   17.1492	   4.19918	        N/A	   73.8738	   17.1492	   4.19918	        N/A	   74.1653	   17.1492	   4.19918	        N/A	       N/A	       N/A	       N/A	        N/A	       N/A	       N/A	       N/A	        N/A	       N/A	       N/A	       N/A	        N/A	       N/A	       N/A	       N/A	        N/A	       N/A	       N/A	       N/A	        N/A	
         R10	    102	   74.1653	   17.1492	   4.19918	        N/A	   74.4292	   17.1492	   4.19918	        N/A	    74.693	   17.1492	   4.19918	        N/A	       N/A	       N/A	       N/A	        N/A	       N/A	       N/A	       N/A	        N/A	       N/A	       N/A	       N/A	        N/A	       N/A	       N/A	       N/A	        N/A	       N/A	       N/A	       N/A	        N/A	
         R10	    103	    74.693	   17.1492	   4.19918	        N/A	   74.9291	   17.1492	   4.19918	        N/A	   75.1652	   17.1492	   4.19918	        N/A	       N/A	       N/A	       N/A	        N/A	       N/A	       N/A	       N/A	        N/A	       N/A	       N/A	       N/A	        N/A	       N/A	       N/A	       N/A	        N/A	       N/A	       N/A	       N/A	        N/A	
         R10	    104	   75.1652	   17.1492	   4.19918	        N/A	   75.3736	   17.1492	   4.19918	        N/A	    75.582	   17.1492	   4.19918	        N/A	       N/A	       N/A	       N/A	        N/A	       N/A	       N/A	       N/A	        N/A	       N/A	       N/A	       N/A	        N/A	       N/A	       N/A	       N/A	        N/A	       N/A	       N/A	       N/A	        N/A	
         R10	    105	    75.582	   17.1492	   4.19918	        N/A	   75.7627	   17.1492	   4.19918	        N/A	   75.9434	   17.1492	   4.19918	        N/A	       N/A	       N/A	       N/A	        N/A	       N/A	       N/A	       N/A	        N/A	       N/A	       N/A	       N/A	        N/A	       N/A	       N/A	       N/A	        N/A	       N/A	       N/A	       N/A	        N/A	
         R10	    106	   75.9434	   17.1492	   4.19918	        N/A	   76.0964	   17.1492	   4.19918	        N/A	   76.2494	   17.1492	   4.19918	        N/A	       N/A	       N/A	       N/A	        N/A	       N/A	       N/A	       N/A	        N/A	       N/A	       N/A	       N/A	        N/A	       N/A	       N/A	       N/A	        N/A	       N/A	       N/A	       N/A	        N/A	
         R10	    107	   76.2494	   17.1492	   4.19918	        N/A	   76.3747	   17.1492	   4.19918	        N/A	      76.5	   17.1492	   4.19918	        N/A	       N/A	       N/A	       N/A	        N/A	       N/A	       N/A	       N/A	        N/A	       N/A	       N/A	       N/A	        N/A	       N/A	       N/A	       N/A	        N/A	       N/A	       N/A	       N/A	        N/A	
         R10	    108	      76.5	   17.1492	   4.19918	        N/A	   76.6302	   17.1492	   4.19918	        N/A	   76.7605	   17.1492	   4.19918	        N/A	       N/A	       N/A	       N/A	        N/A	       N/A	       N/A	       N/A	        N/A	       N/A	       N/A	       N/A	        N/A	       N/A	       N/A	       N/A	        N/A	       N/A	       N/A	       N/A	        N/A	
         R10	    109	   76.7605	   17.1492	   4.19918	        N/A	   76.8979	   17.1492	   4.19918	        N/A	   77.0353	   17.1492	   4.19918	        N/A	       N/A	       N/A	       N/A	        N/A	       N/A	       N/A	       N/A	        N/A	       N/A	       N/A	       N/A	        N/A	       N/A	       N/A	       N/A	        N/A	       N/A	       N/A	       N/A	        N/A	
         R10	    110	   77.0353	   17.1492	   4.19918	        N/A	   77.1799	   17.1492	   4.19918	        N/A	   77.3245	   17.1492	   4.19918	        N/A	       N/A	       N/A	       N/A	        N/A	       N/A	       N/A	       N/A	        N/A	       N/A	       N/A	       N/A	        N/A	       N/A	       N/A	       N/A	        N/A	       N/A	       N/A	       N/A	        N/A	
         R10	    111	   77.3245	   17.1492	   4.19918	        N/A	   77.4763	   17.1492	   4.19918	        N/A	   77.6281	   17.1492	   4.19918	        N/A	       N/A	       N/A	       N/A	        N/A	       N/A	       N/A	       N/A	        N/A	       N/A	       N/A	       N/A	        N/A	       N/A	       N/A	       N/A	        N/A	       N/A	       N/A	       N/A	        N/A	
         R10	    112	   77.6281	   17.1492	   4.19918	        N/A	    77.787	   17.1492	   4.19918	        N/A	    77.946	   17.1492	   4.19918	        N/A	       N/A	       N/A	       N/A	        N/A	       N/A	       N/A	       N/A	        N/A	       N/A	       N/A	       N/A	        N/A	       N/A	       N/A	       N/A	        N/A	       N/A	       N/A	       N/A	        N/A	
         R10	    113	    77.946	   17.1492	   4.19918	        N/A	   78.1122	   17.1492	   4.19918	        N/A	   78.2783	   17.1492	   4.19918	        N/A	       N/A	       N/A	       N/A	        N/A	       N/A	       N/A	       N/A	        N/A	       N/A	       N/A	       N/A	        N/A	       N/A	       N/A	       N/A	        N/A	       N/A	       N/A	       N/A	        N/A	
         R10	    114	   78.2783	   17.1492	   4.19918	        N/A	   78.4517	   17.1492	   4.19918	        N/A	    78.625	   17.1492	   4.19918	        N/A	       N/A	       N/A	       N/A	        N/A	       N/A	       N/A	       N/A	        N/A	       N/A	       N/A	       N/A	        N/A	       N/A	       N/A	       N/A	        N/A	       N/A	       N/A	       N/A	        N/A	
         R10	    115	     72.25	   17.7655	    4.7989	        N/A	   72.6197	   17.7655	    4.7989	        N/A	   72.9894	   17.7655	    4.7989	        N/A	       N/A	       N/A	       N/A	        N/A	       N/A	       N/A	       N/A	        N/A	       N/A	       N/A	       N/A	        N/A	       N/A	       N/A	       N/A	        N/A	       N/A	       N/A	       N/A	        N/A	
         R10	    116	   72.9894	   17.7655	    4.7989	        N/A	   73.3293	   17.7655	    4.7989	        N/A	   73.6693	   17.7655	    4.7989	        N/A	       N/A	       N/A	       N/A	        N/A	       N/A	       N/A	       N/A	        N/A	       N/A	       N/A	       N/A	        N/A	       N/A	       N/A	       N/A	        N/A	       N/A	       N/A	       N/A	        N/A	
         R10	    117	   73.6693	   17.7655	    4.7989	        N/A	   73.9795	   17.7655	    4.7989	        N/A	   74.2898	   17.7655	    4.7989	        N/A	       N/A	       N/A	       N/A	        N/A	       N/A	       N/A	       N/A	        N/A	       N/A	       N/A	       N/A	        N/A	       N/A	       N/A	       N/A	        N/A	       N/A	       N/A	       N/A	        N/A	
         R10	    118	   74.2898	   17.7655	    4.7989	        N/A	   74.5703	   17.7655	    4.7989	        N/A	   74.8507	   17.7655	    4.7989	        N/A	       N/A	       N/A	       N/A	        N/A	       N/A	       N/A	       N/A	        N/A	       N/A	       N/A	       N/A	        N/A	       N/A	       N/A	       N/A	        N/A	       N/A	       N/A	       N/A	        N/A	
         R10	    119	   74.8507	   17.7655	    4.7989	        N/A	   75.1015	   17.7655	    4.7989	        N/A	   75.3523	   17.7655	    4.7989	        N/A	       N/A	       N/A	       N/A	        N/A	       N/A	       N/A	       N/A	        N/A	       N/A	       N/A	       N/A	        N/A	       N/A	       N/A	       N/A	        N/A	       N/A	       N/A	       N/A	        N/A	
         R10	    120	   75.3523	   17.7655	    4.7989	        N/A	   75.5733	   17.7655	    4.7989	        N/A	   75.7943	   17.7655	    4.7989	        N/A	       N/A	       N/A	       N/A	        N/A	       N/A	       N/A	       N/A	        N/A	       N/A	       N/A	       N/A	        N/A	       N/A	       N/A	       N/A	        N/A	       N/A	       N/A	       N/A	        N/A	
         R10	    121	   75.7943	   17.7655	    4.7989	        N/A	   75.9856	   17.7655	    4.7989	        N/A	   76.1769	   17.7655	    4.7989	        N/A	       N/A	       N/A	       N/A	        N/A	       N/A	       N/A	       N/A	        N/A	       N/A	       N/A	       N/A	        N/A	       N/A	       N/A	       N/A	        N/A	       N/A	       N/A	       N/A	        N/A	
         R10	    122	   76.1769	   17.7655	    4.7989	        N/A	   76.3384	   17.7655	    4.7989	        N/A	      76.5	   17.7655	    4.7989	        N/A	       N/A	       N/A	       N/A	        N/A	       N/A	       N/A	       N/A	        N/A	       N/A	       N/A	       N/A	        N/A	       N/A	       N/A	       N/A	        N/A	       N/A	       N/A	       N/A	        N/A	
         R10	    123	      76.5	   17.7655	    4.7989	        N/A	   76.6603	   17.7655	    4.7989	        N/A	   76.8205	   17.7655	    4.7989	        N/A	       N/A	       N/A	       N/A	        N/A	       N/A	       N/A	       N/A	        N/A	       N/A	       N/A	       N/A	        N/A	       N/A	       N/A	       N/A	        N/A	       N/A	       N/A	       N/A	        N/A	
         R10	    124	   76.8205	   17.7655	    4.7989	        N/A	   76.9875	   17.7655	    4.7989	        N/A	   77.1545	   17.7655	    4.7989	        N/A	       N/A	       N/A	       N/A	        N/A	       N/A	       N/A	       N/A	        N/A	       N/A	       N/A	       N/A	        N/A	       N/A	       N/A	       N/A	        N/A	       N/A	       N/A	       N/A	        N/A	
         R10	    125	   77.1545	   17.7655	    4.7989	        N/A	   77.3282	   17.7655	    4.7989	        N/A	   77.5019	   17.7655	    4.7989	        N/A	       N/A	       N/A	       N/A	        N/A	       N/A	       N/A	       N/A	        N/A	       N/A	       N/A	       N/A	        N/A	       N/A	       N/A	       N/A	        N/A	       N/A	       N/A	       N/A	        N/A	
         R10	    126	   77.5019	   17.7655	    4.7989	        N/A	   77.6824	   17.7655	    4.7989	        N/A	   77.8628	   17.7655	    4.7989	        N/A	       N/A	       N/A	       N/A	        N/A	       N/A	       N/A	       N/A	        N/A	       N/A	       N/A	       N/A	        N/A	       N/A	       N/A	       N/A	        N/A	       N/A	       N/A	       N/A	        N/A	
         R10	    127	   77.8628	   17.7655	    4.7989	        N/A	     78.05	   17.7655	    4.7989	        N/A	   78.2372	   17.7655	    4.7989	        N/A	       N/A	       N/A	       N/A	        N/A	       N/A	       N/A	       N/A	        N/A	       N/A	       N/A	       N/A	        N/A	       N/A	       N/A	       N/A	        N/A	       N/A	       N/A	       N/A	        N/A	
         R10	    128	   78.2372	   17.7655	    4.7989	        N/A	   78.4311	   17.7655	    4.7989	        N/A	    78.625	   17.7655	    4.7989	        N/A	       N/A	       N/A	       N/A	        N/A	       N/A	       N/A	       N/A	        N/A	       N/A	       N/A	       N/A	        N/A	       N/A	       N/A	       N/A	        N/A	       N/A	       N/A	       N/A	        N/A	
         R10	    129	     72.25	   18.3819	   5.39863	        N/A	     72.66	   18.3819	   5.39863	        N/A	   73.0701	   18.3819	   5.39863	        N/A	       N/A	       N/A	       N/A	        N/A	       N/A	       N/A	       N/A	        N/A	       N/A	       N/A	       N/A	        N/A	       N/A	       N/A	       N/A	        N/A	       N/A	       N/A	       N/A	        N/A	
         R10	    130	   73.0701	   18.3819	   5.39863	        N/A	   73.4446	   18.3819	   5.39863	        N/A	   73.8192	   18.3819	   5.39863	        N/A	       N/A	       N/A	       N/A	        N/A	       N/A	       N/A	       N/A	        N/A	       N/A	       N/A	       N/A	        N/A	       N/A	       N/A	       N/A	        N/A	       N/A	       N/A	       N/A	        N/A	
         R10	    131	   73.8192	   18.3819	   5.39863	        N/A	   74.1582	   18.3819	   5.39863	        N/A	   74.4973	   18.3819	   5.39863	        N/A	       N/A	       N/A	       N/A	        N/A	       N/A	       N/A	       N/A	        N/A	       N/A	       N/A	       N/A	        N/A	       N/A	       N/A	       N/A	        N/A	       N/A	       N/A	       N/A	        N/A	
         R10	    132	   74.4973	   18.3819	   5.39863	        N/A	   74.8009	   18.3819	   5.39863	        N/A	   75.1044	   18.3819	   5.39863	        N/A	       N/A	       N/A	       N/A	        N/A	       N/A	       N/A	       N/A	        N/A	       N/A	       N/A	       N/A	        N/A	       N/A	       N/A	       N/A	        N/A	       N/A	       N/A	       N/A	        N/A	
         R10	    133	   75.1044	   18.3819	   5.39863	        N/A	   75.3725	   18.3819	   5.39863	        N/A	   75.6406	   18.3819	   5.39863	        N/A	       N/A	       N/A	       N/A	        N/A	       N/A	       N/A	       N/A	        N/A	       N/A	       N/A	       N/A	        N/A	       N/A	       N/A	       N/A	        N/A	       N/A	       N/A	       N/A	        N/A	
         R10	    134	   75.6406	   18.3819	   5.39863	        N/A	   75.8732	   18.3819	   5.39863	        N/A	   76.1058	   18.3819	   5.39863	        N/A	       N/A	       N/A	       N/A	        N/A	       N/A	       N/A	       N/A	        N/A	       N/A	       N/A	       N/A	        N/A	       N/A	       N/A	       N/A	        N/A	       N/A	       N/A	       N/A	        N/A	
         R10	    135	   76.1058	   18.3819	   5.39863	        N/A	   76.3029	   18.3819	   5.39863	        N/A	      76.5	   18.3819	   5.39863	        N/A	       N/A	       N/A	       N/A	        N/A	       N/A	       N/A	       N/A	        N/A	       N/A	       N/A	       N/A	        N/A	       N/A	       N/A	       N/A	        N/A	       N/A	       N/A	       N/A	        N/A	
         R10	    136	      76.5	   18.3819	   5.39863	        N/A	   76.6923	   18.3819	   5.39863	        N/A	   76.8846	   18.3819	   5.39863	        N/A	       N/A	       N/A	       N/A	        N/A	       N/A	       N/A	       N/A	        N/A	       N/A	       N/A	       N/A	        N/A	       N/A	       N/A	       N/A	        N/A	       N/A	       N/A	       N/A	        N/A	
         R10	    137	   76.8846	   18.3819	   5.39863	        N/A	    77.087	   18.3819	   5.39863	        N/A	   77.2894	   18.3819	   5.39863	        N/A	       N/A	       N/A	       N/A	        N/A	       N/A	       N/A	       N/A	        N/A	       N/A	       N/A	       N/A	        N/A	       N/A	       N/A	       N/A	        N/A	       N/A	       N/A	       N/A	        N/A	
         R10	    138	   77.2894	   18.3819	   5.39863	        N/A	   77.5019	   18.3819	   5.39863	        N/A	   77.7144	   18.3819	   5.39863	        N/A	       N/A	       N/A	       N/A	        N/A	       N/A	       N/A	       N/A	        N/A	       N/A	       N/A	       N/A	        N/A	       N/A	       N/A	       N/A	        N/A	       N/A	       N/A	       N/A	        N/A	
         R10	    139	   77.7144	   18.3819	   5.39863	        N/A	    77.937	   18.3819	   5.39863	        N/A	   78.1596	   18.3819	   5.39863	        N/A	       N/A	       N/A	       N/A	        N/A	       N/A	       N/A	       N/A	        N/A	       N/A	       N/A	       N/A	        N/A	       N/A	       N/A	       N/A	        N/A	       N/A	       N/A	       N/A	        N/A	
         R10	    140	   78.1596	   18.3819	   5.39863	        N/A	   78.3923	   18.3819	   5.39863	        N/A	    78.625	   18.3819	   5.39863	        N/A	       N/A	       N/A	       N/A	        N/A	       N/A	       N/A	       N/A	        N/A	       N/A	       N/A	       N/A	        N/A	       N/A	       N/A	       N/A	        N/A	       N/A	       N/A	       N/A	        N/A	
         R10	    141	   73.0346	        19	       9.4	        N/A	   72.6423	        19	       9.4	        N/A	     72.25	        19	       9.4	        N/A	       N/A	       N/A	       N/A	        N/A	       N/A	       N/A	       N/A	        N/A	       N/A	       N/A	       N/A	        N/A	       N/A	       N/A	       N/A	        N/A	       N/A	       N/A	       N/A	        N/A	
         R10	    142	   73.7887	        19	       9.4	        N/A	   73.4117	        19	       9.4	        N/A	   73.0346	        19	       9.4	        N/A	       N/A	       N/A	       N/A	        N/A	       N/A	       N/A	       N/A	        N/A	       N/A	       N/A	       N/A	        N/A	       N/A	       N/A	       N/A	        N/A	       N/A	       N/A	       N/A	        N/A	
         R10	    143	   74.5123	        19	       9.4	        N/A	   74.1505	        19	       9.4	        N/A	   73.7887	        19	       9.4	        N/A	       N/A	       N/A	       N/A	        N/A	       N/A	       N/A	       N/A	        N/A	       N/A	       N/A	       N/A	        N/A	       N/A	       N/A	       N/A	        N/A	       N/A	       N/A	       N/A	        N/A	
         R10	    144	   75.2054	        19	       9.4	        N/A	   74.8588	        19	       9.4	        N/A	   74.5123	        19	       9.4	        N/A	       N/A	       N/A	       N/A	        N/A	       N/A	       N/A	       N/A	        N/A	       N/A	       N/A	       N/A	        N/A	       N/A	       N/A	       N/A	        N/A	       N/A	       N/A	       N/A	        N/A	
         R10	    145	   75.8679	        19	       9.4	        N/A	   75.5367	        19	       9.4	        N/A	   75.2054	        19	       9.4	        N/A	       N/A	       N/A	       N/A	        N/A	       N/A	       N/A	       N/A	        N/A	       N/A	       N/A	       N/A	        N/A	       N/A	       N/A	       N/A	        N/A	       N/A	       N/A	       N/A	        N/A	
         R10	    146	      76.5	        19	       9.4	        N/A	    76.184	        19	       9.4	        N/A	   75.8679	        19	       9.4	        N/A	       N/A	       N/A	       N/A	        N/A	       N/A	       N/A	       N/A	        N/A	       N/A	       N/A	       N/A	        N/A	       N/A	       N/A	       N/A	        N/A	       N/A	       N/A	       N/A	        N/A	
         R10	    147	   77.1671	        19	       9.4	        N/A	   76.8335	        19	       9.4	        N/A	      76.5	        19	       9.4	        N/A	       N/A	       N/A	       N/A	        N/A	       N/A	       N/A	       N/A	        N/A	       N/A	       N/A	       N/A	        N/A	       N/A	       N/A	       N/A	        N/A	       N/A	       N/A	       N/A	        N/A	
         R10	    148	   77.8754	        19	       9.4	        N/A	   77.5212	        19	       9.4	        N/A	   77.1671	        19	       9.4	        N/A	       N/A	       N/A	       N/A	        N/A	       N/A	       N/A	       N/A	        N/A	       N/A	       N/A	       N/A	        N/A	       N/A	       N/A	       N/A	        N/A	       N/A	       N/A	       N/A	        N/A	
         R10	    149	    78.625	        19	       9.4	        N/A	   78.2502	        19	       9.4	        N/A	   77.8754	        19	       9.4	        N/A	       N/A	       N/A	       N/A	        N/A	       N/A	       N/A	       N/A	        N/A	       N/A	       N/A	       N/A	        N/A	       N/A	       N/A	       N/A	        N/A	       N/A	       N/A	       N/A	        N/A	
         R10	    150	   73.1325	        19	      6.85	        N/A	   72.6913	        19	      6.85	        N/A	     72.25	        19	      6.85	        N/A	       N/A	       N/A	       N/A	        N/A	       N/A	       N/A	       N/A	        N/A	       N/A	       N/A	       N/A	        N/A	       N/A	       N/A	       N/A	        N/A	       N/A	       N/A	       N/A	        N/A	
         R10	    151	   73.9454	        19	      6.85	        N/A	    73.539	        19	      6.85	        N/A	   73.1325	        19	      6.85	        N/A	       N/A	       N/A	       N/A	        N/A	       N/A	       N/A	       N/A	        N/A	       N/A	       N/A	       N/A	        N/A	       N/A	       N/A	       N/A	        N/A	       N/A	       N/A	       N/A	        N/A	
         R10	    152	   74.6886	        19	      6.85	        N/A	    74.317	        19	      6.85	        N/A	   73.9454	        19	      6.85	        N/A	       N/A	       N/A	       N/A	        N/A	       N/A	       N/A	       N/A	        N/A	       N/A	       N/A	       N/A	        N/A	       N/A	       N/A	       N/A	        N/A	       N/A	       N/A	       N/A	        N/A	
         R10	    153	   75.3621	        19	      6.85	        N/A	   75.0253	        19	      6.85	        N/A	   74.6886	        19	      6.85	        N/A	       N/A	       N/A	       N/A	        N/A	       N/A	       N/A	       N/A	        N/A	       N/A	       N/A	       N/A	        N/A	       N/A	       N/A	       N/A	        N/A	       N/A	       N/A	       N/A	        N/A	
         R10	    154	   75.9659	        19	      6.85	        N/A	    75.664	        19	      6.85	        N/A	   75.3621	        19	      6.85	        N/A	       N/A	       N/A	       N/A	        N/A	       N/A	       N/A	       N/A	        N/A	       N/A	       N/A	       N/A	        N/A	       N/A	       N/A	       N/A	        N/A	       N/A	       N/A	       N/A	        N/A	
         R10	    155	      76.5	        19	      6.85	        N/A	   76.2329	        19	      6.85	        N/A	   75.9659	        19	      6.85	        N/A	       N/A	       N/A	       N/A	        N/A	       N/A	       N/A	       N/A	        N/A	       N/A	       N/A	       N/A	        N/A	       N/A	       N/A	       N/A	        N/A	       N/A	       N/A	       N/A	        N/A	
         R10	    156	   77.0003	        19	      6.85	        N/A	   76.7502	        19	      6.85	        N/A	      76.5	        19	      6.85	        N/A	       N/A	       N/A	       N/A	        N/A	       N/A	       N/A	       N/A	        N/A	       N/A	       N/A	       N/A	        N/A	       N/A	       N/A	       N/A	        N/A	       N/A	       N/A	       N/A	        N/A	
         R10	    157	   77.5212	        19	      6.85	        N/A	   77.2608	        19	      6.85	        N/A	   77.0003	        19	      6.85	        N/A	       N/A	       N/A	       N/A	        N/A	       N/A	       N/A	       N/A	        N/A	       N/A	       N/A	       N/A	        N/A	       N/A	       N/A	       N/A	        N/A	       N/A	       N/A	       N/A	        N/A	
         R10	    158	   78.0628	        19	      6.85	        N/A	    77.792	        19	      6.85	        N/A	   77.5212	        19	      6.85	        N/A	       N/A	       N/A	       N/A	        N/A	       N/A	       N/A	       N/A	        N/A	       N/A	       N/A	       N/A	        N/A	       N/A	       N/A	       N/A	        N/A	       N/A	       N/A	       N/A	        N/A	
         R10	    159	    78.625	        19	      6.85	        N/A	   78.3439	        19	      6.85	        N/A	   78.0628	        19	      6.85	        N/A	       N/A	       N/A	       N/A	        N/A	       N/A	       N/A	       N/A	        N/A	       N/A	       N/A	       N/A	        N/A	       N/A	       N/A	       N/A	        N/A	       N/A	       N/A	       N/A	        N/A	
         R10	    160	   73.1005	        19	       7.7	        N/A	   72.6752	        19	       7.7	        N/A	     72.25	        19	       7.7	        N/A	       N/A	       N/A	       N/A	        N/A	       N/A	       N/A	       N/A	        N/A	       N/A	       N/A	       N/A	        N/A	       N/A	       N/A	       N/A	        N/A	       N/A	       N/A	       N/A	        N/A	
         R10	    161	   73.8941	        19	       7.7	        N/A	   73.4973	        19	       7.7	        N/A	   73.1005	        19	       7.7	        N/A	       N/A	       N/A	       N/A	        N/A	       N/A	       N/A	       N/A	        N/A	       N/A	       N/A	       N/A	        N/A	       N/A	       N/A	       N/A	        N/A	       N/A	       N/A	       N/A	        N/A	
         R10	    162	   74.6308	        19	       7.7	        N/A	   74.2625	        19	       7.7	        N/A	   73.8941	        19	       7.7	        N/A	       N/A	       N/A	       N/A	        N/A	       N/A	       N/A	       N/A	        N/A	       N/A	       N/A	       N/A	        N/A	       N/A	       N/A	       N/A	        N/A	       N/A	       N/A	       N/A	        N/A	
         R10	    163	   75.3107	        19	       7.7	        N/A	   74.9708	        19	       7.7	        N/A	   74.6308	        19	       7.7	        N/A	       N/A	       N/A	       N/A	        N/A	       N/A	       N/A	       N/A	        N/A	       N/A	       N/A	       N/A	        N/A	       N/A	       N/A	       N/A	        N/A	       N/A	       N/A	       N/A	        N/A	
         R10	    164	   75.9338	        19	       7.7	        N/A	   75.6223	        19	       7.7	        N/A	   75.3107	        19	       7.7	        N/A	       N/A	       N/A	       N/A	        N/A	       N/A	       N/A	       N/A	        N/A	       N/A	       N/A	       N/A	        N/A	       N/A	       N/A	       N/A	        N/A	       N/A	       N/A	       N/A	        N/A	
         R10	    165	      76.5	        19	       7.7	        N/A	   76.2169	        19	       7.7	        N/A	   75.9338	        19	       7.7	        N/A	       N/A	       N/A	       N/A	        N/A	       N/A	       N/A	       N/A	        N/A	       N/A	       N/A	       N/A	        N/A	       N/A	       N/A	       N/A	        N/A	       N/A	       N/A	       N/A	        N/A	
         R10	    166	   77.0003	        19	       7.7	        N/A	   76.7502	        19	       7.7	        N/A	      76.5	        19	       7.7	        N/A	       N/A	       N/A	       N/A	        N/A	       N/A	       N/A	       N/A	        N/A	       N/A	       N/A	       N/A	        N/A	       N/A	       N/A	       N/A	        N/A	       N/A	       N/A	       N/A	        N/A	
         R10	    167	   77.5212	        19	       7.7	        N/A	   77.2608	        19	       7.7	        N/A	   77.0003	        19	       7.7	        N/A	       N/A	       N/A	       N/A	        N/A	       N/A	       N/A	       N/A	        N/A	       N/A	       N/A	       N/A	        N/A	       N/A	       N/A	       N/A	        N/A	       N/A	       N/A	       N/A	        N/A	
         R10	    168	   78.0628	        19	       7.7	        N/A	    77.792	        19	       7.7	        N/A	   77.5212	        19	       7.7	        N/A	       N/A	       N/A	       N/A	        N/A	       N/A	       N/A	       N/A	        N/A	       N/A	       N/A	       N/A	        N/A	       N/A	       N/A	       N/A	        N/A	       N/A	       N/A	       N/A	        N/A	
         R10	    169	    78.625	        19	       7.7	        N/A	   78.3439	        19	       7.7	        N/A	   78.0628	        19	       7.7	        N/A	       N/A	       N/A	       N/A	        N/A	       N/A	       N/A	       N/A	        N/A	       N/A	       N/A	       N/A	        N/A	       N/A	       N/A	       N/A	        N/A	       N/A	       N/A	       N/A	        N/A	
         R10	    170	   73.0678	        19	      8.55	        N/A	   72.6589	        19	      8.55	        N/A	     72.25	        19	      8.55	        N/A	       N/A	       N/A	       N/A	        N/A	       N/A	       N/A	       N/A	        N/A	       N/A	       N/A	       N/A	        N/A	       N/A	       N/A	       N/A	        N/A	       N/A	       N/A	       N/A	        N/A	
         R10	    171	   73.8418	        19	      8.55	        N/A	   73.4548	        19	      8.55	        N/A	   73.0678	        19	      8.55	        N/A	       N/A	       N/A	       N/A	        N/A	       N/A	       N/A	       N/A	        N/A	       N/A	       N/A	       N/A	        N/A	       N/A	       N/A	       N/A	        N/A	       N/A	       N/A	       N/A	        N/A	
         R10	    172	    74.572	        19	      8.55	        N/A	   74.2069	        19	      8.55	        N/A	   73.8418	        19	      8.55	        N/A	       N/A	       N/A	       N/A	        N/A	       N/A	       N/A	       N/A	        N/A	       N/A	       N/A	       N/A	        N/A	       N/A	       N/A	       N/A	        N/A	       N/A	       N/A	       N/A	        N/A	
         R10	    173	   75.2585	        19	      8.55	        N/A	   74.9152	        19	      8.55	        N/A	    74.572	        19	      8.55	        N/A	       N/A	       N/A	       N/A	        N/A	       N/A	       N/A	       N/A	        N/A	       N/A	       N/A	       N/A	        N/A	       N/A	       N/A	       N/A	        N/A	       N/A	       N/A	       N/A	        N/A	
         R10	    174	   75.9011	        19	      8.55	        N/A	   75.5798	        19	      8.55	        N/A	   75.2585	        19	      8.55	        N/A	       N/A	       N/A	       N/A	        N/A	       N/A	       N/A	       N/A	        N/A	       N/A	       N/A	       N/A	        N/A	       N/A	       N/A	       N/A	        N/A	       N/A	       N/A	       N/A	        N/A	
         R10	    175	      76.5	        19	      8.55	        N/A	   76.2006	        19	      8.55	        N/A	   75.9011	        19	      8.55	        N/A	       N/A	       N/A	       N/A	        N/A	       N/A	       N/A	       N/A	        N/A	       N/A	       N/A	       N/A	        N/A	       N/A	       N/A	       N/A	        N/A	       N/A	       N/A	       N/A	        N/A	
         R10	    176	   77.1671	        19	      8.55	        N/A	   76.8335	        19	      8.55	        N/A	      76.5	        19	      8.55	        N/A	       N/A	       N/A	       N/A	        N/A	       N/A	       N/A	       N/A	        N/A	       N/A	       N/A	       N/A	        N/A	       N/A	       N/A	       N/A	        N/A	       N/A	       N/A	       N/A	        N/A	
         R10	    177	   77.8754	        19	      8.55	        N/A	   77.5212	        19	      8.55	        N/A	   77.1671	        19	      8.55	        N/A	       N/A	       N/A	       N/A	        N/A	       N/A	       N/A	       N/A	        N/A	       N/A	       N/A	       N/A	        N/A	       N/A	       N/A	       N/A	        N/A	       N/A	       N/A	       N/A	        N/A	
         R10	    178	    78.625	        19	      8.55	        N/A	   78.2502	        19	      8.55	        N/A	   77.8754	        19	      8.55	        N/A	       N/A	       N/A	       N/A	        N/A	       N/A	       N/A	       N/A	        N/A	       N/A	       N/A	       N/A	        N/A	       N/A	       N/A	       N/A	        N/A	       N/A	       N/A	       N/A	        N/A	
         R10	    179	     72.25	      9.35	         0	        N/A	    72.675	      9.35	         0	        N/A	      73.1	      9.35	         0	        N/A	       N/A	       N/A	       N/A	        N/A	       N/A	       N/A	       N/A	        N/A	       N/A	       N/A	       N/A	        N/A	       N/A	       N/A	       N/A	        N/A	       N/A	       N/A	       N/A	        N/A	
         R10	    180	      73.1	      9.35	         0	        N/A	    73.525	      9.35	         0	        N/A	     73.95	      9.35	         0	        N/A	       N/A	       N/A	       N/A	        N/A	       N/A	       N/A	       N/A	        N/A	       N/A	       N/A	       N/A	        N/A	       N/A	       N/A	       N/A	        N/A	       N/A	       N/A	       N/A	        N/A	
         R10	    181	     73.95	      9.35	         0	        N/A	    74.375	      9.35	         0	        N/A	      74.8	      9.35	         0	        N/A	       N/A	       N/A	       N/A	        N/A	       N/A	       N/A	       N/A	        N/A	       N/A	       N/A	       N/A	        N/A	       N/A	       N/A	       N/A	        N/A	       N/A	       N/A	       N/A	        N/A	
         R10	    182	      74.8	      9.35	         0	        N/A	    75.225	      9.35	         0	        N/A	     75.65	      9.35	         0	        N/A	       N/A	       N/A	       N/A	        N/A	       N/A	       N/A	       N/A	        N/A	       N/A	       N/A	       N/A	        N/A	       N/A	       N/A	       N/A	        N/A	       N/A	       N/A	       N/A	        N/A	
         R10	    183	     75.65	      9.35	         0	        N/A	    76.075	      9.35	         0	        N/A	      76.5	      9.35	         0	        N/A	       N/A	       N/A	       N/A	        N/A	       N/A	       N/A	       N/A	        N/A	       N/A	       N/A	       N/A	        N/A	       N/A	       N/A	       N/A	        N/A	       N/A	       N/A	       N/A	        N/A	
         R10	    184	      76.5	      9.35	         0	        N/A	   77.0313	      9.35	         0	        N/A	   77.5625	      9.35	         0	        N/A	       N/A	       N/A	       N/A	        N/A	       N/A	       N/A	       N/A	        N/A	       N/A	       N/A	       N/A	        N/A	       N/A	       N/A	       N/A	        N/A	       N/A	       N/A	       N/A	        N/A	
         R10	    185	   77.5625	      9.35	         0	        N/A	   78.0938	      9.35	         0	        N/A	    78.625	      9.35	         0	        N/A	       N/A	       N/A	       N/A	        N/A	       N/A	       N/A	       N/A	        N/A	       N/A	       N/A	       N/A	        N/A	       N/A	       N/A	       N/A	        N/A	       N/A	       N/A	       N/A	        N/A	
         R10	    186	     80.75	      9.35	       2.4	        N/A	   80.2188	      9.35	       2.4	        N/A	   79.6875	      9.35	       2.4	        N/A	       N/A	       N/A	       N/A	        N/A	       N/A	       N/A	       N/A	        N/A	       N/A	       N/A	       N/A	        N/A	       N/A	       N/A	       N/A	        N/A	       N/A	       N/A	       N/A	        N/A	
         R10	    187	   79.6875	      9.35	       2.4	        N/A	   79.1563	      9.35	       2.4	        N/A	    78.625	      9.35	       2.4	        N/A	       N/A	       N/A	       N/A	        N/A	       N/A	       N/A	       N/A	        N/A	       N/A	       N/A	       N/A	        N/A	       N/A	       N/A	       N/A	        N/A	       N/A	       N/A	       N/A	        N/A	
         R10	    188	     72.25	      10.2	         0	        N/A	    72.675	      10.2	         0	        N/A	      73.1	      10.2	         0	        N/A	       N/A	       N/A	       N/A	        N/A	       N/A	       N/A	       N/A	        N/A	       N/A	       N/A	       N/A	        N/A	       N/A	       N/A	       N/A	        N/A	       N/A	       N/A	       N/A	        N/A	
         R10	    189	      73.1	      10.2	         0	        N/A	    73.525	      10.2	         0	        N/A	     73.95	      10.2	         0	        N/A	       N/A	       N/A	       N/A	        N/A	       N/A	       N/A	       N/A	        N/A	       N/A	       N/A	       N/A	        N/A	       N/A	       N/A	       N/A	        N/A	       N/A	       N/A	       N/A	        N/A	
         R10	    190	     73.95	      10.2	         0	        N/A	    74.375	      10.2	         0	        N/A	      74.8	      10.2	         0	        N/A	       N/A	       N/A	       N/A	        N/A	       N/A	       N/A	       N/A	        N/A	       N/A	       N/A	       N/A	        N/A	       N/A	       N/A	       N/A	        N/A	       N/A	       N/A	       N/A	        N/A	
         R10	    191	      74.8	      10.2	         0	        N/A	    75.225	      10.2	         0	        N/A	     75.65	      10.2	         0	        N/A	       N/A	       N/A	       N/A	        N/A	       N/A	       N/A	       N/A	        N/A	       N/A	       N/A	       N/A	        N/A	       N/A	       N/A	       N/A	        N/A	       N/A	       N/A	       N/A	        N/A	
         R10	    192	     75.65	      10.2	         0	        N/A	    76.075	      10.2	         0	        N/A	      76.5	      10.2	         0	        N/A	       N/A	       N/A	       N/A	        N/A	       N/A	       N/A	       N/A	        N/A	       N/A	       N/A	       N/A	        N/A	       N/A	       N/A	       N/A	        N/A	       N/A	       N/A	       N/A	        N/A	
         R10	    193	      76.5	      10.2	         0	        N/A	   77.0313	      10.2	         0	        N/A	   77.5625	      10.2	         0	        N/A	       N/A	       N/A	       N/A	        N/A	       N/A	       N/A	       N/A	        N/A	       N/A	       N/A	       N/A	        N/A	       N/A	       N/A	       N/A	        N/A	       N/A	       N/A	       N/A	        N/A	
         R10	    194	   77.5625	      10.2	         0	        N/A	   78.0938	      10.2	         0	        N/A	    78.625	      10.2	         0	        N/A	       N/A	       N/A	       N/A	        N/A	       N/A	       N/A	       N/A	        N/A	       N/A	       N/A	       N/A	        N/A	       N/A	       N/A	       N/A	        N/A	       N/A	       N/A	       N/A	        N/A	
         R10	    195	     72.25	      13.6	         0	        N/A	   72.6769	      13.6	         0	        N/A	   73.1038	      13.6	         0	        N/A	       N/A	       N/A	       N/A	        N/A	       N/A	       N/A	       N/A	        N/A	       N/A	       N/A	       N/A	        N/A	       N/A	       N/A	       N/A	        N/A	       N/A	       N/A	       N/A	        N/A	
         R10	    196	   73.1038	      13.6	         0	        N/A	   73.4895	      13.6	         0	        N/A	   73.8753	      13.6	         0	        N/A	       N/A	       N/A	       N/A	        N/A	       N/A	       N/A	       N/A	        N/A	       N/A	       N/A	       N/A	        N/A	       N/A	       N/A	       N/A	        N/A	       N/A	       N/A	       N/A	        N/A	
         R10	    197	   73.8753	      13.6	         0	        N/A	     74.22	      13.6	         0	        N/A	   74.5647	      13.6	         0	        N/A	       N/A	       N/A	       N/A	        N/A	       N/A	       N/A	       N/A	        N/A	       N/A	       N/A	       N/A	        N/A	       N/A	       N/A	       N/A	        N/A	       N/A	       N/A	       N/A	        N/A	
         R10	    198	   74.5647	      13.6	         0	        N/A	   74.8682	      13.6	         0	        N/A	   75.1718	      13.6	         0	        N/A	       N/A	       N/A	       N/A	        N/A	       N/A	       N/A	       N/A	        N/A	       N/A	       N/A	       N/A	        N/A	       N/A	       N/A	       N/A	        N/A	       N/A	       N/A	       N/A	        N/A	
         R10	    199	   75.1718	      13.6	         0	        N/A	   75.4343	      13.6	         0	        N/A	   75.6967	      13.6	         0	        N/A	       N/A	       N/A	       N/A	        N/A	       N/A	       N/A	       N/A	        N/A	       N/A	       N/A	       N/A	        N/A	       N/A	       N/A	       N/A	        N/A	       N/A	       N/A	       N/A	        N/A	
         R10	    200	   75.6967	      13.6	         0	        N/A	   75.9181	      13.6	         0	        N/A	   76.1395	      13.6	         0	        N/A	       N/A	       N/A	       N/A	        N/A	       N/A	       N/A	       N/A	        N/A	       N/A	       N/A	       N/A	        N/A	       N/A	       N/A	       N/A	        N/A	       N/A	       N/A	       N/A	        N/A	
         R10	    201	   76.1395	      13.6	         0	        N/A	   76.3197	      13.6	         0	        N/A	      76.5	      13.6	         0	        N/A	       N/A	       N/A	       N/A	        N/A	       N/A	       N/A	       N/A	        N/A	       N/A	       N/A	       N/A	        N/A	       N/A	       N/A	       N/A	        N/A	       N/A	       N/A	       N/A	        N/A	
         R10	    202	      76.5	      13.6	         0	        N/A	   76.6823	      13.6	         0	        N/A	   76.8646	      13.6	         0	        N/A	       N/A	       N/A	       N/A	        N/A	       N/A	       N/A	       N/A	        N/A	       N/A	       N/A	       N/A	        N/A	       N/A	       N/A	       N/A	        N/A	       N/A	       N/A	       N/A	        N/A	
         R10	    203	   76.8646	      13.6	         0	        N/A	   77.0621	      13.6	         0	        N/A	   77.2595	      13.6	         0	        N/A	       N/A	       N/A	       N/A	        N/A	       N/A	       N/A	       N/A	        N/A	       N/A	       N/A	       N/A	        N/A	       N/A	       N/A	       N/A	        N/A	       N/A	       N/A	       N/A	        N/A	
         R10	    204	   77.2595	      13.6	         0	        N/A	    77.472	      13.6	         0	        N/A	   77.6845	      13.6	         0	        N/A	       N/A	       N/A	       N/A	        N/A	       N/A	       N/A	       N/A	        N/A	       N/A	       N/A	       N/A	        N/A	       N/A	       N/A	       N/A	        N/A	       N/A	       N/A	       N/A	        N/A	
         R10	    205	   77.6845	      13.6	         0	        N/A	   77.9121	      13.6	         0	        N/A	   78.1396	      13.6	         0	        N/A	       N/A	       N/A	       N/A	        N/A	       N/A	       N/A	       N/A	        N/A	       N/A	       N/A	       N/A	        N/A	       N/A	       N/A	       N/A	        N/A	       N/A	       N/A	       N/A	        N/A	
         R10	    206	   78.1396	      13.6	         0	        N/A	   78.3823	      13.6	         0	        N/A	    78.625	      13.6	         0	        N/A	       N/A	       N/A	       N/A	        N/A	       N/A	       N/A	       N/A	        N/A	       N/A	       N/A	       N/A	        N/A	       N/A	       N/A	       N/A	        N/A	       N/A	       N/A	       N/A	        N/A	
         R10	    207	     72.25	     11.05	         0	        N/A	   72.6823	     11.05	         0	        N/A	   73.1146	     11.05	         0	        N/A	       N/A	       N/A	       N/A	        N/A	       N/A	       N/A	       N/A	        N/A	       N/A	       N/A	       N/A	        N/A	       N/A	       N/A	       N/A	        N/A	       N/A	       N/A	       N/A	        N/A	
         R10	    208	   73.1146	     11.05	         0	        N/A	   73.5432	     11.05	         0	        N/A	   73.9718	     11.05	         0	        N/A	       N/A	       N/A	       N/A	        N/A	       N/A	       N/A	       N/A	        N/A	       N/A	       N/A	       N/A	        N/A	       N/A	       N/A	       N/A	        N/A	       N/A	       N/A	       N/A	        N/A	
         R10	    209	   73.9718	     11.05	         0	        N/A	   74.3969	     11.05	         0	        N/A	   74.8218	     11.05	         0	        N/A	       N/A	       N/A	       N/A	        N/A	       N/A	       N/A	       N/A	        N/A	       N/A	       N/A	       N/A	        N/A	       N/A	       N/A	       N/A	        N/A	       N/A	       N/A	       N/A	        N/A	
         R10	    210	   74.8218	     11.05	         0	        N/A	   75.2432	     11.05	         0	        N/A	   75.6646	     11.05	         0	        N/A	       N/A	       N/A	       N/A	        N/A	       N/A	       N/A	       N/A	        N/A	       N/A	       N/A	       N/A	        N/A	       N/A	       N/A	       N/A	        N/A	       N/A	       N/A	       N/A	        N/A	
         R10	    211	   75.6646	     11.05	         0	        N/A	   76.0823	     11.05	         0	        N/A	      76.5	     11.05	         0	        N/A	       N/A	       N/A	       N/A	        N/A	       N/A	       N/A	       N/A	        N/A	       N/A	       N/A	       N/A	        N/A	       N/A	       N/A	       N/A	        N/A	       N/A	       N/A	       N/A	        N/A	
         R10	    212	      76.5	     11.05	         0	        N/A	   76.8631	     11.05	         0	        N/A	   77.2261	     11.05	         0	        N/A	       N/A	       N/A	       N/A	        N/A	       N/A	       N/A	       N/A	        N/A	       N/A	       N/A	       N/A	        N/A	       N/A	       N/A	       N/A	        N/A	       N/A	       N/A	       N/A	        N/A	
         R10	    213	   77.2261	     11.05	         0	        N/A	   77.5803	     11.05	         0	        N/A	   77.9344	     11.05	         0	        N/A	       N/A	       N/A	       N/A	        N/A	       N/A	       N/A	       N/A	        N/A	       N/A	       N/A	       N/A	        N/A	       N/A	       N/A	       N/A	        N/A	       N/A	       N/A	       N/A	        N/A	
         R10	    214	   77.9344	     11.05	         0	        N/A	   78.2797	     11.05	         0	        N/A	    78.625	     11.05	         0	        N/A	       N/A	       N/A	       N/A	        N/A	       N/A	       N/A	       N/A	        N/A	       N/A	       N/A	       N/A	        N/A	       N/A	       N/A	       N/A	        N/A	       N/A	       N/A	       N/A	        N/A	
         R10	    215	     72.25	      11.9	         0	        N/A	   72.6852	      11.9	         0	        N/A	   73.1204	      11.9	         0	        N/A	       N/A	       N/A	       N/A	        N/A	       N/A	       N/A	       N/A	        N/A	       N/A	       N/A	       N/A	        N/A	       N/A	       N/A	       N/A	        N/A	       N/A	       N/A	       N/A	        N/A	
         R10	    216	   73.1204	      11.9	         0	        N/A	   73.5231	      11.9	         0	        N/A	   73.9259	      11.9	         0	        N/A	       N/A	       N/A	       N/A	        N/A	       N/A	       N/A	       N/A	        N/A	       N/A	       N/A	       N/A	        N/A	       N/A	       N/A	       N/A	        N/A	       N/A	       N/A	       N/A	        N/A	
         R10	    217	   73.9259	      11.9	         0	        N/A	   74.2963	      11.9	         0	        N/A	   74.6666	      11.9	         0	        N/A	       N/A	       N/A	       N/A	        N/A	       N/A	       N/A	       N/A	        N/A	       N/A	       N/A	       N/A	        N/A	       N/A	       N/A	       N/A	        N/A	       N/A	       N/A	       N/A	        N/A	
         R10	    218	   74.6666	      11.9	         0	        N/A	   75.0046	      11.9	         0	        N/A	   75.3426	      11.9	         0	        N/A	       N/A	       N/A	       N/A	        N/A	       N/A	       N/A	       N/A	        N/A	       N/A	       N/A	       N/A	        N/A	       N/A	       N/A	       N/A	        N/A	       N/A	       N/A	       N/A	        N/A	
         R10	    219	   75.3426	      11.9	         0	        N/A	   75.6481	      11.9	         0	        N/A	   75.9537	      11.9	         0	        N/A	       N/A	       N/A	       N/A	        N/A	       N/A	       N/A	       N/A	        N/A	       N/A	       N/A	       N/A	        N/A	       N/A	       N/A	       N/A	        N/A	       N/A	       N/A	       N/A	        N/A	
         R10	    220	   75.9537	      11.9	         0	        N/A	   76.2268	      11.9	         0	        N/A	      76.5	      11.9	         0	        N/A	       N/A	       N/A	       N/A	        N/A	       N/A	       N/A	       N/A	        N/A	       N/A	       N/A	       N/A	        N/A	       N/A	       N/A	       N/A	        N/A	       N/A	       N/A	       N/A	        N/A	
         R10	    221	      76.5	      11.9	         0	        N/A	   76.8039	      11.9	         0	        N/A	   77.1077	      11.9	         0	        N/A	       N/A	       N/A	       N/A	        N/A	       N/A	       N/A	       N/A	        N/A	       N/A	       N/A	       N/A	        N/A	       N/A	       N/A	       N/A	        N/A	       N/A	       N/A	       N/A	        N/A	
         R10	    222	   77.1077	      11.9	         0	        N/A	   77.4619	      11.9	         0	        N/A	   77.8161	      11.9	         0	        N/A	       N/A	       N/A	       N/A	        N/A	       N/A	       N/A	       N/A	        N/A	       N/A	       N/A	       N/A	        N/A	       N/A	       N/A	       N/A	        N/A	       N/A	       N/A	       N/A	        N/A	
         R10	    223	   77.8161	      11.9	         0	        N/A	   78.2205	      11.9	         0	        N/A	    78.625	      11.9	         0	        N/A	       N/A	       N/A	       N/A	        N/A	       N/A	       N/A	       N/A	        N/A	       N/A	       N/A	       N/A	        N/A	       N/A	       N/A	       N/A	        N/A	       N/A	       N/A	       N/A	        N/A	
         R10	    224	     72.25	      16.1	         0	        N/A	   72.6055	      16.1	         0	        N/A	    72.961	      16.1	         0	        N/A	       N/A	       N/A	       N/A	        N/A	       N/A	       N/A	       N/A	        N/A	       N/A	       N/A	       N/A	        N/A	       N/A	       N/A	       N/A	        N/A	       N/A	       N/A	       N/A	        N/A	
         R10	    225	    72.961	      16.1	         0	        N/A	   73.2867	      16.1	         0	        N/A	   73.6123	      16.1	         0	        N/A	       N/A	       N/A	       N/A	        N/A	       N/A	       N/A	       N/A	        N/A	       N/A	       N/A	       N/A	        N/A	       N/A	       N/A	       N/A	        N/A	       N/A	       N/A	       N/A	        N/A	
         R10	    226	   73.6123	      16.1	         0	        N/A	   73.9081	      16.1	         0	        N/A	   74.2039	      16.1	         0	        N/A	       N/A	       N/A	       N/A	        N/A	       N/A	       N/A	       N/A	        N/A	       N/A	       N/A	       N/A	        N/A	       N/A	       N/A	       N/A	        N/A	       N/A	       N/A	       N/A	        N/A	
         R10	    227	   74.2039	      16.1	         0	        N/A	   74.4699	      16.1	         0	        N/A	   74.7358	      16.1	         0	        N/A	       N/A	       N/A	       N/A	        N/A	       N/A	       N/A	       N/A	        N/A	       N/A	       N/A	       N/A	        N/A	       N/A	       N/A	       N/A	        N/A	       N/A	       N/A	       N/A	        N/A	
         R10	    228	   74.7358	      16.1	         0	        N/A	    74.972	      16.1	         0	        N/A	   75.2081	      16.1	         0	        N/A	       N/A	       N/A	       N/A	        N/A	       N/A	       N/A	       N/A	        N/A	       N/A	       N/A	       N/A	        N/A	       N/A	       N/A	       N/A	        N/A	       N/A	       N/A	       N/A	        N/A	
         R10	    229	   75.2081	      16.1	         0	        N/A	   75.4143	      16.1	         0	        N/A	   75.6206	      16.1	         0	        N/A	       N/A	       N/A	       N/A	        N/A	       N/A	       N/A	       N/A	        N/A	       N/A	       N/A	       N/A	        N/A	       N/A	       N/A	       N/A	        N/A	       N/A	       N/A	       N/A	        N/A	
         R10	    230	   75.6206	      16.1	         0	        N/A	    75.797	      16.1	         0	        N/A	   75.9734	      16.1	         0	        N/A	       N/A	       N/A	       N/A	        N/A	       N/A	       N/A	       N/A	        N/A	       N/A	       N/A	       N/A	        N/A	       N/A	       N/A	       N/A	        N/A	       N/A	       N/A	       N/A	        N/A	
         R10	    231	   75.9734	      16.1	         0	        N/A	     76.12	      16.1	         0	        N/A	   76.2666	      16.1	         0	        N/A	       N/A	       N/A	       N/A	        N/A	       N/A	       N/A	       N/A	        N/A	       N/A	       N/A	       N/A	        N/A	       N/A	       N/A	       N/A	        N/A	       N/A	       N/A	       N/A	        N/A	
         R10	    232	   76.2666	      16.1	         0	        N/A	   76.3833	      16.1	         0	        N/A	      76.5	      16.1	         0	        N/A	       N/A	       N/A	       N/A	        N/A	       N/A	       N/A	       N/A	        N/A	       N/A	       N/A	       N/A	        N/A	       N/A	       N/A	       N/A	        N/A	       N/A	       N/A	       N/A	        N/A	
         R10	    233	      76.5	      16.1	         0	        N/A	   76.6232	      16.1	         0	        N/A	   76.7464	      16.1	         0	        N/A	       N/A	       N/A	       N/A	        N/A	       N/A	       N/A	       N/A	        N/A	       N/A	       N/A	       N/A	        N/A	       N/A	       N/A	       N/A	        N/A	       N/A	       N/A	       N/A	        N/A	
         R10	    234	   76.7464	      16.1	         0	        N/A	   76.8791	      16.1	         0	        N/A	   77.0118	      16.1	         0	        N/A	       N/A	       N/A	       N/A	        N/A	       N/A	       N/A	       N/A	        N/A	       N/A	       N/A	       N/A	        N/A	       N/A	       N/A	       N/A	        N/A	       N/A	       N/A	       N/A	        N/A	
         R10	    235	   77.0118	      16.1	         0	        N/A	   77.1541	      16.1	         0	        N/A	   77.2964	      16.1	         0	        N/A	       N/A	       N/A	       N/A	        N/A	       N/A	       N/A	       N/A	        N/A	       N/A	       N/A	       N/A	        N/A	       N/A	       N/A	       N/A	        N/A	       N/A	       N/A	       N/A	        N/A	
         R10	    236	   77.2964	      16.1	         0	        N/A	   77.4482	      16.1	         0	        N/A	   77.5999	      16.1	         0	        N/A	       N/A	       N/A	       N/A	        N/A	       N/A	       N/A	       N/A	        N/A	       N/A	       N/A	       N/A	        N/A	       N/A	       N/A	       N/A	        N/A	       N/A	       N/A	       N/A	        N/A	
         R10	    237	   77.5999	      16.1	         0	        N/A	   77.7612	      16.1	         0	        N/A	   77.9226	      16.1	         0	        N/A	       N/A	       N/A	       N/A	        N/A	       N/A	       N/A	       N/A	        N/A	       N/A	       N/A	       N/A	        N/A	       N/A	       N/A	       N/A	        N/A	       N/A	       N/A	       N/A	        N/A	
         R10	    238	   77.9226	      16.1	         0	        N/A	   78.0934	      16.1	         0	        N/A	   78.2643	      16.1	         0	        N/A	       N/A	       N/A	       N/A	        N/A	       N/A	       N/A	       N/A	        N/A	       N/A	       N/A	       N/A	        N/A	       N/A	       N/A	       N/A	        N/A	       N/A	       N/A	       N/A	        N/A	
         R10	    239	   78.2643	      16.1	         0	        N/A	   78.4446	      16.1	         0	        N/A	    78.625	      16.1	         0	        N/A	       N/A	       N/A	       N/A	        N/A	       N/A	       N/A	       N/A	        N/A	       N/A	       N/A	       N/A	        N/A	       N/A	       N/A	       N/A	        N/A	       N/A	       N/A	       N/A	        N/A	
         R10	    240	     72.25	     12.75	         0	        N/A	    72.701	     12.75	         0	        N/A	    73.152	     12.75	         0	        N/A	       N/A	       N/A	       N/A	        N/A	       N/A	       N/A	       N/A	        N/A	       N/A	       N/A	       N/A	        N/A	       N/A	       N/A	       N/A	        N/A	       N/A	       N/A	       N/A	        N/A	
         R10	    241	    73.152	     12.75	         0	        N/A	   73.5642	     12.75	         0	        N/A	   73.9765	     12.75	         0	        N/A	       N/A	       N/A	       N/A	        N/A	       N/A	       N/A	       N/A	        N/A	       N/A	       N/A	       N/A	        N/A	       N/A	       N/A	       N/A	        N/A	       N/A	       N/A	       N/A	        N/A	
         R10	    242	   73.9765	     12.75	         0	        N/A	     74.35	     12.75	         0	        N/A	   74.7236	     12.75	         0	        N/A	       N/A	       N/A	       N/A	        N/A	       N/A	       N/A	       N/A	        N/A	       N/A	       N/A	       N/A	        N/A	       N/A	       N/A	       N/A	        N/A	       N/A	       N/A	       N/A	        N/A	
         R10	    243	   74.7236	     12.75	         0	        N/A	   75.0584	     12.75	         0	        N/A	   75.3932	     12.75	         0	        N/A	       N/A	       N/A	       N/A	        N/A	       N/A	       N/A	       N/A	        N/A	       N/A	       N/A	       N/A	        N/A	       N/A	       N/A	       N/A	        N/A	       N/A	       N/A	       N/A	        N/A	
         R10	    244	   75.3932	     12.75	         0	        N/A	   75.6892	     12.75	         0	        N/A	   75.9853	     12.75	         0	        N/A	       N/A	       N/A	       N/A	        N/A	       N/A	       N/A	       N/A	        N/A	       N/A	       N/A	       N/A	        N/A	       N/A	       N/A	       N/A	        N/A	       N/A	       N/A	       N/A	        N/A	
         R10	    245	   75.9853	     12.75	         0	        N/A	   76.2427	     12.75	         0	        N/A	      76.5	     12.75	         0	        N/A	       N/A	       N/A	       N/A	        N/A	       N/A	       N/A	       N/A	        N/A	       N/A	       N/A	       N/A	        N/A	       N/A	       N/A	       N/A	        N/A	       N/A	       N/A	       N/A	        N/A	
         R10	    246	      76.5	     12.75	         0	        N/A	    76.755	     12.75	         0	        N/A	     77.01	     12.75	         0	        N/A	       N/A	       N/A	       N/A	        N/A	       N/A	       N/A	       N/A	        N/A	       N/A	       N/A	       N/A	        N/A	       N/A	       N/A	       N/A	        N/A	       N/A	       N/A	       N/A	        N/A	
         R10	    247	     77.01	     12.75	         0	        N/A	    77.272	     12.75	         0	        N/A	   77.5341	     12.75	         0	        N/A	       N/A	       N/A	       N/A	        N/A	       N/A	       N/A	       N/A	        N/A	       N/A	       N/A	       N/A	        N/A	       N/A	       N/A	       N/A	        N/A	       N/A	       N/A	       N/A	        N/A	
         R10	    248	   77.5341	     12.75	         0	        N/A	   77.8033	     12.75	         0	        N/A	   78.0725	     12.75	         0	        N/A	       N/A	       N/A	       N/A	        N/A	       N/A	       N/A	       N/A	        N/A	       N/A	       N/A	       N/A	        N/A	       N/A	       N/A	       N/A	        N/A	       N/A	       N/A	       N/A	        N/A	
         R10	    249	   78.0725	     12.75	         0	        N/A	   78.3487	     12.75	         0	        N/A	    78.625	     12.75	         0	        N/A	       N/A	       N/A	       N/A	        N/A	       N/A	       N/A	       N/A	        N/A	       N/A	       N/A	       N/A	        N/A	       N/A	       N/A	       N/A	        N/A	       N/A	       N/A	       N/A	        N/A	
         R10	    250	     72.25	      17.7	         0	        N/A	   72.6273	      17.7	         0	        N/A	   73.0047	      17.7	         0	        N/A	       N/A	       N/A	       N/A	        N/A	       N/A	       N/A	       N/A	        N/A	       N/A	       N/A	       N/A	        N/A	       N/A	       N/A	       N/A	        N/A	       N/A	       N/A	       N/A	        N/A	
         R10	    251	   73.0047	      17.7	         0	        N/A	   73.3501	      17.7	         0	        N/A	   73.6955	      17.7	         0	        N/A	       N/A	       N/A	       N/A	        N/A	       N/A	       N/A	       N/A	        N/A	       N/A	       N/A	       N/A	        N/A	       N/A	       N/A	       N/A	        N/A	       N/A	       N/A	       N/A	        N/A	
         R10	    252	   73.6955	      17.7	         0	        N/A	    74.009	      17.7	         0	        N/A	   74.3225	      17.7	         0	        N/A	       N/A	       N/A	       N/A	        N/A	       N/A	       N/A	       N/A	        N/A	       N/A	       N/A	       N/A	        N/A	       N/A	       N/A	       N/A	        N/A	       N/A	       N/A	       N/A	        N/A	
         R10	    253	   74.3225	      17.7	         0	        N/A	   74.6041	      17.7	         0	        N/A	   74.8857	      17.7	         0	        N/A	       N/A	       N/A	       N/A	        N/A	       N/A	       N/A	       N/A	        N/A	       N/A	       N/A	       N/A	        N/A	       N/A	       N/A	       N/A	        N/A	       N/A	       N/A	       N/A	        N/A	
         R10	    254	   74.8857	      17.7	         0	        N/A	   75.1354	      17.7	         0	        N/A	    75.385	      17.7	         0	        N/A	       N/A	       N/A	       N/A	        N/A	       N/A	       N/A	       N/A	        N/A	       N/A	       N/A	       N/A	        N/A	       N/A	       N/A	       N/A	        N/A	       N/A	       N/A	       N/A	        N/A	
         R10	    255	    75.385	      17.7	         0	        N/A	   75.6028	      17.7	         0	        N/A	   75.8205	      17.7	         0	        N/A	       N/A	       N/A	       N/A	        N/A	       N/A	       N/A	       N/A	        N/A	       N/A	       N/A	       N/A	        N/A	       N/A	       N/A	       N/A	        N/A	       N/A	       N/A	       N/A	        N/A	
         R10	    256	   75.8205	      17.7	         0	        N/A	   76.0064	      17.7	         0	        N/A	   76.1922	      17.7	         0	        N/A	       N/A	       N/A	       N/A	        N/A	       N/A	       N/A	       N/A	        N/A	       N/A	       N/A	       N/A	        N/A	       N/A	       N/A	       N/A	        N/A	       N/A	       N/A	       N/A	        N/A	
         R10	    257	   76.1922	      17.7	         0	        N/A	   76.3461	      17.7	         0	        N/A	      76.5	      17.7	         0	        N/A	       N/A	       N/A	       N/A	        N/A	       N/A	       N/A	       N/A	        N/A	       N/A	       N/A	       N/A	        N/A	       N/A	       N/A	       N/A	        N/A	       N/A	       N/A	       N/A	        N/A	
         R10	    258	      76.5	      17.7	         0	        N/A	   76.6725	      17.7	         0	        N/A	    76.845	      17.7	         0	        N/A	       N/A	       N/A	       N/A	        N/A	       N/A	       N/A	       N/A	        N/A	       N/A	       N/A	       N/A	        N/A	       N/A	       N/A	       N/A	        N/A	       N/A	       N/A	       N/A	        N/A	
         R10	    259	    76.845	      17.7	         0	        N/A	   77.0374	      17.7	         0	        N/A	   77.2299	      17.7	         0	        N/A	       N/A	       N/A	       N/A	        N/A	       N/A	       N/A	       N/A	        N/A	       N/A	       N/A	       N/A	        N/A	       N/A	       N/A	       N/A	        N/A	       N/A	       N/A	       N/A	        N/A	
         R10	    260	   77.2299	      17.7	         0	        N/A	   77.4424	      17.7	         0	        N/A	   77.6549	      17.7	         0	        N/A	       N/A	       N/A	       N/A	        N/A	       N/A	       N/A	       N/A	        N/A	       N/A	       N/A	       N/A	        N/A	       N/A	       N/A	       N/A	        N/A	       N/A	       N/A	       N/A	        N/A	
         R10	    261	   77.6549	      17.7	         0	        N/A	   77.8874	      17.7	         0	        N/A	     78.12	      17.7	         0	        N/A	       N/A	       N/A	       N/A	        N/A	       N/A	       N/A	       N/A	        N/A	       N/A	       N/A	       N/A	        N/A	       N/A	       N/A	       N/A	        N/A	       N/A	       N/A	       N/A	        N/A	
         R10	    262	     78.12	      17.7	         0	        N/A	   78.3725	      17.7	         0	        N/A	    78.625	      17.7	         0	        N/A	       N/A	       N/A	       N/A	        N/A	       N/A	       N/A	       N/A	        N/A	       N/A	       N/A	       N/A	        N/A	       N/A	       N/A	       N/A	        N/A	       N/A	       N/A	       N/A	        N/A	
         R10	    263	     72.25	     14.45	         0	        N/A	   72.7001	     14.45	         0	        N/A	   73.1501	     14.45	         0	        N/A	       N/A	       N/A	       N/A	        N/A	       N/A	       N/A	       N/A	        N/A	       N/A	       N/A	       N/A	        N/A	       N/A	       N/A	       N/A	        N/A	       N/A	       N/A	       N/A	        N/A	
         R10	    264	   73.1501	     14.45	         0	        N/A	   73.5514	     14.45	         0	        N/A	   73.9526	     14.45	         0	        N/A	       N/A	       N/A	       N/A	        N/A	       N/A	       N/A	       N/A	        N/A	       N/A	       N/A	       N/A	        N/A	       N/A	       N/A	       N/A	        N/A	       N/A	       N/A	       N/A	        N/A	
         R10	    265	   73.9526	     14.45	         0	        N/A	    74.305	     14.45	         0	        N/A	   74.6574	     14.45	         0	        N/A	       N/A	       N/A	       N/A	        N/A	       N/A	       N/A	       N/A	        N/A	       N/A	       N/A	       N/A	        N/A	       N/A	       N/A	       N/A	        N/A	       N/A	       N/A	       N/A	        N/A	
         R10	    266	   74.6574	     14.45	         0	        N/A	    74.961	     14.45	         0	        N/A	   75.2646	     14.45	         0	        N/A	       N/A	       N/A	       N/A	        N/A	       N/A	       N/A	       N/A	        N/A	       N/A	       N/A	       N/A	        N/A	       N/A	       N/A	       N/A	        N/A	       N/A	       N/A	       N/A	        N/A	
         R10	    267	   75.2646	     14.45	         0	        N/A	   75.5193	     14.45	         0	        N/A	   75.7741	     14.45	         0	        N/A	       N/A	       N/A	       N/A	        N/A	       N/A	       N/A	       N/A	        N/A	       N/A	       N/A	       N/A	        N/A	       N/A	       N/A	       N/A	        N/A	       N/A	       N/A	       N/A	        N/A	
         R10	    268	   75.7741	     14.45	         0	        N/A	     75.98	     14.45	         0	        N/A	   76.1859	     14.45	         0	        N/A	       N/A	       N/A	       N/A	        N/A	       N/A	       N/A	       N/A	        N/A	       N/A	       N/A	       N/A	        N/A	       N/A	       N/A	       N/A	        N/A	       N/A	       N/A	       N/A	        N/A	
         R10	    269	   76.1859	     14.45	         0	        N/A	   76.3429	     14.45	         0	        N/A	      76.5	     14.45	         0	        N/A	       N/A	       N/A	       N/A	        N/A	       N/A	       N/A	       N/A	        N/A	       N/A	       N/A	       N/A	        N/A	       N/A	       N/A	       N/A	        N/A	       N/A	       N/A	       N/A	        N/A	
         R10	    270	      76.5	     14.45	         0	        N/A	   76.6437	     14.45	         0	        N/A	   76.7875	     14.45	         0	        N/A	       N/A	       N/A	       N/A	        N/A	       N/A	       N/A	       N/A	        N/A	       N/A	       N/A	       N/A	        N/A	       N/A	       N/A	       N/A	        N/A	       N/A	       N/A	       N/A	        N/A	
         R10	    271	   76.7875	     14.45	         0	        N/A	   76.9445	     14.45	         0	        N/A	   77.1016	     14.45	         0	        N/A	       N/A	       N/A	       N/A	        N/A	       N/A	       N/A	       N/A	        N/A	       N/A	       N/A	       N/A	        N/A	       N/A	       N/A	       N/A	        N/A	       N/A	       N/A	       N/A	        N/A	
         R10	    272	   77.1016	     14.45	         0	        N/A	    77.272	     14.45	         0	        N/A	   77.4424	     14.45	         0	        N/A	       N/A	       N/A	       N/A	        N/A	       N/A	       N/A	       N/A	        N/A	       N/A	       N/A	       N/A	        N/A	       N/A	       N/A	       N/A	        N/A	       N/A	       N/A	       N/A	        N/A	
         R10	    273	   77.4424	     14.45	         0	        N/A	   77.6262	     14.45	         0	        N/A	   77.8099	     14.45	         0	        N/A	       N/A	       N/A	       N/A	        N/A	       N/A	       N/A	       N/A	        N/A	       N/A	       N/A	       N/A	        N/A	       N/A	       N/A	       N/A	        N/A	       N/A	       N/A	       N/A	        N/A	
         R10	    274	   77.8099	     14.45	         0	        N/A	    78.007	     14.45	         0	        N/A	   78.2041	     14.45	         0	        N/A	       N/A	       N/A	       N/A	        N/A	       N/A	       N/A	       N/A	        N/A	       N/A	       N/A	       N/A	        N/A	       N/A	       N/A	       N/A	        N/A	       N/A	       N/A	       N/A	        N/A	
         R10	    275	   78.2041	     14.45	         0	        N/A	   78.4146	     14.45	         0	        N/A	    78.625	     14.45	         0	        N/A	       N/A	       N/A	       N/A	        N/A	       N/A	       N/A	       N/A	        N/A	       N/A	       N/A	       N/A	        N/A	       N/A	       N/A	       N/A	        N/A	       N/A	       N/A	       N/A	        N/A	
         R10	    276	     72.25	      16.9	         0	        N/A	   72.6376	      16.9	         0	        N/A	   73.0251	      16.9	         0	        N/A	       N/A	       N/A	       N/A	        N/A	       N/A	       N/A	       N/A	        N/A	       N/A	       N/A	       N/A	        N/A	       N/A	       N/A	       N/A	        N/A	       N/A	       N/A	       N/A	        N/A	
         R10	    277	   73.0251	      16.9	         0	        N/A	   73.3778	      16.9	         0	        N/A	   73.7305	      16.9	         0	        N/A	       N/A	       N/A	       N/A	        N/A	       N/A	       N/A	       N/A	        N/A	       N/A	       N/A	       N/A	        N/A	       N/A	       N/A	       N/A	        N/A	       N/A	       N/A	       N/A	        N/A	
         R10	    278	   73.7305	      16.9	         0	        N/A	   74.0484	      16.9	         0	        N/A	   74.3663	      16.9	         0	        N/A	       N/A	       N/A	       N/A	        N/A	       N/A	       N/A	       N/A	        N/A	       N/A	       N/A	       N/A	        N/A	       N/A	       N/A	       N/A	        N/A	       N/A	       N/A	       N/A	        N/A	
         R10	    279	   74.3663	      16.9	         0	        N/A	   74.6493	      16.9	         0	        N/A	   74.9324	      16.9	         0	        N/A	       N/A	       N/A	       N/A	        N/A	       N/A	       N/A	       N/A	        N/A	       N/A	       N/A	       N/A	        N/A	       N/A	       N/A	       N/A	        N/A	       N/A	       N/A	       N/A	        N/A	
         R10	    280	   74.9324	      16.9	         0	        N/A	   75.1806	      16.9	         0	        N/A	   75.4288	      16.9	         0	        N/A	       N/A	       N/A	       N/A	        N/A	       N/A	       N/A	       N/A	        N/A	       N/A	       N/A	       N/A	        N/A	       N/A	       N/A	       N/A	        N/A	       N/A	       N/A	       N/A	        N/A	
         R10	    281	   75.4288	      16.9	         0	        N/A	   75.6422	      16.9	         0	        N/A	   75.8555	      16.9	         0	        N/A	       N/A	       N/A	       N/A	        N/A	       N/A	       N/A	       N/A	        N/A	       N/A	       N/A	       N/A	        N/A	       N/A	       N/A	       N/A	        N/A	       N/A	       N/A	       N/A	        N/A	
         R10	    282	   75.8555	      16.9	         0	        N/A	   76.0341	      16.9	         0	        N/A	   76.2126	      16.9	         0	        N/A	       N/A	       N/A	       N/A	        N/A	       N/A	       N/A	       N/A	        N/A	       N/A	       N/A	       N/A	        N/A	       N/A	       N/A	       N/A	        N/A	       N/A	       N/A	       N/A	        N/A	
         R10	    283	   76.2126	      16.9	         0	        N/A	   76.3563	      16.9	         0	        N/A	      76.5	      16.9	         0	        N/A	       N/A	       N/A	       N/A	        N/A	       N/A	       N/A	       N/A	        N/A	       N/A	       N/A	       N/A	        N/A	       N/A	       N/A	       N/A	        N/A	       N/A	       N/A	       N/A	        N/A	
         R10	    284	      76.5	      16.9	         0	        N/A	   76.6437	      16.9	         0	        N/A	   76.7875	      16.9	         0	        N/A	       N/A	       N/A	       N/A	        N/A	       N/A	       N/A	       N/A	        N/A	       N/A	       N/A	       N/A	        N/A	       N/A	       N/A	       N/A	        N/A	       N/A	       N/A	       N/A	        N/A	
         R10	    285	   76.7875	      16.9	         0	        N/A	   76.9445	      16.9	         0	        N/A	   77.1016	      16.9	         0	        N/A	       N/A	       N/A	       N/A	        N/A	       N/A	       N/A	       N/A	        N/A	       N/A	       N/A	       N/A	        N/A	       N/A	       N/A	       N/A	        N/A	       N/A	       N/A	       N/A	        N/A	
         R10	    286	   77.1016	      16.9	         0	        N/A	    77.272	      16.9	         0	        N/A	   77.4424	      16.9	         0	        N/A	       N/A	       N/A	       N/A	        N/A	       N/A	       N/A	       N/A	        N/A	       N/A	       N/A	       N/A	        N/A	       N/A	       N/A	       N/A	        N/A	       N/A	       N/A	       N/A	        N/A	
         R10	    287	   77.4424	      16.9	         0	        N/A	   77.6262	      16.9	         0	        N/A	   77.8099	      16.9	         0	        N/A	       N/A	       N/A	       N/A	        N/A	       N/A	       N/A	       N/A	        N/A	       N/A	       N/A	       N/A	        N/A	       N/A	       N/A	       N/A	        N/A	       N/A	       N/A	       N/A	        N/A	
         R10	    288	   77.8099	      16.9	         0	        N/A	    78.007	      16.9	         0	        N/A	   78.2041	      16.9	         0	        N/A	       N/A	       N/A	       N/A	        N/A	       N/A	       N/A	       N/A	        N/A	       N/A	       N/A	       N/A	        N/A	       N/A	       N/A	       N/A	        N/A	       N/A	       N/A	       N/A	        N/A	
         R10	    289	   78.2041	      16.9	         0	        N/A	   78.4146	      16.9	         0	        N/A	    78.625	      16.9	         0	        N/A	       N/A	       N/A	       N/A	        N/A	       N/A	       N/A	       N/A	        N/A	       N/A	       N/A	       N/A	        N/A	       N/A	       N/A	       N/A	        N/A	       N/A	       N/A	       N/A	        N/A	
         R10	    290	     72.25	      18.5	         0	        N/A	   72.4927	      18.5	         0	        N/A	   72.7354	      18.5	         0	        N/A	       N/A	       N/A	       N/A	        N/A	       N/A	       N/A	       N/A	        N/A	       N/A	       N/A	       N/A	        N/A	       N/A	       N/A	       N/A	        N/A	       N/A	       N/A	       N/A	        N/A	
         R10	    291	   72.7354	      18.5	         0	        N/A	   72.9714	      18.5	         0	        N/A	   73.2074	      18.5	         0	        N/A	       N/A	       N/A	       N/A	        N/A	       N/A	       N/A	       N/A	        N/A	       N/A	       N/A	       N/A	        N/A	       N/A	       N/A	       N/A	        N/A	       N/A	       N/A	       N/A	        N/A	
         R10	    292	   73.2074	      18.5	         0	        N/A	   73.4367	      18.5	         0	        N/A	   73.6659	      18.5	         0	        N/A	       N/A	       N/A	       N/A	        N/A	       N/A	       N/A	       N/A	        N/A	       N/A	       N/A	       N/A	        N/A	       N/A	       N/A	       N/A	        N/A	       N/A	       N/A	       N/A	        N/A	
         R10	    293	   73.6659	      18.5	         0	        N/A	   73.8885	      18.5	         0	        N/A	   74.1111	      18.5	         0	        N/A	       N/A	       N/A	       N/A	        N/A	       N/A	       N/A	       N/A	        N/A	       N/A	       N/A	       N/A	        N/A	       N/A	       N/A	       N/A	        N/A	       N/A	       N/A	       N/A	        N/A	
         R10	    294	   74.1111	      18.5	         0	        N/A	   74.3269	      18.5	         0	        N/A	   74.5428	      18.5	         0	        N/A	       N/A	       N/A	       N/A	        N/A	       N/A	       N/A	       N/A	        N/A	       N/A	       N/A	       N/A	        N/A	       N/A	       N/A	       N/A	        N/A	       N/A	       N/A	       N/A	        N/A	
         R10	    295	   74.5428	      18.5	         0	        N/A	   74.7519	      18.5	         0	        N/A	   74.9611	      18.5	         0	        N/A	       N/A	       N/A	       N/A	        N/A	       N/A	       N/A	       N/A	        N/A	       N/A	       N/A	       N/A	        N/A	       N/A	       N/A	       N/A	        N/A	       N/A	       N/A	       N/A	        N/A	
         R10	    296	   74.9611	      18.5	         0	        N/A	   75.1635	      18.5	         0	        N/A	   75.3659	      18.5	         0	        N/A	       N/A	       N/A	       N/A	        N/A	       N/A	       N/A	       N/A	        N/A	       N/A	       N/A	       N/A	        N/A	       N/A	       N/A	       N/A	        N/A	       N/A	       N/A	       N/A	        N/A	
         R10	    297	   75.3659	      18.5	         0	        N/A	   75.5617	      18.5	         0	        N/A	   75.7574	      18.5	         0	        N/A	       N/A	       N/A	       N/A	        N/A	       N/A	       N/A	       N/A	        N/A	       N/A	       N/A	       N/A	        N/A	       N/A	       N/A	       N/A	        N/A	       N/A	       N/A	       N/A	        N/A	
         R10	    298	   75.7574	      18.5	         0	        N/A	   75.9464	      18.5	         0	        N/A	   76.1354	      18.5	         0	        N/A	       N/A	       N/A	       N/A	        N/A	       N/A	       N/A	       N/A	        N/A	       N/A	       N/A	       N/A	        N/A	       N/A	       N/A	       N/A	        N/A	       N/A	       N/A	       N/A	        N/A	
         R10	    299	   76.1354	      18.5	         0	        N/A	   76.3177	      18.5	         0	        N/A	      76.5	      18.5	         0	        N/A	       N/A	       N/A	       N/A	        N/A	       N/A	       N/A	       N/A	        N/A	       N/A	       N/A	       N/A	        N/A	       N/A	       N/A	       N/A	        N/A	       N/A	       N/A	       N/A	        N/A	
         R10	    300	      76.5	      18.5	         0	        N/A	   76.6823	      18.5	         0	        N/A	   76.8646	      18.5	         0	        N/A	       N/A	       N/A	       N/A	        N/A	       N/A	       N/A	       N/A	        N/A	       N/A	       N/A	       N/A	        N/A	       N/A	       N/A	       N/A	        N/A	       N/A	       N/A	       N/A	        N/A	
         R10	    301	   76.8646	      18.5	         0	        N/A	    77.062	      18.5	         0	        N/A	   77.2594	      18.5	         0	        N/A	       N/A	       N/A	       N/A	        N/A	       N/A	       N/A	       N/A	        N/A	       N/A	       N/A	       N/A	        N/A	       N/A	       N/A	       N/A	        N/A	       N/A	       N/A	       N/A	        N/A	
         R10	    302	   77.2594	      18.5	         0	        N/A	   77.4719	      18.5	         0	        N/A	   77.6844	      18.5	         0	        N/A	       N/A	       N/A	       N/A	        N/A	       N/A	       N/A	       N/A	        N/A	       N/A	       N/A	       N/A	        N/A	       N/A	       N/A	       N/A	        N/A	       N/A	       N/A	       N/A	        N/A	
         R10	    303	   77.6844	      18.5	         0	        N/A	    77.912	      18.5	         0	        N/A	   78.1396	      18.5	         0	        N/A	       N/A	       N/A	       N/A	        N/A	       N/A	       N/A	       N/A	        N/A	       N/A	       N/A	       N/A	        N/A	       N/A	       N/A	       N/A	        N/A	       N/A	       N/A	       N/A	        N/A	
         R10	    304	   78.1396	      18.5	         0	        N/A	   78.3823	      18.5	         0	        N/A	    78.625	      18.5	         0	        N/A	       N/A	       N/A	       N/A	        N/A	       N/A	       N/A	       N/A	        N/A	       N/A	       N/A	       N/A	        N/A	       N/A	       N/A	       N/A	        N/A	       N/A	       N/A	       N/A	        N/A	
         R10	    305	     80.75	      10.2	       2.4	        N/A	   80.2188	      10.2	       2.4	        N/A	   79.6875	      10.2	       2.4	        N/A	       N/A	       N/A	       N/A	        N/A	       N/A	       N/A	       N/A	        N/A	       N/A	       N/A	       N/A	        N/A	       N/A	       N/A	       N/A	        N/A	       N/A	       N/A	       N/A	        N/A	
         R10	    306	   79.6875	      10.2	       2.4	        N/A	   79.1563	      10.2	       2.4	        N/A	    78.625	      10.2	       2.4	        N/A	       N/A	       N/A	       N/A	        N/A	       N/A	       N/A	       N/A	        N/A	       N/A	       N/A	       N/A	        N/A	       N/A	       N/A	       N/A	        N/A	       N/A	       N/A	       N/A	        N/A	
         R10	    307	     72.25	      19.3	         0	        N/A	   72.4625	      19.3	         0	        N/A	   72.6751	      19.3	         0	        N/A	       N/A	       N/A	       N/A	        N/A	       N/A	       N/A	       N/A	        N/A	       N/A	       N/A	       N/A	        N/A	       N/A	       N/A	       N/A	        N/A	       N/A	       N/A	       N/A	        N/A	
         R10	    308	   72.6751	      19.3	         0	        N/A	   72.8876	      19.3	         0	        N/A	   73.1001	      19.3	         0	        N/A	       N/A	       N/A	       N/A	        N/A	       N/A	       N/A	       N/A	        N/A	       N/A	       N/A	       N/A	        N/A	       N/A	       N/A	       N/A	        N/A	       N/A	       N/A	       N/A	        N/A	
         R10	    309	   73.1001	      19.3	         0	        N/A	   73.3126	      19.3	         0	        N/A	   73.5251	      19.3	         0	        N/A	       N/A	       N/A	       N/A	        N/A	       N/A	       N/A	       N/A	        N/A	       N/A	       N/A	       N/A	        N/A	       N/A	       N/A	       N/A	        N/A	       N/A	       N/A	       N/A	        N/A	
         R10	    310	   73.5251	      19.3	         0	        N/A	   73.7376	      19.3	         0	        N/A	   73.9501	      19.3	         0	        N/A	       N/A	       N/A	       N/A	        N/A	       N/A	       N/A	       N/A	        N/A	       N/A	       N/A	       N/A	        N/A	       N/A	       N/A	       N/A	        N/A	       N/A	       N/A	       N/A	        N/A	
         R10	    311	   73.9501	      19.3	         0	        N/A	   74.1627	      19.3	         0	        N/A	   74.3752	      19.3	         0	        N/A	       N/A	       N/A	       N/A	        N/A	       N/A	       N/A	       N/A	        N/A	       N/A	       N/A	       N/A	        N/A	       N/A	       N/A	       N/A	        N/A	       N/A	       N/A	       N/A	        N/A	
         R10	    312	   74.3752	      19.3	         0	        N/A	   74.5877	      19.3	         0	        N/A	   74.8001	      19.3	         0	        N/A	       N/A	       N/A	       N/A	        N/A	       N/A	       N/A	       N/A	        N/A	       N/A	       N/A	       N/A	        N/A	       N/A	       N/A	       N/A	        N/A	       N/A	       N/A	       N/A	        N/A	
         R10	    313	   74.8001	      19.3	         0	        N/A	   75.0126	      19.3	         0	        N/A	   75.2251	      19.3	         0	        N/A	       N/A	       N/A	       N/A	        N/A	       N/A	       N/A	       N/A	        N/A	       N/A	       N/A	       N/A	        N/A	       N/A	       N/A	       N/A	        N/A	       N/A	       N/A	       N/A	        N/A	
         R10	    314	   75.2251	      19.3	         0	        N/A	   75.4376	      19.3	         0	        N/A	   75.6501	      19.3	         0	        N/A	       N/A	       N/A	       N/A	        N/A	       N/A	       N/A	       N/A	        N/A	       N/A	       N/A	       N/A	        N/A	       N/A	       N/A	       N/A	        N/A	       N/A	       N/A	       N/A	        N/A	
         R10	    315	   75.6501	      19.3	         0	        N/A	   75.8626	      19.3	         0	        N/A	   76.0751	      19.3	         0	        N/A	       N/A	       N/A	       N/A	        N/A	       N/A	       N/A	       N/A	        N/A	       N/A	       N/A	       N/A	        N/A	       N/A	       N/A	       N/A	        N/A	       N/A	       N/A	       N/A	        N/A	
         R10	    316	   76.0751	      19.3	         0	        N/A	   76.2875	      19.3	         0	        N/A	      76.5	      19.3	         0	        N/A	       N/A	       N/A	       N/A	        N/A	       N/A	       N/A	       N/A	        N/A	       N/A	       N/A	       N/A	        N/A	       N/A	       N/A	       N/A	        N/A	       N/A	       N/A	       N/A	        N/A	
         R10	    317	      76.5	      19.3	         0	        N/A	   76.7125	      19.3	         0	        N/A	   76.9249	      19.3	         0	        N/A	       N/A	       N/A	       N/A	        N/A	       N/A	       N/A	       N/A	        N/A	       N/A	       N/A	       N/A	        N/A	       N/A	       N/A	       N/A	        N/A	       N/A	       N/A	       N/A	        N/A	
         R10	    318	   76.9249	      19.3	         0	        N/A	   77.1374	      19.3	         0	        N/A	   77.3499	      19.3	         0	        N/A	       N/A	       N/A	       N/A	        N/A	       N/A	       N/A	       N/A	        N/A	       N/A	       N/A	       N/A	        N/A	       N/A	       N/A	       N/A	        N/A	       N/A	       N/A	       N/A	        N/A	
         R10	    319	   77.3499	      19.3	         0	        N/A	   77.5624	      19.3	         0	        N/A	   77.7749	      19.3	         0	        N/A	       N/A	       N/A	       N/A	        N/A	       N/A	       N/A	       N/A	        N/A	       N/A	       N/A	       N/A	        N/A	       N/A	       N/A	       N/A	        N/A	       N/A	       N/A	       N/A	        N/A	
         R10	    320	   77.7749	      19.3	         0	        N/A	   77.9874	      19.3	         0	        N/A	   78.1999	      19.3	         0	        N/A	       N/A	       N/A	       N/A	        N/A	       N/A	       N/A	       N/A	        N/A	       N/A	       N/A	       N/A	        N/A	       N/A	       N/A	       N/A	        N/A	       N/A	       N/A	       N/A	        N/A	
         R10	    321	   78.1999	      19.3	         0	        N/A	   78.4125	      19.3	         0	        N/A	    78.625	      19.3	         0	        N/A	       N/A	       N/A	       N/A	        N/A	       N/A	       N/A	       N/A	        N/A	       N/A	       N/A	       N/A	        N/A	       N/A	       N/A	       N/A	        N/A	       N/A	       N/A	       N/A	        N/A	
         R10	    322	     72.25	      21.5	      2.25	        N/A	   72.4861	      21.5	      2.25	        N/A	   72.7222	      21.5	      2.25	        N/A	       N/A	       N/A	       N/A	        N/A	       N/A	       N/A	       N/A	        N/A	       N/A	       N/A	       N/A	        N/A	       N/A	       N/A	       N/A	        N/A	       N/A	       N/A	       N/A	        N/A	
         R10	    323	   72.7222	      21.5	      2.25	        N/A	   72.9583	      21.5	      2.25	        N/A	   73.1944	      21.5	      2.25	        N/A	       N/A	       N/A	       N/A	        N/A	       N/A	       N/A	       N/A	        N/A	       N/A	       N/A	       N/A	        N/A	       N/A	       N/A	       N/A	        N/A	       N/A	       N/A	       N/A	        N/A	
         R10	    324	   73.1944	      21.5	      2.25	        N/A	   73.4306	      21.5	      2.25	        N/A	   73.6667	      21.5	      2.25	        N/A	       N/A	       N/A	       N/A	        N/A	       N/A	       N/A	       N/A	        N/A	       N/A	       N/A	       N/A	        N/A	       N/A	       N/A	       N/A	        N/A	       N/A	       N/A	       N/A	        N/A	
         R10	    325	   73.6667	      21.5	      2.25	        N/A	   73.9028	      21.5	      2.25	        N/A	   74.1389	      21.5	      2.25	        N/A	       N/A	       N/A	       N/A	        N/A	       N/A	       N/A	       N/A	        N/A	       N/A	       N/A	       N/A	        N/A	       N/A	       N/A	       N/A	        N/A	       N/A	       N/A	       N/A	        N/A	
         R10	    326	   74.1389	      21.5	      2.25	        N/A	    74.375	      21.5	      2.25	        N/A	   74.6111	      21.5	      2.25	        N/A	       N/A	       N/A	       N/A	        N/A	       N/A	       N/A	       N/A	        N/A	       N/A	       N/A	       N/A	        N/A	       N/A	       N/A	       N/A	        N/A	       N/A	       N/A	       N/A	        N/A	
         R10	    327	   74.6111	      21.5	      2.25	        N/A	   74.8472	      21.5	      2.25	        N/A	   75.0833	      21.5	      2.25	        N/A	       N/A	       N/A	       N/A	        N/A	       N/A	       N/A	       N/A	        N/A	       N/A	       N/A	       N/A	        N/A	       N/A	       N/A	       N/A	        N/A	       N/A	       N/A	       N/A	        N/A	
         R10	    328	   75.0833	      21.5	      2.25	        N/A	   75.3194	      21.5	      2.25	        N/A	   75.5556	      21.5	      2.25	        N/A	       N/A	       N/A	       N/A	        N/A	       N/A	       N/A	       N/A	        N/A	       N/A	       N/A	       N/A	        N/A	       N/A	       N/A	       N/A	        N/A	       N/A	       N/A	       N/A	        N/A	
         R10	    329	   75.5556	      21.5	      2.25	        N/A	   75.7917	      21.5	      2.25	        N/A	   76.0278	      21.5	      2.25	        N/A	       N/A	       N/A	       N/A	        N/A	       N/A	       N/A	       N/A	        N/A	       N/A	       N/A	       N/A	        N/A	       N/A	       N/A	       N/A	        N/A	       N/A	       N/A	       N/A	        N/A	
         R10	    330	   76.0278	      21.5	      2.25	        N/A	   76.2639	      21.5	      2.25	        N/A	      76.5	      21.5	      2.25	        N/A	       N/A	       N/A	       N/A	        N/A	       N/A	       N/A	       N/A	        N/A	       N/A	       N/A	       N/A	        N/A	       N/A	       N/A	       N/A	        N/A	       N/A	       N/A	       N/A	        N/A	
         R10	    331	      76.5	      21.5	      2.25	        N/A	   76.7656	      21.5	      2.25	        N/A	   77.0313	      21.5	      2.25	        N/A	       N/A	       N/A	       N/A	        N/A	       N/A	       N/A	       N/A	        N/A	       N/A	       N/A	       N/A	        N/A	       N/A	       N/A	       N/A	        N/A	       N/A	       N/A	       N/A	        N/A	
         R10	    332	   77.0313	      21.5	      2.25	        N/A	   77.2969	      21.5	      2.25	        N/A	   77.5625	      21.5	      2.25	        N/A	       N/A	       N/A	       N/A	        N/A	       N/A	       N/A	       N/A	        N/A	       N/A	       N/A	       N/A	        N/A	       N/A	       N/A	       N/A	        N/A	       N/A	       N/A	       N/A	        N/A	
         R10	    333	   77.5625	      21.5	      2.25	        N/A	   77.8281	      21.5	      2.25	        N/A	   78.0938	      21.5	      2.25	        N/A	       N/A	       N/A	       N/A	        N/A	       N/A	       N/A	       N/A	        N/A	       N/A	       N/A	       N/A	        N/A	       N/A	       N/A	       N/A	        N/A	       N/A	       N/A	       N/A	        N/A	
         R10	    334	   78.0938	      21.5	      2.25	        N/A	   78.3594	      21.5	      2.25	        N/A	    78.625	      21.5	      2.25	        N/A	       N/A	       N/A	       N/A	        N/A	       N/A	       N/A	       N/A	        N/A	       N/A	       N/A	       N/A	        N/A	       N/A	       N/A	       N/A	        N/A	       N/A	       N/A	       N/A	        N/A	
         R10	    335	     72.25	      21.5	         3	        N/A	   72.5156	      21.5	         3	        N/A	   72.7813	      21.5	         3	        N/A	       N/A	       N/A	       N/A	        N/A	       N/A	       N/A	       N/A	        N/A	       N/A	       N/A	       N/A	        N/A	       N/A	       N/A	       N/A	        N/A	       N/A	       N/A	       N/A	        N/A	
         R10	    336	   72.7813	      21.5	         3	        N/A	   73.0469	      21.5	         3	        N/A	   73.3125	      21.5	         3	        N/A	       N/A	       N/A	       N/A	        N/A	       N/A	       N/A	       N/A	        N/A	       N/A	       N/A	       N/A	        N/A	       N/A	       N/A	       N/A	        N/A	       N/A	       N/A	       N/A	        N/A	
         R10	    337	   73.3125	      21.5	         3	        N/A	   73.5781	      21.5	         3	        N/A	   73.8438	      21.5	         3	        N/A	       N/A	       N/A	       N/A	        N/A	       N/A	       N/A	       N/A	        N/A	       N/A	       N/A	       N/A	        N/A	       N/A	       N/A	       N/A	        N/A	       N/A	       N/A	       N/A	        N/A	
         R10	    338	   73.8438	      21.5	         3	        N/A	   74.1094	      21.5	         3	        N/A	    74.375	      21.5	         3	        N/A	       N/A	       N/A	       N/A	        N/A	       N/A	       N/A	       N/A	        N/A	       N/A	       N/A	       N/A	        N/A	       N/A	       N/A	       N/A	        N/A	       N/A	       N/A	       N/A	        N/A	
         R10	    339	    74.375	      21.5	         3	        N/A	   74.6406	      21.5	         3	        N/A	   74.9063	      21.5	         3	        N/A	       N/A	       N/A	       N/A	        N/A	       N/A	       N/A	       N/A	        N/A	       N/A	       N/A	       N/A	        N/A	       N/A	       N/A	       N/A	        N/A	       N/A	       N/A	       N/A	        N/A	
         R10	    340	   74.9063	      21.5	         3	        N/A	   75.1719	      21.5	         3	        N/A	   75.4375	      21.5	         3	        N/A	       N/A	       N/A	       N/A	        N/A	       N/A	       N/A	       N/A	        N/A	       N/A	       N/A	       N/A	        N/A	       N/A	       N/A	       N/A	        N/A	       N/A	       N/A	       N/A	        N/A	
         R10	    341	   75.4375	      21.5	         3	        N/A	   75.7031	      21.5	         3	        N/A	   75.9688	      21.5	         3	        N/A	       N/A	       N/A	       N/A	        N/A	       N/A	       N/A	       N/A	        N/A	       N/A	       N/A	       N/A	        N/A	       N/A	       N/A	       N/A	        N/A	       N/A	       N/A	       N/A	        N/A	
         R10	    342	   75.9688	      21.5	         3	        N/A	   76.2344	      21.5	         3	        N/A	      76.5	      21.5	         3	        N/A	       N/A	       N/A	       N/A	        N/A	       N/A	       N/A	       N/A	        N/A	       N/A	       N/A	       N/A	        N/A	       N/A	       N/A	       N/A	        N/A	       N/A	       N/A	       N/A	        N/A	
         R10	    343	      76.5	      21.5	         3	        N/A	   76.7656	      21.5	         3	        N/A	   77.0313	      21.5	         3	        N/A	       N/A	       N/A	       N/A	        N/A	       N/A	       N/A	       N/A	        N/A	       N/A	       N/A	       N/A	        N/A	       N/A	       N/A	       N/A	        N/A	       N/A	       N/A	       N/A	        N/A	
         R10	    344	   77.0313	      21.5	         3	        N/A	   77.2969	      21.5	         3	        N/A	   77.5625	      21.5	         3	        N/A	       N/A	       N/A	       N/A	        N/A	       N/A	       N/A	       N/A	        N/A	       N/A	       N/A	       N/A	        N/A	       N/A	       N/A	       N/A	        N/A	       N/A	       N/A	       N/A	        N/A	
         R10	    345	   77.5625	      21.5	         3	        N/A	   77.8281	      21.5	         3	        N/A	   78.0938	      21.5	         3	        N/A	       N/A	       N/A	       N/A	        N/A	       N/A	       N/A	       N/A	        N/A	       N/A	       N/A	       N/A	        N/A	       N/A	       N/A	       N/A	        N/A	       N/A	       N/A	       N/A	        N/A	
         R10	    346	   78.0938	      21.5	         3	        N/A	   78.3594	      21.5	         3	        N/A	    78.625	      21.5	         3	        N/A	       N/A	       N/A	       N/A	        N/A	       N/A	       N/A	       N/A	        N/A	       N/A	       N/A	       N/A	        N/A	       N/A	       N/A	       N/A	        N/A	       N/A	       N/A	       N/A	        N/A	
         R10	    347	     72.25	      21.5	      3.75	        N/A	   72.5576	      21.5	      3.75	        N/A	   72.8652	      21.5	      3.75	        N/A	       N/A	       N/A	       N/A	        N/A	       N/A	       N/A	       N/A	        N/A	       N/A	       N/A	       N/A	        N/A	       N/A	       N/A	       N/A	        N/A	       N/A	       N/A	       N/A	        N/A	
         R10	    348	   72.8652	      21.5	      3.75	        N/A	   73.1714	      21.5	      3.75	        N/A	   73.4777	      21.5	      3.75	        N/A	       N/A	       N/A	       N/A	        N/A	       N/A	       N/A	       N/A	        N/A	       N/A	       N/A	       N/A	        N/A	       N/A	       N/A	       N/A	        N/A	       N/A	       N/A	       N/A	        N/A	
         R10	    349	   73.4777	      21.5	      3.75	        N/A	   73.7826	      21.5	      3.75	        N/A	   74.0875	      21.5	      3.75	        N/A	       N/A	       N/A	       N/A	        N/A	       N/A	       N/A	       N/A	        N/A	       N/A	       N/A	       N/A	        N/A	       N/A	       N/A	       N/A	        N/A	       N/A	       N/A	       N/A	        N/A	
         R10	    350	   74.0875	      21.5	      3.75	        N/A	   74.3911	      21.5	      3.75	        N/A	   74.6946	      21.5	      3.75	        N/A	       N/A	       N/A	       N/A	        N/A	       N/A	       N/A	       N/A	        N/A	       N/A	       N/A	       N/A	        N/A	       N/A	       N/A	       N/A	        N/A	       N/A	       N/A	       N/A	        N/A	
         R10	    351	   74.6946	      21.5	      3.75	        N/A	   74.9969	      21.5	      3.75	        N/A	   75.2991	      21.5	      3.75	        N/A	       N/A	       N/A	       N/A	        N/A	       N/A	       N/A	       N/A	        N/A	       N/A	       N/A	       N/A	        N/A	       N/A	       N/A	       N/A	        N/A	       N/A	       N/A	       N/A	        N/A	
         R10	    352	   75.2991	      21.5	      3.75	        N/A	      75.6	      21.5	      3.75	        N/A	   75.9009	      21.5	      3.75	        N/A	       N/A	       N/A	       N/A	        N/A	       N/A	       N/A	       N/A	        N/A	       N/A	       N/A	       N/A	        N/A	       N/A	       N/A	       N/A	        N/A	       N/A	       N/A	       N/A	        N/A	
         R10	    353	   75.9009	      21.5	      3.75	        N/A	   76.2004	      21.5	      3.75	        N/A	      76.5	      21.5	      3.75	        N/A	       N/A	       N/A	       N/A	        N/A	       N/A	       N/A	       N/A	        N/A	       N/A	       N/A	       N/A	        N/A	       N/A	       N/A	       N/A	        N/A	       N/A	       N/A	       N/A	        N/A	
         R10	    354	      76.5	      21.5	      3.75	        N/A	   76.7621	      21.5	      3.75	        N/A	   77.0242	      21.5	      3.75	        N/A	       N/A	       N/A	       N/A	        N/A	       N/A	       N/A	       N/A	        N/A	       N/A	       N/A	       N/A	        N/A	       N/A	       N/A	       N/A	        N/A	       N/A	       N/A	       N/A	        N/A	
         R10	    355	   77.0242	      21.5	      3.75	        N/A	   77.2887	      21.5	      3.75	        N/A	   77.5531	      21.5	      3.75	        N/A	       N/A	       N/A	       N/A	        N/A	       N/A	       N/A	       N/A	        N/A	       N/A	       N/A	       N/A	        N/A	       N/A	       N/A	       N/A	        N/A	       N/A	       N/A	       N/A	        N/A	
         R10	    356	   77.5531	      21.5	      3.75	        N/A	   77.8199	      21.5	      3.75	        N/A	   78.0867	      21.5	      3.75	        N/A	       N/A	       N/A	       N/A	        N/A	       N/A	       N/A	       N/A	        N/A	       N/A	       N/A	       N/A	        N/A	       N/A	       N/A	       N/A	        N/A	       N/A	       N/A	       N/A	        N/A	
         R10	    357	   78.0867	      21.5	      3.75	        N/A	   78.3559	      21.5	      3.75	        N/A	    78.625	      21.5	      3.75	        N/A	       N/A	       N/A	       N/A	        N/A	       N/A	       N/A	       N/A	        N/A	       N/A	       N/A	       N/A	        N/A	       N/A	       N/A	       N/A	        N/A	       N/A	       N/A	       N/A	        N/A	
         R10	    358	     72.25	      21.5	       4.5	        N/A	   72.5864	      21.5	       4.5	        N/A	   72.9228	      21.5	       4.5	        N/A	       N/A	       N/A	       N/A	        N/A	       N/A	       N/A	       N/A	        N/A	       N/A	       N/A	       N/A	        N/A	       N/A	       N/A	       N/A	        N/A	       N/A	       N/A	       N/A	        N/A	
         R10	    359	   72.9228	      21.5	       4.5	        N/A	   73.2482	      21.5	       4.5	        N/A	   73.5737	      21.5	       4.5	        N/A	       N/A	       N/A	       N/A	        N/A	       N/A	       N/A	       N/A	        N/A	       N/A	       N/A	       N/A	        N/A	       N/A	       N/A	       N/A	        N/A	       N/A	       N/A	       N/A	        N/A	
         R10	    360	   73.5737	      21.5	       4.5	        N/A	   73.8882	      21.5	       4.5	        N/A	   74.2027	      21.5	       4.5	        N/A	       N/A	       N/A	       N/A	        N/A	       N/A	       N/A	       N/A	        N/A	       N/A	       N/A	       N/A	        N/A	       N/A	       N/A	       N/A	        N/A	       N/A	       N/A	       N/A	        N/A	
         R10	    361	   74.2027	      21.5	       4.5	        N/A	   74.5063	      21.5	       4.5	        N/A	   74.8099	      21.5	       4.5	        N/A	       N/A	       N/A	       N/A	        N/A	       N/A	       N/A	       N/A	        N/A	       N/A	       N/A	       N/A	        N/A	       N/A	       N/A	       N/A	        N/A	       N/A	       N/A	       N/A	        N/A	
         R10	    362	   74.8099	      21.5	       4.5	        N/A	   75.1025	      21.5	       4.5	        N/A	   75.3951	      21.5	       4.5	        N/A	       N/A	       N/A	       N/A	        N/A	       N/A	       N/A	       N/A	        N/A	       N/A	       N/A	       N/A	        N/A	       N/A	       N/A	       N/A	        N/A	       N/A	       N/A	       N/A	        N/A	
         R10	    363	   75.3951	      21.5	       4.5	        N/A	   75.6768	      21.5	       4.5	        N/A	   75.9585	      21.5	       4.5	        N/A	       N/A	       N/A	       N/A	        N/A	       N/A	       N/A	       N/A	        N/A	       N/A	       N/A	       N/A	        N/A	       N/A	       N/A	       N/A	        N/A	       N/A	       N/A	       N/A	        N/A	
         R10	    364	   75.9585	      21.5	       4.5	        N/A	   76.2292	      21.5	       4.5	        N/A	      76.5	      21.5	       4.5	        N/A	       N/A	       N/A	       N/A	        N/A	       N/A	       N/A	       N/A	        N/A	       N/A	       N/A	       N/A	        N/A	       N/A	       N/A	       N/A	        N/A	       N/A	       N/A	       N/A	        N/A	
         R10	    365	      76.5	      21.5	       4.5	        N/A	   76.7369	      21.5	       4.5	        N/A	   76.9738	      21.5	       4.5	        N/A	       N/A	       N/A	       N/A	        N/A	       N/A	       N/A	       N/A	        N/A	       N/A	       N/A	       N/A	        N/A	       N/A	       N/A	       N/A	        N/A	       N/A	       N/A	       N/A	        N/A	
         R10	    366	   76.9738	      21.5	       4.5	        N/A	   77.2299	      21.5	       4.5	        N/A	   77.4859	      21.5	       4.5	        N/A	       N/A	       N/A	       N/A	        N/A	       N/A	       N/A	       N/A	        N/A	       N/A	       N/A	       N/A	        N/A	       N/A	       N/A	       N/A	        N/A	       N/A	       N/A	       N/A	        N/A	
         R10	    367	   77.4859	      21.5	       4.5	        N/A	   77.7611	      21.5	       4.5	        N/A	   78.0363	      21.5	       4.5	        N/A	       N/A	       N/A	       N/A	        N/A	       N/A	       N/A	       N/A	        N/A	       N/A	       N/A	       N/A	        N/A	       N/A	       N/A	       N/A	        N/A	       N/A	       N/A	       N/A	        N/A	
         R10	    368	   78.0363	      21.5	       4.5	        N/A	   78.3307	      21.5	       4.5	        N/A	    78.625	      21.5	       4.5	        N/A	       N/A	       N/A	       N/A	        N/A	       N/A	       N/A	       N/A	        N/A	       N/A	       N/A	       N/A	        N/A	       N/A	       N/A	       N/A	        N/A	       N/A	       N/A	       N/A	        N/A	
         R10	    369	      76.5	   19.5952	       7.7	        N/A	      76.5	   19.2976	       7.7	        N/A	      76.5	        19	       7.7	        N/A	       N/A	       N/A	       N/A	        N/A	       N/A	       N/A	       N/A	        N/A	       N/A	       N/A	       N/A	        N/A	       N/A	       N/A	       N/A	        N/A	       N/A	       N/A	       N/A	        N/A	
         R10	    370	      76.5	   20.2103	       7.7	        N/A	      76.5	   19.9028	       7.7	        N/A	      76.5	   19.5952	       7.7	        N/A	       N/A	       N/A	       N/A	        N/A	       N/A	       N/A	       N/A	        N/A	       N/A	       N/A	       N/A	        N/A	       N/A	       N/A	       N/A	        N/A	       N/A	       N/A	       N/A	        N/A	
         R10	    371	      76.5	   20.8452	       7.7	        N/A	      76.5	   20.5278	       7.7	        N/A	      76.5	   20.2103	       7.7	        N/A	       N/A	       N/A	       N/A	        N/A	       N/A	       N/A	       N/A	        N/A	       N/A	       N/A	       N/A	        N/A	       N/A	       N/A	       N/A	        N/A	       N/A	       N/A	       N/A	        N/A	
         R10	    372	      76.5	      21.5	       7.7	        N/A	      76.5	   21.1726	       7.7	        N/A	      76.5	   20.8452	       7.7	        N/A	       N/A	       N/A	       N/A	        N/A	       N/A	       N/A	       N/A	        N/A	       N/A	       N/A	       N/A	        N/A	       N/A	       N/A	       N/A	        N/A	       N/A	       N/A	       N/A	        N/A	
         R10	    373	      76.5	   19.4762	      6.85	        N/A	      76.5	   19.2381	      6.85	        N/A	      76.5	        19	      6.85	        N/A	       N/A	       N/A	       N/A	        N/A	       N/A	       N/A	       N/A	        N/A	       N/A	       N/A	       N/A	        N/A	       N/A	       N/A	       N/A	        N/A	       N/A	       N/A	       N/A	        N/A	
         R10	    374	      76.5	   19.9643	      6.85	        N/A	      76.5	   19.7202	      6.85	        N/A	      76.5	   19.4762	      6.85	        N/A	       N/A	       N/A	       N/A	        N/A	       N/A	       N/A	       N/A	        N/A	       N/A	       N/A	       N/A	        N/A	       N/A	       N/A	       N/A	        N/A	       N/A	       N/A	       N/A	        N/A	
         R10	    375	      76.5	   20.4643	      6.85	        N/A	      76.5	   20.2143	      6.85	        N/A	      76.5	   19.9643	      6.85	        N/A	       N/A	       N/A	       N/A	        N/A	       N/A	       N/A	       N/A	        N/A	       N/A	       N/A	       N/A	        N/A	       N/A	       N/A	       N/A	        N/A	       N/A	       N/A	       N/A	        N/A	
         R10	    376	      76.5	   20.9762	      6.85	        N/A	      76.5	   20.7202	      6.85	        N/A	      76.5	   20.4643	      6.85	        N/A	       N/A	       N/A	       N/A	        N/A	       N/A	       N/A	       N/A	        N/A	       N/A	       N/A	       N/A	        N/A	       N/A	       N/A	       N/A	        N/A	       N/A	       N/A	       N/A	        N/A	
         R10	    377	      76.5	      21.5	      6.85	        N/A	      76.5	   21.2381	      6.85	        N/A	      76.5	   20.9762	      6.85	        N/A	       N/A	       N/A	       N/A	        N/A	       N/A	       N/A	       N/A	        N/A	       N/A	       N/A	       N/A	        N/A	       N/A	       N/A	       N/A	        N/A	       N/A	       N/A	       N/A	        N/A	
         R10	    378	      76.5	   19.7937	       9.4	        N/A	      76.5	   19.3968	       9.4	        N/A	      76.5	        19	       9.4	        N/A	       N/A	       N/A	       N/A	        N/A	       N/A	       N/A	       N/A	        N/A	       N/A	       N/A	       N/A	        N/A	       N/A	       N/A	       N/A	        N/A	       N/A	       N/A	       N/A	        N/A	
         R10	    379	      76.5	    20.627	       9.4	        N/A	      76.5	   20.2103	       9.4	        N/A	      76.5	   19.7937	       9.4	        N/A	       N/A	       N/A	       N/A	        N/A	       N/A	       N/A	       N/A	        N/A	       N/A	       N/A	       N/A	        N/A	       N/A	       N/A	       N/A	        N/A	       N/A	       N/A	       N/A	        N/A	
         R10	    380	      76.5	      21.5	       9.4	        N/A	      76.5	   21.0635	       9.4	        N/A	      76.5	    20.627	       9.4	        N/A	       N/A	       N/A	       N/A	        N/A	       N/A	       N/A	       N/A	        N/A	       N/A	       N/A	       N/A	        N/A	       N/A	       N/A	       N/A	        N/A	       N/A	       N/A	       N/A	        N/A	
         R10	    381	      76.5	   19.5952	      8.55	        N/A	      76.5	   19.2976	      8.55	        N/A	      76.5	        19	      8.55	        N/A	       N/A	       N/A	       N/A	        N/A	       N/A	       N/A	       N/A	        N/A	       N/A	       N/A	       N/A	        N/A	       N/A	       N/A	       N/A	        N/A	       N/A	       N/A	       N/A	        N/A	
         R10	    382	      76.5	   20.2103	      8.55	        N/A	      76.5	   19.9028	      8.55	        N/A	      76.5	   19.5952	      8.55	        N/A	       N/A	       N/A	       N/A	        N/A	       N/A	       N/A	       N/A	        N/A	       N/A	       N/A	       N/A	        N/A	       N/A	       N/A	       N/A	        N/A	       N/A	       N/A	       N/A	        N/A	
         R10	    383	      76.5	   20.8452	      8.55	        N/A	      76.5	   20.5278	      8.55	        N/A	      76.5	   20.2103	      8.55	        N/A	       N/A	       N/A	       N/A	        N/A	       N/A	       N/A	       N/A	        N/A	       N/A	       N/A	       N/A	        N/A	       N/A	       N/A	       N/A	        N/A	       N/A	       N/A	       N/A	        N/A	
         R10	    384	      76.5	      21.5	      8.55	        N/A	      76.5	   21.1726	      8.55	        N/A	      76.5	   20.8452	      8.55	        N/A	       N/A	       N/A	       N/A	        N/A	       N/A	       N/A	       N/A	        N/A	       N/A	       N/A	       N/A	        N/A	       N/A	       N/A	       N/A	        N/A	       N/A	       N/A	       N/A	        N/A	
         R10	    385	     72.25	      21.5	      5.25	        N/A	   72.6006	      21.5	      5.25	        N/A	   72.9512	      21.5	      5.25	        N/A	       N/A	       N/A	       N/A	        N/A	       N/A	       N/A	       N/A	        N/A	       N/A	       N/A	       N/A	        N/A	       N/A	       N/A	       N/A	        N/A	       N/A	       N/A	       N/A	        N/A	
         R10	    386	   72.9512	      21.5	      5.25	        N/A	   73.2861	      21.5	      5.25	        N/A	   73.6211	      21.5	      5.25	        N/A	       N/A	       N/A	       N/A	        N/A	       N/A	       N/A	       N/A	        N/A	       N/A	       N/A	       N/A	        N/A	       N/A	       N/A	       N/A	        N/A	       N/A	       N/A	       N/A	        N/A	
         R10	    387	   73.6211	      21.5	      5.25	        N/A	   73.9403	      21.5	      5.25	        N/A	   74.2596	      21.5	      5.25	        N/A	       N/A	       N/A	       N/A	        N/A	       N/A	       N/A	       N/A	        N/A	       N/A	       N/A	       N/A	        N/A	       N/A	       N/A	       N/A	        N/A	       N/A	       N/A	       N/A	        N/A	
         R10	    388	   74.2596	      21.5	      5.25	        N/A	   74.5631	      21.5	      5.25	        N/A	   74.8667	      21.5	      5.25	        N/A	       N/A	       N/A	       N/A	        N/A	       N/A	       N/A	       N/A	        N/A	       N/A	       N/A	       N/A	        N/A	       N/A	       N/A	       N/A	        N/A	       N/A	       N/A	       N/A	        N/A	
         R10	    389	   74.8667	      21.5	      5.25	        N/A	   75.1546	      21.5	      5.25	        N/A	   75.4425	      21.5	      5.25	        N/A	       N/A	       N/A	       N/A	        N/A	       N/A	       N/A	       N/A	        N/A	       N/A	       N/A	       N/A	        N/A	       N/A	       N/A	       N/A	        N/A	       N/A	       N/A	       N/A	        N/A	
         R10	    390	   75.4425	      21.5	      5.25	        N/A	   75.7147	      21.5	      5.25	        N/A	   75.9869	      21.5	      5.25	        N/A	       N/A	       N/A	       N/A	        N/A	       N/A	       N/A	       N/A	        N/A	       N/A	       N/A	       N/A	        N/A	       N/A	       N/A	       N/A	        N/A	       N/A	       N/A	       N/A	        N/A	
         R10	    391	   75.9869	      21.5	      5.25	        N/A	   76.2435	      21.5	      5.25	        N/A	      76.5	      21.5	      5.25	        N/A	       N/A	       N/A	       N/A	        N/A	       N/A	       N/A	       N/A	        N/A	       N/A	       N/A	       N/A	        N/A	       N/A	       N/A	       N/A	        N/A	       N/A	       N/A	       N/A	        N/A	
         R10	    392	      76.5	      21.5	      5.25	        N/A	   76.7279	      21.5	      5.25	        N/A	   76.9558	      21.5	      5.25	        N/A	       N/A	       N/A	       N/A	        N/A	       N/A	       N/A	       N/A	        N/A	       N/A	       N/A	       N/A	        N/A	       N/A	       N/A	       N/A	        N/A	       N/A	       N/A	       N/A	        N/A	
         R10	    393	   76.9558	      21.5	      5.25	        N/A	   77.2089	      21.5	      5.25	        N/A	   77.4619	      21.5	      5.25	        N/A	       N/A	       N/A	       N/A	        N/A	       N/A	       N/A	       N/A	        N/A	       N/A	       N/A	       N/A	        N/A	       N/A	       N/A	       N/A	        N/A	       N/A	       N/A	       N/A	        N/A	
         R10	    394	   77.4619	      21.5	      5.25	        N/A	   77.7401	      21.5	      5.25	        N/A	   78.0183	      21.5	      5.25	        N/A	       N/A	       N/A	       N/A	        N/A	       N/A	       N/A	       N/A	        N/A	       N/A	       N/A	       N/A	        N/A	       N/A	       N/A	       N/A	        N/A	       N/A	       N/A	       N/A	        N/A	
         R10	    395	   78.0183	      21.5	      5.25	        N/A	   78.3217	      21.5	      5.25	        N/A	    78.625	      21.5	      5.25	        N/A	       N/A	       N/A	       N/A	        N/A	       N/A	       N/A	       N/A	        N/A	       N/A	       N/A	       N/A	        N/A	       N/A	       N/A	       N/A	        N/A	       N/A	       N/A	       N/A	        N/A	
         R10	    396	     72.25	      21.5	      6.85	        N/A	   72.6701	      21.5	      6.85	        N/A	   73.0903	      21.5	      6.85	        N/A	       N/A	       N/A	       N/A	        N/A	       N/A	       N/A	       N/A	        N/A	       N/A	       N/A	       N/A	        N/A	       N/A	       N/A	       N/A	        N/A	       N/A	       N/A	       N/A	        N/A	
         R10	    397	   73.0903	      21.5	      6.85	        N/A	    73.484	      21.5	      6.85	        N/A	   73.8778	      21.5	      6.85	        N/A	       N/A	       N/A	       N/A	        N/A	       N/A	       N/A	       N/A	        N/A	       N/A	       N/A	       N/A	        N/A	       N/A	       N/A	       N/A	        N/A	       N/A	       N/A	       N/A	        N/A	
         R10	    398	   73.8778	      21.5	      6.85	        N/A	   74.2452	      21.5	      6.85	        N/A	   74.6125	      21.5	      6.85	        N/A	       N/A	       N/A	       N/A	        N/A	       N/A	       N/A	       N/A	        N/A	       N/A	       N/A	       N/A	        N/A	       N/A	       N/A	       N/A	        N/A	       N/A	       N/A	       N/A	        N/A	
         R10	    399	   74.6125	      21.5	      6.85	        N/A	   74.9535	      21.5	      6.85	        N/A	   75.2945	      21.5	      6.85	        N/A	       N/A	       N/A	       N/A	        N/A	       N/A	       N/A	       N/A	        N/A	       N/A	       N/A	       N/A	        N/A	       N/A	       N/A	       N/A	        N/A	       N/A	       N/A	       N/A	        N/A	
         R10	    400	   75.2945	      21.5	      6.85	        N/A	    75.609	      21.5	      6.85	        N/A	   75.9236	      21.5	      6.85	        N/A	       N/A	       N/A	       N/A	        N/A	       N/A	       N/A	       N/A	        N/A	       N/A	       N/A	       N/A	        N/A	       N/A	       N/A	       N/A	        N/A	       N/A	       N/A	       N/A	        N/A	
         R10	    401	   75.9236	      21.5	      6.85	        N/A	   76.2118	      21.5	      6.85	        N/A	      76.5	      21.5	      6.85	        N/A	       N/A	       N/A	       N/A	        N/A	       N/A	       N/A	       N/A	        N/A	       N/A	       N/A	       N/A	        N/A	       N/A	       N/A	       N/A	        N/A	       N/A	       N/A	       N/A	        N/A	
         R10	    402	      76.5	      21.5	      6.85	        N/A	   76.8205	      21.5	      6.85	        N/A	    77.141	      21.5	      6.85	        N/A	       N/A	       N/A	       N/A	        N/A	       N/A	       N/A	       N/A	        N/A	       N/A	       N/A	       N/A	        N/A	       N/A	       N/A	       N/A	        N/A	       N/A	       N/A	       N/A	        N/A	
         R10	    403	    77.141	      21.5	      6.85	        N/A	   77.4952	      21.5	      6.85	        N/A	   77.8494	      21.5	      6.85	        N/A	       N/A	       N/A	       N/A	        N/A	       N/A	       N/A	       N/A	        N/A	       N/A	       N/A	       N/A	        N/A	       N/A	       N/A	       N/A	        N/A	       N/A	       N/A	       N/A	        N/A	
         R10	    404	   77.8494	      21.5	      6.85	        N/A	   78.2372	      21.5	      6.85	        N/A	    78.625	      21.5	      6.85	        N/A	       N/A	       N/A	       N/A	        N/A	       N/A	       N/A	       N/A	        N/A	       N/A	       N/A	       N/A	        N/A	       N/A	       N/A	       N/A	        N/A	       N/A	       N/A	       N/A	        N/A	
         R10	    405	     72.25	      21.5	       7.7	        N/A	   72.6589	      21.5	       7.7	        N/A	   73.0678	      21.5	       7.7	        N/A	       N/A	       N/A	       N/A	        N/A	       N/A	       N/A	       N/A	        N/A	       N/A	       N/A	       N/A	        N/A	       N/A	       N/A	       N/A	        N/A	       N/A	       N/A	       N/A	        N/A	
         R10	    406	   73.0678	      21.5	       7.7	        N/A	   73.4548	      21.5	       7.7	        N/A	   73.8418	      21.5	       7.7	        N/A	       N/A	       N/A	       N/A	        N/A	       N/A	       N/A	       N/A	        N/A	       N/A	       N/A	       N/A	        N/A	       N/A	       N/A	       N/A	        N/A	       N/A	       N/A	       N/A	        N/A	
         R10	    407	   73.8418	      21.5	       7.7	        N/A	   74.2069	      21.5	       7.7	        N/A	    74.572	      21.5	       7.7	        N/A	       N/A	       N/A	       N/A	        N/A	       N/A	       N/A	       N/A	        N/A	       N/A	       N/A	       N/A	        N/A	       N/A	       N/A	       N/A	        N/A	       N/A	       N/A	       N/A	        N/A	
         R10	    408	    74.572	      21.5	       7.7	        N/A	   74.9152	      21.5	       7.7	        N/A	   75.2585	      21.5	       7.7	        N/A	       N/A	       N/A	       N/A	        N/A	       N/A	       N/A	       N/A	        N/A	       N/A	       N/A	       N/A	        N/A	       N/A	       N/A	       N/A	        N/A	       N/A	       N/A	       N/A	        N/A	
         R10	    409	   75.2585	      21.5	       7.7	        N/A	   75.5798	      21.5	       7.7	        N/A	   75.9011	      21.5	       7.7	        N/A	       N/A	       N/A	       N/A	        N/A	       N/A	       N/A	       N/A	        N/A	       N/A	       N/A	       N/A	        N/A	       N/A	       N/A	       N/A	        N/A	       N/A	       N/A	       N/A	        N/A	
         R10	    410	   75.9011	      21.5	       7.7	        N/A	   76.2006	      21.5	       7.7	        N/A	      76.5	      21.5	       7.7	        N/A	       N/A	       N/A	       N/A	        N/A	       N/A	       N/A	       N/A	        N/A	       N/A	       N/A	       N/A	        N/A	       N/A	       N/A	       N/A	        N/A	       N/A	       N/A	       N/A	        N/A	
         R10	    411	      76.5	      21.5	       7.7	        N/A	   76.8205	      21.5	       7.7	        N/A	    77.141	      21.5	       7.7	        N/A	       N/A	       N/A	       N/A	        N/A	       N/A	       N/A	       N/A	        N/A	       N/A	       N/A	       N/A	        N/A	       N/A	       N/A	       N/A	        N/A	       N/A	       N/A	       N/A	        N/A	
         R10	    412	    77.141	      21.5	       7.7	        N/A	   77.4952	      21.5	       7.7	        N/A	   77.8494	      21.5	       7.7	        N/A	       N/A	       N/A	       N/A	        N/A	       N/A	       N/A	       N/A	        N/A	       N/A	       N/A	       N/A	        N/A	       N/A	       N/A	       N/A	        N/A	       N/A	       N/A	       N/A	        N/A	
         R10	    413	   77.8494	      21.5	       7.7	        N/A	   78.2372	      21.5	       7.7	        N/A	    78.625	      21.5	       7.7	        N/A	       N/A	       N/A	       N/A	        N/A	       N/A	       N/A	       N/A	        N/A	       N/A	       N/A	       N/A	        N/A	       N/A	       N/A	       N/A	        N/A	       N/A	       N/A	       N/A	        N/A	
         R10	    414	      76.5	      13.6	  0.316892	        N/A	      76.5	      13.6	  0.158446	        N/A	      76.5	      13.6	         0	        N/A	       N/A	       N/A	       N/A	        N/A	       N/A	       N/A	       N/A	        N/A	       N/A	       N/A	       N/A	        N/A	       N/A	       N/A	       N/A	        N/A	       N/A	       N/A	       N/A	        N/A	
         R10	    415	      76.5	      13.6	  0.583559	        N/A	      76.5	      13.6	  0.450225	        N/A	      76.5	      13.6	  0.316892	        N/A	       N/A	       N/A	       N/A	        N/A	       N/A	       N/A	       N/A	        N/A	       N/A	       N/A	       N/A	        N/A	       N/A	       N/A	       N/A	        N/A	       N/A	       N/A	       N/A	        N/A	
         R10	    416	      76.5	      13.6	       0.8	        N/A	      76.5	      13.6	  0.691779	        N/A	      76.5	      13.6	  0.583559	        N/A	       N/A	       N/A	       N/A	        N/A	       N/A	       N/A	       N/A	        N/A	       N/A	       N/A	       N/A	        N/A	       N/A	       N/A	       N/A	        N/A	       N/A	       N/A	       N/A	        N/A	
         R10	    417	      76.5	      13.6	   1.04677	        N/A	      76.5	      13.6	  0.923387	        N/A	      76.5	      13.6	       0.8	        N/A	       N/A	       N/A	       N/A	        N/A	       N/A	       N/A	       N/A	        N/A	       N/A	       N/A	       N/A	        N/A	       N/A	       N/A	       N/A	        N/A	       N/A	       N/A	       N/A	        N/A	
         R10	    418	      76.5	      13.6	   1.28018	        N/A	      76.5	      13.6	   1.16348	        N/A	      76.5	      13.6	   1.04677	        N/A	       N/A	       N/A	       N/A	        N/A	       N/A	       N/A	       N/A	        N/A	       N/A	       N/A	       N/A	        N/A	       N/A	       N/A	       N/A	        N/A	       N/A	       N/A	       N/A	        N/A	
         R10	    419	      76.5	      13.6	   1.50023	        N/A	      76.5	      13.6	   1.39021	        N/A	      76.5	      13.6	   1.28018	        N/A	       N/A	       N/A	       N/A	        N/A	       N/A	       N/A	       N/A	        N/A	       N/A	       N/A	       N/A	        N/A	       N/A	       N/A	       N/A	        N/A	       N/A	       N/A	       N/A	        N/A	
         R10	    420	      76.5	      13.6	   1.70691	        N/A	      76.5	      13.6	   1.60357	        N/A	      76.5	      13.6	   1.50023	        N/A	       N/A	       N/A	       N/A	        N/A	       N/A	       N/A	       N/A	        N/A	       N/A	       N/A	       N/A	        N/A	       N/A	       N/A	       N/A	        N/A	       N/A	       N/A	       N/A	        N/A	
         R10	    421	      76.5	      13.6	   1.90023	        N/A	      76.5	      13.6	   1.80357	        N/A	      76.5	      13.6	   1.70691	        N/A	       N/A	       N/A	       N/A	        N/A	       N/A	       N/A	       N/A	        N/A	       N/A	       N/A	       N/A	        N/A	       N/A	       N/A	       N/A	        N/A	       N/A	       N/A	       N/A	        N/A	
         R10	    422	      76.5	      13.6	   2.08018	        N/A	      76.5	      13.6	   1.99021	        N/A	      76.5	      13.6	   1.90023	        N/A	       N/A	       N/A	       N/A	        N/A	       N/A	       N/A	       N/A	        N/A	       N/A	       N/A	       N/A	        N/A	       N/A	       N/A	       N/A	        N/A	       N/A	       N/A	       N/A	        N/A	
         R10	    423	      76.5	      13.6	   2.24677	        N/A	      76.5	      13.6	   2.16348	        N/A	      76.5	      13.6	   2.08018	        N/A	       N/A	       N/A	       N/A	        N/A	       N/A	       N/A	       N/A	        N/A	       N/A	       N/A	       N/A	        N/A	       N/A	       N/A	       N/A	        N/A	       N/A	       N/A	       N/A	        N/A	
         R10	    424	      76.5	      13.6	       2.4	        N/A	      76.5	      13.6	   2.32339	        N/A	      76.5	      13.6	   2.24677	        N/A	       N/A	       N/A	       N/A	        N/A	       N/A	       N/A	       N/A	        N/A	       N/A	       N/A	       N/A	        N/A	       N/A	       N/A	       N/A	        N/A	       N/A	       N/A	       N/A	        N/A	
         R10	    425	     72.25	      21.5	      8.55	        N/A	   72.6423	      21.5	      8.55	        N/A	   73.0346	      21.5	      8.55	        N/A	       N/A	       N/A	       N/A	        N/A	       N/A	       N/A	       N/A	        N/A	       N/A	       N/A	       N/A	        N/A	       N/A	       N/A	       N/A	        N/A	       N/A	       N/A	       N/A	        N/A	
         R10	    426	   73.0346	      21.5	      8.55	        N/A	   73.4117	      21.5	      8.55	        N/A	   73.7887	      21.5	      8.55	        N/A	       N/A	       N/A	       N/A	        N/A	       N/A	       N/A	       N/A	        N/A	       N/A	       N/A	       N/A	        N/A	       N/A	       N/A	       N/A	        N/A	       N/A	       N/A	       N/A	        N/A	
         R10	    427	   73.7887	      21.5	      8.55	        N/A	   74.1505	      21.5	      8.55	        N/A	   74.5123	      21.5	      8.55	        N/A	       N/A	       N/A	       N/A	        N/A	       N/A	       N/A	       N/A	        N/A	       N/A	       N/A	       N/A	        N/A	       N/A	       N/A	       N/A	        N/A	       N/A	       N/A	       N/A	        N/A	
         R10	    428	   74.5123	      21.5	      8.55	        N/A	   74.8588	      21.5	      8.55	        N/A	   75.2054	      21.5	      8.55	        N/A	       N/A	       N/A	       N/A	        N/A	       N/A	       N/A	       N/A	        N/A	       N/A	       N/A	       N/A	        N/A	       N/A	       N/A	       N/A	        N/A	       N/A	       N/A	       N/A	        N/A	
         R10	    429	   75.2054	      21.5	      8.55	        N/A	   75.5367	      21.5	      8.55	        N/A	   75.8679	      21.5	      8.55	        N/A	       N/A	       N/A	       N/A	        N/A	       N/A	       N/A	       N/A	        N/A	       N/A	       N/A	       N/A	        N/A	       N/A	       N/A	       N/A	        N/A	       N/A	       N/A	       N/A	        N/A	
         R10	    430	   75.8679	      21.5	      8.55	        N/A	    76.184	      21.5	      8.55	        N/A	      76.5	      21.5	      8.55	        N/A	       N/A	       N/A	       N/A	        N/A	       N/A	       N/A	       N/A	        N/A	       N/A	       N/A	       N/A	        N/A	       N/A	       N/A	       N/A	        N/A	       N/A	       N/A	       N/A	        N/A	
         R10	    431	      76.5	      21.5	      8.55	        N/A	   76.8205	      21.5	      8.55	        N/A	    77.141	      21.5	      8.55	        N/A	       N/A	       N/A	       N/A	        N/A	       N/A	       N/A	       N/A	        N/A	       N/A	       N/A	       N/A	        N/A	       N/A	       N/A	       N/A	        N/A	       N/A	       N/A	       N/A	        N/A	
         R10	    432	    77.141	      21.5	      8.55	        N/A	   77.4952	      21.5	      8.55	        N/A	   77.8494	      21.5	      8.55	        N/A	       N/A	       N/A	       N/A	        N/A	       N/A	       N/A	       N/A	        N/A	       N/A	       N/A	       N/A	        N/A	       N/A	       N/A	       N/A	        N/A	       N/A	       N/A	       N/A	        N/A	
         R10	    433	   77.8494	      21.5	      8.55	        N/A	   78.2372	      21.5	      8.55	        N/A	    78.625	      21.5	      8.55	        N/A	       N/A	       N/A	       N/A	        N/A	       N/A	       N/A	       N/A	        N/A	       N/A	       N/A	       N/A	        N/A	       N/A	       N/A	       N/A	        N/A	       N/A	       N/A	       N/A	        N/A	
         R10	    434	      76.5	     14.45	  0.329031	        N/A	      76.5	     14.45	  0.164515	        N/A	      76.5	     14.45	         0	        N/A	       N/A	       N/A	       N/A	        N/A	       N/A	       N/A	       N/A	        N/A	       N/A	       N/A	       N/A	        N/A	       N/A	       N/A	       N/A	        N/A	       N/A	       N/A	       N/A	        N/A	
         R10	    435	      76.5	     14.45	  0.595698	        N/A	      76.5	     14.45	  0.462364	        N/A	      76.5	     14.45	  0.329031	        N/A	       N/A	       N/A	       N/A	        N/A	       N/A	       N/A	       N/A	        N/A	       N/A	       N/A	       N/A	        N/A	       N/A	       N/A	       N/A	        N/A	       N/A	       N/A	       N/A	        N/A	
         R10	    436	      76.5	     14.45	       0.8	        N/A	      76.5	     14.45	  0.697849	        N/A	      76.5	     14.45	  0.595698	        N/A	       N/A	       N/A	       N/A	        N/A	       N/A	       N/A	       N/A	        N/A	       N/A	       N/A	       N/A	        N/A	       N/A	       N/A	       N/A	        N/A	       N/A	       N/A	       N/A	        N/A	
         R10	    437	      76.5	     14.45	  0.970451	        N/A	      76.5	     14.45	  0.885226	        N/A	      76.5	     14.45	       0.8	        N/A	       N/A	       N/A	       N/A	        N/A	       N/A	       N/A	       N/A	        N/A	       N/A	       N/A	       N/A	        N/A	       N/A	       N/A	       N/A	        N/A	       N/A	       N/A	       N/A	        N/A	
         R10	    438	      76.5	     14.45	   1.12606	        N/A	      76.5	     14.45	   1.04825	        N/A	      76.5	     14.45	  0.970451	        N/A	       N/A	       N/A	       N/A	        N/A	       N/A	       N/A	       N/A	        N/A	       N/A	       N/A	       N/A	        N/A	       N/A	       N/A	       N/A	        N/A	       N/A	       N/A	       N/A	        N/A	
         R10	    439	      76.5	     14.45	   1.26681	        N/A	      76.5	     14.45	   1.19643	        N/A	      76.5	     14.45	   1.12606	        N/A	       N/A	       N/A	       N/A	        N/A	       N/A	       N/A	       N/A	        N/A	       N/A	       N/A	       N/A	        N/A	       N/A	       N/A	       N/A	        N/A	       N/A	       N/A	       N/A	        N/A	
         R10	    440	      76.5	     14.45	   1.39272	        N/A	      76.5	     14.45	   1.32977	        N/A	      76.5	     14.45	   1.26681	        N/A	       N/A	       N/A	       N/A	        N/A	       N/A	       N/A	       N/A	        N/A	       N/A	       N/A	       N/A	        N/A	       N/A	       N/A	       N/A	        N/A	       N/A	       N/A	       N/A	        N/A	
         R10	    441	      76.5	     14.45	   1.50378	        N/A	      76.5	     14.45	   1.44825	        N/A	      76.5	     14.45	   1.39272	        N/A	       N/A	       N/A	       N/A	        N/A	       N/A	       N/A	       N/A	        N/A	       N/A	       N/A	       N/A	        N/A	       N/A	       N/A	       N/A	        N/A	       N/A	       N/A	       N/A	        N/A	
         R10	    442	      76.5	     14.45	       1.6	        N/A	      76.5	     14.45	   1.55189	        N/A	      76.5	     14.45	   1.50378	        N/A	       N/A	       N/A	       N/A	        N/A	       N/A	       N/A	       N/A	        N/A	       N/A	       N/A	       N/A	        N/A	       N/A	       N/A	       N/A	        N/A	       N/A	       N/A	       N/A	        N/A	
         R10	    443	      76.5	     12.75	  0.469829	        N/A	      76.5	     12.75	  0.234915	        N/A	      76.5	     12.75	         0	        N/A	       N/A	       N/A	       N/A	        N/A	       N/A	       N/A	       N/A	        N/A	       N/A	       N/A	       N/A	        N/A	       N/A	       N/A	       N/A	        N/A	       N/A	       N/A	       N/A	        N/A	
         R10	    444	      76.5	     12.75	  0.897334	        N/A	      76.5	     12.75	  0.683582	        N/A	      76.5	     12.75	  0.469829	        N/A	       N/A	       N/A	       N/A	        N/A	       N/A	       N/A	       N/A	        N/A	       N/A	       N/A	       N/A	        N/A	       N/A	       N/A	       N/A	        N/A	       N/A	       N/A	       N/A	        N/A	
         R10	    445	      76.5	     12.75	   1.28252	        N/A	      76.5	     12.75	   1.08992	        N/A	      76.5	     12.75	  0.897334	        N/A	       N/A	       N/A	       N/A	        N/A	       N/A	       N/A	       N/A	        N/A	       N/A	       N/A	       N/A	        N/A	       N/A	       N/A	       N/A	        N/A	       N/A	       N/A	       N/A	        N/A	
         R10	    446	      76.5	     12.75	   1.62537	        N/A	      76.5	     12.75	   1.45394	        N/A	      76.5	     12.75	   1.28252	        N/A	       N/A	       N/A	       N/A	        N/A	       N/A	       N/A	       N/A	        N/A	       N/A	       N/A	       N/A	        N/A	       N/A	       N/A	       N/A	        N/A	       N/A	       N/A	       N/A	        N/A	
         R10	    447	      76.5	     12.75	   1.92591	        N/A	      76.5	     12.75	   1.77564	        N/A	      76.5	     12.75	   1.62537	        N/A	       N/A	       N/A	       N/A	        N/A	       N/A	       N/A	       N/A	        N/A	       N/A	       N/A	       N/A	        N/A	       N/A	       N/A	       N/A	        N/A	       N/A	       N/A	       N/A	        N/A	
         R10	    448	      76.5	     12.75	   2.18411	        N/A	      76.5	     12.75	   2.05501	        N/A	      76.5	     12.75	   1.92591	        N/A	       N/A	       N/A	       N/A	        N/A	       N/A	       N/A	       N/A	        N/A	       N/A	       N/A	       N/A	        N/A	       N/A	       N/A	       N/A	        N/A	       N/A	       N/A	       N/A	        N/A	
         R10	    449	      76.5	     12.75	       2.4	        N/A	      76.5	     12.75	   2.29206	        N/A	      76.5	     12.75	   2.18411	        N/A	       N/A	       N/A	       N/A	        N/A	       N/A	       N/A	       N/A	        N/A	       N/A	       N/A	       N/A	        N/A	       N/A	       N/A	       N/A	        N/A	       N/A	       N/A	       N/A	        N/A	
         R10	    450	      76.5	     11.05	  0.876018	        N/A	      76.5	     11.05	  0.438009	        N/A	      76.5	     11.05	         0	        N/A	       N/A	       N/A	       N/A	        N/A	       N/A	       N/A	       N/A	        N/A	       N/A	       N/A	       N/A	        N/A	       N/A	       N/A	       N/A	        N/A	       N/A	       N/A	       N/A	        N/A	
         R10	    451	      76.5	     11.05	   1.67602	        N/A	      76.5	     11.05	   1.27602	        N/A	      76.5	     11.05	  0.876018	        N/A	       N/A	       N/A	       N/A	        N/A	       N/A	       N/A	       N/A	        N/A	       N/A	       N/A	       N/A	        N/A	       N/A	       N/A	       N/A	        N/A	       N/A	       N/A	       N/A	        N/A	
         R10	    452	      76.5	     11.05	       2.4	        N/A	      76.5	     11.05	   2.03801	        N/A	      76.5	     11.05	   1.67602	        N/A	       N/A	       N/A	       N/A	        N/A	       N/A	       N/A	       N/A	        N/A	       N/A	       N/A	       N/A	        N/A	       N/A	       N/A	       N/A	        N/A	       N/A	       N/A	       N/A	        N/A	
         R10	    453	      76.5	      10.2	       0.8	        N/A	      76.5	      10.2	       0.4	        N/A	      76.5	      10.2	         0	        N/A	       N/A	       N/A	       N/A	        N/A	       N/A	       N/A	       N/A	        N/A	       N/A	       N/A	       N/A	        N/A	       N/A	       N/A	       N/A	        N/A	       N/A	       N/A	       N/A	        N/A	
         R10	    454	      76.5	      10.2	       1.6	        N/A	      76.5	      10.2	       1.2	        N/A	      76.5	      10.2	       0.8	        N/A	       N/A	       N/A	       N/A	        N/A	       N/A	       N/A	       N/A	        N/A	       N/A	       N/A	       N/A	        N/A	       N/A	       N/A	       N/A	        N/A	       N/A	       N/A	       N/A	        N/A	
         R10	    455	      76.5	      10.2	       2.4	        N/A	      76.5	      10.2	         2	        N/A	      76.5	      10.2	       1.6	        N/A	       N/A	       N/A	       N/A	        N/A	       N/A	       N/A	       N/A	        N/A	       N/A	       N/A	       N/A	        N/A	       N/A	       N/A	       N/A	        N/A	       N/A	       N/A	       N/A	        N/A	
         R10	    456	      76.5	      9.35	       0.8	        N/A	      76.5	      9.35	       0.4	        N/A	      76.5	      9.35	         0	        N/A	       N/A	       N/A	       N/A	        N/A	       N/A	       N/A	       N/A	        N/A	       N/A	       N/A	       N/A	        N/A	       N/A	       N/A	       N/A	        N/A	       N/A	       N/A	       N/A	        N/A	
         R10	    457	      76.5	      9.35	       1.6	        N/A	      76.5	      9.35	       1.2	        N/A	      76.5	      9.35	       0.8	        N/A	       N/A	       N/A	       N/A	        N/A	       N/A	       N/A	       N/A	        N/A	       N/A	       N/A	       N/A	        N/A	       N/A	       N/A	       N/A	        N/A	       N/A	       N/A	       N/A	        N/A	
         R10	    458	      76.5	      9.35	       2.4	        N/A	      76.5	      9.35	         2	        N/A	      76.5	      9.35	       1.6	        N/A	       N/A	       N/A	       N/A	        N/A	       N/A	       N/A	       N/A	        N/A	       N/A	       N/A	       N/A	        N/A	       N/A	       N/A	       N/A	        N/A	       N/A	       N/A	       N/A	        N/A	
         R10	    459	     72.25	      21.5	       9.4	        N/A	   72.7007	      21.5	       9.4	        N/A	   73.1513	      21.5	       9.4	        N/A	       N/A	       N/A	       N/A	        N/A	       N/A	       N/A	       N/A	        N/A	       N/A	       N/A	       N/A	        N/A	       N/A	       N/A	       N/A	        N/A	       N/A	       N/A	       N/A	        N/A	
         R10	    460	   73.1513	      21.5	       9.4	        N/A	   73.5891	      21.5	       9.4	        N/A	    74.027	      21.5	       9.4	        N/A	       N/A	       N/A	       N/A	        N/A	       N/A	       N/A	       N/A	        N/A	       N/A	       N/A	       N/A	        N/A	       N/A	       N/A	       N/A	        N/A	       N/A	       N/A	       N/A	        N/A	
         R10	    461	    74.027	      21.5	       9.4	        N/A	    74.452	      21.5	       9.4	        N/A	    74.877	      21.5	       9.4	        N/A	       N/A	       N/A	       N/A	        N/A	       N/A	       N/A	       N/A	        N/A	       N/A	       N/A	       N/A	        N/A	       N/A	       N/A	       N/A	        N/A	       N/A	       N/A	       N/A	        N/A	
         R10	    462	    74.877	      21.5	       9.4	        N/A	   75.2892	      21.5	       9.4	        N/A	   75.7013	      21.5	       9.4	        N/A	       N/A	       N/A	       N/A	        N/A	       N/A	       N/A	       N/A	        N/A	       N/A	       N/A	       N/A	        N/A	       N/A	       N/A	       N/A	        N/A	       N/A	       N/A	       N/A	        N/A	
         R10	    463	   75.7013	      21.5	       9.4	        N/A	   76.1007	      21.5	       9.4	        N/A	      76.5	      21.5	       9.4	        N/A	       N/A	       N/A	       N/A	        N/A	       N/A	       N/A	       N/A	        N/A	       N/A	       N/A	       N/A	        N/A	       N/A	       N/A	       N/A	        N/A	       N/A	       N/A	       N/A	        N/A	
         R10	    464	      76.5	      21.5	       9.4	        N/A	   76.8328	      21.5	       9.4	        N/A	   77.1656	      21.5	       9.4	        N/A	       N/A	       N/A	       N/A	        N/A	       N/A	       N/A	       N/A	        N/A	       N/A	       N/A	       N/A	        N/A	       N/A	       N/A	       N/A	        N/A	       N/A	       N/A	       N/A	        N/A	
         R10	    465	   77.1656	      21.5	       9.4	        N/A	   77.5197	      21.5	       9.4	        N/A	   77.8739	      21.5	       9.4	        N/A	       N/A	       N/A	       N/A	        N/A	       N/A	       N/A	       N/A	        N/A	       N/A	       N/A	       N/A	        N/A	       N/A	       N/A	       N/A	        N/A	       N/A	       N/A	       N/A	        N/A	
         R10	    466	   77.8739	      21.5	       9.4	        N/A	   78.2495	      21.5	       9.4	        N/A	    78.625	      21.5	       9.4	        N/A	       N/A	       N/A	       N/A	        N/A	       N/A	       N/A	       N/A	        N/A	       N/A	       N/A	       N/A	        N/A	       N/A	       N/A	       N/A	        N/A	       N/A	       N/A	       N/A	        N/A	
         R10	    467	      76.5	      11.9	   0.54816	        N/A	      76.5	      11.9	   0.27408	        N/A	      76.5	      11.9	         0	        N/A	       N/A	       N/A	       N/A	        N/A	       N/A	       N/A	       N/A	        N/A	       N/A	       N/A	       N/A	        N/A	       N/A	       N/A	       N/A	        N/A	       N/A	       N/A	       N/A	        N/A	
         R10	    468	      76.5	      11.9	   1.06224	        N/A	      76.5	      11.9	    0.8052	        N/A	      76.5	      11.9	   0.54816	        N/A	       N/A	       N/A	       N/A	        N/A	       N/A	       N/A	       N/A	        N/A	       N/A	       N/A	       N/A	        N/A	       N/A	       N/A	       N/A	        N/A	       N/A	       N/A	       N/A	        N/A	
         R10	    469	      76.5	      11.9	   1.54224	        N/A	      76.5	      11.9	   1.30224	        N/A	      76.5	      11.9	   1.06224	        N/A	       N/A	       N/A	       N/A	        N/A	       N/A	       N/A	       N/A	        N/A	       N/A	       N/A	       N/A	        N/A	       N/A	       N/A	       N/A	        N/A	       N/A	       N/A	       N/A	        N/A	
         R10	    470	      76.5	      11.9	   1.98816	        N/A	      76.5	      11.9	    1.7652	        N/A	      76.5	      11.9	   1.54224	        N/A	       N/A	       N/A	       N/A	        N/A	       N/A	       N/A	       N/A	        N/A	       N/A	       N/A	       N/A	        N/A	       N/A	       N/A	       N/A	        N/A	       N/A	       N/A	       N/A	        N/A	
         R10	    471	      76.5	      11.9	       2.4	        N/A	      76.5	      11.9	   2.19408	        N/A	      76.5	      11.9	   1.98816	        N/A	       N/A	       N/A	       N/A	        N/A	       N/A	       N/A	       N/A	        N/A	       N/A	       N/A	       N/A	        N/A	       N/A	       N/A	       N/A	        N/A	       N/A	       N/A	       N/A	        N/A	
         R10	    472	     80.75	     11.05	       2.4	        N/A	   80.3622	     11.05	       2.4	        N/A	   79.9744	     11.05	       2.4	        N/A	       N/A	       N/A	       N/A	        N/A	       N/A	       N/A	       N/A	        N/A	       N/A	       N/A	       N/A	        N/A	       N/A	       N/A	       N/A	        N/A	       N/A	       N/A	       N/A	        N/A	
         R10	    473	   79.9744	     11.05	       2.4	        N/A	   79.6202	     11.05	       2.4	        N/A	    79.266	     11.05	       2.4	        N/A	       N/A	       N/A	       N/A	        N/A	       N/A	       N/A	       N/A	        N/A	       N/A	       N/A	       N/A	        N/A	       N/A	       N/A	       N/A	        N/A	       N/A	       N/A	       N/A	        N/A	
         R10	    474	    79.266	     11.05	       2.4	        N/A	   78.9455	     11.05	       2.4	        N/A	    78.625	     11.05	       2.4	        N/A	       N/A	       N/A	       N/A	        N/A	       N/A	       N/A	       N/A	        N/A	       N/A	       N/A	       N/A	        N/A	       N/A	       N/A	       N/A	        N/A	       N/A	       N/A	       N/A	        N/A	
         R10	    475	     75.65	      15.3	       1.6	        N/A	   75.7039	      15.3	       1.6	        N/A	   75.7579	      15.3	       1.6	        N/A	       N/A	       N/A	       N/A	        N/A	       N/A	       N/A	       N/A	        N/A	       N/A	       N/A	       N/A	        N/A	       N/A	       N/A	       N/A	        N/A	       N/A	       N/A	       N/A	        N/A	
         R10	    476	   75.7579	      15.3	       1.6	        N/A	   75.8101	      15.3	       1.6	        N/A	   75.8624	      15.3	       1.6	        N/A	       N/A	       N/A	       N/A	        N/A	       N/A	       N/A	       N/A	        N/A	       N/A	       N/A	       N/A	        N/A	       N/A	       N/A	       N/A	        N/A	       N/A	       N/A	       N/A	        N/A	
         R10	    477	   75.8624	      15.3	       1.6	        N/A	   75.9129	      15.3	       1.6	        N/A	   75.9635	      15.3	       1.6	        N/A	       N/A	       N/A	       N/A	        N/A	       N/A	       N/A	       N/A	        N/A	       N/A	       N/A	       N/A	        N/A	       N/A	       N/A	       N/A	        N/A	       N/A	       N/A	       N/A	        N/A	
         R10	    478	   75.9635	      15.3	       1.6	        N/A	   76.0124	      15.3	       1.6	        N/A	   76.0613	      15.3	       1.6	        N/A	       N/A	       N/A	       N/A	        N/A	       N/A	       N/A	       N/A	        N/A	       N/A	       N/A	       N/A	        N/A	       N/A	       N/A	       N/A	        N/A	       N/A	       N/A	       N/A	        N/A	
         R10	    479	   76.0613	      15.3	       1.6	        N/A	   76.1085	      15.3	       1.6	        N/A	   76.1557	      15.3	       1.6	        N/A	       N/A	       N/A	       N/A	        N/A	       N/A	       N/A	       N/A	        N/A	       N/A	       N/A	       N/A	        N/A	       N/A	       N/A	       N/A	        N/A	       N/A	       N/A	       N/A	        N/A	
         R10	    480	   76.1557	      15.3	       1.6	        N/A	   76.2013	      15.3	       1.6	        N/A	   76.2468	      15.3	       1.6	        N/A	       N/A	       N/A	       N/A	        N/A	       N/A	       N/A	       N/A	        N/A	       N/A	       N/A	       N/A	        N/A	       N/A	       N/A	       N/A	        N/A	       N/A	       N/A	       N/A	        N/A	
         R10	    481	   76.2468	      15.3	       1.6	        N/A	   76.2907	      15.3	       1.6	        N/A	   76.3346	      15.3	       1.6	        N/A	       N/A	       N/A	       N/A	        N/A	       N/A	       N/A	       N/A	        N/A	       N/A	       N/A	       N/A	        N/A	       N/A	       N/A	       N/A	        N/A	       N/A	       N/A	       N/A	        N/A	
         R10	    482	   76.3346	      15.3	       1.6	        N/A	   76.3768	      15.3	       1.6	        N/A	    76.419	      15.3	       1.6	        N/A	       N/A	       N/A	       N/A	        N/A	       N/A	       N/A	       N/A	        N/A	       N/A	       N/A	       N/A	        N/A	       N/A	       N/A	       N/A	        N/A	       N/A	       N/A	       N/A	        N/A	
         R10	    483	    76.419	      15.3	       1.6	        N/A	   76.4595	      15.3	       1.6	        N/A	      76.5	      15.3	       1.6	        N/A	       N/A	       N/A	       N/A	        N/A	       N/A	       N/A	       N/A	        N/A	       N/A	       N/A	       N/A	        N/A	       N/A	       N/A	       N/A	        N/A	       N/A	       N/A	       N/A	        N/A	
         R10	    484	      76.5	      15.3	       1.6	        N/A	   76.5405	      15.3	       1.6	        N/A	    76.581	      15.3	       1.6	        N/A	       N/A	       N/A	       N/A	        N/A	       N/A	       N/A	       N/A	        N/A	       N/A	       N/A	       N/A	        N/A	       N/A	       N/A	       N/A	        N/A	       N/A	       N/A	       N/A	        N/A	
         R10	    485	    76.581	      15.3	       1.6	        N/A	   76.6232	      15.3	       1.6	        N/A	   76.6654	      15.3	       1.6	        N/A	       N/A	       N/A	       N/A	        N/A	       N/A	       N/A	       N/A	        N/A	       N/A	       N/A	       N/A	        N/A	       N/A	       N/A	       N/A	        N/A	       N/A	       N/A	       N/A	        N/A	
         R10	    486	   76.6654	      15.3	       1.6	        N/A	   76.7093	      15.3	       1.6	        N/A	   76.7532	      15.3	       1.6	        N/A	       N/A	       N/A	       N/A	        N/A	       N/A	       N/A	       N/A	        N/A	       N/A	       N/A	       N/A	        N/A	       N/A	       N/A	       N/A	        N/A	       N/A	       N/A	       N/A	        N/A	
         R10	    487	   76.7532	      15.3	       1.6	        N/A	   76.7987	      15.3	       1.6	        N/A	   76.8443	      15.3	       1.6	        N/A	       N/A	       N/A	       N/A	        N/A	       N/A	       N/A	       N/A	        N/A	       N/A	       N/A	       N/A	        N/A	       N/A	       N/A	       N/A	        N/A	       N/A	       N/A	       N/A	        N/A	
         R10	    488	   76.8443	      15.3	       1.6	        N/A	   76.8915	      15.3	       1.6	        N/A	   76.9387	      15.3	       1.6	        N/A	       N/A	       N/A	       N/A	        N/A	       N/A	       N/A	       N/A	        N/A	       N/A	       N/A	       N/A	        N/A	       N/A	       N/A	       N/A	        N/A	       N/A	       N/A	       N/A	        N/A	
         R10	    489	   76.9387	      15.3	       1.6	        N/A	   76.9876	      15.3	       1.6	        N/A	   77.0365	      15.3	       1.6	        N/A	       N/A	       N/A	       N/A	        N/A	       N/A	       N/A	       N/A	        N/A	       N/A	       N/A	       N/A	        N/A	       N/A	       N/A	       N/A	        N/A	       N/A	       N/A	       N/A	        N/A	
         R10	    490	   77.0365	      15.3	       1.6	        N/A	   77.0871	      15.3	       1.6	        N/A	   77.1376	      15.3	       1.6	        N/A	       N/A	       N/A	       N/A	        N/A	       N/A	       N/A	       N/A	        N/A	       N/A	       N/A	       N/A	        N/A	       N/A	       N/A	       N/A	        N/A	       N/A	       N/A	       N/A	        N/A	
         R10	    491	   77.1376	      15.3	       1.6	        N/A	   77.1899	      15.3	       1.6	        N/A	   77.2421	      15.3	       1.6	        N/A	       N/A	       N/A	       N/A	        N/A	       N/A	       N/A	       N/A	        N/A	       N/A	       N/A	       N/A	        N/A	       N/A	       N/A	       N/A	        N/A	       N/A	       N/A	       N/A	        N/A	
         R10	    492	   77.2421	      15.3	       1.6	        N/A	   77.2961	      15.3	       1.6	        N/A	     77.35	      15.3	       1.6	        N/A	       N/A	       N/A	       N/A	        N/A	       N/A	       N/A	       N/A	        N/A	       N/A	       N/A	       N/A	        N/A	       N/A	       N/A	       N/A	        N/A	       N/A	       N/A	       N/A	        N/A	
         R10	    493	     75.65	     14.45	       2.4	        N/A	   75.7039	     14.45	       2.4	        N/A	   75.7579	     14.45	       2.4	        N/A	       N/A	       N/A	       N/A	        N/A	       N/A	       N/A	       N/A	        N/A	       N/A	       N/A	       N/A	        N/A	       N/A	       N/A	       N/A	        N/A	       N/A	       N/A	       N/A	        N/A	
         R10	    494	   75.7579	     14.45	       2.4	        N/A	   75.8101	     14.45	       2.4	        N/A	   75.8624	     14.45	       2.4	        N/A	       N/A	       N/A	       N/A	        N/A	       N/A	       N/A	       N/A	        N/A	       N/A	       N/A	       N/A	        N/A	       N/A	       N/A	       N/A	        N/A	       N/A	       N/A	       N/A	        N/A	
         R10	    495	   75.8624	     14.45	       2.4	        N/A	   75.9129	     14.45	       2.4	        N/A	   75.9635	     14.45	       2.4	        N/A	       N/A	       N/A	       N/A	        N/A	       N/A	       N/A	       N/A	        N/A	       N/A	       N/A	       N/A	        N/A	       N/A	       N/A	       N/A	        N/A	       N/A	       N/A	       N/A	        N/A	
         R10	    496	   75.9635	     14.45	       2.4	        N/A	   76.0124	     14.45	       2.4	        N/A	   76.0613	     14.45	       2.4	        N/A	       N/A	       N/A	       N/A	        N/A	       N/A	       N/A	       N/A	        N/A	       N/A	       N/A	       N/A	        N/A	       N/A	       N/A	       N/A	        N/A	       N/A	       N/A	       N/A	        N/A	
         R10	    497	   76.0613	     14.45	       2.4	        N/A	   76.1085	     14.45	       2.4	        N/A	   76.1557	     14.45	       2.4	        N/A	       N/A	       N/A	       N/A	        N/A	       N/A	       N/A	       N/A	        N/A	       N/A	       N/A	       N/A	        N/A	       N/A	       N/A	       N/A	        N/A	       N/A	       N/A	       N/A	        N/A	
         R10	    498	   76.1557	     14.45	       2.4	        N/A	   76.2013	     14.45	       2.4	        N/A	   76.2468	     14.45	       2.4	        N/A	       N/A	       N/A	       N/A	        N/A	       N/A	       N/A	       N/A	        N/A	       N/A	       N/A	       N/A	        N/A	       N/A	       N/A	       N/A	        N/A	       N/A	       N/A	       N/A	        N/A	
         R10	    499	   76.2468	     14.45	       2.4	        N/A	   76.2907	     14.45	       2.4	        N/A	   76.3346	     14.45	       2.4	        N/A	       N/A	       N/A	       N/A	        N/A	       N/A	       N/A	       N/A	        N/A	       N/A	       N/A	       N/A	        N/A	       N/A	       N/A	       N/A	        N/A	       N/A	       N/A	       N/A	        N/A	
         R10	    500	   76.3346	     14.45	       2.4	        N/A	   76.3768	     14.45	       2.4	        N/A	    76.419	     14.45	       2.4	        N/A	       N/A	       N/A	       N/A	        N/A	       N/A	       N/A	       N/A	        N/A	       N/A	       N/A	       N/A	        N/A	       N/A	       N/A	       N/A	        N/A	       N/A	       N/A	       N/A	        N/A	
         R10	    501	    76.419	     14.45	       2.4	        N/A	   76.4595	     14.45	       2.4	        N/A	      76.5	     14.45	       2.4	        N/A	       N/A	       N/A	       N/A	        N/A	       N/A	       N/A	       N/A	        N/A	       N/A	       N/A	       N/A	        N/A	       N/A	       N/A	       N/A	        N/A	       N/A	       N/A	       N/A	        N/A	
         R10	    502	      76.5	     14.45	       2.4	        N/A	   76.5405	     14.45	       2.4	        N/A	    76.581	     14.45	       2.4	        N/A	       N/A	       N/A	       N/A	        N/A	       N/A	       N/A	       N/A	        N/A	       N/A	       N/A	       N/A	        N/A	       N/A	       N/A	       N/A	        N/A	       N/A	       N/A	       N/A	        N/A	
         R10	    503	    76.581	     14.45	       2.4	        N/A	   76.6232	     14.45	       2.4	        N/A	   76.6654	     14.45	       2.4	        N/A	       N/A	       N/A	       N/A	        N/A	       N/A	       N/A	       N/A	        N/A	       N/A	       N/A	       N/A	        N/A	       N/A	       N/A	       N/A	        N/A	       N/A	       N/A	       N/A	        N/A	
         R10	    504	   76.6654	     14.45	       2.4	        N/A	   76.7093	     14.45	       2.4	        N/A	   76.7532	     14.45	       2.4	        N/A	       N/A	       N/A	       N/A	        N/A	       N/A	       N/A	       N/A	        N/A	       N/A	       N/A	       N/A	        N/A	       N/A	       N/A	       N/A	        N/A	       N/A	       N/A	       N/A	        N/A	
         R10	    505	   76.7532	     14.45	       2.4	        N/A	   76.7987	     14.45	       2.4	        N/A	   76.8443	     14.45	       2.4	        N/A	       N/A	       N/A	       N/A	        N/A	       N/A	       N/A	       N/A	        N/A	       N/A	       N/A	       N/A	        N/A	       N/A	       N/A	       N/A	        N/A	       N/A	       N/A	       N/A	        N/A	
         R10	    506	   76.8443	     14.45	       2.4	        N/A	   76.8915	     14.45	       2.4	        N/A	   76.9387	     14.45	       2.4	        N/A	       N/A	       N/A	       N/A	        N/A	       N/A	       N/A	       N/A	        N/A	       N/A	       N/A	       N/A	        N/A	       N/A	       N/A	       N/A	        N/A	       N/A	       N/A	       N/A	        N/A	
         R10	    507	   76.9387	     14.45	       2.4	        N/A	   76.9876	     14.45	       2.4	        N/A	   77.0365	     14.45	       2.4	        N/A	       N/A	       N/A	       N/A	        N/A	       N/A	       N/A	       N/A	        N/A	       N/A	       N/A	       N/A	        N/A	       N/A	       N/A	       N/A	        N/A	       N/A	       N/A	       N/A	        N/A	
         R10	    508	   77.0365	     14.45	       2.4	        N/A	   77.0871	     14.45	       2.4	        N/A	   77.1376	     14.45	       2.4	        N/A	       N/A	       N/A	       N/A	        N/A	       N/A	       N/A	       N/A	        N/A	       N/A	       N/A	       N/A	        N/A	       N/A	       N/A	       N/A	        N/A	       N/A	       N/A	       N/A	        N/A	
         R10	    509	   77.1376	     14.45	       2.4	        N/A	   77.1899	     14.45	       2.4	        N/A	   77.2421	     14.45	       2.4	        N/A	       N/A	       N/A	       N/A	        N/A	       N/A	       N/A	       N/A	        N/A	       N/A	       N/A	       N/A	        N/A	       N/A	       N/A	       N/A	        N/A	       N/A	       N/A	       N/A	        N/A	
         R10	    510	   77.2421	     14.45	       2.4	        N/A	   77.2961	     14.45	       2.4	        N/A	     77.35	     14.45	       2.4	        N/A	       N/A	       N/A	       N/A	        N/A	       N/A	       N/A	       N/A	        N/A	       N/A	       N/A	       N/A	        N/A	       N/A	       N/A	       N/A	        N/A	       N/A	       N/A	       N/A	        N/A	
         R10	    511	     75.65	   15.9164	   2.99973	        N/A	   75.7017	   15.9164	   2.99973	        N/A	   75.7534	   15.9164	   2.99973	        N/A	       N/A	       N/A	       N/A	        N/A	       N/A	       N/A	       N/A	        N/A	       N/A	       N/A	       N/A	        N/A	       N/A	       N/A	       N/A	        N/A	       N/A	       N/A	       N/A	        N/A	
         R10	    512	   75.7534	   15.9164	   2.99973	        N/A	    75.804	   15.9164	   2.99973	        N/A	   75.8546	   15.9164	   2.99973	        N/A	       N/A	       N/A	       N/A	        N/A	       N/A	       N/A	       N/A	        N/A	       N/A	       N/A	       N/A	        N/A	       N/A	       N/A	       N/A	        N/A	       N/A	       N/A	       N/A	        N/A	
         R10	    513	   75.8546	   15.9164	   2.99973	        N/A	   75.9041	   15.9164	   2.99973	        N/A	   75.9535	   15.9164	   2.99973	        N/A	       N/A	       N/A	       N/A	        N/A	       N/A	       N/A	       N/A	        N/A	       N/A	       N/A	       N/A	        N/A	       N/A	       N/A	       N/A	        N/A	       N/A	       N/A	       N/A	        N/A	
         R10	    514	   75.9535	   15.9164	   2.99973	        N/A	   76.0019	   15.9164	   2.99973	        N/A	   76.0502	   15.9164	   2.99973	        N/A	       N/A	       N/A	       N/A	        N/A	       N/A	       N/A	       N/A	        N/A	       N/A	       N/A	       N/A	        N/A	       N/A	       N/A	       N/A	        N/A	       N/A	       N/A	       N/A	        N/A	
         R10	    515	   76.0502	   15.9164	   2.99973	        N/A	   76.0974	   15.9164	   2.99973	        N/A	   76.1447	   15.9164	   2.99973	        N/A	       N/A	       N/A	       N/A	        N/A	       N/A	       N/A	       N/A	        N/A	       N/A	       N/A	       N/A	        N/A	       N/A	       N/A	       N/A	        N/A	       N/A	       N/A	       N/A	        N/A	
         R10	    516	   76.1447	   15.9164	   2.99973	        N/A	   76.1908	   15.9164	   2.99973	        N/A	   76.2369	   15.9164	   2.99973	        N/A	       N/A	       N/A	       N/A	        N/A	       N/A	       N/A	       N/A	        N/A	       N/A	       N/A	       N/A	        N/A	       N/A	       N/A	       N/A	        N/A	       N/A	       N/A	       N/A	        N/A	
         R10	    517	   76.2369	   15.9164	   2.99973	        N/A	   76.2818	   15.9164	   2.99973	        N/A	   76.3268	   15.9164	   2.99973	        N/A	       N/A	       N/A	       N/A	        N/A	       N/A	       N/A	       N/A	        N/A	       N/A	       N/A	       N/A	        N/A	       N/A	       N/A	       N/A	        N/A	       N/A	       N/A	       N/A	        N/A	
         R10	    518	   76.3268	   15.9164	   2.99973	        N/A	   76.3707	   15.9164	   2.99973	        N/A	   76.4145	   15.9164	   2.99973	        N/A	       N/A	       N/A	       N/A	        N/A	       N/A	       N/A	       N/A	        N/A	       N/A	       N/A	       N/A	        N/A	       N/A	       N/A	       N/A	        N/A	       N/A	       N/A	       N/A	        N/A	
         R10	    519	   76.4145	   15.9164	   2.99973	        N/A	   76.4573	   15.9164	   2.99973	        N/A	      76.5	   15.9164	   2.99973	        N/A	       N/A	       N/A	       N/A	        N/A	       N/A	       N/A	       N/A	        N/A	       N/A	       N/A	       N/A	        N/A	       N/A	       N/A	       N/A	        N/A	       N/A	       N/A	       N/A	        N/A	
         R10	    520	      76.5	   15.9164	   2.99973	        N/A	   76.5427	   15.9164	   2.99973	        N/A	   76.5855	   15.9164	   2.99973	        N/A	       N/A	       N/A	       N/A	        N/A	       N/A	       N/A	       N/A	        N/A	       N/A	       N/A	       N/A	        N/A	       N/A	       N/A	       N/A	        N/A	       N/A	       N/A	       N/A	        N/A	
         R10	    521	   76.5855	   15.9164	   2.99973	        N/A	   76.6293	   15.9164	   2.99973	        N/A	   76.6732	   15.9164	   2.99973	        N/A	       N/A	       N/A	       N/A	        N/A	       N/A	       N/A	       N/A	        N/A	       N/A	       N/A	       N/A	        N/A	       N/A	       N/A	       N/A	        N/A	       N/A	       N/A	       N/A	        N/A	
         R10	    522	   76.6732	   15.9164	   2.99973	        N/A	   76.7182	   15.9164	   2.99973	        N/A	   76.7631	   15.9164	   2.99973	        N/A	       N/A	       N/A	       N/A	        N/A	       N/A	       N/A	       N/A	        N/A	       N/A	       N/A	       N/A	        N/A	       N/A	       N/A	       N/A	        N/A	       N/A	       N/A	       N/A	        N/A	
         R10	    523	   76.7631	   15.9164	   2.99973	        N/A	   76.8092	   15.9164	   2.99973	        N/A	   76.8553	   15.9164	   2.99973	        N/A	       N/A	       N/A	       N/A	        N/A	       N/A	       N/A	       N/A	        N/A	       N/A	       N/A	       N/A	        N/A	       N/A	       N/A	       N/A	        N/A	       N/A	       N/A	       N/A	        N/A	
         R10	    524	   76.8553	   15.9164	   2.99973	        N/A	   76.9026	   15.9164	   2.99973	        N/A	   76.9498	   15.9164	   2.99973	        N/A	       N/A	       N/A	       N/A	        N/A	       N/A	       N/A	       N/A	        N/A	       N/A	       N/A	       N/A	        N/A	       N/A	       N/A	       N/A	        N/A	       N/A	       N/A	       N/A	        N/A	
         R10	    525	   76.9498	   15.9164	   2.99973	        N/A	   76.9981	   15.9164	   2.99973	        N/A	   77.0465	   15.9164	   2.99973	        N/A	       N/A	       N/A	       N/A	        N/A	       N/A	       N/A	       N/A	        N/A	       N/A	       N/A	       N/A	        N/A	       N/A	       N/A	       N/A	        N/A	       N/A	       N/A	       N/A	        N/A	
         R10	    526	   77.0465	   15.9164	   2.99973	        N/A	   77.0959	   15.9164	   2.99973	        N/A	   77.1454	   15.9164	   2.99973	        N/A	       N/A	       N/A	       N/A	        N/A	       N/A	       N/A	       N/A	        N/A	       N/A	       N/A	       N/A	        N/A	       N/A	       N/A	       N/A	        N/A	       N/A	       N/A	       N/A	        N/A	
         R10	    527	   77.1454	   15.9164	   2.99973	        N/A	    77.196	   15.9164	   2.99973	        N/A	   77.2466	   15.9164	   2.99973	        N/A	       N/A	       N/A	       N/A	        N/A	       N/A	       N/A	       N/A	        N/A	       N/A	       N/A	       N/A	        N/A	       N/A	       N/A	       N/A	        N/A	       N/A	       N/A	       N/A	        N/A	
         R10	    528	   77.2466	   15.9164	   2.99973	        N/A	   77.2983	   15.9164	   2.99973	        N/A	     77.35	   15.9164	   2.99973	        N/A	       N/A	       N/A	       N/A	        N/A	       N/A	       N/A	       N/A	        N/A	       N/A	       N/A	       N/A	        N/A	       N/A	       N/A	       N/A	        N/A	       N/A	       N/A	       N/A	        N/A	
         R10	    529	      76.5	   20.4991	    1.5164	        N/A	      76.5	   20.4495	    1.7582	        N/A	      76.5	      20.4	         2	        N/A	       N/A	       N/A	       N/A	        N/A	       N/A	       N/A	       N/A	        N/A	       N/A	       N/A	       N/A	        N/A	       N/A	       N/A	       N/A	        N/A	       N/A	       N/A	       N/A	        N/A	
         R10	    530	      76.5	   20.6085	  0.981953	        N/A	      76.5	   20.5538	   1.24918	        N/A	      76.5	   20.4991	    1.5164	        N/A	       N/A	       N/A	       N/A	        N/A	       N/A	       N/A	       N/A	        N/A	       N/A	       N/A	       N/A	        N/A	       N/A	       N/A	       N/A	        N/A	       N/A	       N/A	       N/A	        N/A	
         R10	    531	      76.5	   20.7284	  0.396646	        N/A	      76.5	   20.6685	  0.689299	        N/A	      76.5	   20.6085	  0.981953	        N/A	       N/A	       N/A	       N/A	        N/A	       N/A	       N/A	       N/A	        N/A	       N/A	       N/A	       N/A	        N/A	       N/A	       N/A	       N/A	        N/A	       N/A	       N/A	       N/A	        N/A	
         R10	    532	      76.5	   20.9224	   2.11872	        N/A	      76.5	   21.2112	   2.18436	        N/A	      76.5	      21.5	      2.25	        N/A	       N/A	       N/A	       N/A	        N/A	       N/A	       N/A	       N/A	        N/A	       N/A	       N/A	       N/A	        N/A	       N/A	       N/A	       N/A	        N/A	       N/A	       N/A	       N/A	        N/A	
         R10	    533	      76.5	      20.4	         2	        N/A	      76.5	   20.6612	   2.05936	        N/A	      76.5	   20.9224	   2.11872	        N/A	       N/A	       N/A	       N/A	        N/A	       N/A	       N/A	       N/A	        N/A	       N/A	       N/A	       N/A	        N/A	       N/A	       N/A	       N/A	        N/A	       N/A	       N/A	       N/A	        N/A	
         R10	    534	      76.5	   15.9593	   2.92175	        N/A	      76.5	   15.9378	   2.96074	        N/A	      76.5	   15.9164	   2.99973	        N/A	       N/A	       N/A	       N/A	        N/A	       N/A	       N/A	       N/A	        N/A	       N/A	       N/A	       N/A	        N/A	       N/A	       N/A	       N/A	        N/A	       N/A	       N/A	       N/A	        N/A	
         R10	    535	      76.5	   16.0036	   2.84119	        N/A	      76.5	   15.9814	   2.88147	        N/A	      76.5	   15.9593	   2.92175	        N/A	       N/A	       N/A	       N/A	        N/A	       N/A	       N/A	       N/A	        N/A	       N/A	       N/A	       N/A	        N/A	       N/A	       N/A	       N/A	        N/A	       N/A	       N/A	       N/A	        N/A	
         R10	    536	      76.5	   16.0493	   2.75805	        N/A	      76.5	   16.0265	   2.79962	        N/A	      76.5	   16.0036	   2.84119	        N/A	       N/A	       N/A	       N/A	        N/A	       N/A	       N/A	       N/A	        N/A	       N/A	       N/A	       N/A	        N/A	       N/A	       N/A	       N/A	        N/A	       N/A	       N/A	       N/A	        N/A	
         R10	    537	      76.5	   16.0965	   2.67232	        N/A	      76.5	   16.0729	   2.71519	        N/A	      76.5	   16.0493	   2.75805	        N/A	       N/A	       N/A	       N/A	        N/A	       N/A	       N/A	       N/A	        N/A	       N/A	       N/A	       N/A	        N/A	       N/A	       N/A	       N/A	        N/A	       N/A	       N/A	       N/A	        N/A	
         R10	    538	      76.5	    16.145	   2.58402	        N/A	      76.5	   16.1208	   2.62817	        N/A	      76.5	   16.0965	   2.67232	        N/A	       N/A	       N/A	       N/A	        N/A	       N/A	       N/A	       N/A	        N/A	       N/A	       N/A	       N/A	        N/A	       N/A	       N/A	       N/A	        N/A	       N/A	       N/A	       N/A	        N/A	
         R10	    539	      76.5	    16.195	   2.49314	        N/A	      76.5	     16.17	   2.53858	        N/A	      76.5	    16.145	   2.58402	        N/A	       N/A	       N/A	       N/A	        N/A	       N/A	       N/A	       N/A	        N/A	       N/A	       N/A	       N/A	        N/A	       N/A	       N/A	       N/A	        N/A	       N/A	       N/A	       N/A	        N/A	
         R10	    540	      76.5	   16.2464	   2.39967	        N/A	      76.5	   16.2207	    2.4464	        N/A	      76.5	    16.195	   2.49314	        N/A	       N/A	       N/A	       N/A	        N/A	       N/A	       N/A	       N/A	        N/A	       N/A	       N/A	       N/A	        N/A	       N/A	       N/A	       N/A	        N/A	       N/A	       N/A	       N/A	        N/A	
         R10	    541	      76.5	   16.2993	   2.30363	        N/A	      76.5	   16.2729	   2.35165	        N/A	      76.5	   16.2464	   2.39967	        N/A	       N/A	       N/A	       N/A	        N/A	       N/A	       N/A	       N/A	        N/A	       N/A	       N/A	       N/A	        N/A	       N/A	       N/A	       N/A	        N/A	       N/A	       N/A	       N/A	        N/A	
         R10	    542	      76.5	   16.3535	     2.205	        N/A	      76.5	   16.3264	   2.25431	        N/A	      76.5	   16.2993	   2.30363	        N/A	       N/A	       N/A	       N/A	        N/A	       N/A	       N/A	       N/A	        N/A	       N/A	       N/A	       N/A	        N/A	       N/A	       N/A	       N/A	        N/A	       N/A	       N/A	       N/A	        N/A	
         R10	    543	      76.5	   16.4092	   2.10379	        N/A	      76.5	   16.3814	   2.15439	        N/A	      76.5	   16.3535	     2.205	        N/A	       N/A	       N/A	       N/A	        N/A	       N/A	       N/A	       N/A	        N/A	       N/A	       N/A	       N/A	        N/A	       N/A	       N/A	       N/A	        N/A	       N/A	       N/A	       N/A	        N/A	
         R10	    544	      76.5	   16.4663	         2	        N/A	      76.5	   16.4377	   2.05189	        N/A	      76.5	   16.4092	   2.10379	        N/A	       N/A	       N/A	       N/A	        N/A	       N/A	       N/A	       N/A	        N/A	       N/A	       N/A	       N/A	        N/A	       N/A	       N/A	       N/A	        N/A	       N/A	       N/A	       N/A	        N/A	
         R10	    545	      76.5	   16.3597	   1.96344	        N/A	      76.5	    16.413	   1.98172	        N/A	      76.5	   16.4663	         2	        N/A	       N/A	       N/A	       N/A	        N/A	       N/A	       N/A	       N/A	        N/A	       N/A	       N/A	       N/A	        N/A	       N/A	       N/A	       N/A	        N/A	       N/A	       N/A	       N/A	        N/A	
         R10	    546	      76.5	   16.2559	   1.92784	        N/A	      76.5	   16.3078	   1.94564	        N/A	      76.5	   16.3597	   1.96344	        N/A	       N/A	       N/A	       N/A	        N/A	       N/A	       N/A	       N/A	        N/A	       N/A	       N/A	       N/A	        N/A	       N/A	       N/A	       N/A	        N/A	       N/A	       N/A	       N/A	        N/A	
         R10	    547	      76.5	   16.1549	    1.8932	        N/A	      76.5	   16.2054	   1.91052	        N/A	      76.5	   16.2559	   1.92784	        N/A	       N/A	       N/A	       N/A	        N/A	       N/A	       N/A	       N/A	        N/A	       N/A	       N/A	       N/A	        N/A	       N/A	       N/A	       N/A	        N/A	       N/A	       N/A	       N/A	        N/A	
         R10	    548	      76.5	   16.0567	   1.85954	        N/A	      76.5	   16.1058	   1.87637	        N/A	      76.5	   16.1549	    1.8932	        N/A	       N/A	       N/A	       N/A	        N/A	       N/A	       N/A	       N/A	        N/A	       N/A	       N/A	       N/A	        N/A	       N/A	       N/A	       N/A	        N/A	       N/A	       N/A	       N/A	        N/A	
         R10	    549	      76.5	   15.9614	   1.82684	        N/A	      76.5	   16.0091	   1.84319	        N/A	      76.5	   16.0567	   1.85954	        N/A	       N/A	       N/A	       N/A	        N/A	       N/A	       N/A	       N/A	        N/A	       N/A	       N/A	       N/A	        N/A	       N/A	       N/A	       N/A	        N/A	       N/A	       N/A	       N/A	        N/A	
         R10	    550	      76.5	   15.8689	    1.7951	        N/A	      76.5	   15.9151	   1.81097	        N/A	      76.5	   15.9614	   1.82684	        N/A	       N/A	       N/A	       N/A	        N/A	       N/A	       N/A	       N/A	        N/A	       N/A	       N/A	       N/A	        N/A	       N/A	       N/A	       N/A	        N/A	       N/A	       N/A	       N/A	        N/A	
         R10	    551	      76.5	   15.7791	   1.76433	        N/A	      76.5	    15.824	   1.77972	        N/A	      76.5	   15.8689	    1.7951	        N/A	       N/A	       N/A	       N/A	        N/A	       N/A	       N/A	       N/A	        N/A	       N/A	       N/A	       N/A	        N/A	       N/A	       N/A	       N/A	        N/A	       N/A	       N/A	       N/A	        N/A	
         R10	    552	      76.5	   15.6922	   1.73453	        N/A	      76.5	   15.7357	   1.74943	        N/A	      76.5	   15.7791	   1.76433	        N/A	       N/A	       N/A	       N/A	        N/A	       N/A	       N/A	       N/A	        N/A	       N/A	       N/A	       N/A	        N/A	       N/A	       N/A	       N/A	        N/A	       N/A	       N/A	       N/A	        N/A	
         R10	    553	      76.5	   15.6082	   1.70569	        N/A	      76.5	   15.6502	   1.72011	        N/A	      76.5	   15.6922	   1.73453	        N/A	       N/A	       N/A	       N/A	        N/A	       N/A	       N/A	       N/A	        N/A	       N/A	       N/A	       N/A	        N/A	       N/A	       N/A	       N/A	        N/A	       N/A	       N/A	       N/A	        N/A	
         R10	    554	      76.5	   15.5269	   1.67782	        N/A	      76.5	   15.5675	   1.69176	        N/A	      76.5	   15.6082	   1.70569	        N/A	       N/A	       N/A	       N/A	        N/A	       N/A	       N/A	       N/A	        N/A	       N/A	       N/A	       N/A	        N/A	       N/A	       N/A	       N/A	        N/A	       N/A	       N/A	       N/A	        N/A	
         R10	    555	      76.5	   15.4484	   1.65091	        N/A	      76.5	   15.4877	   1.66437	        N/A	      76.5	   15.5269	   1.67782	        N/A	       N/A	       N/A	       N/A	        N/A	       N/A	       N/A	       N/A	        N/A	       N/A	       N/A	       N/A	        N/A	       N/A	       N/A	       N/A	        N/A	       N/A	       N/A	       N/A	        N/A	
         R10	    556	      76.5	   15.3728	   1.62497	        N/A	      76.5	   15.4106	   1.63794	        N/A	      76.5	   15.4484	   1.65091	        N/A	       N/A	       N/A	       N/A	        N/A	       N/A	       N/A	       N/A	        N/A	       N/A	       N/A	       N/A	        N/A	       N/A	       N/A	       N/A	        N/A	       N/A	       N/A	       N/A	        N/A	
         R10	    557	      76.5	      15.3	       1.6	        N/A	      76.5	   15.3364	   1.61249	        N/A	      76.5	   15.3728	   1.62497	        N/A	       N/A	       N/A	       N/A	        N/A	       N/A	       N/A	       N/A	        N/A	       N/A	       N/A	       N/A	        N/A	       N/A	       N/A	       N/A	        N/A	       N/A	       N/A	       N/A	        N/A	
         R10	    558	     77.35	      15.3	       1.6	        N/A	   77.4007	      15.3	       1.6	        N/A	   77.4514	      15.3	       1.6	        N/A	       N/A	       N/A	       N/A	        N/A	       N/A	       N/A	       N/A	        N/A	       N/A	       N/A	       N/A	        N/A	       N/A	       N/A	       N/A	        N/A	       N/A	       N/A	       N/A	        N/A	
         R10	    559	   77.4514	      15.3	       1.6	        N/A	   77.5104	      15.3	       1.6	        N/A	   77.5694	      15.3	       1.6	        N/A	       N/A	       N/A	       N/A	        N/A	       N/A	       N/A	       N/A	        N/A	       N/A	       N/A	       N/A	        N/A	       N/A	       N/A	       N/A	        N/A	       N/A	       N/A	       N/A	        N/A	
         R10	    560	   77.5694	      15.3	       1.6	        N/A	   77.6366	      15.3	       1.6	        N/A	   77.7039	      15.3	       1.6	        N/A	       N/A	       N/A	       N/A	        N/A	       N/A	       N/A	       N/A	        N/A	       N/A	       N/A	       N/A	        N/A	       N/A	       N/A	       N/A	        N/A	       N/A	       N/A	       N/A	        N/A	
         R10	    561	   77.7039	      15.3	       1.6	        N/A	   77.7794	      15.3	       1.6	        N/A	    77.855	      15.3	       1.6	        N/A	       N/A	       N/A	       N/A	        N/A	       N/A	       N/A	       N/A	        N/A	       N/A	       N/A	       N/A	        N/A	       N/A	       N/A	       N/A	        N/A	       N/A	       N/A	       N/A	        N/A	
         R10	    562	    77.855	      15.3	       1.6	        N/A	   77.9388	      15.3	       1.6	        N/A	   78.0226	      15.3	       1.6	        N/A	       N/A	       N/A	       N/A	        N/A	       N/A	       N/A	       N/A	        N/A	       N/A	       N/A	       N/A	        N/A	       N/A	       N/A	       N/A	        N/A	       N/A	       N/A	       N/A	        N/A	
         R10	    563	   78.0226	      15.3	       1.6	        N/A	   78.1147	      15.3	       1.6	        N/A	   78.2069	      15.3	       1.6	        N/A	       N/A	       N/A	       N/A	        N/A	       N/A	       N/A	       N/A	        N/A	       N/A	       N/A	       N/A	        N/A	       N/A	       N/A	       N/A	        N/A	       N/A	       N/A	       N/A	        N/A	
         R10	    564	   78.2069	      15.3	       1.6	        N/A	   78.3073	      15.3	       1.6	        N/A	   78.4076	      15.3	       1.6	        N/A	       N/A	       N/A	       N/A	        N/A	       N/A	       N/A	       N/A	        N/A	       N/A	       N/A	       N/A	        N/A	       N/A	       N/A	       N/A	        N/A	       N/A	       N/A	       N/A	        N/A	
         R10	    565	   78.4076	      15.3	       1.6	        N/A	   78.5163	      15.3	       1.6	        N/A	    78.625	      15.3	       1.6	        N/A	       N/A	       N/A	       N/A	        N/A	       N/A	       N/A	       N/A	        N/A	       N/A	       N/A	       N/A	        N/A	       N/A	       N/A	       N/A	        N/A	       N/A	       N/A	       N/A	        N/A	
         R10	    566	      76.5	    16.834	  0.304533	        N/A	      76.5	    16.867	  0.152267	        N/A	      76.5	      16.9	         0	        N/A	       N/A	       N/A	       N/A	        N/A	       N/A	       N/A	       N/A	        N/A	       N/A	       N/A	       N/A	        N/A	       N/A	       N/A	       N/A	        N/A	       N/A	       N/A	       N/A	        N/A	
         R10	    567	      76.5	   16.7761	    0.5712	        N/A	      76.5	    16.805	  0.437866	        N/A	      76.5	    16.834	  0.304533	        N/A	       N/A	       N/A	       N/A	        N/A	       N/A	       N/A	       N/A	        N/A	       N/A	       N/A	       N/A	        N/A	       N/A	       N/A	       N/A	        N/A	       N/A	       N/A	       N/A	        N/A	
         R10	    568	      76.5	   16.7265	       0.8	        N/A	      76.5	   16.7513	    0.6856	        N/A	      76.5	   16.7761	    0.5712	        N/A	       N/A	       N/A	       N/A	        N/A	       N/A	       N/A	       N/A	        N/A	       N/A	       N/A	       N/A	        N/A	       N/A	       N/A	       N/A	        N/A	       N/A	       N/A	       N/A	        N/A	
         R10	    569	      76.5	   18.4883	  0.365008	        N/A	      76.5	   18.4941	  0.182504	        N/A	      76.5	      18.5	         0	        N/A	       N/A	       N/A	       N/A	        N/A	       N/A	       N/A	       N/A	        N/A	       N/A	       N/A	       N/A	        N/A	       N/A	       N/A	       N/A	        N/A	       N/A	       N/A	       N/A	        N/A	
         R10	    570	      76.5	   18.4769	  0.717345	        N/A	      76.5	   18.4826	  0.541176	        N/A	      76.5	   18.4883	  0.365008	        N/A	       N/A	       N/A	       N/A	        N/A	       N/A	       N/A	       N/A	        N/A	       N/A	       N/A	       N/A	        N/A	       N/A	       N/A	       N/A	        N/A	       N/A	       N/A	       N/A	        N/A	
         R10	    571	      76.5	    18.466	   1.05701	        N/A	      76.5	   18.4715	  0.887179	        N/A	      76.5	   18.4769	  0.717345	        N/A	       N/A	       N/A	       N/A	        N/A	       N/A	       N/A	       N/A	        N/A	       N/A	       N/A	       N/A	        N/A	       N/A	       N/A	       N/A	        N/A	       N/A	       N/A	       N/A	        N/A	
         R10	    572	      76.5	   18.4555	   1.38401	        N/A	      76.5	   18.4608	   1.22051	        N/A	      76.5	    18.466	   1.05701	        N/A	       N/A	       N/A	       N/A	        N/A	       N/A	       N/A	       N/A	        N/A	       N/A	       N/A	       N/A	        N/A	       N/A	       N/A	       N/A	        N/A	       N/A	       N/A	       N/A	        N/A	
         R10	    573	      76.5	   18.4454	   1.69834	        N/A	      76.5	   18.4504	   1.54118	        N/A	      76.5	   18.4555	   1.38401	        N/A	       N/A	       N/A	       N/A	        N/A	       N/A	       N/A	       N/A	        N/A	       N/A	       N/A	       N/A	        N/A	       N/A	       N/A	       N/A	        N/A	       N/A	       N/A	       N/A	        N/A	
         R10	    574	      76.5	   18.4357	         2	        N/A	      76.5	   18.4405	   1.84917	        N/A	      76.5	   18.4454	   1.69834	        N/A	       N/A	       N/A	       N/A	        N/A	       N/A	       N/A	       N/A	        N/A	       N/A	       N/A	       N/A	        N/A	       N/A	       N/A	       N/A	        N/A	       N/A	       N/A	       N/A	        N/A	
         R10	    575	      76.5	   19.3629	  0.419048	        N/A	      76.5	   19.3314	  0.209524	        N/A	      76.5	      19.3	         0	        N/A	       N/A	       N/A	       N/A	        N/A	       N/A	       N/A	       N/A	        N/A	       N/A	       N/A	       N/A	        N/A	       N/A	       N/A	       N/A	        N/A	       N/A	       N/A	       N/A	        N/A	
         R10	    576	      76.5	   19.4243	  0.828571	        N/A	      76.5	   19.3936	   0.62381	        N/A	      76.5	   19.3629	  0.419048	        N/A	       N/A	       N/A	       N/A	        N/A	       N/A	       N/A	       N/A	        N/A	       N/A	       N/A	       N/A	        N/A	       N/A	       N/A	       N/A	        N/A	       N/A	       N/A	       N/A	        N/A	
         R10	    577	      76.5	   19.4843	   1.22857	        N/A	      76.5	   19.4543	   1.02857	        N/A	      76.5	   19.4243	  0.828571	        N/A	       N/A	       N/A	       N/A	        N/A	       N/A	       N/A	       N/A	        N/A	       N/A	       N/A	       N/A	        N/A	       N/A	       N/A	       N/A	        N/A	       N/A	       N/A	       N/A	        N/A	
         R10	    578	      76.5	   19.5429	   1.61905	        N/A	      76.5	   19.5136	   1.42381	        N/A	      76.5	   19.4843	   1.22857	        N/A	       N/A	       N/A	       N/A	        N/A	       N/A	       N/A	       N/A	        N/A	       N/A	       N/A	       N/A	        N/A	       N/A	       N/A	       N/A	        N/A	       N/A	       N/A	       N/A	        N/A	
         R10	    579	      76.5	      19.6	         2	        N/A	      76.5	   19.5714	   1.80952	        N/A	      76.5	   19.5429	   1.61905	        N/A	       N/A	       N/A	       N/A	        N/A	       N/A	       N/A	       N/A	        N/A	       N/A	       N/A	       N/A	        N/A	       N/A	       N/A	       N/A	        N/A	       N/A	       N/A	       N/A	        N/A	
         R10	    580	      76.5	   20.9238	   4.32697	        N/A	      76.5	   21.2119	   4.41348	        N/A	      76.5	      21.5	       4.5	        N/A	       N/A	       N/A	       N/A	        N/A	       N/A	       N/A	       N/A	        N/A	       N/A	       N/A	       N/A	        N/A	       N/A	       N/A	       N/A	        N/A	       N/A	       N/A	       N/A	        N/A	
         R10	    581	      76.5	      20.4	   4.16966	        N/A	      76.5	   20.6619	   4.24831	        N/A	      76.5	   20.9238	   4.32697	        N/A	       N/A	       N/A	       N/A	        N/A	       N/A	       N/A	       N/A	        N/A	       N/A	       N/A	       N/A	        N/A	       N/A	       N/A	       N/A	        N/A	       N/A	       N/A	       N/A	        N/A	
         R10	    582	      76.5	   20.9224	   2.89498	        N/A	      76.5	   21.2112	   2.94749	        N/A	      76.5	      21.5	         3	        N/A	       N/A	       N/A	       N/A	        N/A	       N/A	       N/A	       N/A	        N/A	       N/A	       N/A	       N/A	        N/A	       N/A	       N/A	       N/A	        N/A	       N/A	       N/A	       N/A	        N/A	
         R10	    583	      76.5	      20.4	       2.8	        N/A	      76.5	   20.6612	   2.84749	        N/A	      76.5	   20.9224	   2.89498	        N/A	       N/A	       N/A	       N/A	        N/A	       N/A	       N/A	       N/A	        N/A	       N/A	       N/A	       N/A	        N/A	       N/A	       N/A	       N/A	        N/A	       N/A	       N/A	       N/A	        N/A	
         R10	    584	      76.5	    18.925	   4.92276	        N/A	      76.5	   19.0684	   4.79706	        N/A	      76.5	   19.2119	   4.67137	        N/A	       N/A	       N/A	       N/A	        N/A	       N/A	       N/A	       N/A	        N/A	       N/A	       N/A	       N/A	        N/A	       N/A	       N/A	       N/A	        N/A	       N/A	       N/A	       N/A	        N/A	
         R10	    585	      76.5	   18.6483	   5.16518	        N/A	      76.5	   18.7867	   5.04397	        N/A	      76.5	    18.925	   4.92276	        N/A	       N/A	       N/A	       N/A	        N/A	       N/A	       N/A	       N/A	        N/A	       N/A	       N/A	       N/A	        N/A	       N/A	       N/A	       N/A	        N/A	       N/A	       N/A	       N/A	        N/A	
         R10	    586	      76.5	   18.3819	   5.39863	        N/A	      76.5	   18.5151	    5.2819	        N/A	      76.5	   18.6483	   5.16518	        N/A	       N/A	       N/A	       N/A	        N/A	       N/A	       N/A	       N/A	        N/A	       N/A	       N/A	       N/A	        N/A	       N/A	       N/A	       N/A	        N/A	       N/A	       N/A	       N/A	        N/A	
         R10	    587	      76.5	   19.1479	   5.36211	        N/A	      76.5	   19.3364	   5.35313	        N/A	      76.5	   19.5249	   5.34415	        N/A	       N/A	       N/A	       N/A	        N/A	       N/A	       N/A	       N/A	        N/A	       N/A	       N/A	       N/A	        N/A	       N/A	       N/A	       N/A	        N/A	       N/A	       N/A	       N/A	        N/A	
         R10	    588	      76.5	    18.767	   5.38027	        N/A	      76.5	   18.9574	   5.37119	        N/A	      76.5	   19.1479	   5.36211	        N/A	       N/A	       N/A	       N/A	        N/A	       N/A	       N/A	       N/A	        N/A	       N/A	       N/A	       N/A	        N/A	       N/A	       N/A	       N/A	        N/A	       N/A	       N/A	       N/A	        N/A	
         R10	    589	      76.5	   18.3819	   5.39863	        N/A	      76.5	   18.5744	   5.38945	        N/A	      76.5	    18.767	   5.38027	        N/A	       N/A	       N/A	       N/A	        N/A	       N/A	       N/A	       N/A	        N/A	       N/A	       N/A	       N/A	        N/A	       N/A	       N/A	       N/A	        N/A	       N/A	       N/A	       N/A	        N/A	
         R10	    590	      76.5	   19.5249	   5.34415	        N/A	      76.5	   19.7179	   5.33495	        N/A	      76.5	   19.9109	   5.32574	        N/A	       N/A	       N/A	       N/A	        N/A	       N/A	       N/A	       N/A	        N/A	       N/A	       N/A	       N/A	        N/A	       N/A	       N/A	       N/A	        N/A	       N/A	       N/A	       N/A	        N/A	
         R10	    591	      76.5	   20.2199	   5.31102	        N/A	      76.5	   20.3899	   5.30292	        N/A	      76.5	   20.5598	   5.29481	        N/A	       N/A	       N/A	       N/A	        N/A	       N/A	       N/A	       N/A	        N/A	       N/A	       N/A	       N/A	        N/A	       N/A	       N/A	       N/A	        N/A	       N/A	       N/A	       N/A	        N/A	
         R10	    592	      76.5	   19.9109	   5.32574	        N/A	      76.5	   20.0654	   5.31838	        N/A	      76.5	   20.2199	   5.31102	        N/A	       N/A	       N/A	       N/A	        N/A	       N/A	       N/A	       N/A	        N/A	       N/A	       N/A	       N/A	        N/A	       N/A	       N/A	       N/A	        N/A	       N/A	       N/A	       N/A	        N/A	
         R10	    593	      76.5	   20.9852	   5.27454	        N/A	      76.5	   21.2426	   5.26227	        N/A	      76.5	      21.5	      5.25	        N/A	       N/A	       N/A	       N/A	        N/A	       N/A	       N/A	       N/A	        N/A	       N/A	       N/A	       N/A	        N/A	       N/A	       N/A	       N/A	        N/A	       N/A	       N/A	       N/A	        N/A	
         R10	    594	      76.5	   20.5598	   5.29481	        N/A	      76.5	   20.7725	   5.28468	        N/A	      76.5	   20.9852	   5.27454	        N/A	       N/A	       N/A	       N/A	        N/A	       N/A	       N/A	       N/A	        N/A	       N/A	       N/A	       N/A	        N/A	       N/A	       N/A	       N/A	        N/A	       N/A	       N/A	       N/A	        N/A	
         R10	    595	      76.5	      20.4	   2.38095	        N/A	      76.5	      20.4	   2.59048	        N/A	      76.5	      20.4	       2.8	        N/A	       N/A	       N/A	       N/A	        N/A	       N/A	       N/A	       N/A	        N/A	       N/A	       N/A	       N/A	        N/A	       N/A	       N/A	       N/A	        N/A	       N/A	       N/A	       N/A	        N/A	
         R10	    596	      76.5	      20.4	         2	        N/A	      76.5	      20.4	   2.19048	        N/A	      76.5	      20.4	   2.38095	        N/A	       N/A	       N/A	       N/A	        N/A	       N/A	       N/A	       N/A	        N/A	       N/A	       N/A	       N/A	        N/A	       N/A	       N/A	       N/A	        N/A	       N/A	       N/A	       N/A	        N/A	
         R10	    597	      76.5	      20.4	       2.8	        N/A	      76.5	      20.4	   3.14242	        N/A	      76.5	      20.4	   3.48483	        N/A	       N/A	       N/A	       N/A	        N/A	       N/A	       N/A	       N/A	        N/A	       N/A	       N/A	       N/A	        N/A	       N/A	       N/A	       N/A	        N/A	       N/A	       N/A	       N/A	        N/A	
         R10	    598	      76.5	      20.4	   3.48483	        N/A	      76.5	      20.4	   3.82725	        N/A	      76.5	      20.4	   4.16966	        N/A	       N/A	       N/A	       N/A	        N/A	       N/A	       N/A	       N/A	        N/A	       N/A	       N/A	       N/A	        N/A	       N/A	       N/A	       N/A	        N/A	       N/A	       N/A	       N/A	        N/A	
         R10	    599	      76.5	   17.6783	   3.59945	        N/A	      76.5	   17.7781	   3.48641	        N/A	      76.5	   17.8778	   3.37338	        N/A	       N/A	       N/A	       N/A	        N/A	       N/A	       N/A	       N/A	        N/A	       N/A	       N/A	       N/A	        N/A	       N/A	       N/A	       N/A	        N/A	       N/A	       N/A	       N/A	        N/A	
         R10	    600	      76.5	   17.4904	   3.81243	        N/A	      76.5	   17.5844	   3.70594	        N/A	      76.5	   17.6783	   3.59945	        N/A	       N/A	       N/A	       N/A	        N/A	       N/A	       N/A	       N/A	        N/A	       N/A	       N/A	       N/A	        N/A	       N/A	       N/A	       N/A	        N/A	       N/A	       N/A	       N/A	        N/A	
         R10	    601	      76.5	    17.314	   4.01234	        N/A	      76.5	   17.4022	   3.91239	        N/A	      76.5	   17.4904	   3.81243	        N/A	       N/A	       N/A	       N/A	        N/A	       N/A	       N/A	       N/A	        N/A	       N/A	       N/A	       N/A	        N/A	       N/A	       N/A	       N/A	        N/A	       N/A	       N/A	       N/A	        N/A	
         R10	    602	      76.5	   17.1492	   4.19918	        N/A	      76.5	   17.2316	   4.10576	        N/A	      76.5	    17.314	   4.01234	        N/A	       N/A	       N/A	       N/A	        N/A	       N/A	       N/A	       N/A	        N/A	       N/A	       N/A	       N/A	        N/A	       N/A	       N/A	       N/A	        N/A	       N/A	       N/A	       N/A	        N/A	
         R10	    603	      76.5	   20.4558	   4.56257	        N/A	      76.5	   20.4279	   4.36612	        N/A	      76.5	      20.4	   4.16966	        N/A	       N/A	       N/A	       N/A	        N/A	       N/A	       N/A	       N/A	        N/A	       N/A	       N/A	       N/A	        N/A	       N/A	       N/A	       N/A	        N/A	       N/A	       N/A	       N/A	        N/A	
         R10	    604	      76.5	   20.5091	   4.93762	        N/A	      76.5	   20.4825	    4.7501	        N/A	      76.5	   20.4558	   4.56257	        N/A	       N/A	       N/A	       N/A	        N/A	       N/A	       N/A	       N/A	        N/A	       N/A	       N/A	       N/A	        N/A	       N/A	       N/A	       N/A	        N/A	       N/A	       N/A	       N/A	        N/A	
         R10	    605	      76.5	   20.5598	   5.29481	        N/A	      76.5	   20.5345	   5.11622	        N/A	      76.5	   20.5091	   4.93762	        N/A	       N/A	       N/A	       N/A	        N/A	       N/A	       N/A	       N/A	        N/A	       N/A	       N/A	       N/A	        N/A	       N/A	       N/A	       N/A	        N/A	       N/A	       N/A	       N/A	        N/A	
         R10	    606	      76.5	   20.6075	   5.63062	        N/A	      76.5	   20.5837	   5.46272	        N/A	      76.5	   20.5598	   5.29481	        N/A	       N/A	       N/A	       N/A	        N/A	       N/A	       N/A	       N/A	        N/A	       N/A	       N/A	       N/A	        N/A	       N/A	       N/A	       N/A	        N/A	       N/A	       N/A	       N/A	        N/A	
         R10	    607	      76.5	     20.66	         6	        N/A	      76.5	   20.6338	   5.81531	        N/A	      76.5	   20.6075	   5.63062	        N/A	       N/A	       N/A	       N/A	        N/A	       N/A	       N/A	       N/A	        N/A	       N/A	       N/A	       N/A	        N/A	       N/A	       N/A	       N/A	        N/A	       N/A	       N/A	       N/A	        N/A	
         R10	    608	      76.5	   17.5663	   1.07408	        N/A	      76.5	   17.5833	   0.93704	        N/A	      76.5	   17.6004	       0.8	        N/A	       N/A	       N/A	       N/A	        N/A	       N/A	       N/A	       N/A	        N/A	       N/A	       N/A	       N/A	        N/A	       N/A	       N/A	       N/A	        N/A	       N/A	       N/A	       N/A	        N/A	
         R10	    609	      76.5	   17.5343	   1.33112	        N/A	      76.5	   17.5503	    1.2026	        N/A	      76.5	   17.5663	   1.07408	        N/A	       N/A	       N/A	       N/A	        N/A	       N/A	       N/A	       N/A	        N/A	       N/A	       N/A	       N/A	        N/A	       N/A	       N/A	       N/A	        N/A	       N/A	       N/A	       N/A	        N/A	
         R10	    610	      76.5	   17.5044	   1.57112	        N/A	      76.5	   17.5193	   1.45112	        N/A	      76.5	   17.5343	   1.33112	        N/A	       N/A	       N/A	       N/A	        N/A	       N/A	       N/A	       N/A	        N/A	       N/A	       N/A	       N/A	        N/A	       N/A	       N/A	       N/A	        N/A	       N/A	       N/A	       N/A	        N/A	
         R10	    611	      76.5	   17.4766	   1.79408	        N/A	      76.5	   17.4905	    1.6826	        N/A	      76.5	   17.5044	   1.57112	        N/A	       N/A	       N/A	       N/A	        N/A	       N/A	       N/A	       N/A	        N/A	       N/A	       N/A	       N/A	        N/A	       N/A	       N/A	       N/A	        N/A	       N/A	       N/A	       N/A	        N/A	
         R10	    612	      76.5	    17.451	         2	        N/A	      76.5	   17.4638	   1.89704	        N/A	      76.5	   17.4766	   1.79408	        N/A	       N/A	       N/A	       N/A	        N/A	       N/A	       N/A	       N/A	        N/A	       N/A	       N/A	       N/A	        N/A	       N/A	       N/A	       N/A	        N/A	       N/A	       N/A	       N/A	        N/A	
         R10	    613	      76.5	   17.6636	  0.292006	        N/A	      76.5	   17.6818	  0.146003	        N/A	      76.5	      17.7	         0	        N/A	       N/A	       N/A	       N/A	        N/A	       N/A	       N/A	       N/A	        N/A	       N/A	       N/A	       N/A	        N/A	       N/A	       N/A	       N/A	        N/A	       N/A	       N/A	       N/A	        N/A	
         R10	    614	      76.5	   17.6304	  0.558673	        N/A	      76.5	    17.647	  0.425339	        N/A	      76.5	   17.6636	  0.292006	        N/A	       N/A	       N/A	       N/A	        N/A	       N/A	       N/A	       N/A	        N/A	       N/A	       N/A	       N/A	        N/A	       N/A	       N/A	       N/A	        N/A	       N/A	       N/A	       N/A	        N/A	
         R10	    615	      76.5	   17.6004	       0.8	        N/A	      76.5	   17.6154	  0.679336	        N/A	      76.5	   17.6304	  0.558673	        N/A	       N/A	       N/A	       N/A	        N/A	       N/A	       N/A	       N/A	        N/A	       N/A	       N/A	       N/A	        N/A	       N/A	       N/A	       N/A	        N/A	       N/A	       N/A	       N/A	        N/A	
         R10	    616	      76.5	   18.1431	         2	        N/A	      76.5	   18.2894	         2	        N/A	      76.5	   18.4357	         2	        N/A	       N/A	       N/A	       N/A	        N/A	       N/A	       N/A	       N/A	        N/A	       N/A	       N/A	       N/A	        N/A	       N/A	       N/A	       N/A	        N/A	       N/A	       N/A	       N/A	        N/A	
         R10	    617	      76.5	   17.8815	         2	        N/A	      76.5	   18.0123	         2	        N/A	      76.5	   18.1431	         2	        N/A	       N/A	       N/A	       N/A	        N/A	       N/A	       N/A	       N/A	        N/A	       N/A	       N/A	       N/A	        N/A	       N/A	       N/A	       N/A	        N/A	       N/A	       N/A	       N/A	        N/A	
         R10	    618	      76.5	   17.6508	         2	        N/A	      76.5	   17.7662	         2	        N/A	      76.5	   17.8815	         2	        N/A	       N/A	       N/A	       N/A	        N/A	       N/A	       N/A	       N/A	        N/A	       N/A	       N/A	       N/A	        N/A	       N/A	       N/A	       N/A	        N/A	       N/A	       N/A	       N/A	        N/A	
         R10	    619	      76.5	    17.451	         2	        N/A	      76.5	   17.5509	         2	        N/A	      76.5	   17.6508	         2	        N/A	       N/A	       N/A	       N/A	        N/A	       N/A	       N/A	       N/A	        N/A	       N/A	       N/A	       N/A	        N/A	       N/A	       N/A	       N/A	        N/A	       N/A	       N/A	       N/A	        N/A	
         R10	    620	      76.5	   19.1568	         2	        N/A	      76.5	   19.3784	         2	        N/A	      76.5	      19.6	         2	        N/A	       N/A	       N/A	       N/A	        N/A	       N/A	       N/A	       N/A	        N/A	       N/A	       N/A	       N/A	        N/A	       N/A	       N/A	       N/A	        N/A	       N/A	       N/A	       N/A	        N/A	
         R10	    621	      76.5	   18.7687	         2	        N/A	      76.5	   18.9627	         2	        N/A	      76.5	   19.1568	         2	        N/A	       N/A	       N/A	       N/A	        N/A	       N/A	       N/A	       N/A	        N/A	       N/A	       N/A	       N/A	        N/A	       N/A	       N/A	       N/A	        N/A	       N/A	       N/A	       N/A	        N/A	
         R10	    622	      76.5	   18.4357	         2	        N/A	      76.5	   18.6022	         2	        N/A	      76.5	   18.7687	         2	        N/A	       N/A	       N/A	       N/A	        N/A	       N/A	       N/A	       N/A	        N/A	       N/A	       N/A	       N/A	        N/A	       N/A	       N/A	       N/A	        N/A	       N/A	       N/A	       N/A	        N/A	
         R10	    623	      76.5	    19.981	         2	        N/A	      76.5	   20.1905	         2	        N/A	      76.5	      20.4	         2	        N/A	       N/A	       N/A	       N/A	        N/A	       N/A	       N/A	       N/A	        N/A	       N/A	       N/A	       N/A	        N/A	       N/A	       N/A	       N/A	        N/A	       N/A	       N/A	       N/A	        N/A	
         R10	    624	      76.5	      19.6	         2	        N/A	      76.5	   19.7905	         2	        N/A	      76.5	    19.981	         2	        N/A	       N/A	       N/A	       N/A	        N/A	       N/A	       N/A	       N/A	        N/A	       N/A	       N/A	       N/A	        N/A	       N/A	       N/A	       N/A	        N/A	       N/A	       N/A	       N/A	        N/A	
         R10	    625	      76.5	   17.6578	   3.15932	        N/A	      76.5	   17.7678	   3.26635	        N/A	      76.5	   17.8778	   3.37338	        N/A	       N/A	       N/A	       N/A	        N/A	       N/A	       N/A	       N/A	        N/A	       N/A	       N/A	       N/A	        N/A	       N/A	       N/A	       N/A	        N/A	       N/A	       N/A	       N/A	        N/A	
         R10	    626	      76.5	   17.4652	   2.97188	        N/A	      76.5	   17.5615	    3.0656	        N/A	      76.5	   17.6578	   3.15932	        N/A	       N/A	       N/A	       N/A	        N/A	       N/A	       N/A	       N/A	        N/A	       N/A	       N/A	       N/A	        N/A	       N/A	       N/A	       N/A	        N/A	       N/A	       N/A	       N/A	        N/A	
         R10	    627	      76.5	   17.2999	   2.81105	        N/A	      76.5	   17.3825	   2.89147	        N/A	      76.5	   17.4652	   2.97188	        N/A	       N/A	       N/A	       N/A	        N/A	       N/A	       N/A	       N/A	        N/A	       N/A	       N/A	       N/A	        N/A	       N/A	       N/A	       N/A	        N/A	       N/A	       N/A	       N/A	        N/A	
         R10	    628	      76.5	   18.2936	   3.77795	        N/A	      76.5	   18.4131	   3.89423	        N/A	      76.5	   18.5326	    4.0105	        N/A	       N/A	       N/A	       N/A	        N/A	       N/A	       N/A	       N/A	        N/A	       N/A	       N/A	       N/A	        N/A	       N/A	       N/A	       N/A	        N/A	       N/A	       N/A	       N/A	        N/A	
         R10	    629	      76.5	   18.0753	   3.56557	        N/A	      76.5	   18.1845	   3.67176	        N/A	      76.5	   18.2936	   3.77795	        N/A	       N/A	       N/A	       N/A	        N/A	       N/A	       N/A	       N/A	        N/A	       N/A	       N/A	       N/A	        N/A	       N/A	       N/A	       N/A	        N/A	       N/A	       N/A	       N/A	        N/A	
         R10	    630	      76.5	   17.8778	   3.37338	        N/A	      76.5	   17.9766	   3.46948	        N/A	      76.5	   18.0753	   3.56557	        N/A	       N/A	       N/A	       N/A	        N/A	       N/A	       N/A	       N/A	        N/A	       N/A	       N/A	       N/A	        N/A	       N/A	       N/A	       N/A	        N/A	       N/A	       N/A	       N/A	        N/A	
         R10	    631	      76.5	   18.8436	   4.31303	        N/A	      76.5	   19.0277	    4.4922	        N/A	      76.5	   19.2119	   4.67137	        N/A	       N/A	       N/A	       N/A	        N/A	       N/A	       N/A	       N/A	        N/A	       N/A	       N/A	       N/A	        N/A	       N/A	       N/A	       N/A	        N/A	       N/A	       N/A	       N/A	        N/A	
         R10	    632	      76.5	   18.5326	    4.0105	        N/A	      76.5	   18.6881	   4.16176	        N/A	      76.5	   18.8436	   4.31303	        N/A	       N/A	       N/A	       N/A	        N/A	       N/A	       N/A	       N/A	        N/A	       N/A	       N/A	       N/A	        N/A	       N/A	       N/A	       N/A	        N/A	       N/A	       N/A	       N/A	        N/A	
         R10	    633	     77.35	   15.9164	   2.99973	        N/A	   77.4007	   15.9164	   2.99973	        N/A	   77.4514	   15.9164	   2.99973	        N/A	       N/A	       N/A	       N/A	        N/A	       N/A	       N/A	       N/A	        N/A	       N/A	       N/A	       N/A	        N/A	       N/A	       N/A	       N/A	        N/A	       N/A	       N/A	       N/A	        N/A	
         R10	    634	   77.4514	   15.9164	   2.99973	        N/A	   77.5104	   15.9164	   2.99973	        N/A	   77.5694	   15.9164	   2.99973	        N/A	       N/A	       N/A	       N/A	        N/A	       N/A	       N/A	       N/A	        N/A	       N/A	       N/A	       N/A	        N/A	       N/A	       N/A	       N/A	        N/A	       N/A	       N/A	       N/A	        N/A	
         R10	    635	   77.5694	   15.9164	   2.99973	        N/A	   77.6366	   15.9164	   2.99973	        N/A	   77.7039	   15.9164	   2.99973	        N/A	       N/A	       N/A	       N/A	        N/A	       N/A	       N/A	       N/A	        N/A	       N/A	       N/A	       N/A	        N/A	       N/A	       N/A	       N/A	        N/A	       N/A	       N/A	       N/A	        N/A	
         R10	    636	   77.7039	   15.9164	   2.99973	        N/A	   77.7794	   15.9164	   2.99973	        N/A	    77.855	   15.9164	   2.99973	        N/A	       N/A	       N/A	       N/A	        N/A	       N/A	       N/A	       N/A	        N/A	       N/A	       N/A	       N/A	        N/A	       N/A	       N/A	       N/A	        N/A	       N/A	       N/A	       N/A	        N/A	
         R10	    637	    77.855	   15.9164	   2.99973	        N/A	   77.9388	   15.9164	   2.99973	        N/A	   78.0226	   15.9164	   2.99973	        N/A	       N/A	       N/A	       N/A	        N/A	       N/A	       N/A	       N/A	        N/A	       N/A	       N/A	       N/A	        N/A	       N/A	       N/A	       N/A	        N/A	       N/A	       N/A	       N/A	        N/A	
         R10	    638	   78.0226	   15.9164	   2.99973	        N/A	   78.1147	   15.9164	   2.99973	        N/A	   78.2069	   15.9164	   2.99973	        N/A	       N/A	       N/A	       N/A	        N/A	       N/A	       N/A	       N/A	        N/A	       N/A	       N/A	       N/A	        N/A	       N/A	       N/A	       N/A	        N/A	       N/A	       N/A	       N/A	        N/A	
         R10	    639	   78.2069	   15.9164	   2.99973	        N/A	   78.3073	   15.9164	   2.99973	        N/A	   78.4076	   15.9164	   2.99973	        N/A	       N/A	       N/A	       N/A	        N/A	       N/A	       N/A	       N/A	        N/A	       N/A	       N/A	       N/A	        N/A	       N/A	       N/A	       N/A	        N/A	       N/A	       N/A	       N/A	        N/A	
         R10	    640	   78.4076	   15.9164	   2.99973	        N/A	   78.5163	   15.9164	   2.99973	        N/A	    78.625	   15.9164	   2.99973	        N/A	       N/A	       N/A	       N/A	        N/A	       N/A	       N/A	       N/A	        N/A	       N/A	       N/A	       N/A	        N/A	       N/A	       N/A	       N/A	        N/A	       N/A	       N/A	       N/A	        N/A	
         R10	    641	      76.5	   16.6425	   3.48671	        N/A	      76.5	   16.5876	   3.54308	        N/A	      76.5	   16.5328	   3.59945	        N/A	       N/A	       N/A	       N/A	        N/A	       N/A	       N/A	       N/A	        N/A	       N/A	       N/A	       N/A	        N/A	       N/A	       N/A	       N/A	        N/A	       N/A	       N/A	       N/A	        N/A	
         R10	    642	      76.5	   16.7594	    3.3665	        N/A	      76.5	   16.7009	   3.42661	        N/A	      76.5	   16.6425	   3.48671	        N/A	       N/A	       N/A	       N/A	        N/A	       N/A	       N/A	       N/A	        N/A	       N/A	       N/A	       N/A	        N/A	       N/A	       N/A	       N/A	        N/A	       N/A	       N/A	       N/A	        N/A	
         R10	    643	      76.5	   16.8836	   3.23884	        N/A	      76.5	   16.8215	   3.30267	        N/A	      76.5	   16.7594	    3.3665	        N/A	       N/A	       N/A	       N/A	        N/A	       N/A	       N/A	       N/A	        N/A	       N/A	       N/A	       N/A	        N/A	       N/A	       N/A	       N/A	        N/A	       N/A	       N/A	       N/A	        N/A	
         R10	    644	      76.5	   17.0151	   3.10371	        N/A	      76.5	   16.9494	   3.17127	        N/A	      76.5	   16.8836	   3.23884	        N/A	       N/A	       N/A	       N/A	        N/A	       N/A	       N/A	       N/A	        N/A	       N/A	       N/A	       N/A	        N/A	       N/A	       N/A	       N/A	        N/A	       N/A	       N/A	       N/A	        N/A	
         R10	    645	      76.5	   17.1539	   2.96111	        N/A	      76.5	   17.0845	   3.03241	        N/A	      76.5	   17.0151	   3.10371	        N/A	       N/A	       N/A	       N/A	        N/A	       N/A	       N/A	       N/A	        N/A	       N/A	       N/A	       N/A	        N/A	       N/A	       N/A	       N/A	        N/A	       N/A	       N/A	       N/A	        N/A	
         R10	    646	      76.5	   17.2999	   2.81105	        N/A	      76.5	   17.2269	   2.88608	        N/A	      76.5	   17.1539	   2.96111	        N/A	       N/A	       N/A	       N/A	        N/A	       N/A	       N/A	       N/A	        N/A	       N/A	       N/A	       N/A	        N/A	       N/A	       N/A	       N/A	        N/A	       N/A	       N/A	       N/A	        N/A	
         R10	    647	      76.5	   18.0091	   4.54862	        N/A	      76.5	   17.8873	   4.67376	        N/A	      76.5	   17.7655	    4.7989	        N/A	       N/A	       N/A	       N/A	        N/A	       N/A	       N/A	       N/A	        N/A	       N/A	       N/A	       N/A	        N/A	       N/A	       N/A	       N/A	        N/A	       N/A	       N/A	       N/A	        N/A	
         R10	    648	      76.5	   18.2648	   4.28582	        N/A	      76.5	   18.1369	   4.41722	        N/A	      76.5	   18.0091	   4.54862	        N/A	       N/A	       N/A	       N/A	        N/A	       N/A	       N/A	       N/A	        N/A	       N/A	       N/A	       N/A	        N/A	       N/A	       N/A	       N/A	        N/A	       N/A	       N/A	       N/A	        N/A	
         R10	    649	      76.5	   18.5326	    4.0105	        N/A	      76.5	   18.3987	   4.14816	        N/A	      76.5	   18.2648	   4.28582	        N/A	       N/A	       N/A	       N/A	        N/A	       N/A	       N/A	       N/A	        N/A	       N/A	       N/A	       N/A	        N/A	       N/A	       N/A	       N/A	        N/A	       N/A	       N/A	       N/A	        N/A	
         R10	    650	      76.5	   20.9238	    3.6111	        N/A	      76.5	   21.2119	   3.68055	        N/A	      76.5	      21.5	      3.75	        N/A	       N/A	       N/A	       N/A	        N/A	       N/A	       N/A	       N/A	        N/A	       N/A	       N/A	       N/A	        N/A	       N/A	       N/A	       N/A	        N/A	       N/A	       N/A	       N/A	        N/A	
         R10	    651	      76.5	      20.4	   3.48483	        N/A	      76.5	   20.6619	   3.54797	        N/A	      76.5	   20.9238	    3.6111	        N/A	       N/A	       N/A	       N/A	        N/A	       N/A	       N/A	       N/A	        N/A	       N/A	       N/A	       N/A	        N/A	       N/A	       N/A	       N/A	        N/A	       N/A	       N/A	       N/A	        N/A	
         R10	    652	      76.5	   18.1279	    2.0616	        N/A	      76.5	   18.2787	   2.01555	        N/A	      76.5	   18.4357	         2	        N/A	       N/A	       N/A	       N/A	        N/A	       N/A	       N/A	       N/A	        N/A	       N/A	       N/A	       N/A	        N/A	       N/A	       N/A	       N/A	        N/A	       N/A	       N/A	       N/A	        N/A	
         R10	    653	      76.5	   17.8674	    2.2369	        N/A	      76.5	    17.989	   2.13635	        N/A	      76.5	   18.1279	    2.0616	        N/A	       N/A	       N/A	       N/A	        N/A	       N/A	       N/A	       N/A	        N/A	       N/A	       N/A	       N/A	        N/A	       N/A	       N/A	       N/A	        N/A	       N/A	       N/A	       N/A	        N/A	
         R10	    654	      76.5	   17.6945	   2.49892	        N/A	      76.5	    17.768	   2.35935	        N/A	      76.5	   17.8674	    2.2369	        N/A	       N/A	       N/A	       N/A	        N/A	       N/A	       N/A	       N/A	        N/A	       N/A	       N/A	       N/A	        N/A	       N/A	       N/A	       N/A	        N/A	       N/A	       N/A	       N/A	        N/A	
         R10	    655	      76.5	   17.6357	   2.80731	        N/A	      76.5	   17.6498	    2.6502	        N/A	      76.5	   17.6945	   2.49892	        N/A	       N/A	       N/A	       N/A	        N/A	       N/A	       N/A	       N/A	        N/A	       N/A	       N/A	       N/A	        N/A	       N/A	       N/A	       N/A	        N/A	       N/A	       N/A	       N/A	        N/A	
         R10	    656	      76.5	   17.7001	   3.11456	        N/A	      76.5	   17.6527	   2.96412	        N/A	      76.5	   17.6357	   2.80731	        N/A	       N/A	       N/A	       N/A	        N/A	       N/A	       N/A	       N/A	        N/A	       N/A	       N/A	       N/A	        N/A	       N/A	       N/A	       N/A	        N/A	       N/A	       N/A	       N/A	        N/A	
         R10	    657	      76.5	   17.8778	   3.37338	        N/A	      76.5	   17.7761	   3.25277	        N/A	      76.5	   17.7001	   3.11456	        N/A	       N/A	       N/A	       N/A	        N/A	       N/A	       N/A	       N/A	        N/A	       N/A	       N/A	       N/A	        N/A	       N/A	       N/A	       N/A	        N/A	       N/A	       N/A	       N/A	        N/A	
         R10	    658	      76.5	   19.5705	   4.85758	        N/A	      76.5	   19.7746	   4.86568	        N/A	      76.5	   19.9723	   4.81453	        N/A	       N/A	       N/A	       N/A	        N/A	       N/A	       N/A	       N/A	        N/A	       N/A	       N/A	       N/A	        N/A	       N/A	       N/A	       N/A	        N/A	       N/A	       N/A	       N/A	        N/A	
         R10	    659	      76.5	   19.2119	   4.67137	        N/A	      76.5	   19.3774	   4.79092	        N/A	      76.5	   19.5705	   4.85758	        N/A	       N/A	       N/A	       N/A	        N/A	       N/A	       N/A	       N/A	        N/A	       N/A	       N/A	       N/A	        N/A	       N/A	       N/A	       N/A	        N/A	       N/A	       N/A	       N/A	        N/A	
         R10	    660	      76.5	   20.2723	   4.57268	        N/A	      76.5	   20.3673	   4.38104	        N/A	      76.5	      20.4	   4.16966	        N/A	       N/A	       N/A	       N/A	        N/A	       N/A	       N/A	       N/A	        N/A	       N/A	       N/A	       N/A	        N/A	       N/A	       N/A	       N/A	        N/A	       N/A	       N/A	       N/A	        N/A	
         R10	    661	      76.5	   19.9723	   4.81453	        N/A	      76.5	   20.1393	   4.71466	        N/A	      76.5	   20.2723	   4.57268	        N/A	       N/A	       N/A	       N/A	        N/A	       N/A	       N/A	       N/A	        N/A	       N/A	       N/A	       N/A	        N/A	       N/A	       N/A	       N/A	        N/A	       N/A	       N/A	       N/A	        N/A	
         R10	    662	      76.5	    19.965	   2.08814	        N/A	      76.5	   19.7878	   2.02235	        N/A	      76.5	      19.6	         2	        N/A	       N/A	       N/A	       N/A	        N/A	       N/A	       N/A	       N/A	        N/A	       N/A	       N/A	       N/A	        N/A	       N/A	       N/A	       N/A	        N/A	       N/A	       N/A	       N/A	        N/A	
         R10	    663	      76.5	   20.2721	   2.36604	        N/A	      76.5	   20.1369	   2.20688	        N/A	      76.5	    19.965	   2.08814	        N/A	       N/A	       N/A	       N/A	        N/A	       N/A	       N/A	       N/A	        N/A	       N/A	       N/A	       N/A	        N/A	       N/A	       N/A	       N/A	        N/A	       N/A	       N/A	       N/A	        N/A	
         R10	    664	      76.5	      20.4	       2.8	        N/A	      76.5	   20.3674	   2.57379	        N/A	      76.5	   20.2721	   2.36604	        N/A	       N/A	       N/A	       N/A	        N/A	       N/A	       N/A	       N/A	        N/A	       N/A	       N/A	       N/A	        N/A	       N/A	       N/A	       N/A	        N/A	       N/A	       N/A	       N/A	        N/A	
         R10	    665	     77.35	     14.45	       2.4	        N/A	   77.4007	     14.45	       2.4	        N/A	   77.4514	     14.45	       2.4	        N/A	       N/A	       N/A	       N/A	        N/A	       N/A	       N/A	       N/A	        N/A	       N/A	       N/A	       N/A	        N/A	       N/A	       N/A	       N/A	        N/A	       N/A	       N/A	       N/A	        N/A	
         R10	    666	   77.4514	     14.45	       2.4	        N/A	   77.5104	     14.45	       2.4	        N/A	   77.5694	     14.45	       2.4	        N/A	       N/A	       N/A	       N/A	        N/A	       N/A	       N/A	       N/A	        N/A	       N/A	       N/A	       N/A	        N/A	       N/A	       N/A	       N/A	        N/A	       N/A	       N/A	       N/A	        N/A	
         R10	    667	   77.5694	     14.45	       2.4	        N/A	   77.6366	     14.45	       2.4	        N/A	   77.7039	     14.45	       2.4	        N/A	       N/A	       N/A	       N/A	        N/A	       N/A	       N/A	       N/A	        N/A	       N/A	       N/A	       N/A	        N/A	       N/A	       N/A	       N/A	        N/A	       N/A	       N/A	       N/A	        N/A	
         R10	    668	   77.7039	     14.45	       2.4	        N/A	   77.7794	     14.45	       2.4	        N/A	    77.855	     14.45	       2.4	        N/A	       N/A	       N/A	       N/A	        N/A	       N/A	       N/A	       N/A	        N/A	       N/A	       N/A	       N/A	        N/A	       N/A	       N/A	       N/A	        N/A	       N/A	       N/A	       N/A	        N/A	
         R10	    669	    77.855	     14.45	       2.4	        N/A	   77.9388	     14.45	       2.4	        N/A	   78.0226	     14.45	       2.4	        N/A	       N/A	       N/A	       N/A	        N/A	       N/A	       N/A	       N/A	        N/A	       N/A	       N/A	       N/A	        N/A	       N/A	       N/A	       N/A	        N/A	       N/A	       N/A	       N/A	        N/A	
         R10	    670	   78.0226	     14.45	       2.4	        N/A	   78.1147	     14.45	       2.4	        N/A	   78.2069	     14.45	       2.4	        N/A	       N/A	       N/A	       N/A	        N/A	       N/A	       N/A	       N/A	        N/A	       N/A	       N/A	       N/A	        N/A	       N/A	       N/A	       N/A	        N/A	       N/A	       N/A	       N/A	        N/A	
         R10	    671	   78.2069	     14.45	       2.4	        N/A	   78.3073	     14.45	       2.4	        N/A	   78.4076	     14.45	       2.4	        N/A	       N/A	       N/A	       N/A	        N/A	       N/A	       N/A	       N/A	        N/A	       N/A	       N/A	       N/A	        N/A	       N/A	       N/A	       N/A	        N/A	       N/A	       N/A	       N/A	        N/A	
         R10	    672	   78.4076	     14.45	       2.4	        N/A	   78.5163	     14.45	       2.4	        N/A	    78.625	     14.45	       2.4	        N/A	       N/A	       N/A	       N/A	        N/A	       N/A	       N/A	       N/A	        N/A	       N/A	       N/A	       N/A	        N/A	       N/A	       N/A	       N/A	        N/A	       N/A	       N/A	       N/A	        N/A	
         R10	    673	      76.5	   19.3758	   5.02378	        N/A	      76.5	   19.2938	   4.84757	        N/A	      76.5	   19.2119	   4.67137	        N/A	       N/A	       N/A	       N/A	        N/A	       N/A	       N/A	       N/A	        N/A	       N/A	       N/A	       N/A	        N/A	       N/A	       N/A	       N/A	        N/A	       N/A	       N/A	       N/A	        N/A	
         R10	    674	      76.5	   19.5249	   5.34415	        N/A	      76.5	   19.4503	   5.18396	        N/A	      76.5	   19.3758	   5.02378	        N/A	       N/A	       N/A	       N/A	        N/A	       N/A	       N/A	       N/A	        N/A	       N/A	       N/A	       N/A	        N/A	       N/A	       N/A	       N/A	        N/A	       N/A	       N/A	       N/A	        N/A	
         R10	    675	      76.5	   19.6702	   5.65646	        N/A	      76.5	   19.5975	    5.5003	        N/A	      76.5	   19.5249	   5.34415	        N/A	       N/A	       N/A	       N/A	        N/A	       N/A	       N/A	       N/A	        N/A	       N/A	       N/A	       N/A	        N/A	       N/A	       N/A	       N/A	        N/A	       N/A	       N/A	       N/A	        N/A	
         R10	    676	      76.5	     19.83	         6	        N/A	      76.5	   19.7501	   5.82823	        N/A	      76.5	   19.6702	   5.65646	        N/A	       N/A	       N/A	       N/A	        N/A	       N/A	       N/A	       N/A	        N/A	       N/A	       N/A	       N/A	        N/A	       N/A	       N/A	       N/A	        N/A	       N/A	       N/A	       N/A	        N/A	
         R10	    677	      76.5	     14.45	   1.70151	        N/A	      76.5	     14.45	   1.65076	        N/A	      76.5	     14.45	       1.6	        N/A	       N/A	       N/A	       N/A	        N/A	       N/A	       N/A	       N/A	        N/A	       N/A	       N/A	       N/A	        N/A	       N/A	       N/A	       N/A	        N/A	       N/A	       N/A	       N/A	        N/A	
         R10	    678	      76.5	     14.45	   1.79987	        N/A	      76.5	     14.45	   1.75069	        N/A	      76.5	     14.45	   1.70151	        N/A	       N/A	       N/A	       N/A	        N/A	       N/A	       N/A	       N/A	        N/A	       N/A	       N/A	       N/A	        N/A	       N/A	       N/A	       N/A	        N/A	       N/A	       N/A	       N/A	        N/A	
         R10	    679	      76.5	     14.45	   1.89507	        N/A	      76.5	     14.45	   1.84747	        N/A	      76.5	     14.45	   1.79987	        N/A	       N/A	       N/A	       N/A	        N/A	       N/A	       N/A	       N/A	        N/A	       N/A	       N/A	       N/A	        N/A	       N/A	       N/A	       N/A	        N/A	       N/A	       N/A	       N/A	        N/A	
         R10	    680	      76.5	     14.45	   1.98711	        N/A	      76.5	     14.45	   1.94109	        N/A	      76.5	     14.45	   1.89507	        N/A	       N/A	       N/A	       N/A	        N/A	       N/A	       N/A	       N/A	        N/A	       N/A	       N/A	       N/A	        N/A	       N/A	       N/A	       N/A	        N/A	       N/A	       N/A	       N/A	        N/A	
         R10	    681	      76.5	     14.45	     2.076	        N/A	      76.5	     14.45	   2.03156	        N/A	      76.5	     14.45	   1.98711	        N/A	       N/A	       N/A	       N/A	        N/A	       N/A	       N/A	       N/A	        N/A	       N/A	       N/A	       N/A	        N/A	       N/A	       N/A	       N/A	        N/A	       N/A	       N/A	       N/A	        N/A	
         R10	    682	      76.5	     14.45	   2.16173	        N/A	      76.5	     14.45	   2.11887	        N/A	      76.5	     14.45	     2.076	        N/A	       N/A	       N/A	       N/A	        N/A	       N/A	       N/A	       N/A	        N/A	       N/A	       N/A	       N/A	        N/A	       N/A	       N/A	       N/A	        N/A	       N/A	       N/A	       N/A	        N/A	
         R10	    683	      76.5	     14.45	   2.24431	        N/A	      76.5	     14.45	   2.20302	        N/A	      76.5	     14.45	   2.16173	        N/A	       N/A	       N/A	       N/A	        N/A	       N/A	       N/A	       N/A	        N/A	       N/A	       N/A	       N/A	        N/A	       N/A	       N/A	       N/A	        N/A	       N/A	       N/A	       N/A	        N/A	
         R10	    684	      76.5	     14.45	   2.32373	        N/A	      76.5	     14.45	   2.28402	        N/A	      76.5	     14.45	   2.24431	        N/A	       N/A	       N/A	       N/A	        N/A	       N/A	       N/A	       N/A	        N/A	       N/A	       N/A	       N/A	        N/A	       N/A	       N/A	       N/A	        N/A	       N/A	       N/A	       N/A	        N/A	
         R10	    685	      76.5	     14.45	       2.4	        N/A	      76.5	     14.45	   2.36187	        N/A	      76.5	     14.45	   2.32373	        N/A	       N/A	       N/A	       N/A	        N/A	       N/A	       N/A	       N/A	        N/A	       N/A	       N/A	       N/A	        N/A	       N/A	       N/A	       N/A	        N/A	       N/A	       N/A	       N/A	        N/A	
         R10	    686	    74.375	      13.6	       2.4	        N/A	   74.5146	      13.6	       2.4	        N/A	   74.6542	      13.6	       2.4	        N/A	       N/A	       N/A	       N/A	        N/A	       N/A	       N/A	       N/A	        N/A	       N/A	       N/A	       N/A	        N/A	       N/A	       N/A	       N/A	        N/A	       N/A	       N/A	       N/A	        N/A	
         R10	    687	   74.6542	      13.6	       2.4	        N/A	   74.7878	      13.6	       2.4	        N/A	   74.9213	      13.6	       2.4	        N/A	       N/A	       N/A	       N/A	        N/A	       N/A	       N/A	       N/A	        N/A	       N/A	       N/A	       N/A	        N/A	       N/A	       N/A	       N/A	        N/A	       N/A	       N/A	       N/A	        N/A	
         R10	    688	   74.9213	      13.6	       2.4	        N/A	   75.0488	      13.6	       2.4	        N/A	   75.1763	      13.6	       2.4	        N/A	       N/A	       N/A	       N/A	        N/A	       N/A	       N/A	       N/A	        N/A	       N/A	       N/A	       N/A	        N/A	       N/A	       N/A	       N/A	        N/A	       N/A	       N/A	       N/A	        N/A	
         R10	    689	   75.1763	      13.6	       2.4	        N/A	   75.2978	      13.6	       2.4	        N/A	   75.4192	      13.6	       2.4	        N/A	       N/A	       N/A	       N/A	        N/A	       N/A	       N/A	       N/A	        N/A	       N/A	       N/A	       N/A	        N/A	       N/A	       N/A	       N/A	        N/A	       N/A	       N/A	       N/A	        N/A	
         R10	    690	   75.4192	      13.6	       2.4	        N/A	   75.5346	      13.6	       2.4	        N/A	     75.65	      13.6	       2.4	        N/A	       N/A	       N/A	       N/A	        N/A	       N/A	       N/A	       N/A	        N/A	       N/A	       N/A	       N/A	        N/A	       N/A	       N/A	       N/A	        N/A	       N/A	       N/A	       N/A	        N/A	
         R10	    691	     75.65	      13.6	       2.4	        N/A	   75.7819	      13.6	       2.4	        N/A	   75.9137	      13.6	       2.4	        N/A	       N/A	       N/A	       N/A	        N/A	       N/A	       N/A	       N/A	        N/A	       N/A	       N/A	       N/A	        N/A	       N/A	       N/A	       N/A	        N/A	       N/A	       N/A	       N/A	        N/A	
         R10	    692	   75.9137	      13.6	       2.4	        N/A	   76.0285	      13.6	       2.4	        N/A	   76.1433	      13.6	       2.4	        N/A	       N/A	       N/A	       N/A	        N/A	       N/A	       N/A	       N/A	        N/A	       N/A	       N/A	       N/A	        N/A	       N/A	       N/A	       N/A	        N/A	       N/A	       N/A	       N/A	        N/A	
         R10	    693	   76.1433	      13.6	       2.4	        N/A	    76.241	      13.6	       2.4	        N/A	   76.3387	      13.6	       2.4	        N/A	       N/A	       N/A	       N/A	        N/A	       N/A	       N/A	       N/A	        N/A	       N/A	       N/A	       N/A	        N/A	       N/A	       N/A	       N/A	        N/A	       N/A	       N/A	       N/A	        N/A	
         R10	    694	   76.3387	      13.6	       2.4	        N/A	   76.4194	      13.6	       2.4	        N/A	      76.5	      13.6	       2.4	        N/A	       N/A	       N/A	       N/A	        N/A	       N/A	       N/A	       N/A	        N/A	       N/A	       N/A	       N/A	        N/A	       N/A	       N/A	       N/A	        N/A	       N/A	       N/A	       N/A	        N/A	
         R10	    695	      76.5	      13.6	       2.4	        N/A	   76.5769	      13.6	       2.4	        N/A	   76.6538	      13.6	       2.4	        N/A	       N/A	       N/A	       N/A	        N/A	       N/A	       N/A	       N/A	        N/A	       N/A	       N/A	       N/A	        N/A	       N/A	       N/A	       N/A	        N/A	       N/A	       N/A	       N/A	        N/A	
         R10	    696	   76.6538	      13.6	       2.4	        N/A	   76.7348	      13.6	       2.4	        N/A	   76.8158	      13.6	       2.4	        N/A	       N/A	       N/A	       N/A	        N/A	       N/A	       N/A	       N/A	        N/A	       N/A	       N/A	       N/A	        N/A	       N/A	       N/A	       N/A	        N/A	       N/A	       N/A	       N/A	        N/A	
         R10	    697	   76.8158	      13.6	       2.4	        N/A	   76.9008	      13.6	       2.4	        N/A	   76.9858	      13.6	       2.4	        N/A	       N/A	       N/A	       N/A	        N/A	       N/A	       N/A	       N/A	        N/A	       N/A	       N/A	       N/A	        N/A	       N/A	       N/A	       N/A	        N/A	       N/A	       N/A	       N/A	        N/A	
         R10	    698	   76.9858	      13.6	       2.4	        N/A	   77.0748	      13.6	       2.4	        N/A	   77.1638	      13.6	       2.4	        N/A	       N/A	       N/A	       N/A	        N/A	       N/A	       N/A	       N/A	        N/A	       N/A	       N/A	       N/A	        N/A	       N/A	       N/A	       N/A	        N/A	       N/A	       N/A	       N/A	        N/A	
         R10	    699	   77.1638	      13.6	       2.4	        N/A	   77.2569	      13.6	       2.4	        N/A	     77.35	      13.6	       2.4	        N/A	       N/A	       N/A	       N/A	        N/A	       N/A	       N/A	       N/A	        N/A	       N/A	       N/A	       N/A	        N/A	       N/A	       N/A	       N/A	        N/A	       N/A	       N/A	       N/A	        N/A	
         R10	    700	     77.35	      13.6	       2.4	        N/A	   77.4412	      13.6	       2.4	        N/A	   77.5323	      13.6	       2.4	        N/A	       N/A	       N/A	       N/A	        N/A	       N/A	       N/A	       N/A	        N/A	       N/A	       N/A	       N/A	        N/A	       N/A	       N/A	       N/A	        N/A	       N/A	       N/A	       N/A	        N/A	
         R10	    701	   77.5323	      13.6	       2.4	        N/A	   77.6295	      13.6	       2.4	        N/A	   77.7267	      13.6	       2.4	        N/A	       N/A	       N/A	       N/A	        N/A	       N/A	       N/A	       N/A	        N/A	       N/A	       N/A	       N/A	        N/A	       N/A	       N/A	       N/A	        N/A	       N/A	       N/A	       N/A	        N/A	
         R10	    702	   77.7267	      13.6	       2.4	        N/A	     77.83	      13.6	       2.4	        N/A	   77.9332	      13.6	       2.4	        N/A	       N/A	       N/A	       N/A	        N/A	       N/A	       N/A	       N/A	        N/A	       N/A	       N/A	       N/A	        N/A	       N/A	       N/A	       N/A	        N/A	       N/A	       N/A	       N/A	        N/A	
         R10	    703	   77.9332	      13.6	       2.4	        N/A	   78.0424	      13.6	       2.4	        N/A	   78.1517	      13.6	       2.4	        N/A	       N/A	       N/A	       N/A	        N/A	       N/A	       N/A	       N/A	        N/A	       N/A	       N/A	       N/A	        N/A	       N/A	       N/A	       N/A	        N/A	       N/A	       N/A	       N/A	        N/A	
         R10	    704	   78.1517	      13.6	       2.4	        N/A	    78.267	      13.6	       2.4	        N/A	   78.3823	      13.6	       2.4	        N/A	       N/A	       N/A	       N/A	        N/A	       N/A	       N/A	       N/A	        N/A	       N/A	       N/A	       N/A	        N/A	       N/A	       N/A	       N/A	        N/A	       N/A	       N/A	       N/A	        N/A	
         R10	    705	   78.3823	      13.6	       2.4	        N/A	   78.5037	      13.6	       2.4	        N/A	    78.625	      13.6	       2.4	        N/A	       N/A	       N/A	       N/A	        N/A	       N/A	       N/A	       N/A	        N/A	       N/A	       N/A	       N/A	        N/A	       N/A	       N/A	       N/A	        N/A	       N/A	       N/A	       N/A	        N/A	
         R10	    706	    74.375	     14.45	       2.4	        N/A	    74.507	     14.45	       2.4	        N/A	    74.639	     14.45	       2.4	        N/A	       N/A	       N/A	       N/A	        N/A	       N/A	       N/A	       N/A	        N/A	       N/A	       N/A	       N/A	        N/A	       N/A	       N/A	       N/A	        N/A	       N/A	       N/A	       N/A	        N/A	
         R10	    707	    74.639	     14.45	       2.4	        N/A	   74.7574	     14.45	       2.4	        N/A	   74.8758	     14.45	       2.4	        N/A	       N/A	       N/A	       N/A	        N/A	       N/A	       N/A	       N/A	        N/A	       N/A	       N/A	       N/A	        N/A	       N/A	       N/A	       N/A	        N/A	       N/A	       N/A	       N/A	        N/A	
         R10	    708	   74.8758	     14.45	       2.4	        N/A	   74.9805	     14.45	       2.4	        N/A	   75.0852	     14.45	       2.4	        N/A	       N/A	       N/A	       N/A	        N/A	       N/A	       N/A	       N/A	        N/A	       N/A	       N/A	       N/A	        N/A	       N/A	       N/A	       N/A	        N/A	       N/A	       N/A	       N/A	        N/A	
         R10	    709	   75.0852	     14.45	       2.4	        N/A	   75.1763	     14.45	       2.4	        N/A	   75.2673	     14.45	       2.4	        N/A	       N/A	       N/A	       N/A	        N/A	       N/A	       N/A	       N/A	        N/A	       N/A	       N/A	       N/A	        N/A	       N/A	       N/A	       N/A	        N/A	       N/A	       N/A	       N/A	        N/A	
         R10	    710	   75.2673	     14.45	       2.4	        N/A	   75.3448	     14.45	       2.4	        N/A	   75.4222	     14.45	       2.4	        N/A	       N/A	       N/A	       N/A	        N/A	       N/A	       N/A	       N/A	        N/A	       N/A	       N/A	       N/A	        N/A	       N/A	       N/A	       N/A	        N/A	       N/A	       N/A	       N/A	        N/A	
         R10	    711	   75.4222	     14.45	       2.4	        N/A	    75.486	     14.45	       2.4	        N/A	   75.5497	     14.45	       2.4	        N/A	       N/A	       N/A	       N/A	        N/A	       N/A	       N/A	       N/A	        N/A	       N/A	       N/A	       N/A	        N/A	       N/A	       N/A	       N/A	        N/A	       N/A	       N/A	       N/A	        N/A	
         R10	    712	   75.5497	     14.45	       2.4	        N/A	   75.5999	     14.45	       2.4	        N/A	     75.65	     14.45	       2.4	        N/A	       N/A	       N/A	       N/A	        N/A	       N/A	       N/A	       N/A	        N/A	       N/A	       N/A	       N/A	        N/A	       N/A	       N/A	       N/A	        N/A	       N/A	       N/A	       N/A	        N/A	
         R10	    713	    74.375	   15.9164	   2.99973	        N/A	    74.507	   15.9164	   2.99973	        N/A	    74.639	   15.9164	   2.99973	        N/A	       N/A	       N/A	       N/A	        N/A	       N/A	       N/A	       N/A	        N/A	       N/A	       N/A	       N/A	        N/A	       N/A	       N/A	       N/A	        N/A	       N/A	       N/A	       N/A	        N/A	
         R10	    714	    74.639	   15.9164	   2.99973	        N/A	   74.7574	   15.9164	   2.99973	        N/A	   74.8758	   15.9164	   2.99973	        N/A	       N/A	       N/A	       N/A	        N/A	       N/A	       N/A	       N/A	        N/A	       N/A	       N/A	       N/A	        N/A	       N/A	       N/A	       N/A	        N/A	       N/A	       N/A	       N/A	        N/A	
         R10	    715	   74.8758	   15.9164	   2.99973	        N/A	   74.9805	   15.9164	   2.99973	        N/A	   75.0852	   15.9164	   2.99973	        N/A	       N/A	       N/A	       N/A	        N/A	       N/A	       N/A	       N/A	        N/A	       N/A	       N/A	       N/A	        N/A	       N/A	       N/A	       N/A	        N/A	       N/A	       N/A	       N/A	        N/A	
         R10	    716	   75.0852	   15.9164	   2.99973	        N/A	   75.1763	   15.9164	   2.99973	        N/A	   75.2673	   15.9164	   2.99973	        N/A	       N/A	       N/A	       N/A	        N/A	       N/A	       N/A	       N/A	        N/A	       N/A	       N/A	       N/A	        N/A	       N/A	       N/A	       N/A	        N/A	       N/A	       N/A	       N/A	        N/A	
         R10	    717	   75.2673	   15.9164	   2.99973	        N/A	   75.3448	   15.9164	   2.99973	        N/A	   75.4222	   15.9164	   2.99973	        N/A	       N/A	       N/A	       N/A	        N/A	       N/A	       N/A	       N/A	        N/A	       N/A	       N/A	       N/A	        N/A	       N/A	       N/A	       N/A	        N/A	       N/A	       N/A	       N/A	        N/A	
         R10	    718	   75.4222	   15.9164	   2.99973	        N/A	    75.486	   15.9164	   2.99973	        N/A	   75.5497	   15.9164	   2.99973	        N/A	       N/A	       N/A	       N/A	        N/A	       N/A	       N/A	       N/A	        N/A	       N/A	       N/A	       N/A	        N/A	       N/A	       N/A	       N/A	        N/A	       N/A	       N/A	       N/A	        N/A	
         R10	    719	   75.5497	   15.9164	   2.99973	        N/A	   75.5999	   15.9164	   2.99973	        N/A	     75.65	   15.9164	   2.99973	        N/A	       N/A	       N/A	       N/A	        N/A	       N/A	       N/A	       N/A	        N/A	       N/A	       N/A	       N/A	        N/A	       N/A	       N/A	       N/A	        N/A	       N/A	       N/A	       N/A	        N/A	
         R10	    720	     80.75	      11.9	       2.4	        N/A	   80.5073	      11.9	       2.4	        N/A	   80.2646	      11.9	       2.4	        N/A	       N/A	       N/A	       N/A	        N/A	       N/A	       N/A	       N/A	        N/A	       N/A	       N/A	       N/A	        N/A	       N/A	       N/A	       N/A	        N/A	       N/A	       N/A	       N/A	        N/A	
         R10	    721	   80.2646	      11.9	       2.4	        N/A	   80.0371	      11.9	       2.4	        N/A	   79.8095	      11.9	       2.4	        N/A	       N/A	       N/A	       N/A	        N/A	       N/A	       N/A	       N/A	        N/A	       N/A	       N/A	       N/A	        N/A	       N/A	       N/A	       N/A	        N/A	       N/A	       N/A	       N/A	        N/A	
         R10	    722	   79.8095	      11.9	       2.4	        N/A	    79.597	      11.9	       2.4	        N/A	   79.3845	      11.9	       2.4	        N/A	       N/A	       N/A	       N/A	        N/A	       N/A	       N/A	       N/A	        N/A	       N/A	       N/A	       N/A	        N/A	       N/A	       N/A	       N/A	        N/A	       N/A	       N/A	       N/A	        N/A	
         R10	    723	   79.3845	      11.9	       2.4	        N/A	   79.1871	      11.9	       2.4	        N/A	   78.9896	      11.9	       2.4	        N/A	       N/A	       N/A	       N/A	        N/A	       N/A	       N/A	       N/A	        N/A	       N/A	       N/A	       N/A	        N/A	       N/A	       N/A	       N/A	        N/A	       N/A	       N/A	       N/A	        N/A	
         R10	    724	   78.9896	      11.9	       2.4	        N/A	   78.8073	      11.9	       2.4	        N/A	    78.625	      11.9	       2.4	        N/A	       N/A	       N/A	       N/A	        N/A	       N/A	       N/A	       N/A	        N/A	       N/A	       N/A	       N/A	        N/A	       N/A	       N/A	       N/A	        N/A	       N/A	       N/A	       N/A	        N/A	
         R10	    725	    74.375	   16.5328	   3.59945	        N/A	   74.5267	   16.5328	   3.59945	        N/A	   74.6785	   16.5328	   3.59945	        N/A	       N/A	       N/A	       N/A	        N/A	       N/A	       N/A	       N/A	        N/A	       N/A	       N/A	       N/A	        N/A	       N/A	       N/A	       N/A	        N/A	       N/A	       N/A	       N/A	        N/A	
         R10	    726	   74.6785	   16.5328	   3.59945	        N/A	   74.8218	   16.5328	   3.59945	        N/A	   74.9651	   16.5328	   3.59945	        N/A	       N/A	       N/A	       N/A	        N/A	       N/A	       N/A	       N/A	        N/A	       N/A	       N/A	       N/A	        N/A	       N/A	       N/A	       N/A	        N/A	       N/A	       N/A	       N/A	        N/A	
         R10	    727	   74.9651	   16.5328	   3.59945	        N/A	      75.1	   16.5328	   3.59945	        N/A	   75.2349	   16.5328	   3.59945	        N/A	       N/A	       N/A	       N/A	        N/A	       N/A	       N/A	       N/A	        N/A	       N/A	       N/A	       N/A	        N/A	       N/A	       N/A	       N/A	        N/A	       N/A	       N/A	       N/A	        N/A	
         R10	    728	   75.2349	   16.5328	   3.59945	        N/A	   75.3614	   16.5328	   3.59945	        N/A	   75.4879	   16.5328	   3.59945	        N/A	       N/A	       N/A	       N/A	        N/A	       N/A	       N/A	       N/A	        N/A	       N/A	       N/A	       N/A	        N/A	       N/A	       N/A	       N/A	        N/A	       N/A	       N/A	       N/A	        N/A	
         R10	    729	   75.4879	   16.5328	   3.59945	        N/A	   75.6059	   16.5328	   3.59945	        N/A	    75.724	   16.5328	   3.59945	        N/A	       N/A	       N/A	       N/A	        N/A	       N/A	       N/A	       N/A	        N/A	       N/A	       N/A	       N/A	        N/A	       N/A	       N/A	       N/A	        N/A	       N/A	       N/A	       N/A	        N/A	
         R10	    730	    75.724	   16.5328	   3.59945	        N/A	   75.8336	   16.5328	   3.59945	        N/A	   75.9433	   16.5328	   3.59945	        N/A	       N/A	       N/A	       N/A	        N/A	       N/A	       N/A	       N/A	        N/A	       N/A	       N/A	       N/A	        N/A	       N/A	       N/A	       N/A	        N/A	       N/A	       N/A	       N/A	        N/A	
         R10	    731	   75.9433	   16.5328	   3.59945	        N/A	   76.0445	   16.5328	   3.59945	        N/A	   76.1457	   16.5328	   3.59945	        N/A	       N/A	       N/A	       N/A	        N/A	       N/A	       N/A	       N/A	        N/A	       N/A	       N/A	       N/A	        N/A	       N/A	       N/A	       N/A	        N/A	       N/A	       N/A	       N/A	        N/A	
         R10	    732	   76.1457	   16.5328	   3.59945	        N/A	   76.2385	   16.5328	   3.59945	        N/A	   76.3313	   16.5328	   3.59945	        N/A	       N/A	       N/A	       N/A	        N/A	       N/A	       N/A	       N/A	        N/A	       N/A	       N/A	       N/A	        N/A	       N/A	       N/A	       N/A	        N/A	       N/A	       N/A	       N/A	        N/A	
         R10	    733	   76.3313	   16.5328	   3.59945	        N/A	   76.4156	   16.5328	   3.59945	        N/A	      76.5	   16.5328	   3.59945	        N/A	       N/A	       N/A	       N/A	        N/A	       N/A	       N/A	       N/A	        N/A	       N/A	       N/A	       N/A	        N/A	       N/A	       N/A	       N/A	        N/A	       N/A	       N/A	       N/A	        N/A	
         R10	    734	      76.5	   16.5328	   3.59945	        N/A	   76.5862	   16.5328	   3.59945	        N/A	   76.6725	   16.5328	   3.59945	        N/A	       N/A	       N/A	       N/A	        N/A	       N/A	       N/A	       N/A	        N/A	       N/A	       N/A	       N/A	        N/A	       N/A	       N/A	       N/A	        N/A	       N/A	       N/A	       N/A	        N/A	
         R10	    735	   76.6725	   16.5328	   3.59945	        N/A	   76.7632	   16.5328	   3.59945	        N/A	   76.8539	   16.5328	   3.59945	        N/A	       N/A	       N/A	       N/A	        N/A	       N/A	       N/A	       N/A	        N/A	       N/A	       N/A	       N/A	        N/A	       N/A	       N/A	       N/A	        N/A	       N/A	       N/A	       N/A	        N/A	
         R10	    736	   76.8539	   16.5328	   3.59945	        N/A	    76.949	   16.5328	   3.59945	        N/A	   77.0441	   16.5328	   3.59945	        N/A	       N/A	       N/A	       N/A	        N/A	       N/A	       N/A	       N/A	        N/A	       N/A	       N/A	       N/A	        N/A	       N/A	       N/A	       N/A	        N/A	       N/A	       N/A	       N/A	        N/A	
         R10	    737	   77.0441	   16.5328	   3.59945	        N/A	   77.1437	   16.5328	   3.59945	        N/A	   77.2433	   16.5328	   3.59945	        N/A	       N/A	       N/A	       N/A	        N/A	       N/A	       N/A	       N/A	        N/A	       N/A	       N/A	       N/A	        N/A	       N/A	       N/A	       N/A	        N/A	       N/A	       N/A	       N/A	        N/A	
         R10	    738	   77.2433	   16.5328	   3.59945	        N/A	   77.3473	   16.5328	   3.59945	        N/A	   77.4513	   16.5328	   3.59945	        N/A	       N/A	       N/A	       N/A	        N/A	       N/A	       N/A	       N/A	        N/A	       N/A	       N/A	       N/A	        N/A	       N/A	       N/A	       N/A	        N/A	       N/A	       N/A	       N/A	        N/A	
         R10	    739	   77.4513	   16.5328	   3.59945	        N/A	   77.5598	   16.5328	   3.59945	        N/A	   77.6683	   16.5328	   3.59945	        N/A	       N/A	       N/A	       N/A	        N/A	       N/A	       N/A	       N/A	        N/A	       N/A	       N/A	       N/A	        N/A	       N/A	       N/A	       N/A	        N/A	       N/A	       N/A	       N/A	        N/A	
         R10	    740	   77.6683	   16.5328	   3.59945	        N/A	   77.7812	   16.5328	   3.59945	        N/A	   77.8941	   16.5328	   3.59945	        N/A	       N/A	       N/A	       N/A	        N/A	       N/A	       N/A	       N/A	        N/A	       N/A	       N/A	       N/A	        N/A	       N/A	       N/A	       N/A	        N/A	       N/A	       N/A	       N/A	        N/A	
         R10	    741	   77.8941	   16.5328	   3.59945	        N/A	   78.0115	   16.5328	   3.59945	        N/A	   78.1288	   16.5328	   3.59945	        N/A	       N/A	       N/A	       N/A	        N/A	       N/A	       N/A	       N/A	        N/A	       N/A	       N/A	       N/A	        N/A	       N/A	       N/A	       N/A	        N/A	       N/A	       N/A	       N/A	        N/A	
         R10	    742	   78.1288	   16.5328	   3.59945	        N/A	   78.2507	   16.5328	   3.59945	        N/A	   78.3725	   16.5328	   3.59945	        N/A	       N/A	       N/A	       N/A	        N/A	       N/A	       N/A	       N/A	        N/A	       N/A	       N/A	       N/A	        N/A	       N/A	       N/A	       N/A	        N/A	       N/A	       N/A	       N/A	        N/A	
         R10	    743	   78.3725	   16.5328	   3.59945	        N/A	   78.4987	   16.5328	   3.59945	        N/A	    78.625	   16.5328	   3.59945	        N/A	       N/A	       N/A	       N/A	        N/A	       N/A	       N/A	       N/A	        N/A	       N/A	       N/A	       N/A	        N/A	       N/A	       N/A	       N/A	        N/A	       N/A	       N/A	       N/A	        N/A	
         R10	    744	      76.5	   17.1425	   2.65791	        N/A	      76.5	   17.2212	   2.73448	        N/A	      76.5	   17.2999	   2.81105	        N/A	       N/A	       N/A	       N/A	        N/A	       N/A	       N/A	       N/A	        N/A	       N/A	       N/A	       N/A	        N/A	       N/A	       N/A	       N/A	        N/A	       N/A	       N/A	       N/A	        N/A	
         R10	    745	      76.5	   16.9978	   2.51719	        N/A	      76.5	   17.0702	   2.58755	        N/A	      76.5	   17.1425	   2.65791	        N/A	       N/A	       N/A	       N/A	        N/A	       N/A	       N/A	       N/A	        N/A	       N/A	       N/A	       N/A	        N/A	       N/A	       N/A	       N/A	        N/A	       N/A	       N/A	       N/A	        N/A	
         R10	    746	      76.5	    16.866	    2.3889	        N/A	      76.5	   16.9319	   2.45305	        N/A	      76.5	   16.9978	   2.51719	        N/A	       N/A	       N/A	       N/A	        N/A	       N/A	       N/A	       N/A	        N/A	       N/A	       N/A	       N/A	        N/A	       N/A	       N/A	       N/A	        N/A	       N/A	       N/A	       N/A	        N/A	
         R10	    747	      76.5	   16.7469	   2.27304	        N/A	      76.5	   16.8064	   2.33097	        N/A	      76.5	    16.866	    2.3889	        N/A	       N/A	       N/A	       N/A	        N/A	       N/A	       N/A	       N/A	        N/A	       N/A	       N/A	       N/A	        N/A	       N/A	       N/A	       N/A	        N/A	       N/A	       N/A	       N/A	        N/A	
         R10	    748	      76.5	   16.6406	    2.1696	        N/A	      76.5	   16.6937	   2.22132	        N/A	      76.5	   16.7469	   2.27304	        N/A	       N/A	       N/A	       N/A	        N/A	       N/A	       N/A	       N/A	        N/A	       N/A	       N/A	       N/A	        N/A	       N/A	       N/A	       N/A	        N/A	       N/A	       N/A	       N/A	        N/A	
         R10	    749	      76.5	    16.547	   2.07859	        N/A	      76.5	   16.5938	   2.12409	        N/A	      76.5	   16.6406	    2.1696	        N/A	       N/A	       N/A	       N/A	        N/A	       N/A	       N/A	       N/A	        N/A	       N/A	       N/A	       N/A	        N/A	       N/A	       N/A	       N/A	        N/A	       N/A	       N/A	       N/A	        N/A	
         R10	    750	      76.5	   16.4663	         2	        N/A	      76.5	   16.5067	   2.03929	        N/A	      76.5	    16.547	   2.07859	        N/A	       N/A	       N/A	       N/A	        N/A	       N/A	       N/A	       N/A	        N/A	       N/A	       N/A	       N/A	        N/A	       N/A	       N/A	       N/A	        N/A	       N/A	       N/A	       N/A	        N/A	
         R10	    751	      76.5	   17.2412	         2	        N/A	      76.5	   17.3461	         2	        N/A	      76.5	    17.451	         2	        N/A	       N/A	       N/A	       N/A	        N/A	       N/A	       N/A	       N/A	        N/A	       N/A	       N/A	       N/A	        N/A	       N/A	       N/A	       N/A	        N/A	       N/A	       N/A	       N/A	        N/A	
         R10	    752	      76.5	   17.0496	         2	        N/A	      76.5	   17.1454	         2	        N/A	      76.5	   17.2412	         2	        N/A	       N/A	       N/A	       N/A	        N/A	       N/A	       N/A	       N/A	        N/A	       N/A	       N/A	       N/A	        N/A	       N/A	       N/A	       N/A	        N/A	       N/A	       N/A	       N/A	        N/A	
         R10	    753	      76.5	   16.8764	         2	        N/A	      76.5	    16.963	         2	        N/A	      76.5	   17.0496	         2	        N/A	       N/A	       N/A	       N/A	        N/A	       N/A	       N/A	       N/A	        N/A	       N/A	       N/A	       N/A	        N/A	       N/A	       N/A	       N/A	        N/A	       N/A	       N/A	       N/A	        N/A	
         R10	    754	      76.5	   16.7214	         2	        N/A	      76.5	   16.7989	         2	        N/A	      76.5	   16.8764	         2	        N/A	       N/A	       N/A	       N/A	        N/A	       N/A	       N/A	       N/A	        N/A	       N/A	       N/A	       N/A	        N/A	       N/A	       N/A	       N/A	        N/A	       N/A	       N/A	       N/A	        N/A	
         R10	    755	      76.5	   16.5847	         2	        N/A	      76.5	   16.6531	         2	        N/A	      76.5	   16.7214	         2	        N/A	       N/A	       N/A	       N/A	        N/A	       N/A	       N/A	       N/A	        N/A	       N/A	       N/A	       N/A	        N/A	       N/A	       N/A	       N/A	        N/A	       N/A	       N/A	       N/A	        N/A	
         R10	    756	      76.5	   16.4663	         2	        N/A	      76.5	   16.5255	         2	        N/A	      76.5	   16.5847	         2	        N/A	       N/A	       N/A	       N/A	        N/A	       N/A	       N/A	       N/A	        N/A	       N/A	       N/A	       N/A	        N/A	       N/A	       N/A	       N/A	        N/A	       N/A	       N/A	       N/A	        N/A	
         R10	    757	      76.5	   16.6774	   1.02658	        N/A	      76.5	   16.7019	  0.913292	        N/A	      76.5	   16.7265	       0.8	        N/A	       N/A	       N/A	       N/A	        N/A	       N/A	       N/A	       N/A	        N/A	       N/A	       N/A	       N/A	        N/A	       N/A	       N/A	       N/A	        N/A	       N/A	       N/A	       N/A	        N/A	
         R10	    758	      76.5	   16.6322	   1.23478	        N/A	      76.5	   16.6548	   1.13068	        N/A	      76.5	   16.6774	   1.02658	        N/A	       N/A	       N/A	       N/A	        N/A	       N/A	       N/A	       N/A	        N/A	       N/A	       N/A	       N/A	        N/A	       N/A	       N/A	       N/A	        N/A	       N/A	       N/A	       N/A	        N/A	
         R10	    759	      76.5	   16.5911	    1.4246	        N/A	      76.5	   16.6116	   1.32969	        N/A	      76.5	   16.6322	   1.23478	        N/A	       N/A	       N/A	       N/A	        N/A	       N/A	       N/A	       N/A	        N/A	       N/A	       N/A	       N/A	        N/A	       N/A	       N/A	       N/A	        N/A	       N/A	       N/A	       N/A	        N/A	
         R10	    760	      76.5	   16.5539	   1.59602	        N/A	      76.5	   16.5725	   1.51031	        N/A	      76.5	   16.5911	    1.4246	        N/A	       N/A	       N/A	       N/A	        N/A	       N/A	       N/A	       N/A	        N/A	       N/A	       N/A	       N/A	        N/A	       N/A	       N/A	       N/A	        N/A	       N/A	       N/A	       N/A	        N/A	
         R10	    761	      76.5	   16.5207	   1.74907	        N/A	      76.5	   16.5373	   1.67255	        N/A	      76.5	   16.5539	   1.59602	        N/A	       N/A	       N/A	       N/A	        N/A	       N/A	       N/A	       N/A	        N/A	       N/A	       N/A	       N/A	        N/A	       N/A	       N/A	       N/A	        N/A	       N/A	       N/A	       N/A	        N/A	
         R10	    762	      76.5	   16.4915	   1.88373	        N/A	      76.5	   16.5061	    1.8164	        N/A	      76.5	   16.5207	   1.74907	        N/A	       N/A	       N/A	       N/A	        N/A	       N/A	       N/A	       N/A	        N/A	       N/A	       N/A	       N/A	        N/A	       N/A	       N/A	       N/A	        N/A	       N/A	       N/A	       N/A	        N/A	
         R10	    763	      76.5	   16.4663	         2	        N/A	      76.5	   16.4789	   1.94186	        N/A	      76.5	   16.4915	   1.88373	        N/A	       N/A	       N/A	       N/A	        N/A	       N/A	       N/A	       N/A	        N/A	       N/A	       N/A	       N/A	        N/A	       N/A	       N/A	       N/A	        N/A	       N/A	       N/A	       N/A	        N/A	
         R10	    764	    74.375	      15.3	       0.8	        N/A	   74.5318	      15.3	       0.8	        N/A	   74.6887	      15.3	       0.8	        N/A	       N/A	       N/A	       N/A	        N/A	       N/A	       N/A	       N/A	        N/A	       N/A	       N/A	       N/A	        N/A	       N/A	       N/A	       N/A	        N/A	       N/A	       N/A	       N/A	        N/A	
         R10	    765	   74.6887	      15.3	       0.8	        N/A	   74.8358	      15.3	       0.8	        N/A	    74.983	      15.3	       0.8	        N/A	       N/A	       N/A	       N/A	        N/A	       N/A	       N/A	       N/A	        N/A	       N/A	       N/A	       N/A	        N/A	       N/A	       N/A	       N/A	        N/A	       N/A	       N/A	       N/A	        N/A	
         R10	    766	    74.983	      15.3	       0.8	        N/A	   75.1204	      15.3	       0.8	        N/A	   75.2579	      15.3	       0.8	        N/A	       N/A	       N/A	       N/A	        N/A	       N/A	       N/A	       N/A	        N/A	       N/A	       N/A	       N/A	        N/A	       N/A	       N/A	       N/A	        N/A	       N/A	       N/A	       N/A	        N/A	
         R10	    767	   75.2579	      15.3	       0.8	        N/A	   75.3856	      15.3	       0.8	        N/A	   75.5134	      15.3	       0.8	        N/A	       N/A	       N/A	       N/A	        N/A	       N/A	       N/A	       N/A	        N/A	       N/A	       N/A	       N/A	        N/A	       N/A	       N/A	       N/A	        N/A	       N/A	       N/A	       N/A	        N/A	
         R10	    768	   75.5134	      15.3	       0.8	        N/A	   75.6314	      15.3	       0.8	        N/A	   75.7495	      15.3	       0.8	        N/A	       N/A	       N/A	       N/A	        N/A	       N/A	       N/A	       N/A	        N/A	       N/A	       N/A	       N/A	        N/A	       N/A	       N/A	       N/A	        N/A	       N/A	       N/A	       N/A	        N/A	
         R10	    769	   75.7495	      15.3	       0.8	        N/A	   75.8578	      15.3	       0.8	        N/A	   75.9662	      15.3	       0.8	        N/A	       N/A	       N/A	       N/A	        N/A	       N/A	       N/A	       N/A	        N/A	       N/A	       N/A	       N/A	        N/A	       N/A	       N/A	       N/A	        N/A	       N/A	       N/A	       N/A	        N/A	
         R10	    770	   75.9662	      15.3	       0.8	        N/A	   76.0648	      15.3	       0.8	        N/A	   76.1635	      15.3	       0.8	        N/A	       N/A	       N/A	       N/A	        N/A	       N/A	       N/A	       N/A	        N/A	       N/A	       N/A	       N/A	        N/A	       N/A	       N/A	       N/A	        N/A	       N/A	       N/A	       N/A	        N/A	
         R10	    771	   76.1635	      15.3	       0.8	        N/A	   76.2525	      15.3	       0.8	        N/A	   76.3415	      15.3	       0.8	        N/A	       N/A	       N/A	       N/A	        N/A	       N/A	       N/A	       N/A	        N/A	       N/A	       N/A	       N/A	        N/A	       N/A	       N/A	       N/A	        N/A	       N/A	       N/A	       N/A	        N/A	
         R10	    772	   76.3415	      15.3	       0.8	        N/A	   76.4207	      15.3	       0.8	        N/A	      76.5	      15.3	       0.8	        N/A	       N/A	       N/A	       N/A	        N/A	       N/A	       N/A	       N/A	        N/A	       N/A	       N/A	       N/A	        N/A	       N/A	       N/A	       N/A	        N/A	       N/A	       N/A	       N/A	        N/A	
         R10	    773	      76.5	      15.3	       0.8	        N/A	    76.574	      15.3	       0.8	        N/A	    76.648	      15.3	       0.8	        N/A	       N/A	       N/A	       N/A	        N/A	       N/A	       N/A	       N/A	        N/A	       N/A	       N/A	       N/A	        N/A	       N/A	       N/A	       N/A	        N/A	       N/A	       N/A	       N/A	        N/A	
         R10	    774	    76.648	      15.3	       0.8	        N/A	   76.7265	      15.3	       0.8	        N/A	    76.805	      15.3	       0.8	        N/A	       N/A	       N/A	       N/A	        N/A	       N/A	       N/A	       N/A	        N/A	       N/A	       N/A	       N/A	        N/A	       N/A	       N/A	       N/A	        N/A	       N/A	       N/A	       N/A	        N/A	
         R10	    775	    76.805	      15.3	       0.8	        N/A	   76.8881	      15.3	       0.8	        N/A	   76.9711	      15.3	       0.8	        N/A	       N/A	       N/A	       N/A	        N/A	       N/A	       N/A	       N/A	        N/A	       N/A	       N/A	       N/A	        N/A	       N/A	       N/A	       N/A	        N/A	       N/A	       N/A	       N/A	        N/A	
         R10	    776	   76.9711	      15.3	       0.8	        N/A	   77.0587	      15.3	       0.8	        N/A	   77.1462	      15.3	       0.8	        N/A	       N/A	       N/A	       N/A	        N/A	       N/A	       N/A	       N/A	        N/A	       N/A	       N/A	       N/A	        N/A	       N/A	       N/A	       N/A	        N/A	       N/A	       N/A	       N/A	        N/A	
         R10	    777	   77.1462	      15.3	       0.8	        N/A	   77.2383	      15.3	       0.8	        N/A	   77.3304	      15.3	       0.8	        N/A	       N/A	       N/A	       N/A	        N/A	       N/A	       N/A	       N/A	        N/A	       N/A	       N/A	       N/A	        N/A	       N/A	       N/A	       N/A	        N/A	       N/A	       N/A	       N/A	        N/A	
         R10	    778	   77.3304	      15.3	       0.8	        N/A	    77.427	      15.3	       0.8	        N/A	   77.5236	      15.3	       0.8	        N/A	       N/A	       N/A	       N/A	        N/A	       N/A	       N/A	       N/A	        N/A	       N/A	       N/A	       N/A	        N/A	       N/A	       N/A	       N/A	        N/A	       N/A	       N/A	       N/A	        N/A	
         R10	    779	   77.5236	      15.3	       0.8	        N/A	   77.6247	      15.3	       0.8	        N/A	   77.7258	      15.3	       0.8	        N/A	       N/A	       N/A	       N/A	        N/A	       N/A	       N/A	       N/A	        N/A	       N/A	       N/A	       N/A	        N/A	       N/A	       N/A	       N/A	        N/A	       N/A	       N/A	       N/A	        N/A	
         R10	    780	   77.7258	      15.3	       0.8	        N/A	   77.8314	      15.3	       0.8	        N/A	    77.937	      15.3	       0.8	        N/A	       N/A	       N/A	       N/A	        N/A	       N/A	       N/A	       N/A	        N/A	       N/A	       N/A	       N/A	        N/A	       N/A	       N/A	       N/A	        N/A	       N/A	       N/A	       N/A	        N/A	
         R10	    781	    77.937	      15.3	       0.8	        N/A	   78.0472	      15.3	       0.8	        N/A	   78.1573	      15.3	       0.8	        N/A	       N/A	       N/A	       N/A	        N/A	       N/A	       N/A	       N/A	        N/A	       N/A	       N/A	       N/A	        N/A	       N/A	       N/A	       N/A	        N/A	       N/A	       N/A	       N/A	        N/A	
         R10	    782	   78.1573	      15.3	       0.8	        N/A	    78.272	      15.3	       0.8	        N/A	   78.3866	      15.3	       0.8	        N/A	       N/A	       N/A	       N/A	        N/A	       N/A	       N/A	       N/A	        N/A	       N/A	       N/A	       N/A	        N/A	       N/A	       N/A	       N/A	        N/A	       N/A	       N/A	       N/A	        N/A	
         R10	    783	   78.3866	      15.3	       0.8	        N/A	   78.5058	      15.3	       0.8	        N/A	    78.625	      15.3	       0.8	        N/A	       N/A	       N/A	       N/A	        N/A	       N/A	       N/A	       N/A	        N/A	       N/A	       N/A	       N/A	        N/A	       N/A	       N/A	       N/A	        N/A	       N/A	       N/A	       N/A	        N/A	
         R10	    784	    74.375	      15.3	       1.6	        N/A	    74.507	      15.3	       1.6	        N/A	    74.639	      15.3	       1.6	        N/A	       N/A	       N/A	       N/A	        N/A	       N/A	       N/A	       N/A	        N/A	       N/A	       N/A	       N/A	        N/A	       N/A	       N/A	       N/A	        N/A	       N/A	       N/A	       N/A	        N/A	
         R10	    785	    74.639	      15.3	       1.6	        N/A	   74.7574	      15.3	       1.6	        N/A	   74.8758	      15.3	       1.6	        N/A	       N/A	       N/A	       N/A	        N/A	       N/A	       N/A	       N/A	        N/A	       N/A	       N/A	       N/A	        N/A	       N/A	       N/A	       N/A	        N/A	       N/A	       N/A	       N/A	        N/A	
         R10	    786	   74.8758	      15.3	       1.6	        N/A	   74.9805	      15.3	       1.6	        N/A	   75.0852	      15.3	       1.6	        N/A	       N/A	       N/A	       N/A	        N/A	       N/A	       N/A	       N/A	        N/A	       N/A	       N/A	       N/A	        N/A	       N/A	       N/A	       N/A	        N/A	       N/A	       N/A	       N/A	        N/A	
         R10	    787	   75.0852	      15.3	       1.6	        N/A	   75.1763	      15.3	       1.6	        N/A	   75.2673	      15.3	       1.6	        N/A	       N/A	       N/A	       N/A	        N/A	       N/A	       N/A	       N/A	        N/A	       N/A	       N/A	       N/A	        N/A	       N/A	       N/A	       N/A	        N/A	       N/A	       N/A	       N/A	        N/A	
         R10	    788	   75.2673	      15.3	       1.6	        N/A	   75.3448	      15.3	       1.6	        N/A	   75.4222	      15.3	       1.6	        N/A	       N/A	       N/A	       N/A	        N/A	       N/A	       N/A	       N/A	        N/A	       N/A	       N/A	       N/A	        N/A	       N/A	       N/A	       N/A	        N/A	       N/A	       N/A	       N/A	        N/A	
         R10	    789	   75.4222	      15.3	       1.6	        N/A	    75.486	      15.3	       1.6	        N/A	   75.5497	      15.3	       1.6	        N/A	       N/A	       N/A	       N/A	        N/A	       N/A	       N/A	       N/A	        N/A	       N/A	       N/A	       N/A	        N/A	       N/A	       N/A	       N/A	        N/A	       N/A	       N/A	       N/A	        N/A	
         R10	    790	   75.5497	      15.3	       1.6	        N/A	   75.5999	      15.3	       1.6	        N/A	     75.65	      15.3	       1.6	        N/A	       N/A	       N/A	       N/A	        N/A	       N/A	       N/A	       N/A	        N/A	       N/A	       N/A	       N/A	        N/A	       N/A	       N/A	       N/A	        N/A	       N/A	       N/A	       N/A	        N/A	
         R10	    791	     80.75	     20.66	         6	        N/A	   80.3752	     20.66	         6	        N/A	   80.0004	     20.66	         6	        N/A	       N/A	       N/A	       N/A	        N/A	       N/A	       N/A	       N/A	        N/A	       N/A	       N/A	       N/A	        N/A	       N/A	       N/A	       N/A	        N/A	       N/A	       N/A	       N/A	        N/A	
         R10	    792	   80.0004	     20.66	         6	        N/A	   79.6462	     20.66	         6	        N/A	   79.2921	     20.66	         6	        N/A	       N/A	       N/A	       N/A	        N/A	       N/A	       N/A	       N/A	        N/A	       N/A	       N/A	       N/A	        N/A	       N/A	       N/A	       N/A	        N/A	       N/A	       N/A	       N/A	        N/A	
         R10	    793	   79.2921	     20.66	         6	        N/A	   78.9585	     20.66	         6	        N/A	    78.625	     20.66	         6	        N/A	       N/A	       N/A	       N/A	        N/A	       N/A	       N/A	       N/A	        N/A	       N/A	       N/A	       N/A	        N/A	       N/A	       N/A	       N/A	        N/A	       N/A	       N/A	       N/A	        N/A	
         R10	    794	     80.75	     19.83	         6	        N/A	   80.4717	     19.83	         6	        N/A	   80.1935	     19.83	         6	        N/A	       N/A	       N/A	       N/A	        N/A	       N/A	       N/A	       N/A	        N/A	       N/A	       N/A	       N/A	        N/A	       N/A	       N/A	       N/A	        N/A	       N/A	       N/A	       N/A	        N/A	
         R10	    795	   80.1935	     19.83	         6	        N/A	   79.9236	     19.83	         6	        N/A	   79.6538	     19.83	         6	        N/A	       N/A	       N/A	       N/A	        N/A	       N/A	       N/A	       N/A	        N/A	       N/A	       N/A	       N/A	        N/A	       N/A	       N/A	       N/A	        N/A	       N/A	       N/A	       N/A	        N/A	
         R10	    796	   79.6538	     19.83	         6	        N/A	   79.3924	     19.83	         6	        N/A	    79.131	     19.83	         6	        N/A	       N/A	       N/A	       N/A	        N/A	       N/A	       N/A	       N/A	        N/A	       N/A	       N/A	       N/A	        N/A	       N/A	       N/A	       N/A	        N/A	       N/A	       N/A	       N/A	        N/A	
         R10	    797	    79.131	     19.83	         6	        N/A	    78.878	     19.83	         6	        N/A	    78.625	     19.83	         6	        N/A	       N/A	       N/A	       N/A	        N/A	       N/A	       N/A	       N/A	        N/A	       N/A	       N/A	       N/A	        N/A	       N/A	       N/A	       N/A	        N/A	       N/A	       N/A	       N/A	        N/A	
         R10	    798	     80.75	     12.75	       2.4	        N/A	   80.5478	     12.75	       2.4	        N/A	   80.3455	     12.75	       2.4	        N/A	       N/A	       N/A	       N/A	        N/A	       N/A	       N/A	       N/A	        N/A	       N/A	       N/A	       N/A	        N/A	       N/A	       N/A	       N/A	        N/A	       N/A	       N/A	       N/A	        N/A	
         R10	    799	   80.3455	     12.75	       2.4	        N/A	   80.1534	     12.75	       2.4	        N/A	   79.9612	     12.75	       2.4	        N/A	       N/A	       N/A	       N/A	        N/A	       N/A	       N/A	       N/A	        N/A	       N/A	       N/A	       N/A	        N/A	       N/A	       N/A	       N/A	        N/A	       N/A	       N/A	       N/A	        N/A	
         R10	    800	   79.9612	     12.75	       2.4	        N/A	   79.7791	     12.75	       2.4	        N/A	    79.597	     12.75	       2.4	        N/A	       N/A	       N/A	       N/A	        N/A	       N/A	       N/A	       N/A	        N/A	       N/A	       N/A	       N/A	        N/A	       N/A	       N/A	       N/A	        N/A	       N/A	       N/A	       N/A	        N/A	
         R10	    801	    79.597	     12.75	       2.4	        N/A	   79.4249	     12.75	       2.4	        N/A	   79.2529	     12.75	       2.4	        N/A	       N/A	       N/A	       N/A	        N/A	       N/A	       N/A	       N/A	        N/A	       N/A	       N/A	       N/A	        N/A	       N/A	       N/A	       N/A	        N/A	       N/A	       N/A	       N/A	        N/A	
         R10	    802	   79.2529	     12.75	       2.4	        N/A	   79.0909	     12.75	       2.4	        N/A	   78.9289	     12.75	       2.4	        N/A	       N/A	       N/A	       N/A	        N/A	       N/A	       N/A	       N/A	        N/A	       N/A	       N/A	       N/A	        N/A	       N/A	       N/A	       N/A	        N/A	       N/A	       N/A	       N/A	        N/A	
         R10	    803	   78.9289	     12.75	       2.4	        N/A	   78.7769	     12.75	       2.4	        N/A	    78.625	     12.75	       2.4	        N/A	       N/A	       N/A	       N/A	        N/A	       N/A	       N/A	       N/A	        N/A	       N/A	       N/A	       N/A	        N/A	       N/A	       N/A	       N/A	        N/A	       N/A	       N/A	       N/A	        N/A	
         R10	    804	     80.75	      13.6	       2.4	        N/A	   80.5236	      13.6	       2.4	        N/A	   80.2972	      13.6	       2.4	        N/A	       N/A	       N/A	       N/A	        N/A	       N/A	       N/A	       N/A	        N/A	       N/A	       N/A	       N/A	        N/A	       N/A	       N/A	       N/A	        N/A	       N/A	       N/A	       N/A	        N/A	
         R10	    805	   80.2972	      13.6	       2.4	        N/A	   80.0906	      13.6	       2.4	        N/A	   79.8839	      13.6	       2.4	        N/A	       N/A	       N/A	       N/A	        N/A	       N/A	       N/A	       N/A	        N/A	       N/A	       N/A	       N/A	        N/A	       N/A	       N/A	       N/A	        N/A	       N/A	       N/A	       N/A	        N/A	
         R10	    806	   79.8839	      13.6	       2.4	        N/A	    79.697	      13.6	       2.4	        N/A	     79.51	      13.6	       2.4	        N/A	       N/A	       N/A	       N/A	        N/A	       N/A	       N/A	       N/A	        N/A	       N/A	       N/A	       N/A	        N/A	       N/A	       N/A	       N/A	        N/A	       N/A	       N/A	       N/A	        N/A	
         R10	    807	     79.51	      13.6	       2.4	        N/A	   79.3428	      13.6	       2.4	        N/A	   79.1756	      13.6	       2.4	        N/A	       N/A	       N/A	       N/A	        N/A	       N/A	       N/A	       N/A	        N/A	       N/A	       N/A	       N/A	        N/A	       N/A	       N/A	       N/A	        N/A	       N/A	       N/A	       N/A	        N/A	
         R10	    808	   79.1756	      13.6	       2.4	        N/A	   79.0281	      13.6	       2.4	        N/A	   78.8806	      13.6	       2.4	        N/A	       N/A	       N/A	       N/A	        N/A	       N/A	       N/A	       N/A	        N/A	       N/A	       N/A	       N/A	        N/A	       N/A	       N/A	       N/A	        N/A	       N/A	       N/A	       N/A	        N/A	
         R10	    809	   78.8806	      13.6	       2.4	        N/A	   78.7528	      13.6	       2.4	        N/A	    78.625	      13.6	       2.4	        N/A	       N/A	       N/A	       N/A	        N/A	       N/A	       N/A	       N/A	        N/A	       N/A	       N/A	       N/A	        N/A	       N/A	       N/A	       N/A	        N/A	       N/A	       N/A	       N/A	        N/A	
         R10	    810	     80.75	     14.45	       2.4	        N/A	    80.556	     14.45	       2.4	        N/A	   80.3619	     14.45	       2.4	        N/A	       N/A	       N/A	       N/A	        N/A	       N/A	       N/A	       N/A	        N/A	       N/A	       N/A	       N/A	        N/A	       N/A	       N/A	       N/A	        N/A	       N/A	       N/A	       N/A	        N/A	
         R10	    811	   80.3619	     14.45	       2.4	        N/A	    80.182	     14.45	       2.4	        N/A	    80.002	     14.45	       2.4	        N/A	       N/A	       N/A	       N/A	        N/A	       N/A	       N/A	       N/A	        N/A	       N/A	       N/A	       N/A	        N/A	       N/A	       N/A	       N/A	        N/A	       N/A	       N/A	       N/A	        N/A	
         R10	    812	    80.002	     14.45	       2.4	        N/A	   79.8361	     14.45	       2.4	        N/A	   79.6703	     14.45	       2.4	        N/A	       N/A	       N/A	       N/A	        N/A	       N/A	       N/A	       N/A	        N/A	       N/A	       N/A	       N/A	        N/A	       N/A	       N/A	       N/A	        N/A	       N/A	       N/A	       N/A	        N/A	
         R10	    813	   79.6703	     14.45	       2.4	        N/A	   79.5185	     14.45	       2.4	        N/A	   79.3667	     14.45	       2.4	        N/A	       N/A	       N/A	       N/A	        N/A	       N/A	       N/A	       N/A	        N/A	       N/A	       N/A	       N/A	        N/A	       N/A	       N/A	       N/A	        N/A	       N/A	       N/A	       N/A	        N/A	
         R10	    814	   79.3667	     14.45	       2.4	        N/A	    79.229	     14.45	       2.4	        N/A	   79.0913	     14.45	       2.4	        N/A	       N/A	       N/A	       N/A	        N/A	       N/A	       N/A	       N/A	        N/A	       N/A	       N/A	       N/A	        N/A	       N/A	       N/A	       N/A	        N/A	       N/A	       N/A	       N/A	        N/A	
         R10	    815	   79.0913	     14.45	       2.4	        N/A	   78.9677	     14.45	       2.4	        N/A	   78.8441	     14.45	       2.4	        N/A	       N/A	       N/A	       N/A	        N/A	       N/A	       N/A	       N/A	        N/A	       N/A	       N/A	       N/A	        N/A	       N/A	       N/A	       N/A	        N/A	       N/A	       N/A	       N/A	        N/A	
         R10	    816	   78.8441	     14.45	       2.4	        N/A	   78.7345	     14.45	       2.4	        N/A	    78.625	     14.45	       2.4	        N/A	       N/A	       N/A	       N/A	        N/A	       N/A	       N/A	       N/A	        N/A	       N/A	       N/A	       N/A	        N/A	       N/A	       N/A	       N/A	        N/A	       N/A	       N/A	       N/A	        N/A	
         R10	    817	   80.2972	      15.3	       0.8	        N/A	   80.5236	      15.3	       0.8	        N/A	     80.75	      15.3	       0.8	        N/A	       N/A	       N/A	       N/A	        N/A	       N/A	       N/A	       N/A	        N/A	       N/A	       N/A	       N/A	        N/A	       N/A	       N/A	       N/A	        N/A	       N/A	       N/A	       N/A	        N/A	
         R10	    818	   79.8839	      15.3	       0.8	        N/A	   80.0906	      15.3	       0.8	        N/A	   80.2972	      15.3	       0.8	        N/A	       N/A	       N/A	       N/A	        N/A	       N/A	       N/A	       N/A	        N/A	       N/A	       N/A	       N/A	        N/A	       N/A	       N/A	       N/A	        N/A	       N/A	       N/A	       N/A	        N/A	
         R10	    819	     79.51	      15.3	       0.8	        N/A	    79.697	      15.3	       0.8	        N/A	   79.8839	      15.3	       0.8	        N/A	       N/A	       N/A	       N/A	        N/A	       N/A	       N/A	       N/A	        N/A	       N/A	       N/A	       N/A	        N/A	       N/A	       N/A	       N/A	        N/A	       N/A	       N/A	       N/A	        N/A	
         R10	    820	   79.1756	      15.3	       0.8	        N/A	   79.3428	      15.3	       0.8	        N/A	     79.51	      15.3	       0.8	        N/A	       N/A	       N/A	       N/A	        N/A	       N/A	       N/A	       N/A	        N/A	       N/A	       N/A	       N/A	        N/A	       N/A	       N/A	       N/A	        N/A	       N/A	       N/A	       N/A	        N/A	
         R10	    821	   78.8806	      15.3	       0.8	        N/A	   79.0281	      15.3	       0.8	        N/A	   79.1756	      15.3	       0.8	        N/A	       N/A	       N/A	       N/A	        N/A	       N/A	       N/A	       N/A	        N/A	       N/A	       N/A	       N/A	        N/A	       N/A	       N/A	       N/A	        N/A	       N/A	       N/A	       N/A	        N/A	
         R10	    822	    78.625	      15.3	       0.8	        N/A	   78.7528	      15.3	       0.8	        N/A	   78.8806	      15.3	       0.8	        N/A	       N/A	       N/A	       N/A	        N/A	       N/A	       N/A	       N/A	        N/A	       N/A	       N/A	       N/A	        N/A	       N/A	       N/A	       N/A	        N/A	       N/A	       N/A	       N/A	        N/A	
         R10	    823	     80.75	   15.9164	   2.99973	        N/A	    80.556	   15.9164	   2.99973	        N/A	   80.3619	   15.9164	   2.99973	        N/A	       N/A	       N/A	       N/A	        N/A	       N/A	       N/A	       N/A	        N/A	       N/A	       N/A	       N/A	        N/A	       N/A	       N/A	       N/A	        N/A	       N/A	       N/A	       N/A	        N/A	
         R10	    824	   80.3619	   15.9164	   2.99973	        N/A	    80.182	   15.9164	   2.99973	        N/A	    80.002	   15.9164	   2.99973	        N/A	       N/A	       N/A	       N/A	        N/A	       N/A	       N/A	       N/A	        N/A	       N/A	       N/A	       N/A	        N/A	       N/A	       N/A	       N/A	        N/A	       N/A	       N/A	       N/A	        N/A	
         R10	    825	    80.002	   15.9164	   2.99973	        N/A	   79.8361	   15.9164	   2.99973	        N/A	   79.6703	   15.9164	   2.99973	        N/A	       N/A	       N/A	       N/A	        N/A	       N/A	       N/A	       N/A	        N/A	       N/A	       N/A	       N/A	        N/A	       N/A	       N/A	       N/A	        N/A	       N/A	       N/A	       N/A	        N/A	
         R10	    826	   79.6703	   15.9164	   2.99973	        N/A	   79.5185	   15.9164	   2.99973	        N/A	   79.3667	   15.9164	   2.99973	        N/A	       N/A	       N/A	       N/A	        N/A	       N/A	       N/A	       N/A	        N/A	       N/A	       N/A	       N/A	        N/A	       N/A	       N/A	       N/A	        N/A	       N/A	       N/A	       N/A	        N/A	
         R10	    827	   79.3667	   15.9164	   2.99973	        N/A	    79.229	   15.9164	   2.99973	        N/A	   79.0913	   15.9164	   2.99973	        N/A	       N/A	       N/A	       N/A	        N/A	       N/A	       N/A	       N/A	        N/A	       N/A	       N/A	       N/A	        N/A	       N/A	       N/A	       N/A	        N/A	       N/A	       N/A	       N/A	        N/A	
         R10	    828	   79.0913	   15.9164	   2.99973	        N/A	   78.9677	   15.9164	   2.99973	        N/A	   78.8441	   15.9164	   2.99973	        N/A	       N/A	       N/A	       N/A	        N/A	       N/A	       N/A	       N/A	        N/A	       N/A	       N/A	       N/A	        N/A	       N/A	       N/A	       N/A	        N/A	       N/A	       N/A	       N/A	        N/A	
         R10	    829	   78.8441	   15.9164	   2.99973	        N/A	   78.7345	   15.9164	   2.99973	        N/A	    78.625	   15.9164	   2.99973	        N/A	       N/A	       N/A	       N/A	        N/A	       N/A	       N/A	       N/A	        N/A	       N/A	       N/A	       N/A	        N/A	       N/A	       N/A	       N/A	        N/A	       N/A	       N/A	       N/A	        N/A	
         R10	    830	     80.75	   16.5328	   3.59945	        N/A	   80.5236	   16.5328	   3.59945	        N/A	   80.2972	   16.5328	   3.59945	        N/A	       N/A	       N/A	       N/A	        N/A	       N/A	       N/A	       N/A	        N/A	       N/A	       N/A	       N/A	        N/A	       N/A	       N/A	       N/A	        N/A	       N/A	       N/A	       N/A	        N/A	
         R10	    831	   80.2972	   16.5328	   3.59945	        N/A	   80.0906	   16.5328	   3.59945	        N/A	   79.8839	   16.5328	   3.59945	        N/A	       N/A	       N/A	       N/A	        N/A	       N/A	       N/A	       N/A	        N/A	       N/A	       N/A	       N/A	        N/A	       N/A	       N/A	       N/A	        N/A	       N/A	       N/A	       N/A	        N/A	
         R10	    832	   79.8839	   16.5328	   3.59945	        N/A	    79.697	   16.5328	   3.59945	        N/A	     79.51	   16.5328	   3.59945	        N/A	       N/A	       N/A	       N/A	        N/A	       N/A	       N/A	       N/A	        N/A	       N/A	       N/A	       N/A	        N/A	       N/A	       N/A	       N/A	        N/A	       N/A	       N/A	       N/A	        N/A	
         R10	    833	     79.51	   16.5328	   3.59945	        N/A	   79.3428	   16.5328	   3.59945	        N/A	   79.1756	   16.5328	   3.59945	        N/A	       N/A	       N/A	       N/A	        N/A	       N/A	       N/A	       N/A	        N/A	       N/A	       N/A	       N/A	        N/A	       N/A	       N/A	       N/A	        N/A	       N/A	       N/A	       N/A	        N/A	
         R10	    834	   79.1756	   16.5328	   3.59945	        N/A	   79.0281	   16.5328	   3.59945	        N/A	   78.8806	   16.5328	   3.59945	        N/A	       N/A	       N/A	       N/A	        N/A	       N/A	       N/A	       N/A	        N/A	       N/A	       N/A	       N/A	        N/A	       N/A	       N/A	       N/A	        N/A	       N/A	       N/A	       N/A	        N/A	
         R10	    835	   78.8806	   16.5328	   3.59945	        N/A	   78.7528	   16.5328	   3.59945	        N/A	    78.625	   16.5328	   3.59945	        N/A	       N/A	       N/A	       N/A	        N/A	       N/A	       N/A	       N/A	        N/A	       N/A	       N/A	       N/A	        N/A	       N/A	       N/A	       N/A	        N/A	       N/A	       N/A	       N/A	        N/A	
         R10	    836	     80.75	   17.1492	   4.19918	        N/A	   80.5478	   17.1492	   4.19918	        N/A	   80.3455	   17.1492	   4.19918	        N/A	       N/A	       N/A	       N/A	        N/A	       N/A	       N/A	       N/A	        N/A	       N/A	       N/A	       N/A	        N/A	       N/A	       N/A	       N/A	        N/A	       N/A	       N/A	       N/A	        N/A	
         R10	    837	   80.3455	   17.1492	   4.19918	        N/A	   80.1534	   17.1492	   4.19918	        N/A	   79.9612	   17.1492	   4.19918	        N/A	       N/A	       N/A	       N/A	        N/A	       N/A	       N/A	       N/A	        N/A	       N/A	       N/A	       N/A	        N/A	       N/A	       N/A	       N/A	        N/A	       N/A	       N/A	       N/A	        N/A	
         R10	    838	   79.9612	   17.1492	   4.19918	        N/A	   79.7791	   17.1492	   4.19918	        N/A	    79.597	   17.1492	   4.19918	        N/A	       N/A	       N/A	       N/A	        N/A	       N/A	       N/A	       N/A	        N/A	       N/A	       N/A	       N/A	        N/A	       N/A	       N/A	       N/A	        N/A	       N/A	       N/A	       N/A	        N/A	
         R10	    839	    79.597	   17.1492	   4.19918	        N/A	   79.4249	   17.1492	   4.19918	        N/A	   79.2529	   17.1492	   4.19918	        N/A	       N/A	       N/A	       N/A	        N/A	       N/A	       N/A	       N/A	        N/A	       N/A	       N/A	       N/A	        N/A	       N/A	       N/A	       N/A	        N/A	       N/A	       N/A	       N/A	        N/A	
         R10	    840	   79.2529	   17.1492	   4.19918	        N/A	   79.0909	   17.1492	   4.19918	        N/A	   78.9289	   17.1492	   4.19918	        N/A	       N/A	       N/A	       N/A	        N/A	       N/A	       N/A	       N/A	        N/A	       N/A	       N/A	       N/A	        N/A	       N/A	       N/A	       N/A	        N/A	       N/A	       N/A	       N/A	        N/A	
         R10	    841	   78.9289	   17.1492	   4.19918	        N/A	   78.7769	   17.1492	   4.19918	        N/A	    78.625	   17.1492	   4.19918	        N/A	       N/A	       N/A	       N/A	        N/A	       N/A	       N/A	       N/A	        N/A	       N/A	       N/A	       N/A	        N/A	       N/A	       N/A	       N/A	        N/A	       N/A	       N/A	       N/A	        N/A	
         R10	    842	     80.75	   17.7655	    4.7989	        N/A	   80.5173	   17.7655	    4.7989	        N/A	   80.2846	   17.7655	    4.7989	        N/A	       N/A	       N/A	       N/A	        N/A	       N/A	       N/A	       N/A	        N/A	       N/A	       N/A	       N/A	        N/A	       N/A	       N/A	       N/A	        N/A	       N/A	       N/A	       N/A	        N/A	
         R10	    843	   80.2846	   17.7655	    4.7989	        N/A	    80.062	   17.7655	    4.7989	        N/A	   79.8394	   17.7655	    4.7989	        N/A	       N/A	       N/A	       N/A	        N/A	       N/A	       N/A	       N/A	        N/A	       N/A	       N/A	       N/A	        N/A	       N/A	       N/A	       N/A	        N/A	       N/A	       N/A	       N/A	        N/A	
         R10	    844	   79.8394	   17.7655	    4.7989	        N/A	   79.6269	   17.7655	    4.7989	        N/A	   79.4144	   17.7655	    4.7989	        N/A	       N/A	       N/A	       N/A	        N/A	       N/A	       N/A	       N/A	        N/A	       N/A	       N/A	       N/A	        N/A	       N/A	       N/A	       N/A	        N/A	       N/A	       N/A	       N/A	        N/A	
         R10	    845	   79.4144	   17.7655	    4.7989	        N/A	    79.212	   17.7655	    4.7989	        N/A	   79.0096	   17.7655	    4.7989	        N/A	       N/A	       N/A	       N/A	        N/A	       N/A	       N/A	       N/A	        N/A	       N/A	       N/A	       N/A	        N/A	       N/A	       N/A	       N/A	        N/A	       N/A	       N/A	       N/A	        N/A	
         R10	    846	   79.0096	   17.7655	    4.7989	        N/A	   78.8173	   17.7655	    4.7989	        N/A	    78.625	   17.7655	    4.7989	        N/A	       N/A	       N/A	       N/A	        N/A	       N/A	       N/A	       N/A	        N/A	       N/A	       N/A	       N/A	        N/A	       N/A	       N/A	       N/A	        N/A	       N/A	       N/A	       N/A	        N/A	
         R10	    847	     80.75	   18.3819	   5.39863	        N/A	   80.4717	   18.3819	   5.39863	        N/A	   80.1935	   18.3819	   5.39863	        N/A	       N/A	       N/A	       N/A	        N/A	       N/A	       N/A	       N/A	        N/A	       N/A	       N/A	       N/A	        N/A	       N/A	       N/A	       N/A	        N/A	       N/A	       N/A	       N/A	        N/A	
         R10	    848	   80.1935	   18.3819	   5.39863	        N/A	   79.9236	   18.3819	   5.39863	        N/A	   79.6538	   18.3819	   5.39863	        N/A	       N/A	       N/A	       N/A	        N/A	       N/A	       N/A	       N/A	        N/A	       N/A	       N/A	       N/A	        N/A	       N/A	       N/A	       N/A	        N/A	       N/A	       N/A	       N/A	        N/A	
         R10	    849	   79.6538	   18.3819	   5.39863	        N/A	   79.3924	   18.3819	   5.39863	        N/A	    79.131	   18.3819	   5.39863	        N/A	       N/A	       N/A	       N/A	        N/A	       N/A	       N/A	       N/A	        N/A	       N/A	       N/A	       N/A	        N/A	       N/A	       N/A	       N/A	        N/A	       N/A	       N/A	       N/A	        N/A	
         R10	    850	    79.131	   18.3819	   5.39863	        N/A	    78.878	   18.3819	   5.39863	        N/A	    78.625	   18.3819	   5.39863	        N/A	       N/A	       N/A	       N/A	        N/A	       N/A	       N/A	       N/A	        N/A	       N/A	       N/A	       N/A	        N/A	       N/A	       N/A	       N/A	        N/A	       N/A	       N/A	       N/A	        N/A	
         R10	    851	   80.1935	        19	      6.85	        N/A	   80.4717	        19	      6.85	        N/A	     80.75	        19	      6.85	        N/A	       N/A	       N/A	       N/A	        N/A	       N/A	       N/A	       N/A	        N/A	       N/A	       N/A	       N/A	        N/A	       N/A	       N/A	       N/A	        N/A	       N/A	       N/A	       N/A	        N/A	
         R10	    852	   79.6538	        19	      6.85	        N/A	   79.9236	        19	      6.85	        N/A	   80.1935	        19	      6.85	        N/A	       N/A	       N/A	       N/A	        N/A	       N/A	       N/A	       N/A	        N/A	       N/A	       N/A	       N/A	        N/A	       N/A	       N/A	       N/A	        N/A	       N/A	       N/A	       N/A	        N/A	
         R10	    853	    79.131	        19	      6.85	        N/A	   79.3924	        19	      6.85	        N/A	   79.6538	        19	      6.85	        N/A	       N/A	       N/A	       N/A	        N/A	       N/A	       N/A	       N/A	        N/A	       N/A	       N/A	       N/A	        N/A	       N/A	       N/A	       N/A	        N/A	       N/A	       N/A	       N/A	        N/A	
         R10	    854	    78.625	        19	      6.85	        N/A	    78.878	        19	      6.85	        N/A	    79.131	        19	      6.85	        N/A	       N/A	       N/A	       N/A	        N/A	       N/A	       N/A	       N/A	        N/A	       N/A	       N/A	       N/A	        N/A	       N/A	       N/A	       N/A	        N/A	       N/A	       N/A	       N/A	        N/A	
         R10	    855	   80.0079	        19	       7.7	        N/A	    80.379	        19	       7.7	        N/A	     80.75	        19	       7.7	        N/A	       N/A	       N/A	       N/A	        N/A	       N/A	       N/A	       N/A	        N/A	       N/A	       N/A	       N/A	        N/A	       N/A	       N/A	       N/A	        N/A	       N/A	       N/A	       N/A	        N/A	
         R10	    856	   79.2996	        19	       7.7	        N/A	   79.6538	        19	       7.7	        N/A	   80.0079	        19	       7.7	        N/A	       N/A	       N/A	       N/A	        N/A	       N/A	       N/A	       N/A	        N/A	       N/A	       N/A	       N/A	        N/A	       N/A	       N/A	       N/A	        N/A	       N/A	       N/A	       N/A	        N/A	
         R10	    857	    78.625	        19	       7.7	        N/A	   78.9623	        19	       7.7	        N/A	   79.2996	        19	       7.7	        N/A	       N/A	       N/A	       N/A	        N/A	       N/A	       N/A	       N/A	        N/A	       N/A	       N/A	       N/A	        N/A	       N/A	       N/A	       N/A	        N/A	       N/A	       N/A	       N/A	        N/A	
         R10	    858	   80.0079	        19	      8.55	        N/A	    80.379	        19	      8.55	        N/A	     80.75	        19	      8.55	        N/A	       N/A	       N/A	       N/A	        N/A	       N/A	       N/A	       N/A	        N/A	       N/A	       N/A	       N/A	        N/A	       N/A	       N/A	       N/A	        N/A	       N/A	       N/A	       N/A	        N/A	
         R10	    859	   79.2996	        19	      8.55	        N/A	   79.6538	        19	      8.55	        N/A	   80.0079	        19	      8.55	        N/A	       N/A	       N/A	       N/A	        N/A	       N/A	       N/A	       N/A	        N/A	       N/A	       N/A	       N/A	        N/A	       N/A	       N/A	       N/A	        N/A	       N/A	       N/A	       N/A	        N/A	
         R10	    860	    78.625	        19	      8.55	        N/A	   78.9623	        19	      8.55	        N/A	   79.2996	        19	      8.55	        N/A	       N/A	       N/A	       N/A	        N/A	       N/A	       N/A	       N/A	        N/A	       N/A	       N/A	       N/A	        N/A	       N/A	       N/A	       N/A	        N/A	       N/A	       N/A	       N/A	        N/A	
         R10	    861	   80.0079	        19	       9.4	        N/A	    80.379	        19	       9.4	        N/A	     80.75	        19	       9.4	        N/A	       N/A	       N/A	       N/A	        N/A	       N/A	       N/A	       N/A	        N/A	       N/A	       N/A	       N/A	        N/A	       N/A	       N/A	       N/A	        N/A	       N/A	       N/A	       N/A	        N/A	
         R10	    862	   79.2996	        19	       9.4	        N/A	   79.6538	        19	       9.4	        N/A	   80.0079	        19	       9.4	        N/A	       N/A	       N/A	       N/A	        N/A	       N/A	       N/A	       N/A	        N/A	       N/A	       N/A	       N/A	        N/A	       N/A	       N/A	       N/A	        N/A	       N/A	       N/A	       N/A	        N/A	
         R10	    863	    78.625	        19	       9.4	        N/A	   78.9623	        19	       9.4	        N/A	   79.2996	        19	       9.4	        N/A	       N/A	       N/A	       N/A	        N/A	       N/A	       N/A	       N/A	        N/A	       N/A	       N/A	       N/A	        N/A	       N/A	       N/A	       N/A	        N/A	       N/A	       N/A	       N/A	        N/A	
         R10	    864	   80.3619	      15.3	       1.6	        N/A	    80.556	      15.3	       1.6	        N/A	     80.75	      15.3	       1.6	        N/A	       N/A	       N/A	       N/A	        N/A	       N/A	       N/A	       N/A	        N/A	       N/A	       N/A	       N/A	        N/A	       N/A	       N/A	       N/A	        N/A	       N/A	       N/A	       N/A	        N/A	
         R10	    865	    80.002	      15.3	       1.6	        N/A	    80.182	      15.3	       1.6	        N/A	   80.3619	      15.3	       1.6	        N/A	       N/A	       N/A	       N/A	        N/A	       N/A	       N/A	       N/A	        N/A	       N/A	       N/A	       N/A	        N/A	       N/A	       N/A	       N/A	        N/A	       N/A	       N/A	       N/A	        N/A	
         R10	    866	   79.6703	      15.3	       1.6	        N/A	   79.8361	      15.3	       1.6	        N/A	    80.002	      15.3	       1.6	        N/A	       N/A	       N/A	       N/A	        N/A	       N/A	       N/A	       N/A	        N/A	       N/A	       N/A	       N/A	        N/A	       N/A	       N/A	       N/A	        N/A	       N/A	       N/A	       N/A	        N/A	
         R10	    867	   79.3667	      15.3	       1.6	        N/A	   79.5185	      15.3	       1.6	        N/A	   79.6703	      15.3	       1.6	        N/A	       N/A	       N/A	       N/A	        N/A	       N/A	       N/A	       N/A	        N/A	       N/A	       N/A	       N/A	        N/A	       N/A	       N/A	       N/A	        N/A	       N/A	       N/A	       N/A	        N/A	
         R10	    868	   79.0913	      15.3	       1.6	        N/A	    79.229	      15.3	       1.6	        N/A	   79.3667	      15.3	       1.6	        N/A	       N/A	       N/A	       N/A	        N/A	       N/A	       N/A	       N/A	        N/A	       N/A	       N/A	       N/A	        N/A	       N/A	       N/A	       N/A	        N/A	       N/A	       N/A	       N/A	        N/A	
         R10	    869	   78.8441	      15.3	       1.6	        N/A	   78.9677	      15.3	       1.6	        N/A	   79.0913	      15.3	       1.6	        N/A	       N/A	       N/A	       N/A	        N/A	       N/A	       N/A	       N/A	        N/A	       N/A	       N/A	       N/A	        N/A	       N/A	       N/A	       N/A	        N/A	       N/A	       N/A	       N/A	        N/A	
         R10	    870	    78.625	      15.3	       1.6	        N/A	   78.7345	      15.3	       1.6	        N/A	   78.8441	      15.3	       1.6	        N/A	       N/A	       N/A	       N/A	        N/A	       N/A	       N/A	       N/A	        N/A	       N/A	       N/A	       N/A	        N/A	       N/A	       N/A	       N/A	        N/A	       N/A	       N/A	       N/A	        N/A	
         R10	    871	     80.75	      9.35	         0	        N/A	   80.2188	      9.35	         0	        N/A	   79.6875	      9.35	         0	        N/A	       N/A	       N/A	       N/A	        N/A	       N/A	       N/A	       N/A	        N/A	       N/A	       N/A	       N/A	        N/A	       N/A	       N/A	       N/A	        N/A	       N/A	       N/A	       N/A	        N/A	
         R10	    872	   79.6875	      9.35	         0	        N/A	   79.1563	      9.35	         0	        N/A	    78.625	      9.35	         0	        N/A	       N/A	       N/A	       N/A	        N/A	       N/A	       N/A	       N/A	        N/A	       N/A	       N/A	       N/A	        N/A	       N/A	       N/A	       N/A	        N/A	       N/A	       N/A	       N/A	        N/A	
         R10	    873	     80.75	      10.2	         0	        N/A	   80.2188	      10.2	         0	        N/A	   79.6875	      10.2	         0	        N/A	       N/A	       N/A	       N/A	        N/A	       N/A	       N/A	       N/A	        N/A	       N/A	       N/A	       N/A	        N/A	       N/A	       N/A	       N/A	        N/A	       N/A	       N/A	       N/A	        N/A	
         R10	    874	   79.6875	      10.2	         0	        N/A	   79.1563	      10.2	         0	        N/A	    78.625	      10.2	         0	        N/A	       N/A	       N/A	       N/A	        N/A	       N/A	       N/A	       N/A	        N/A	       N/A	       N/A	       N/A	        N/A	       N/A	       N/A	       N/A	        N/A	       N/A	       N/A	       N/A	        N/A	
         R10	    875	     80.75	      13.6	         0	        N/A	   80.4467	      13.6	         0	        N/A	   80.1433	      13.6	         0	        N/A	       N/A	       N/A	       N/A	        N/A	       N/A	       N/A	       N/A	        N/A	       N/A	       N/A	       N/A	        N/A	       N/A	       N/A	       N/A	        N/A	       N/A	       N/A	       N/A	        N/A	
         R10	    876	   80.1433	      13.6	         0	        N/A	   79.8651	      13.6	         0	        N/A	   79.5869	      13.6	         0	        N/A	       N/A	       N/A	       N/A	        N/A	       N/A	       N/A	       N/A	        N/A	       N/A	       N/A	       N/A	        N/A	       N/A	       N/A	       N/A	        N/A	       N/A	       N/A	       N/A	        N/A	
         R10	    877	   79.5869	      13.6	         0	        N/A	   79.3339	      13.6	         0	        N/A	   79.0808	      13.6	         0	        N/A	       N/A	       N/A	       N/A	        N/A	       N/A	       N/A	       N/A	        N/A	       N/A	       N/A	       N/A	        N/A	       N/A	       N/A	       N/A	        N/A	       N/A	       N/A	       N/A	        N/A	
         R10	    878	   79.0808	      13.6	         0	        N/A	   78.8529	      13.6	         0	        N/A	    78.625	      13.6	         0	        N/A	       N/A	       N/A	       N/A	        N/A	       N/A	       N/A	       N/A	        N/A	       N/A	       N/A	       N/A	        N/A	       N/A	       N/A	       N/A	        N/A	       N/A	       N/A	       N/A	        N/A	
         R10	    879	     80.75	     11.05	         0	        N/A	   80.3809	     11.05	         0	        N/A	   80.0118	     11.05	         0	        N/A	       N/A	       N/A	       N/A	        N/A	       N/A	       N/A	       N/A	        N/A	       N/A	       N/A	       N/A	        N/A	       N/A	       N/A	       N/A	        N/A	       N/A	       N/A	       N/A	        N/A	
         R10	    880	   80.0118	     11.05	         0	        N/A	   79.6576	     11.05	         0	        N/A	   79.3034	     11.05	         0	        N/A	       N/A	       N/A	       N/A	        N/A	       N/A	       N/A	       N/A	        N/A	       N/A	       N/A	       N/A	        N/A	       N/A	       N/A	       N/A	        N/A	       N/A	       N/A	       N/A	        N/A	
         R10	    881	   79.3034	     11.05	         0	        N/A	   78.9642	     11.05	         0	        N/A	    78.625	     11.05	         0	        N/A	       N/A	       N/A	       N/A	        N/A	       N/A	       N/A	       N/A	        N/A	       N/A	       N/A	       N/A	        N/A	       N/A	       N/A	       N/A	        N/A	       N/A	       N/A	       N/A	        N/A	
         R10	    882	     80.75	      11.9	         0	        N/A	   80.3641	      11.9	         0	        N/A	   79.9782	      11.9	         0	        N/A	       N/A	       N/A	       N/A	        N/A	       N/A	       N/A	       N/A	        N/A	       N/A	       N/A	       N/A	        N/A	       N/A	       N/A	       N/A	        N/A	       N/A	       N/A	       N/A	        N/A	
         R10	    883	   79.9782	      11.9	         0	        N/A	    79.624	      11.9	         0	        N/A	   79.2698	      11.9	         0	        N/A	       N/A	       N/A	       N/A	        N/A	       N/A	       N/A	       N/A	        N/A	       N/A	       N/A	       N/A	        N/A	       N/A	       N/A	       N/A	        N/A	       N/A	       N/A	       N/A	        N/A	
         R10	    884	   79.2698	      11.9	         0	        N/A	   78.9474	      11.9	         0	        N/A	    78.625	      11.9	         0	        N/A	       N/A	       N/A	       N/A	        N/A	       N/A	       N/A	       N/A	        N/A	       N/A	       N/A	       N/A	        N/A	       N/A	       N/A	       N/A	        N/A	       N/A	       N/A	       N/A	        N/A	
         R10	    885	     80.75	      16.1	         0	        N/A	   80.5073	      16.1	         0	        N/A	   80.2646	      16.1	         0	        N/A	       N/A	       N/A	       N/A	        N/A	       N/A	       N/A	       N/A	        N/A	       N/A	       N/A	       N/A	        N/A	       N/A	       N/A	       N/A	        N/A	       N/A	       N/A	       N/A	        N/A	
         R10	    886	   80.2646	      16.1	         0	        N/A	   80.0371	      16.1	         0	        N/A	   79.8095	      16.1	         0	        N/A	       N/A	       N/A	       N/A	        N/A	       N/A	       N/A	       N/A	        N/A	       N/A	       N/A	       N/A	        N/A	       N/A	       N/A	       N/A	        N/A	       N/A	       N/A	       N/A	        N/A	
         R10	    887	   79.8095	      16.1	         0	        N/A	    79.597	      16.1	         0	        N/A	   79.3845	      16.1	         0	        N/A	       N/A	       N/A	       N/A	        N/A	       N/A	       N/A	       N/A	        N/A	       N/A	       N/A	       N/A	        N/A	       N/A	       N/A	       N/A	        N/A	       N/A	       N/A	       N/A	        N/A	
         R10	    888	   79.3845	      16.1	         0	        N/A	   79.1871	      16.1	         0	        N/A	   78.9896	      16.1	         0	        N/A	       N/A	       N/A	       N/A	        N/A	       N/A	       N/A	       N/A	        N/A	       N/A	       N/A	       N/A	        N/A	       N/A	       N/A	       N/A	        N/A	       N/A	       N/A	       N/A	        N/A	
         R10	    889	   78.9896	      16.1	         0	        N/A	   78.8073	      16.1	         0	        N/A	    78.625	      16.1	         0	        N/A	       N/A	       N/A	       N/A	        N/A	       N/A	       N/A	       N/A	        N/A	       N/A	       N/A	       N/A	        N/A	       N/A	       N/A	       N/A	        N/A	       N/A	       N/A	       N/A	        N/A	
         R10	    890	     80.75	     12.75	         0	        N/A	   80.3455	     12.75	         0	        N/A	   79.9411	     12.75	         0	        N/A	       N/A	       N/A	       N/A	        N/A	       N/A	       N/A	       N/A	        N/A	       N/A	       N/A	       N/A	        N/A	       N/A	       N/A	       N/A	        N/A	       N/A	       N/A	       N/A	        N/A	
         R10	    891	   79.9411	     12.75	         0	        N/A	   79.5869	     12.75	         0	        N/A	   79.2327	     12.75	         0	        N/A	       N/A	       N/A	       N/A	        N/A	       N/A	       N/A	       N/A	        N/A	       N/A	       N/A	       N/A	        N/A	       N/A	       N/A	       N/A	        N/A	       N/A	       N/A	       N/A	        N/A	
         R10	    892	   79.2327	     12.75	         0	        N/A	   78.9289	     12.75	         0	        N/A	    78.625	     12.75	         0	        N/A	       N/A	       N/A	       N/A	        N/A	       N/A	       N/A	       N/A	        N/A	       N/A	       N/A	       N/A	        N/A	       N/A	       N/A	       N/A	        N/A	       N/A	       N/A	       N/A	        N/A	
         R10	    893	     80.75	      17.7	         0	        N/A	   80.4591	      17.7	         0	        N/A	   80.1683	      17.7	         0	        N/A	       N/A	       N/A	       N/A	        N/A	       N/A	       N/A	       N/A	        N/A	       N/A	       N/A	       N/A	        N/A	       N/A	       N/A	       N/A	        N/A	       N/A	       N/A	       N/A	        N/A	
         R10	    894	   80.1683	      17.7	         0	        N/A	   79.8942	      17.7	         0	        N/A	   79.6202	      17.7	         0	        N/A	       N/A	       N/A	       N/A	        N/A	       N/A	       N/A	       N/A	        N/A	       N/A	       N/A	       N/A	        N/A	       N/A	       N/A	       N/A	        N/A	       N/A	       N/A	       N/A	        N/A	
         R10	    895	   79.6202	      17.7	         0	        N/A	    79.363	      17.7	         0	        N/A	   79.1058	      17.7	         0	        N/A	       N/A	       N/A	       N/A	        N/A	       N/A	       N/A	       N/A	        N/A	       N/A	       N/A	       N/A	        N/A	       N/A	       N/A	       N/A	        N/A	       N/A	       N/A	       N/A	        N/A	
         R10	    896	   79.1058	      17.7	         0	        N/A	   78.8654	      17.7	         0	        N/A	    78.625	      17.7	         0	        N/A	       N/A	       N/A	       N/A	        N/A	       N/A	       N/A	       N/A	        N/A	       N/A	       N/A	       N/A	        N/A	       N/A	       N/A	       N/A	        N/A	       N/A	       N/A	       N/A	        N/A	
         R10	    897	     80.75	     14.45	         0	        N/A	   80.4467	     14.45	         0	        N/A	   80.1433	     14.45	         0	        N/A	       N/A	       N/A	       N/A	        N/A	       N/A	       N/A	       N/A	        N/A	       N/A	       N/A	       N/A	        N/A	       N/A	       N/A	       N/A	        N/A	       N/A	       N/A	       N/A	        N/A	
         R10	    898	   80.1433	     14.45	         0	        N/A	   79.8651	     14.45	         0	        N/A	   79.5869	     14.45	         0	        N/A	       N/A	       N/A	       N/A	        N/A	       N/A	       N/A	       N/A	        N/A	       N/A	       N/A	       N/A	        N/A	       N/A	       N/A	       N/A	        N/A	       N/A	       N/A	       N/A	        N/A	
         R10	    899	   79.5869	     14.45	         0	        N/A	   79.3339	     14.45	         0	        N/A	   79.0808	     14.45	         0	        N/A	       N/A	       N/A	       N/A	        N/A	       N/A	       N/A	       N/A	        N/A	       N/A	       N/A	       N/A	        N/A	       N/A	       N/A	       N/A	        N/A	       N/A	       N/A	       N/A	        N/A	
         R10	    900	   79.0808	     14.45	         0	        N/A	   78.8529	     14.45	         0	        N/A	    78.625	     14.45	         0	        N/A	       N/A	       N/A	       N/A	        N/A	       N/A	       N/A	       N/A	        N/A	       N/A	       N/A	       N/A	        N/A	       N/A	       N/A	       N/A	        N/A	       N/A	       N/A	       N/A	        N/A	
         R10	    901	     80.75	      16.9	         0	        N/A	   80.4591	      16.9	         0	        N/A	   80.1683	      16.9	         0	        N/A	       N/A	       N/A	       N/A	        N/A	       N/A	       N/A	       N/A	        N/A	       N/A	       N/A	       N/A	        N/A	       N/A	       N/A	       N/A	        N/A	       N/A	       N/A	       N/A	        N/A	
         R10	    902	   80.1683	      16.9	         0	        N/A	   79.8942	      16.9	         0	        N/A	   79.6202	      16.9	         0	        N/A	       N/A	       N/A	       N/A	        N/A	       N/A	       N/A	       N/A	        N/A	       N/A	       N/A	       N/A	        N/A	       N/A	       N/A	       N/A	        N/A	       N/A	       N/A	       N/A	        N/A	
         R10	    903	   79.6202	      16.9	         0	        N/A	    79.363	      16.9	         0	        N/A	   79.1058	      16.9	         0	        N/A	       N/A	       N/A	       N/A	        N/A	       N/A	       N/A	       N/A	        N/A	       N/A	       N/A	       N/A	        N/A	       N/A	       N/A	       N/A	        N/A	       N/A	       N/A	       N/A	        N/A	
         R10	    904	   79.1058	      16.9	         0	        N/A	   78.8654	      16.9	         0	        N/A	    78.625	      16.9	         0	        N/A	       N/A	       N/A	       N/A	        N/A	       N/A	       N/A	       N/A	        N/A	       N/A	       N/A	       N/A	        N/A	       N/A	       N/A	       N/A	        N/A	       N/A	       N/A	       N/A	        N/A	
         R10	    905	     80.75	      18.5	         0	        N/A	   80.4844	      18.5	         0	        N/A	   80.2188	      18.5	         0	        N/A	       N/A	       N/A	       N/A	        N/A	       N/A	       N/A	       N/A	        N/A	       N/A	       N/A	       N/A	        N/A	       N/A	       N/A	       N/A	        N/A	       N/A	       N/A	       N/A	        N/A	
         R10	    906	   80.2188	      18.5	         0	        N/A	   79.9531	      18.5	         0	        N/A	   79.6875	      18.5	         0	        N/A	       N/A	       N/A	       N/A	        N/A	       N/A	       N/A	       N/A	        N/A	       N/A	       N/A	       N/A	        N/A	       N/A	       N/A	       N/A	        N/A	       N/A	       N/A	       N/A	        N/A	
         R10	    907	   79.6875	      18.5	         0	        N/A	   79.4219	      18.5	         0	        N/A	   79.1563	      18.5	         0	        N/A	       N/A	       N/A	       N/A	        N/A	       N/A	       N/A	       N/A	        N/A	       N/A	       N/A	       N/A	        N/A	       N/A	       N/A	       N/A	        N/A	       N/A	       N/A	       N/A	        N/A	
         R10	    908	   79.1563	      18.5	         0	        N/A	   78.8906	      18.5	         0	        N/A	    78.625	      18.5	         0	        N/A	       N/A	       N/A	       N/A	        N/A	       N/A	       N/A	       N/A	        N/A	       N/A	       N/A	       N/A	        N/A	       N/A	       N/A	       N/A	        N/A	       N/A	       N/A	       N/A	        N/A	
         R10	    909	     80.75	      19.3	         0	        N/A	   80.5375	      19.3	         0	        N/A	    80.325	      19.3	         0	        N/A	       N/A	       N/A	       N/A	        N/A	       N/A	       N/A	       N/A	        N/A	       N/A	       N/A	       N/A	        N/A	       N/A	       N/A	       N/A	        N/A	       N/A	       N/A	       N/A	        N/A	
         R10	    910	    80.325	      19.3	         0	        N/A	   80.1125	      19.3	         0	        N/A	      79.9	      19.3	         0	        N/A	       N/A	       N/A	       N/A	        N/A	       N/A	       N/A	       N/A	        N/A	       N/A	       N/A	       N/A	        N/A	       N/A	       N/A	       N/A	        N/A	       N/A	       N/A	       N/A	        N/A	
         R10	    911	      79.9	      19.3	         0	        N/A	   79.6875	      19.3	         0	        N/A	    79.475	      19.3	         0	        N/A	       N/A	       N/A	       N/A	        N/A	       N/A	       N/A	       N/A	        N/A	       N/A	       N/A	       N/A	        N/A	       N/A	       N/A	       N/A	        N/A	       N/A	       N/A	       N/A	        N/A	
         R10	    912	    79.475	      19.3	         0	        N/A	   79.2625	      19.3	         0	        N/A	     79.05	      19.3	         0	        N/A	       N/A	       N/A	       N/A	        N/A	       N/A	       N/A	       N/A	        N/A	       N/A	       N/A	       N/A	        N/A	       N/A	       N/A	       N/A	        N/A	       N/A	       N/A	       N/A	        N/A	
         R10	    913	     79.05	      19.3	         0	        N/A	   78.8375	      19.3	         0	        N/A	    78.625	      19.3	         0	        N/A	       N/A	       N/A	       N/A	        N/A	       N/A	       N/A	       N/A	        N/A	       N/A	       N/A	       N/A	        N/A	       N/A	       N/A	       N/A	        N/A	       N/A	       N/A	       N/A	        N/A	
         R10	    914	     80.75	      21.5	      2.25	        N/A	   80.4844	      21.5	      2.25	        N/A	   80.2188	      21.5	      2.25	        N/A	       N/A	       N/A	       N/A	        N/A	       N/A	       N/A	       N/A	        N/A	       N/A	       N/A	       N/A	        N/A	       N/A	       N/A	       N/A	        N/A	       N/A	       N/A	       N/A	        N/A	
         R10	    915	   80.2188	      21.5	      2.25	        N/A	   79.9531	      21.5	      2.25	        N/A	   79.6875	      21.5	      2.25	        N/A	       N/A	       N/A	       N/A	        N/A	       N/A	       N/A	       N/A	        N/A	       N/A	       N/A	       N/A	        N/A	       N/A	       N/A	       N/A	        N/A	       N/A	       N/A	       N/A	        N/A	
         R10	    916	   79.6875	      21.5	      2.25	        N/A	   79.4219	      21.5	      2.25	        N/A	   79.1563	      21.5	      2.25	        N/A	       N/A	       N/A	       N/A	        N/A	       N/A	       N/A	       N/A	        N/A	       N/A	       N/A	       N/A	        N/A	       N/A	       N/A	       N/A	        N/A	       N/A	       N/A	       N/A	        N/A	
         R10	    917	   79.1563	      21.5	      2.25	        N/A	   78.8906	      21.5	      2.25	        N/A	    78.625	      21.5	      2.25	        N/A	       N/A	       N/A	       N/A	        N/A	       N/A	       N/A	       N/A	        N/A	       N/A	       N/A	       N/A	        N/A	       N/A	       N/A	       N/A	        N/A	       N/A	       N/A	       N/A	        N/A	
         R10	    918	     80.75	      21.5	         3	        N/A	   80.4844	      21.5	         3	        N/A	   80.2188	      21.5	         3	        N/A	       N/A	       N/A	       N/A	        N/A	       N/A	       N/A	       N/A	        N/A	       N/A	       N/A	       N/A	        N/A	       N/A	       N/A	       N/A	        N/A	       N/A	       N/A	       N/A	        N/A	
         R10	    919	   80.2188	      21.5	         3	        N/A	   79.9531	      21.5	         3	        N/A	   79.6875	      21.5	         3	        N/A	       N/A	       N/A	       N/A	        N/A	       N/A	       N/A	       N/A	        N/A	       N/A	       N/A	       N/A	        N/A	       N/A	       N/A	       N/A	        N/A	       N/A	       N/A	       N/A	        N/A	
         R10	    920	   79.6875	      21.5	         3	        N/A	   79.4219	      21.5	         3	        N/A	   79.1563	      21.5	         3	        N/A	       N/A	       N/A	       N/A	        N/A	       N/A	       N/A	       N/A	        N/A	       N/A	       N/A	       N/A	        N/A	       N/A	       N/A	       N/A	        N/A	       N/A	       N/A	       N/A	        N/A	
         R10	    921	   79.1563	      21.5	         3	        N/A	   78.8906	      21.5	         3	        N/A	    78.625	      21.5	         3	        N/A	       N/A	       N/A	       N/A	        N/A	       N/A	       N/A	       N/A	        N/A	       N/A	       N/A	       N/A	        N/A	       N/A	       N/A	       N/A	        N/A	       N/A	       N/A	       N/A	        N/A	
         R10	    922	     80.75	      21.5	      3.75	        N/A	   80.4844	      21.5	      3.75	        N/A	   80.2188	      21.5	      3.75	        N/A	       N/A	       N/A	       N/A	        N/A	       N/A	       N/A	       N/A	        N/A	       N/A	       N/A	       N/A	        N/A	       N/A	       N/A	       N/A	        N/A	       N/A	       N/A	       N/A	        N/A	
         R10	    923	   80.2188	      21.5	      3.75	        N/A	   79.9531	      21.5	      3.75	        N/A	   79.6875	      21.5	      3.75	        N/A	       N/A	       N/A	       N/A	        N/A	       N/A	       N/A	       N/A	        N/A	       N/A	       N/A	       N/A	        N/A	       N/A	       N/A	       N/A	        N/A	       N/A	       N/A	       N/A	        N/A	
         R10	    924	   79.6875	      21.5	      3.75	        N/A	   79.4219	      21.5	      3.75	        N/A	   79.1563	      21.5	      3.75	        N/A	       N/A	       N/A	       N/A	        N/A	       N/A	       N/A	       N/A	        N/A	       N/A	       N/A	       N/A	        N/A	       N/A	       N/A	       N/A	        N/A	       N/A	       N/A	       N/A	        N/A	
         R10	    925	   79.1563	      21.5	      3.75	        N/A	   78.8906	      21.5	      3.75	        N/A	    78.625	      21.5	      3.75	        N/A	       N/A	       N/A	       N/A	        N/A	       N/A	       N/A	       N/A	        N/A	       N/A	       N/A	       N/A	        N/A	       N/A	       N/A	       N/A	        N/A	       N/A	       N/A	       N/A	        N/A	
         R10	    926	     80.75	      21.5	       4.5	        N/A	   80.3958	      21.5	       4.5	        N/A	   80.0417	      21.5	       4.5	        N/A	       N/A	       N/A	       N/A	        N/A	       N/A	       N/A	       N/A	        N/A	       N/A	       N/A	       N/A	        N/A	       N/A	       N/A	       N/A	        N/A	       N/A	       N/A	       N/A	        N/A	
         R10	    927	   80.0417	      21.5	       4.5	        N/A	   79.6875	      21.5	       4.5	        N/A	   79.3333	      21.5	       4.5	        N/A	       N/A	       N/A	       N/A	        N/A	       N/A	       N/A	       N/A	        N/A	       N/A	       N/A	       N/A	        N/A	       N/A	       N/A	       N/A	        N/A	       N/A	       N/A	       N/A	        N/A	
         R10	    928	   79.3333	      21.5	       4.5	        N/A	   78.9792	      21.5	       4.5	        N/A	    78.625	      21.5	       4.5	        N/A	       N/A	       N/A	       N/A	        N/A	       N/A	       N/A	       N/A	        N/A	       N/A	       N/A	       N/A	        N/A	       N/A	       N/A	       N/A	        N/A	       N/A	       N/A	       N/A	        N/A	
         R10	    929	     80.75	      21.5	      5.25	        N/A	   80.3911	      21.5	      5.25	        N/A	   80.0323	      21.5	      5.25	        N/A	       N/A	       N/A	       N/A	        N/A	       N/A	       N/A	       N/A	        N/A	       N/A	       N/A	       N/A	        N/A	       N/A	       N/A	       N/A	        N/A	       N/A	       N/A	       N/A	        N/A	
         R10	    930	   80.0323	      21.5	      5.25	        N/A	   79.6781	      21.5	      5.25	        N/A	    79.324	      21.5	      5.25	        N/A	       N/A	       N/A	       N/A	        N/A	       N/A	       N/A	       N/A	        N/A	       N/A	       N/A	       N/A	        N/A	       N/A	       N/A	       N/A	        N/A	       N/A	       N/A	       N/A	        N/A	
         R10	    931	    79.324	      21.5	      5.25	        N/A	   78.9745	      21.5	      5.25	        N/A	    78.625	      21.5	      5.25	        N/A	       N/A	       N/A	       N/A	        N/A	       N/A	       N/A	       N/A	        N/A	       N/A	       N/A	       N/A	        N/A	       N/A	       N/A	       N/A	        N/A	       N/A	       N/A	       N/A	        N/A	
         R10	    932	     80.75	      21.5	      6.85	        N/A	   80.3629	      21.5	      6.85	        N/A	   79.9759	      21.5	      6.85	        N/A	       N/A	       N/A	       N/A	        N/A	       N/A	       N/A	       N/A	        N/A	       N/A	       N/A	       N/A	        N/A	       N/A	       N/A	       N/A	        N/A	       N/A	       N/A	       N/A	        N/A	
         R10	    933	   79.9759	      21.5	      6.85	        N/A	   79.6217	      21.5	      6.85	        N/A	   79.2675	      21.5	      6.85	        N/A	       N/A	       N/A	       N/A	        N/A	       N/A	       N/A	       N/A	        N/A	       N/A	       N/A	       N/A	        N/A	       N/A	       N/A	       N/A	        N/A	       N/A	       N/A	       N/A	        N/A	
         R10	    934	   79.2675	      21.5	      6.85	        N/A	   78.9463	      21.5	      6.85	        N/A	    78.625	      21.5	      6.85	        N/A	       N/A	       N/A	       N/A	        N/A	       N/A	       N/A	       N/A	        N/A	       N/A	       N/A	       N/A	        N/A	       N/A	       N/A	       N/A	        N/A	       N/A	       N/A	       N/A	        N/A	
         R10	    935	     80.75	      21.5	       7.7	        N/A	   80.3745	      21.5	       7.7	        N/A	   79.9989	      21.5	       7.7	        N/A	       N/A	       N/A	       N/A	        N/A	       N/A	       N/A	       N/A	        N/A	       N/A	       N/A	       N/A	        N/A	       N/A	       N/A	       N/A	        N/A	       N/A	       N/A	       N/A	        N/A	
         R10	    936	   79.9989	      21.5	       7.7	        N/A	   79.6447	      21.5	       7.7	        N/A	   79.2906	      21.5	       7.7	        N/A	       N/A	       N/A	       N/A	        N/A	       N/A	       N/A	       N/A	        N/A	       N/A	       N/A	       N/A	        N/A	       N/A	       N/A	       N/A	        N/A	       N/A	       N/A	       N/A	        N/A	
         R10	    937	   79.2906	      21.5	       7.7	        N/A	   78.9578	      21.5	       7.7	        N/A	    78.625	      21.5	       7.7	        N/A	       N/A	       N/A	       N/A	        N/A	       N/A	       N/A	       N/A	        N/A	       N/A	       N/A	       N/A	        N/A	       N/A	       N/A	       N/A	        N/A	       N/A	       N/A	       N/A	        N/A	
         R10	    938	     80.75	      21.5	      8.55	        N/A	   80.3913	      21.5	      8.55	        N/A	   80.0326	      21.5	      8.55	        N/A	       N/A	       N/A	       N/A	        N/A	       N/A	       N/A	       N/A	        N/A	       N/A	       N/A	       N/A	        N/A	       N/A	       N/A	       N/A	        N/A	       N/A	       N/A	       N/A	        N/A	
         R10	    939	   80.0326	      21.5	      8.55	        N/A	   79.6784	      21.5	      8.55	        N/A	   79.3243	      21.5	      8.55	        N/A	       N/A	       N/A	       N/A	        N/A	       N/A	       N/A	       N/A	        N/A	       N/A	       N/A	       N/A	        N/A	       N/A	       N/A	       N/A	        N/A	       N/A	       N/A	       N/A	        N/A	
         R10	    940	   79.3243	      21.5	      8.55	        N/A	   78.9746	      21.5	      8.55	        N/A	    78.625	      21.5	      8.55	        N/A	       N/A	       N/A	       N/A	        N/A	       N/A	       N/A	       N/A	        N/A	       N/A	       N/A	       N/A	        N/A	       N/A	       N/A	       N/A	        N/A	       N/A	       N/A	       N/A	        N/A	
         R10	    941	     80.75	      21.5	       9.4	        N/A	   80.2188	      21.5	       9.4	        N/A	   79.6875	      21.5	       9.4	        N/A	       N/A	       N/A	       N/A	        N/A	       N/A	       N/A	       N/A	        N/A	       N/A	       N/A	       N/A	        N/A	       N/A	       N/A	       N/A	        N/A	       N/A	       N/A	       N/A	        N/A	
         R10	    942	   79.6875	      21.5	       9.4	        N/A	   79.1563	      21.5	       9.4	        N/A	    78.625	      21.5	       9.4	        N/A	       N/A	       N/A	       N/A	        N/A	       N/A	       N/A	       N/A	        N/A	       N/A	       N/A	       N/A	        N/A	       N/A	       N/A	       N/A	        N/A	       N/A	       N/A	       N/A	        N/A	
         R10	    943	   75.7579	      15.3	       1.6	8.54491e+06	     75.65	      15.3	       1.6	8.55223e+06	     75.65	      15.3	   1.70151	 8.3949e+06	   75.7547	      15.3	    1.6984	8.36528e+06	   75.7039	      15.3	       1.6	  8.548e+06	     75.65	      15.3	   1.65076	 8.4733e+06	   75.7024	      15.3	   1.69995	8.37959e+06	   75.7563	      15.3	    1.6492	8.45494e+06	
         R10	    944	   75.7547	      15.3	    1.6984	8.36894e+06	     75.65	      15.3	   1.70151	8.38724e+06	     75.65	      15.3	   1.79987	8.20369e+06	   75.7513	      15.3	   1.79466	8.19842e+06	   75.7024	      15.3	   1.69995	8.37746e+06	     75.65	      15.3	   1.75069	8.29527e+06	   75.7006	      15.3	   1.79726	 8.2004e+06	    75.753	      15.3	   1.74653	 8.2835e+06	
         R10	    945	   75.7513	      15.3	   1.79466	8.20253e+06	     75.65	      15.3	   1.79987	 8.2007e+06	     75.65	      15.3	   1.89507	 8.0514e+06	   75.7421	      15.3	   1.88895	8.00576e+06	   75.7006	      15.3	   1.79726	8.20088e+06	     75.65	      15.3	   1.84747	8.12578e+06	   75.6961	      15.3	   1.89201	8.02808e+06	   75.7467	      15.3	    1.8418	8.10394e+06	
         R10	    946	   75.7421	      15.3	   1.88895	8.00854e+06	     75.65	      15.3	   1.89507	8.04818e+06	     75.65	      15.3	   1.98711	7.86421e+06	   75.7343	      15.3	   1.98324	7.82528e+06	   75.6961	      15.3	   1.89201	8.02775e+06	     75.65	      15.3	   1.94109	7.95597e+06	   75.6922	      15.3	   1.98518	7.84431e+06	   75.7382	      15.3	   1.93609	7.91657e+06	
         R10	    947	   75.7343	      15.3	   1.98324	7.82587e+06	     75.65	      15.3	   1.98711	7.86441e+06	     75.65	      15.3	     2.076	7.69695e+06	   75.7313	      15.3	   2.07237	7.65525e+06	   75.6922	      15.3	   1.98518	7.84469e+06	     75.65	      15.3	   2.03156	7.78034e+06	   75.6907	      15.3	   2.07418	7.67565e+06	   75.7328	      15.3	    2.0278	7.74023e+06	
         R10	    948	   75.7313	      15.3	   2.07237	7.65499e+06	     75.65	      15.3	     2.076	7.69675e+06	     75.65	      15.3	   2.16173	7.55891e+06	   75.7289	      15.3	   2.15793	7.48942e+06	   75.6907	      15.3	   2.07418	7.67542e+06	     75.65	      15.3	   2.11887	7.62752e+06	   75.6895	      15.3	   2.15983	7.52389e+06	   75.7301	      15.3	   2.11515	7.57177e+06	
         R10	    949	   75.7289	      15.3	   2.15793	7.49512e+06	     75.65	      15.3	   2.16173	 7.5724e+06	     75.65	      15.3	   2.24431	7.39802e+06	   75.7271	      15.3	   2.24092	7.35337e+06	   75.6895	      15.3	   2.15983	7.53347e+06	     75.65	      15.3	   2.20302	7.48458e+06	   75.6885	      15.3	   2.24262	7.37525e+06	    75.728	      15.3	   2.19942	7.42382e+06	
         R10	    950	   75.7271	      15.3	   2.24092	7.34343e+06	     75.65	      15.3	   2.24431	7.40117e+06	     75.65	      15.3	   2.32373	7.26662e+06	   75.7265	      15.3	   2.32138	7.20272e+06	   75.6885	      15.3	   2.24262	7.37201e+06	     75.65	      15.3	   2.28402	7.33361e+06	   75.6882	      15.3	   2.32255	7.23452e+06	   75.7268	      15.3	   2.28115	 7.2726e+06	
         R10	    951	   75.7265	      15.3	   2.32138	7.20331e+06	     75.65	      15.3	   2.32373	7.28089e+06	     75.65	      15.3	       2.4	7.14618e+06	   75.7298	      15.3	       2.4	7.05639e+06	   75.6882	      15.3	   2.32255	7.24171e+06	     75.65	      15.3	   2.36187	  7.213e+06	   75.6899	      15.3	       2.4	7.10096e+06	   75.7281	      15.3	   2.36069	7.12948e+06	
         R10	    952	      75.8	      15.3	   2.32138	7.12118e+06	   75.7265	      15.3	   2.32138	 7.2074e+06	   75.7298	      15.3	       2.4	7.06644e+06	   75.8048	      15.3	       2.4	6.97628e+06	   75.7632	      15.3	   2.32138	7.16405e+06	   75.7281	      15.3	   2.36069	7.13652e+06	   75.7673	      15.3	       2.4	7.02107e+06	   75.8024	      15.3	   2.36069	7.04841e+06	
         R10	    953	      75.8	      15.3	   2.32138	7.12393e+06	   75.8048	      15.3	       2.4	6.97642e+06	   75.8749	      15.3	       2.4	6.87908e+06	   75.8686	      15.3	   2.32625	7.02314e+06	   75.8024	      15.3	   2.36069	7.04982e+06	   75.8399	      15.3	       2.4	6.92747e+06	   75.8718	      15.3	   2.36313	6.95083e+06	   75.8343	      15.3	   2.32381	7.07331e+06	
         R10	    954	   75.8686	      15.3	   2.32625	7.03195e+06	   75.8749	      15.3	       2.4	6.87809e+06	   75.9403	      15.3	       2.4	6.78181e+06	   75.9333	      15.3	    2.3367	6.89325e+06	   75.8718	      15.3	   2.36313	6.95471e+06	   75.9076	      15.3	       2.4	6.82972e+06	   75.9368	      15.3	   2.36835	6.83733e+06	    75.901	      15.3	   2.33148	 6.9624e+06	
         R10	    955	   75.9333	      15.3	    2.3367	6.89792e+06	   75.9403	      15.3	       2.4	6.77967e+06	   76.0009	      15.3	       2.4	6.66888e+06	   75.9963	      15.3	   2.34425	6.76807e+06	   75.9368	      15.3	   2.36835	6.83858e+06	   75.9706	      15.3	       2.4	6.72408e+06	   75.9986	      15.3	   2.37213	6.71829e+06	   75.9648	      15.3	   2.34048	6.83279e+06	
         R10	    956	   75.9963	      15.3	   2.34425	6.76551e+06	   76.0009	      15.3	       2.4	6.66978e+06	   76.0567	      15.3	       2.4	6.54917e+06	   76.0517	      15.3	   2.34693	6.63274e+06	   75.9986	      15.3	   2.37213	6.71746e+06	   76.0288	      15.3	       2.4	6.60935e+06	   76.0542	      15.3	   2.37346	6.59071e+06	    76.024	      15.3	   2.34559	6.69894e+06	
         R10	    957	   76.0517	      15.3	   2.34693	6.63254e+06	   76.0567	      15.3	       2.4	6.54965e+06	   76.1076	      15.3	       2.4	6.41804e+06	   76.1022	      15.3	   2.35097	6.48649e+06	   76.0542	      15.3	   2.37346	6.59086e+06	   76.0821	      15.3	       2.4	6.48378e+06	   76.1049	      15.3	   2.37548	6.45192e+06	   76.0769	      15.3	   2.34895	6.55938e+06	
         R10	    958	   76.1022	      15.3	   2.35097	6.48657e+06	   76.1076	      15.3	       2.4	6.41753e+06	   76.1538	      15.3	       2.4	6.27633e+06	    76.148	      15.3	   2.35576	6.32677e+06	   76.1049	      15.3	   2.37548	 6.4517e+06	   76.1307	      15.3	       2.4	6.34691e+06	   76.1509	      15.3	   2.37788	6.30099e+06	   76.1251	      15.3	   2.35336	6.40659e+06	
         R10	    959	    76.148	      15.3	   2.35576	6.32739e+06	   76.1538	      15.3	       2.4	6.27401e+06	   76.1952	      15.3	       2.4	6.12431e+06	   76.1889	      15.3	   2.36104	6.15528e+06	   76.1509	      15.3	   2.37788	6.30015e+06	   76.1745	      15.3	       2.4	6.19916e+06	    76.192	      15.3	   2.38052	6.13888e+06	   76.1684	      15.3	    2.3584	6.24129e+06	
         R10	    960	   76.1889	      15.3	   2.36104	6.15663e+06	   76.1952	      15.3	       2.4	   6.12e+06	   76.2317	      15.3	       2.4	5.96168e+06	   76.2256	      15.3	   2.36616	 5.9721e+06	    76.192	      15.3	   2.38052	6.13742e+06	   76.2135	      15.3	       2.4	6.04079e+06	   76.2287	      15.3	   2.38308	5.96544e+06	   76.2073	      15.3	    2.3636	6.06433e+06	
         R10	    961	   76.2256	      15.3	   2.36616	 5.9721e+06	   76.2317	      15.3	       2.4	5.95599e+06	   76.2635	      15.3	       2.4	5.79172e+06	   76.2571	      15.3	   2.37103	5.78642e+06	   76.2287	      15.3	   2.38308	5.96262e+06	   76.2476	      15.3	       2.4	5.87367e+06	   76.2603	      15.3	   2.38551	5.78687e+06	   76.2414	      15.3	   2.36859	5.87917e+06	
         R10	    962	   76.2571	      15.3	   2.37103	5.78878e+06	   76.2635	      15.3	       2.4	5.78709e+06	   76.2905	      15.3	       2.4	5.62507e+06	   76.2851	      15.3	   2.37563	5.58679e+06	   76.2603	      15.3	   2.38551	5.78578e+06	    76.277	      15.3	       2.4	5.70565e+06	   76.2878	      15.3	   2.38782	5.60277e+06	   76.2711	      15.3	   2.37333	5.68754e+06	
         R10	    963	   76.2851	      15.3	   2.37563	5.58991e+06	   76.2905	      15.3	       2.4	5.61894e+06	   76.3126	      15.3	       2.4	5.46632e+06	   76.3094	      15.3	   2.37632	5.37892e+06	   76.2878	      15.3	   2.38782	 5.6013e+06	   76.3016	      15.3	       2.4	5.54185e+06	    76.311	      15.3	   2.38816	5.41722e+06	   76.2972	      15.3	   2.37597	 5.4841e+06	
         R10	    964	   76.3094	      15.3	   2.37632	 5.3743e+06	   76.3126	      15.3	       2.4	 5.4627e+06	     76.33	      15.3	       2.4	5.32182e+06	     76.33	      15.3	     2.383	5.19776e+06	    76.311	      15.3	   2.38816	5.41314e+06	   76.3213	      15.3	       2.4	5.39138e+06	     76.33	      15.3	    2.3915	5.25516e+06	   76.3197	      15.3	   2.37966	5.28442e+06	
         R10	    965	    76.309	      15.3	   2.35459	5.34604e+06	     76.33	      15.3	     2.349	5.13553e+06	     76.33	      15.3	     2.332	5.23147e+06	   76.3096	      15.3	    2.3341	5.39479e+06	   76.3195	      15.3	   2.35179	5.23946e+06	     76.33	      15.3	    2.3405	5.17896e+06	   76.3198	      15.3	   2.33305	5.31181e+06	   76.3093	      15.3	   2.34435	5.36617e+06	
         R10	    966	   76.3096	      15.3	    2.3341	5.39727e+06	     76.33	      15.3	     2.332	5.23466e+06	     76.33	      15.3	     2.315	5.40755e+06	   76.3096	      15.3	   2.31668	5.50741e+06	   76.3198	      15.3	   2.33305	5.31461e+06	     76.33	      15.3	    2.3235	5.31766e+06	   76.3198	      15.3	   2.31584	5.45562e+06	   76.3096	      15.3	   2.32539	5.44982e+06	
         R10	    967	   76.3096	      15.3	   2.31668	5.50929e+06	     76.33	      15.3	     2.315	5.40862e+06	     76.33	      15.3	     2.298	5.63222e+06	    76.312	      15.3	   2.29994	5.65215e+06	   76.3198	      15.3	   2.31584	5.45709e+06	     76.33	      15.3	    2.3065	5.51817e+06	    76.321	      15.3	   2.29897	5.64044e+06	   76.3108	      15.3	   2.30831	5.57853e+06	
         R10	    968	    76.312	      15.3	   2.29994	5.65689e+06	     76.33	      15.3	     2.298	5.63301e+06	     76.33	      15.3	     2.281	5.87925e+06	   76.3051	      15.3	   2.28063	5.88018e+06	    76.321	      15.3	   2.29897	5.64324e+06	     76.33	      15.3	    2.2895	 5.7547e+06	   76.3176	      15.3	   2.28082	5.87718e+06	   76.3086	      15.3	   2.29028	 5.7677e+06	
         R10	    969	   76.3051	      15.3	   2.28063	5.88027e+06	     76.33	      15.3	     2.281	5.87902e+06	     76.33	      15.3	     2.264	6.12564e+06	   76.3113	      15.3	   2.26421	6.07071e+06	   76.3176	      15.3	   2.28082	 5.8771e+06	     76.33	      15.3	    2.2725	6.00153e+06	   76.3207	      15.3	   2.26411	6.09681e+06	   76.3082	      15.3	   2.27242	5.97403e+06	
         R10	    970	   76.3113	      15.3	   2.26421	6.07093e+06	     76.33	      15.3	     2.264	6.12871e+06	     76.33	      15.3	     2.247	6.36014e+06	   76.3101	      15.3	   2.24502	6.29759e+06	   76.3207	      15.3	   2.26411	 6.0985e+06	     76.33	      15.3	    2.2555	 6.2439e+06	   76.3201	      15.3	   2.24601	 6.3277e+06	   76.3107	      15.3	   2.25462	6.18371e+06	
         R10	    971	   76.3101	      15.3	   2.24502	6.29724e+06	     76.33	      15.3	     2.247	6.36233e+06	     76.33	      15.3	      2.23	6.57388e+06	   76.3076	      15.3	    2.2286	6.47197e+06	   76.3201	      15.3	   2.24601	6.32862e+06	     76.33	      15.3	    2.2385	 6.4678e+06	   76.3188	      15.3	    2.2293	6.52171e+06	   76.3089	      15.3	   2.23681	6.38433e+06	
         R10	    972	   76.3298	      15.3	   2.20952	6.80134e+06	     76.33	      15.3	      2.23	6.57598e+06	    76.347	      15.3	      2.23	6.71234e+06	   76.3442	      15.3	    2.2096	6.91887e+06	   76.3299	      15.3	   2.21976	6.68832e+06	   76.3385	      15.3	      2.23	6.64349e+06	   76.3456	      15.3	    2.2198	6.81524e+06	    76.337	      15.3	   2.20956	6.85979e+06	
         R10	    973	   76.3442	      15.3	    2.2096	6.91958e+06	    76.347	      15.3	      2.23	 6.7134e+06	    76.364	      15.3	      2.23	6.90665e+06	   76.3622	      15.3	   2.20348	7.16256e+06	   76.3456	      15.3	    2.2198	 6.8161e+06	   76.3555	      15.3	      2.23	6.80942e+06	   76.3631	      15.3	   2.21674	7.03391e+06	   76.3532	      15.3	   2.20654	7.04072e+06	
         R10	    974	   76.3622	      15.3	   2.20348	7.16018e+06	    76.364	      15.3	      2.23	6.90379e+06	    76.381	      15.3	      2.23	 7.1379e+06	   76.3815	      15.3	   2.21183	7.32517e+06	   76.3631	      15.3	   2.21674	7.03127e+06	   76.3725	      15.3	      2.23	7.02045e+06	   76.3813	      15.3	   2.22091	7.23112e+06	   76.3719	      15.3	   2.20766	7.24229e+06	
         R10	    975	   76.3815	      15.3	   2.21183	7.32766e+06	    76.381	      15.3	      2.23	7.14026e+06	    76.398	      15.3	      2.23	7.42494e+06	   76.3969	      15.3	    2.2093	 7.5687e+06	   76.3813	      15.3	   2.22091	7.23355e+06	   76.3895	      15.3	      2.23	7.28243e+06	   76.3974	      15.3	   2.21965	7.49622e+06	   76.3892	      15.3	   2.21057	7.44812e+06	
         R10	    976	   76.3969	      15.3	    2.2093	7.57023e+06	    76.398	      15.3	      2.23	7.42619e+06	    76.415	      15.3	      2.23	7.74955e+06	   76.4152	      15.3	   2.20851	7.86026e+06	   76.3974	      15.3	   2.21965	 7.4976e+06	   76.4065	      15.3	      2.23	7.58783e+06	   76.4151	      15.3	   2.21925	7.80422e+06	    76.406	      15.3	    2.2089	7.71522e+06	
         R10	    977	   76.4152	      15.3	   2.20851	7.85886e+06	    76.415	      15.3	      2.23	7.75185e+06	    76.432	      15.3	      2.23	8.09385e+06	   76.4324	      15.3	   2.20804	8.13288e+06	   76.4151	      15.3	   2.21925	7.80468e+06	   76.4235	      15.3	      2.23	7.92279e+06	   76.4322	      15.3	   2.21902	8.11273e+06	   76.4238	      15.3	   2.20827	7.99582e+06	
         R10	    978	   76.4324	      15.3	   2.20804	8.13626e+06	    76.432	      15.3	      2.23	8.09573e+06	    76.449	      15.3	      2.23	8.43337e+06	   76.4492	      15.3	   2.20937	8.38325e+06	   76.4322	      15.3	   2.21902	8.11535e+06	   76.4405	      15.3	      2.23	8.26427e+06	   76.4491	      15.3	   2.21968	8.40792e+06	   76.4408	      15.3	    2.2087	8.25957e+06	
         R10	    979	   76.4492	      15.3	   2.20937	8.38439e+06	    76.449	      15.3	      2.23	8.43474e+06	    76.466	      15.3	      2.23	8.73382e+06	    76.466	      15.3	   2.21083	8.60888e+06	   76.4491	      15.3	   2.21968	8.40918e+06	   76.4575	      15.3	      2.23	8.58357e+06	    76.466	      15.3	   2.22042	8.67114e+06	   76.4576	      15.3	    2.2101	8.49623e+06	
         R10	    980	    76.466	      15.3	   2.21083	8.61633e+06	    76.466	      15.3	      2.23	 8.7358e+06	    76.483	      15.3	      2.23	8.96644e+06	   76.4832	      15.3	   2.20993	8.77977e+06	    76.466	      15.3	   2.22042	8.67585e+06	   76.4745	      15.3	      2.23	8.84991e+06	   76.4831	      15.3	   2.21997	8.87292e+06	   76.4746	      15.3	   2.21038	8.69738e+06	
         R10	    981	   76.4832	      15.3	   2.20993	8.78265e+06	    76.483	      15.3	      2.23	8.96901e+06	      76.5	      15.3	      2.23	9.11743e+06	      76.5	      15.3	   2.21268	8.91157e+06	   76.4831	      15.3	   2.21997	8.87562e+06	   76.4915	      15.3	      2.23	9.04175e+06	      76.5	      15.3	   2.22134	9.01418e+06	   76.4916	      15.3	    2.2113	8.84608e+06	
         R10	    982	   76.4832	      15.3	   2.20993	8.78196e+06	      76.5	      15.3	   2.21268	8.91163e+06	      76.5	      15.3	   2.19016	8.71536e+06	   76.4805	      15.3	   2.18652	 8.5942e+06	   76.4916	      15.3	    2.2113	8.84574e+06	      76.5	      15.3	   2.20142	8.81307e+06	   76.4903	      15.3	   2.18834	8.65404e+06	   76.4819	      15.3	   2.19823	8.68779e+06	
         R10	    983	   76.4805	      15.3	   2.18652	8.59615e+06	      76.5	      15.3	   2.19016	8.71864e+06	      76.5	      15.3	   2.16246	8.54726e+06	   76.4668	      15.3	   2.15823	8.39255e+06	   76.4903	      15.3	   2.18834	8.65658e+06	      76.5	      15.3	   2.17631	8.63245e+06	   76.4834	      15.3	   2.16035	 8.4689e+06	   76.4737	      15.3	   2.17238	8.49371e+06	
         R10	    984	   76.4668	      15.3	   2.15823	8.38527e+06	      76.5	      15.3	   2.16246	 8.5457e+06	      76.5	      15.3	   2.12957	8.40192e+06	   76.4633	      15.3	   2.12376	8.27377e+06	   76.4834	      15.3	   2.16035	8.46453e+06	      76.5	      15.3	   2.14601	8.47335e+06	   76.4817	      15.3	   2.12667	8.33722e+06	   76.4651	      15.3	     2.141	8.32913e+06	
         R10	    985	   76.4633	      15.3	   2.12376	8.27288e+06	      76.5	      15.3	   2.12957	8.40163e+06	      76.5	      15.3	   2.09149	8.28824e+06	    76.458	      15.3	   2.08527	8.19047e+06	   76.4817	      15.3	   2.12667	8.33663e+06	      76.5	      15.3	   2.11053	8.34445e+06	    76.479	      15.3	   2.08838	8.23893e+06	   76.4606	      15.3	   2.10452	8.23125e+06	
         R10	    986	    76.458	      15.3	   2.08527	8.19042e+06	      76.5	      15.3	   2.09149	8.28871e+06	      76.5	      15.3	   2.04821	8.20569e+06	   76.4531	      15.3	   2.04261	8.14286e+06	    76.479	      15.3	   2.08838	8.23915e+06	      76.5	      15.3	   2.06985	8.24674e+06	   76.4765	      15.3	   2.04541	8.17397e+06	   76.4555	      15.3	   2.06394	8.16622e+06	
         R10	    987	   76.4531	      15.3	   2.04261	 8.1427e+06	      76.5	      15.3	   2.04821	8.20688e+06	      76.5	      15.3	   1.99975	8.15086e+06	   76.4488	      15.3	   1.99397	8.12381e+06	   76.4765	      15.3	   2.04541	8.17448e+06	      76.5	      15.3	   2.02398	8.17841e+06	   76.4744	      15.3	   1.99686	8.13703e+06	    76.451	      15.3	   2.01829	8.13281e+06	
         R10	    988	   76.4488	      15.3	   1.99397	8.12391e+06	      76.5	      15.3	   1.99975	8.15243e+06	      76.5	      15.3	    1.9461	 8.1208e+06	   76.4447	      15.3	   1.94026	8.12926e+06	   76.4744	      15.3	   1.99686	8.13788e+06	      76.5	      15.3	   1.97293	8.13618e+06	   76.4723	      15.3	   1.94318	8.12468e+06	   76.4467	      15.3	   1.96711	8.12614e+06	
         R10	    989	   76.4447	      15.3	   1.94026	8.12946e+06	      76.5	      15.3	    1.9461	8.12336e+06	      76.5	      15.3	   1.88726	 8.1079e+06	   76.4389	      15.3	   1.87999	8.16473e+06	   76.4723	      15.3	   1.94318	8.12607e+06	      76.5	      15.3	   1.91668	8.11521e+06	   76.4694	      15.3	   1.88363	8.13579e+06	   76.4418	      15.3	   1.91013	8.14663e+06	
         R10	    990	   76.4389	      15.3	   1.87999	8.16579e+06	      76.5	      15.3	   1.88726	8.11354e+06	      76.5	      15.3	   1.82323	8.11918e+06	   76.4316	      15.3	   1.81558	8.21958e+06	   76.4694	      15.3	   1.88363	8.13915e+06	      76.5	      15.3	   1.85525	  8.116e+06	   76.4658	      15.3	   1.81941	 8.1686e+06	   76.4352	      15.3	   1.84779	8.19223e+06	
         R10	    991	   76.4316	      15.3	   1.81558	8.22927e+06	      76.5	      15.3	   1.82323	8.11383e+06	      76.5	      15.3	   1.75401	8.14133e+06	   76.4243	      15.3	   1.74668	8.33845e+06	   76.4658	      15.3	   1.81941	8.17095e+06	      76.5	      15.3	   1.78862	8.12729e+06	   76.4622	      15.3	   1.75034	8.23722e+06	   76.4279	      15.3	   1.78113	8.28299e+06	
         R10	    992	   76.4243	      15.3	   1.74668	8.34871e+06	      76.5	      15.3	   1.75401	8.00406e+06	      76.5	      15.3	    1.6796	8.28171e+06	   76.4196	      15.3	   1.67445	8.72818e+06	   76.4622	      15.3	   1.75034	8.17524e+06	      76.5	      15.3	    1.7168	8.13524e+06	   76.4598	      15.3	   1.67702	8.48008e+06	    76.422	      15.3	   1.71056	8.53565e+06	
         R10	    993	   76.4196	      15.3	   1.67445	8.63117e+06	      76.5	      15.3	    1.6796	7.72221e+06	      76.5	      15.3	       1.6	9.30863e+06	    76.419	      15.3	       1.6	8.81823e+06	   76.4598	      15.3	   1.67702	8.13426e+06	      76.5	      15.3	    1.6398	8.36026e+06	   76.4595	      15.3	       1.6	9.03954e+06	   76.4193	      15.3	   1.63722	8.71539e+06	
         R10	    994	   76.3351	      15.3	   1.67584	8.34104e+06	   76.4196	      15.3	   1.67445	8.40819e+06	    76.419	      15.3	       1.6	8.85882e+06	   76.3346	      15.3	       1.6	8.69664e+06	   76.3774	      15.3	   1.67514	8.37436e+06	   76.4193	      15.3	   1.63722	8.62756e+06	   76.3768	      15.3	       1.6	8.76954e+06	   76.3348	      15.3	   1.63792	8.51688e+06	
         R10	    995	   76.3351	      15.3	   1.67584	8.38156e+06	   76.3346	      15.3	       1.6	8.67857e+06	   76.2468	      15.3	       1.6	8.57745e+06	   76.2462	      15.3	   1.68107	8.35378e+06	   76.3348	      15.3	   1.63792	8.52808e+06	   76.2907	      15.3	       1.6	8.62616e+06	   76.2465	      15.3	   1.64053	8.46527e+06	   76.2907	      15.3	   1.67845	8.36643e+06	
         R10	    996	   76.2462	      15.3	   1.68107	8.35264e+06	   76.2468	      15.3	       1.6	8.58605e+06	   76.1557	      15.3	       1.6	8.53891e+06	   76.1556	      15.3	   1.68481	8.35525e+06	   76.2465	      15.3	   1.64053	8.46903e+06	   76.2013	      15.3	       1.6	8.56118e+06	   76.1557	      15.3	    1.6424	8.44689e+06	   76.2009	      15.3	   1.68294	8.35309e+06	
         R10	    997	   76.1556	      15.3	   1.68481	 8.3516e+06	   76.1557	      15.3	       1.6	8.54373e+06	   76.0613	      15.3	       1.6	8.52728e+06	   76.0584	      15.3	    1.6859	8.34557e+06	   76.1557	      15.3	    1.6424	8.44746e+06	   76.1085	      15.3	       1.6	8.53451e+06	   76.0599	      15.3	   1.64295	8.43639e+06	    76.107	      15.3	   1.68536	8.34755e+06	
         R10	    998	   76.0584	      15.3	    1.6859	8.34723e+06	   76.0613	      15.3	       1.6	 8.5281e+06	   75.9635	      15.3	       1.6	8.52811e+06	   75.9588	      15.3	   1.69008	8.34787e+06	   76.0599	      15.3	   1.64295	8.43763e+06	   76.0124	      15.3	       1.6	8.52726e+06	   75.9611	      15.3	   1.64504	8.43797e+06	   76.0086	      15.3	   1.68799	8.34659e+06	
         R10	    999	   75.9588	      15.3	   1.69008	8.34816e+06	   75.9635	      15.3	       1.6	8.52714e+06	   75.8624	      15.3	       1.6	8.53399e+06	    75.856	      15.3	   1.69633	8.35695e+06	   75.9611	      15.3	   1.64504	8.43764e+06	   75.9129	      15.3	       1.6	8.52983e+06	   75.8592	      15.3	   1.64817	8.44538e+06	   75.9074	      15.3	   1.69321	8.35174e+06	
         R10	   1000	    75.856	      15.3	   1.69633	  8.353e+06	   75.8624	      15.3	       1.6	8.53499e+06	   75.7579	      15.3	       1.6	8.54581e+06	   75.7547	      15.3	    1.6984	8.37286e+06	   75.8592	      15.3	   1.64817	8.44392e+06	   75.8101	      15.3	       1.6	8.53977e+06	   75.7563	      15.3	    1.6492	8.45915e+06	   75.8054	      15.3	   1.69736	8.36226e+06	
         R10	   1001	   75.8564	      15.3	   1.79802	8.15742e+06	    75.856	      15.3	   1.69633	8.35915e+06	   75.7547	      15.3	    1.6984	8.37811e+06	   75.7513	      15.3	   1.79466	 8.1807e+06	   75.8562	      15.3	   1.74718	8.25824e+06	   75.8054	      15.3	   1.69736	8.36797e+06	    75.753	      15.3	   1.74653	8.27925e+06	   75.8038	      15.3	   1.79634	8.16804e+06	
         R10	   1002	   75.8564	      15.3	   1.79802	8.15561e+06	   75.7513	      15.3	   1.79466	8.18436e+06	   75.7421	      15.3	   1.88895	8.00944e+06	   75.8231	      15.3	   1.89834	7.94606e+06	   75.8038	      15.3	   1.79634	 8.1691e+06	   75.7467	      15.3	    1.8418	8.09668e+06	   75.7826	      15.3	   1.89365	7.97724e+06	   75.8398	      15.3	   1.84818	8.05051e+06	
         R10	   1003	   75.8231	      15.3	   1.89834	7.94256e+06	   75.7421	      15.3	   1.88895	8.01315e+06	   75.7343	      15.3	   1.98324	7.82662e+06	   75.8157	      15.3	   1.98842	7.75711e+06	   75.7826	      15.3	   1.89365	7.97741e+06	   75.7382	      15.3	   1.93609	7.91954e+06	    75.775	      15.3	   1.98583	7.79137e+06	   75.8194	      15.3	   1.94338	7.84957e+06	
         R10	   1004	   75.8157	      15.3	   1.98842	 7.7562e+06	   75.7343	      15.3	   1.98324	7.82649e+06	   75.7313	      15.3	   2.07237	 7.6473e+06	   75.8101	      15.3	   2.07463	7.57835e+06	    75.775	      15.3	   1.98583	7.79085e+06	   75.7328	      15.3	    2.0278	7.73654e+06	   75.7707	      15.3	    2.0735	7.61235e+06	   75.8129	      15.3	   2.03152	7.66692e+06	
         R10	   1005	   75.8101	      15.3	   2.07463	7.57939e+06	   75.7313	      15.3	   2.07237	7.64647e+06	   75.7289	      15.3	   2.15793	7.49293e+06	   75.8054	      15.3	   2.15919	7.40685e+06	   75.7707	      15.3	    2.0735	7.61246e+06	   75.7301	      15.3	   2.11515	7.56929e+06	   75.7672	      15.3	   2.15856	7.44954e+06	   75.8077	      15.3	   2.11691	 7.4926e+06	
         R10	   1006	   75.8054	      15.3	   2.15919	7.40957e+06	   75.7289	      15.3	   2.15793	7.48992e+06	   75.7271	      15.3	   2.24092	7.34802e+06	    75.802	      15.3	   2.24171	7.26039e+06	   75.7672	      15.3	   2.15856	7.44938e+06	    75.728	      15.3	   2.19942	7.41853e+06	   75.7645	      15.3	   2.24132	7.30391e+06	   75.8037	      15.3	   2.20045	7.33445e+06	
         R10	   1007	    75.802	      15.3	   2.24171	  7.265e+06	   75.7271	      15.3	   2.24092	7.34433e+06	   75.7265	      15.3	   2.32138	7.20918e+06	      75.8	      15.3	   2.32138	7.11884e+06	   75.7645	      15.3	   2.24132	7.30436e+06	   75.7268	      15.3	   2.28115	7.27631e+06	   75.7632	      15.3	   2.32138	7.16373e+06	    75.801	      15.3	   2.28154	7.19142e+06	
         R10	   1008	   75.8759	      15.3	   2.24453	7.15566e+06	    75.802	      15.3	   2.24171	7.26132e+06	      75.8	      15.3	   2.32138	 7.1248e+06	   75.8686	      15.3	   2.32625	7.02228e+06	   75.8389	      15.3	   2.24312	7.20813e+06	    75.801	      15.3	   2.28154	7.19258e+06	   75.8343	      15.3	   2.32381	7.07333e+06	   75.8723	      15.3	   2.28539	 7.0883e+06	
         R10	   1009	   75.8759	      15.3	   2.24453	7.13619e+06	   75.8686	      15.3	   2.32625	7.02342e+06	   75.9333	      15.3	    2.3367	6.89264e+06	    75.943	      15.3	   2.28502	6.97342e+06	   75.8723	      15.3	   2.28539	7.07909e+06	    75.901	      15.3	   2.33148	6.95782e+06	   75.9381	      15.3	   2.31086	6.93272e+06	   75.9095	      15.3	   2.26478	7.05474e+06	
         R10	   1010	    75.943	      15.3	   2.28502	6.97181e+06	   75.9333	      15.3	    2.3367	6.89975e+06	   75.9963	      15.3	   2.34425	6.76584e+06	   76.0002	      15.3	   2.28705	6.84663e+06	   75.9381	      15.3	   2.31086	 6.9355e+06	   75.9648	      15.3	   2.34048	6.83262e+06	   75.9983	      15.3	   2.31565	6.80575e+06	   75.9716	      15.3	   2.28604	6.90889e+06	
         R10	   1011	   76.0002	      15.3	   2.28705	6.84917e+06	   75.9963	      15.3	   2.34425	6.76375e+06	   76.0517	      15.3	   2.34693	6.63127e+06	   76.0546	      15.3	   2.29374	6.70504e+06	   75.9983	      15.3	   2.31565	6.80599e+06	    76.024	      15.3	   2.34559	6.69732e+06	   76.0531	      15.3	   2.32033	 6.6676e+06	   76.0274	      15.3	   2.29039	6.77683e+06	
         R10	   1012	   76.0546	      15.3	   2.29374	6.70558e+06	   76.0517	      15.3	   2.34693	6.63102e+06	   76.1022	      15.3	   2.35097	6.48512e+06	   76.1055	      15.3	   2.30178	6.54315e+06	   76.0531	      15.3	   2.32033	6.66774e+06	   76.0769	      15.3	   2.34895	6.55793e+06	   76.1038	      15.3	   2.32637	6.51336e+06	   76.0801	      15.3	   2.29776	6.62409e+06	
         R10	   1013	   76.1055	      15.3	   2.30178	6.54331e+06	   76.1022	      15.3	   2.35097	6.48484e+06	    76.148	      15.3	   2.35576	6.32479e+06	   76.1508	      15.3	   2.31171	6.36872e+06	   76.1038	      15.3	   2.32637	 6.5133e+06	   76.1251	      15.3	   2.35336	6.40473e+06	   76.1494	      15.3	   2.33373	6.34574e+06	   76.1282	      15.3	   2.30674	6.45581e+06	
         R10	   1014	   76.1508	      15.3	   2.31171	6.36723e+06	    76.148	      15.3	   2.35576	6.32557e+06	   76.1889	      15.3	   2.36104	6.15417e+06	   76.1918	      15.3	   2.32254	6.17971e+06	   76.1494	      15.3	   2.33373	6.34538e+06	   76.1684	      15.3	    2.3584	6.23983e+06	   76.1904	      15.3	   2.34179	6.16556e+06	   76.1713	      15.3	   2.31712	 6.2733e+06	
         R10	   1015	   76.1918	      15.3	   2.32254	6.17901e+06	   76.1889	      15.3	   2.36104	6.15545e+06	   76.2256	      15.3	   2.36616	5.97162e+06	   76.2279	      15.3	   2.33262	5.97678e+06	   76.1904	      15.3	   2.34179	6.16585e+06	   76.2073	      15.3	    2.3636	 6.0635e+06	   76.2268	      15.3	   2.34939	5.97234e+06	   76.2098	      15.3	   2.32758	6.07776e+06	
         R10	   1016	   76.2279	      15.3	   2.33262	 5.9782e+06	   76.2256	      15.3	   2.36616	5.97222e+06	   76.2571	      15.3	   2.37103	5.78512e+06	   76.2595	      15.3	   2.34161	5.76869e+06	   76.2268	      15.3	   2.34939	5.97336e+06	   76.2414	      15.3	   2.36859	5.87857e+06	   76.2583	      15.3	   2.35632	5.77421e+06	   76.2437	      15.3	   2.33712	5.87333e+06	
         R10	   1017	   76.2595	      15.3	   2.34161	 5.7658e+06	   76.2571	      15.3	   2.37103	5.78573e+06	   76.2851	      15.3	   2.37563	5.59183e+06	   76.2876	      15.3	   2.35683	5.54555e+06	   76.2583	      15.3	   2.35632	5.77297e+06	   76.2711	      15.3	   2.37333	5.68859e+06	   76.2863	      15.3	   2.36623	5.56678e+06	   76.2736	      15.3	   2.34922	5.65502e+06	
         R10	   1018	   76.3094	      15.3	   2.37632	5.38881e+06	     76.33	      15.3	     2.366	5.12249e+06	     76.33	      15.3	     2.349	5.13287e+06	    76.309	      15.3	   2.35459	5.34472e+06	   76.3197	      15.3	   2.37116	5.25415e+06	     76.33	      15.3	    2.3575	5.12257e+06	   76.3195	      15.3	   2.35179	5.23747e+06	   76.3092	      15.3	   2.36545	5.36209e+06	
         R10	   1019	   76.2875	      15.3	   2.31637	5.64923e+06	   76.3096	      15.3	   2.31668	5.51188e+06	    76.312	      15.3	   2.29994	5.65506e+06	     76.29	      15.3	   2.29741	5.76963e+06	   76.2985	      15.3	   2.31653	5.57969e+06	   76.3108	      15.3	   2.30831	5.58129e+06	    76.301	      15.3	   2.29868	5.71118e+06	   76.2887	      15.3	   2.30689	5.70766e+06	
         R10	   1020	   76.2865	      15.3	   2.27358	5.99137e+06	   76.3051	      15.3	   2.28063	5.88017e+06	   76.3113	      15.3	   2.26421	6.07605e+06	    76.286	      15.3	   2.25303	 6.1745e+06	   76.2958	      15.3	    2.2771	5.93527e+06	   76.3082	      15.3	   2.27242	5.97674e+06	   76.2987	      15.3	   2.25862	6.12417e+06	   76.2862	      15.3	    2.2633	6.08214e+06	
         R10	   1021	    76.286	      15.3	   2.25303	6.17685e+06	   76.3101	      15.3	   2.24502	6.29121e+06	   76.3076	      15.3	    2.2286	6.47147e+06	   76.2846	      15.3	   2.22953	6.40141e+06	   76.2981	      15.3	   2.24902	6.23186e+06	   76.3089	      15.3	   2.23681	6.38106e+06	   76.2961	      15.3	   2.22906	 6.4352e+06	   76.2853	      15.3	   2.24128	 6.2885e+06	
         R10	   1022	   76.3079	      15.3	   2.20551	6.70728e+06	   76.3076	      15.3	    2.2286	6.47225e+06	     76.33	      15.3	      2.23	6.57357e+06	   76.3298	      15.3	   2.20952	 6.7998e+06	   76.3077	      15.3	   2.21705	6.58936e+06	   76.3188	      15.3	    2.2293	6.52175e+06	   76.3299	      15.3	   2.21976	6.68634e+06	   76.3188	      15.3	   2.20752	6.75268e+06	
         R10	   1023	   76.3209	      15.3	   2.18062	6.99922e+06	   76.3298	      15.3	   2.20952	6.80355e+06	   76.3442	      15.3	    2.2096	6.91888e+06	   76.3474	      15.3	   2.18439	7.17295e+06	   76.3253	      15.3	   2.19507	6.90082e+06	    76.337	      15.3	   2.20956	6.86088e+06	   76.3458	      15.3	     2.197	7.04546e+06	   76.3341	      15.3	    2.1825	7.08525e+06	
         R10	   1024	   76.3928	      15.3	     2.189	7.62885e+06	   76.3969	      15.3	    2.2093	7.56794e+06	   76.4152	      15.3	   2.20851	7.85672e+06	    76.415	      15.3	   2.18695	7.91864e+06	   76.3948	      15.3	   2.19915	7.59795e+06	    76.406	      15.3	    2.2089	7.71232e+06	   76.4151	      15.3	   2.19773	7.88722e+06	   76.4039	      15.3	   2.18798	7.77373e+06	
         R10	   1025	    76.415	      15.3	   2.18695	7.92541e+06	   76.4152	      15.3	   2.20851	7.85742e+06	   76.4324	      15.3	   2.20804	8.13427e+06	   76.4348	      15.3	   2.18385	8.16389e+06	   76.4151	      15.3	   2.19773	7.89093e+06	   76.4238	      15.3	   2.20827	 7.9958e+06	   76.4336	      15.3	   2.19594	8.14855e+06	   76.4249	      15.3	    2.1854	8.04456e+06	
         R10	   1026	   76.4348	      15.3	   2.18385	8.15755e+06	   76.4324	      15.3	   2.20804	 8.1339e+06	   76.4492	      15.3	   2.20937	8.37937e+06	   76.4532	      15.3	   2.18585	8.37432e+06	   76.4336	      15.3	   2.19594	8.14522e+06	   76.4408	      15.3	    2.2087	8.25645e+06	   76.4512	      15.3	   2.19761	8.37641e+06	    76.444	      15.3	   2.18485	8.26583e+06	
         R10	   1027	   76.4275	      15.3	   2.12562	8.08336e+06	   76.4633	      15.3	   2.12376	8.27251e+06	    76.458	      15.3	   2.08527	8.19116e+06	   76.4169	      15.3	   2.08852	8.03155e+06	   76.4454	      15.3	   2.12469	8.17777e+06	   76.4606	      15.3	   2.10452	8.23141e+06	   76.4374	      15.3	    2.0869	8.11128e+06	   76.4222	      15.3	   2.10707	8.05698e+06	
         R10	   1028	   76.4169	      15.3	   2.08852	8.03288e+06	    76.458	      15.3	   2.08527	8.19142e+06	   76.4531	      15.3	   2.04261	8.14396e+06	   76.4069	      15.3	   2.04635	8.01928e+06	   76.4374	      15.3	    2.0869	8.11207e+06	   76.4555	      15.3	   2.06394	8.16727e+06	     76.43	      15.3	   2.04448	8.08155e+06	   76.4119	      15.3	   2.06744	8.02557e+06	
         R10	   1029	   76.4069	      15.3	   2.04635	8.01926e+06	   76.4531	      15.3	   2.04261	8.14405e+06	   76.4488	      15.3	   1.99397	8.12456e+06	   76.3974	      15.3	   1.99705	8.03831e+06	     76.43	      15.3	   2.04448	8.08159e+06	    76.451	      15.3	   2.01829	8.13387e+06	   76.4231	      15.3	   1.99551	8.08131e+06	   76.4022	      15.3	    2.0217	8.02824e+06	
         R10	   1030	   76.3974	      15.3	   1.99705	8.03673e+06	   76.4488	      15.3	   1.99397	8.12485e+06	   76.4447	      15.3	   1.94026	 8.1318e+06	   76.3881	      15.3	   1.94382	8.08155e+06	   76.4231	      15.3	   1.99551	8.08066e+06	   76.4467	      15.3	   1.96711	8.12789e+06	   76.4164	      15.3	   1.94204	8.10645e+06	   76.3928	      15.3	   1.97044	8.05864e+06	
         R10	   1031	   76.3881	      15.3	   1.94382	8.07765e+06	   76.4447	      15.3	   1.94026	8.13147e+06	   76.4389	      15.3	   1.87999	8.16176e+06	   76.3774	      15.3	   1.88358	 8.1498e+06	   76.4164	      15.3	   1.94204	8.10432e+06	   76.4418	      15.3	   1.91013	8.14616e+06	   76.4082	      15.3	   1.88179	 8.1554e+06	   76.3828	      15.3	    1.9137	 8.1132e+06	
         R10	   1032	   76.3774	      15.3	   1.88358	8.13994e+06	   76.4389	      15.3	   1.87999	8.16242e+06	   76.4316	      15.3	   1.81558	8.22714e+06	   76.3622	      15.3	   1.81819	8.24344e+06	   76.4082	      15.3	   1.88179	8.15075e+06	   76.4352	      15.3	   1.84779	8.19432e+06	   76.3969	      15.3	   1.81689	8.23459e+06	   76.3698	      15.3	   1.85089	8.19117e+06	
         R10	   1033	   76.3622	      15.3	   1.81819	8.22415e+06	   76.4316	      15.3	   1.81558	8.24147e+06	   76.4243	      15.3	   1.74668	8.31772e+06	   76.3455	      15.3	   1.74867	 8.3422e+06	   76.3969	      15.3	   1.81689	8.23184e+06	   76.4279	      15.3	   1.78113	8.27862e+06	   76.3849	      15.3	   1.74767	8.32919e+06	   76.3539	      15.3	   1.78343	8.28285e+06	
         R10	   1034	   76.3455	      15.3	   1.74867	8.30281e+06	   76.4243	      15.3	   1.74668	 8.3425e+06	   76.4196	      15.3	   1.67445	8.43936e+06	   76.3351	      15.3	   1.67584	 8.3994e+06	   76.3849	      15.3	   1.74767	8.32131e+06	    76.422	      15.3	   1.71056	8.38992e+06	   76.3774	      15.3	   1.67514	8.41926e+06	   76.3403	      15.3	   1.71225	8.35108e+06	
         R10	   1035	   76.2616	      15.3	   1.75572	8.25153e+06	   76.3455	      15.3	   1.74867	8.29136e+06	   76.3351	      15.3	   1.67584	8.43626e+06	   76.2462	      15.3	   1.68107	8.39756e+06	   76.3035	      15.3	   1.75219	8.27101e+06	   76.3403	      15.3	   1.71225	8.36377e+06	   76.2907	      15.3	   1.67845	8.41629e+06	   76.2539	      15.3	   1.71839	8.32447e+06	
         R10	   1036	   76.2616	      15.3	   1.75572	8.25721e+06	   76.2462	      15.3	   1.68107	8.39267e+06	   76.1556	      15.3	   1.68481	8.38458e+06	   76.1556	      15.3	   1.76767	8.19697e+06	   76.2539	      15.3	   1.71839	8.32487e+06	   76.2009	      15.3	   1.68294	8.38763e+06	   76.1556	      15.3	   1.72624	8.29063e+06	   76.2086	      15.3	   1.76169	8.22598e+06	
         R10	   1037	   76.1556	      15.3	   1.76767	8.19639e+06	   76.1556	      15.3	   1.68481	 8.3788e+06	   76.0584	      15.3	    1.6859	8.36843e+06	   76.0619	      15.3	   1.77045	8.16858e+06	   76.1556	      15.3	   1.72624	8.28746e+06	    76.107	      15.3	   1.68536	 8.3726e+06	   76.0601	      15.3	   1.72818	8.26848e+06	   76.1087	      15.3	   1.76906	8.18113e+06	
         R10	   1038	   76.0619	      15.3	   1.77045	8.17094e+06	   76.0584	      15.3	    1.6859	8.36648e+06	   75.9588	      15.3	   1.69008	 8.3602e+06	   75.9674	      15.3	   1.77235	8.17742e+06	   76.0601	      15.3	   1.72818	8.26868e+06	   76.0086	      15.3	   1.68799	8.36231e+06	   75.9631	      15.3	   1.73121	8.26881e+06	   76.0146	      15.3	    1.7714	8.17294e+06	
         R10	   1039	   75.9674	      15.3	   1.77235	8.17448e+06	   75.9588	      15.3	   1.69008	8.36022e+06	    75.856	      15.3	   1.69633	8.36197e+06	   75.8564	      15.3	   1.79802	8.15609e+06	   75.9631	      15.3	   1.73121	8.26732e+06	   75.9074	      15.3	   1.69321	 8.3602e+06	   75.8562	      15.3	   1.74718	8.25899e+06	   75.9119	      15.3	   1.78518	8.16379e+06	
         R10	   1040	    75.904	      15.3	   1.92102	7.85157e+06	   75.8231	      15.3	   1.89834	7.94158e+06	   75.8157	      15.3	   1.98842	7.75395e+06	   75.8958	      15.3	   1.99812	 7.6662e+06	   75.8635	      15.3	   1.90968	  7.896e+06	   75.8194	      15.3	   1.94338	7.84751e+06	   75.8557	      15.3	   1.99327	7.70943e+06	   75.8999	      15.3	   1.95957	7.75869e+06	
         R10	   1041	   75.8958	      15.3	   1.99812	7.66334e+06	   75.8157	      15.3	   1.98842	7.75514e+06	   75.8101	      15.3	   2.07463	7.57011e+06	   75.8866	      15.3	   2.07888	7.48568e+06	   75.8557	      15.3	   1.99327	7.70863e+06	   75.8129	      15.3	   2.03152	7.66224e+06	   75.8483	      15.3	   2.07675	7.52731e+06	   75.8912	      15.3	    2.0385	7.57411e+06	
         R10	   1042	   75.8866	      15.3	   2.07888	7.48442e+06	   75.8101	      15.3	   2.07463	7.57188e+06	   75.8054	      15.3	   2.15919	 7.4091e+06	   75.8784	      15.3	   2.15946	7.31223e+06	   75.8483	      15.3	   2.07675	7.52758e+06	   75.8077	      15.3	   2.11691	   7.49e+06	   75.8419	      15.3	   2.15933	 7.3602e+06	   75.8825	      15.3	   2.11917	7.39771e+06	
         R10	   1043	   75.8784	      15.3	   2.15946	7.31289e+06	   75.8054	      15.3	   2.15919	 7.4142e+06	    75.802	      15.3	   2.24171	7.25753e+06	   75.8759	      15.3	   2.24453	7.15824e+06	   75.8419	      15.3	   2.15933	7.36307e+06	   75.8037	      15.3	   2.20045	7.33532e+06	   75.8389	      15.3	   2.24312	7.20754e+06	   75.8771	      15.3	     2.202	7.23488e+06	
         R10	   1044	   75.9482	      15.3	   2.21722	7.07868e+06	    75.943	      15.3	   2.28502	6.97382e+06	   76.0002	      15.3	   2.28705	6.84312e+06	   76.0057	      15.3	   2.22834	6.94866e+06	   75.9456	      15.3	   2.25112	7.02557e+06	   75.9716	      15.3	   2.28604	6.90813e+06	    76.003	      15.3	    2.2577	6.89527e+06	   75.9769	      15.3	   2.22278	7.01339e+06	
         R10	   1045	   76.0057	      15.3	   2.22834	6.94864e+06	   76.0002	      15.3	   2.28705	6.84527e+06	   76.0546	      15.3	   2.29374	6.70074e+06	   76.0613	      15.3	   2.23993	6.79994e+06	    76.003	      15.3	    2.2577	6.89635e+06	   76.0274	      15.3	   2.29039	6.77274e+06	   76.0579	      15.3	   2.26683	6.74948e+06	   76.0335	      15.3	   2.23413	6.87386e+06	
         R10	   1046	   76.0613	      15.3	   2.23993	  6.799e+06	   76.0546	      15.3	   2.29374	6.70276e+06	   76.1055	      15.3	   2.30178	6.54312e+06	   76.1141	      15.3	   2.25393	6.61772e+06	   76.0579	      15.3	   2.26683	6.75002e+06	   76.0801	      15.3	   2.29776	6.62268e+06	   76.1098	      15.3	   2.27785	 6.5793e+06	   76.0877	      15.3	   2.24693	 6.7079e+06	
         R10	   1047	   76.1141	      15.3	   2.25393	6.61853e+06	   76.1055	      15.3	   2.30178	6.54229e+06	   76.1508	      15.3	   2.31171	6.36522e+06	   76.1604	      15.3	   2.26898	6.43337e+06	   76.1098	      15.3	   2.27785	6.57929e+06	   76.1282	      15.3	   2.30674	6.45352e+06	   76.1556	      15.3	   2.29034	6.39783e+06	   76.1373	      15.3	   2.26145	6.52555e+06	
         R10	   1048	   76.1604	      15.3	   2.26898	6.43454e+06	   76.1508	      15.3	   2.31171	6.36526e+06	   76.1918	      15.3	   2.32254	6.18067e+06	   76.1962	      15.3	   2.28713	6.23753e+06	   76.1556	      15.3	   2.29034	6.39844e+06	   76.1713	      15.3	   2.31712	6.27282e+06	    76.194	      15.3	   2.30483	6.20747e+06	   76.1783	      15.3	   2.27805	6.33581e+06	
         R10	   1049	   76.1962	      15.3	   2.28713	6.24019e+06	   76.1918	      15.3	   2.32254	6.17836e+06	   76.2279	      15.3	   2.33262	5.97704e+06	   76.2362	      15.3	   2.29981	6.01741e+06	    76.194	      15.3	   2.30483	6.20769e+06	   76.2098	      15.3	   2.32758	6.07757e+06	    76.232	      15.3	   2.31622	5.99472e+06	   76.2162	      15.3	   2.29347	6.12844e+06	
         R10	   1050	   76.2362	      15.3	   2.29981	6.00569e+06	   76.2279	      15.3	   2.33262	5.97907e+06	   76.2595	      15.3	   2.34161	 5.7706e+06	   76.2635	      15.3	   2.31677	5.80774e+06	    76.232	      15.3	   2.31622	5.98976e+06	   76.2437	      15.3	   2.33712	5.87473e+06	   76.2615	      15.3	   2.32919	5.78673e+06	   76.2498	      15.3	   2.30829	5.90647e+06	
         R10	   1051	   76.2876	      15.3	   2.35683	5.55077e+06	   76.2851	      15.3	   2.37563	5.59109e+06	   76.3094	      15.3	   2.37632	5.37996e+06	    76.309	      15.3	   2.35459	5.34943e+06	   76.2863	      15.3	   2.36623	 5.5691e+06	   76.2972	      15.3	   2.37597	 5.4852e+06	   76.3092	      15.3	   2.36545	5.35996e+06	   76.2983	      15.3	   2.35571	5.44974e+06	
         R10	   1052	   76.3096	      15.3	    2.3341	5.39864e+06	   76.3096	      15.3	   2.31668	5.51233e+06	   76.2875	      15.3	   2.31637	5.65612e+06	   76.2895	      15.3	   2.33342	5.56351e+06	   76.3096	      15.3	   2.32539	5.45294e+06	   76.2985	      15.3	   2.31653	5.58328e+06	   76.2885	      15.3	    2.3249	5.60831e+06	   76.2995	      15.3	   2.33376	5.48067e+06	
         R10	   1053	    76.265	      15.3	   2.28305	5.97491e+06	     76.29	      15.3	   2.29741	5.77109e+06	   76.3051	      15.3	   2.28063	5.88163e+06	   76.2865	      15.3	   2.27358	5.97941e+06	   76.2775	      15.3	   2.29023	5.87261e+06	   76.2975	      15.3	   2.28902	5.82311e+06	   76.2958	      15.3	    2.2771	   5.93e+06	   76.2758	      15.3	   2.27832	5.97518e+06	
         R10	   1054	   76.2555	      15.3	   2.25767	6.17298e+06	    76.286	      15.3	   2.25303	6.17677e+06	   76.2846	      15.3	   2.22953	6.40125e+06	   76.2559	      15.3	     2.229	6.38808e+06	   76.2708	      15.3	   2.25535	6.17254e+06	   76.2853	      15.3	   2.24128	6.28834e+06	   76.2703	      15.3	   2.22927	6.39311e+06	   76.2557	      15.3	   2.24333	6.27958e+06	
         R10	   1055	   76.2886	      15.3	   2.20102	6.67067e+06	   76.2846	      15.3	   2.22953	6.40044e+06	   76.3076	      15.3	    2.2286	6.47009e+06	   76.3079	      15.3	   2.20551	6.71233e+06	   76.2866	      15.3	   2.21528	6.53474e+06	   76.2961	      15.3	   2.22906	  6.434e+06	   76.3077	      15.3	   2.21705	6.59078e+06	   76.2982	      15.3	   2.20327	6.69095e+06	
         R10	   1056	    76.325	      15.3	    2.1517	7.24407e+06	   76.3209	      15.3	   2.18062	7.00277e+06	   76.3474	      15.3	   2.18439	7.18756e+06	   76.3653	      15.3	   2.15364	7.52501e+06	    76.323	      15.3	   2.16616	7.12299e+06	   76.3341	      15.3	    2.1825	7.09436e+06	   76.3564	      15.3	   2.16901	7.35582e+06	   76.3452	      15.3	   2.15267	7.38375e+06	
         R10	   1057	   76.3653	      15.3	   2.15364	 7.5239e+06	   76.3474	      15.3	   2.18439	7.18901e+06	   76.3622	      15.3	   2.20348	7.15927e+06	   76.3746	      15.3	    2.1884	7.42591e+06	   76.3564	      15.3	   2.16901	7.35595e+06	   76.3548	      15.3	   2.19393	7.17361e+06	   76.3684	      15.3	   2.19594	7.29237e+06	     76.37	      15.3	   2.17102	7.47398e+06	
         R10	   1058	   76.3746	      15.3	    2.1884	7.41748e+06	   76.3815	      15.3	   2.21183	7.32474e+06	   76.3969	      15.3	    2.2093	 7.5685e+06	   76.3928	      15.3	     2.189	7.62769e+06	   76.3781	      15.3	   2.20011	7.37055e+06	   76.3892	      15.3	   2.21057	7.44655e+06	   76.3948	      15.3	   2.19915	7.59765e+06	   76.3837	      15.3	    2.1887	7.52252e+06	
         R10	   1059	   76.4668	      15.3	   2.15823	8.38189e+06	   76.4633	      15.3	   2.12376	8.27371e+06	   76.4275	      15.3	   2.12562	8.08302e+06	   76.4344	      15.3	   2.15584	8.14388e+06	   76.4651	      15.3	     2.141	 8.3274e+06	   76.4454	      15.3	   2.12469	8.17822e+06	    76.431	      15.3	   2.14073	8.11307e+06	   76.4506	      15.3	   2.15703	8.26247e+06	
         R10	   1060	   76.3918	      15.3	   2.13312	7.81938e+06	   76.4275	      15.3	   2.12562	 8.0836e+06	   76.4169	      15.3	   2.08852	 8.0315e+06	   76.3762	      15.3	   2.09877	7.80325e+06	   76.4097	      15.3	   2.12937	7.95149e+06	   76.4222	      15.3	   2.10707	8.05707e+06	   76.3965	      15.3	   2.09364	7.91737e+06	    76.384	      15.3	   2.11594	7.81072e+06	
         R10	   1061	   76.3762	      15.3	   2.09877	7.80072e+06	   76.4169	      15.3	   2.08852	8.03195e+06	   76.4069	      15.3	   2.04635	 8.0185e+06	   76.3614	      15.3	   2.05497	 7.8364e+06	   76.3965	      15.3	   2.09364	7.91632e+06	   76.4119	      15.3	   2.06744	8.02471e+06	   76.3842	      15.3	   2.05066	7.92738e+06	   76.3688	      15.3	   2.07687	7.81783e+06	
         R10	   1062	   76.3614	      15.3	   2.05497	7.83631e+06	   76.4069	      15.3	   2.04635	8.01777e+06	   76.3974	      15.3	   1.99705	8.03788e+06	    76.346	      15.3	   2.00475	7.89651e+06	   76.3842	      15.3	   2.05066	7.92697e+06	   76.4022	      15.3	    2.0217	8.02728e+06	   76.3717	      15.3	    2.0009	7.96702e+06	   76.3537	      15.3	   2.02986	 7.8657e+06	
         R10	   1063	    76.346	      15.3	   2.00475	7.89646e+06	   76.3974	      15.3	   1.99705	8.03617e+06	   76.3881	      15.3	   1.94382	8.08152e+06	   76.3305	      15.3	   1.95242	7.97278e+06	   76.3717	      15.3	    2.0009	7.96615e+06	   76.3928	      15.3	   1.97044	8.05835e+06	   76.3593	      15.3	   1.94812	8.02684e+06	   76.3383	      15.3	   1.97859	7.93402e+06	
         R10	   1064	   76.3305	      15.3	   1.95242	7.97173e+06	   76.3881	      15.3	   1.94382	8.07682e+06	   76.3774	      15.3	   1.88358	8.15145e+06	   76.3143	      15.3	    1.8946	8.06162e+06	   76.3593	      15.3	   1.94812	8.02399e+06	   76.3828	      15.3	    1.9137	8.11361e+06	   76.3459	      15.3	   1.88909	8.10607e+06	   76.3224	      15.3	   1.92351	8.01612e+06	
         R10	   1065	   76.3143	      15.3	    1.8946	8.06049e+06	   76.3774	      15.3	   1.88358	8.14387e+06	   76.3622	      15.3	   1.81819	8.23324e+06	   76.2992	      15.3	   1.83329	8.16873e+06	   76.3459	      15.3	   1.88909	8.10178e+06	   76.3698	      15.3	   1.85089	8.18805e+06	   76.3307	      15.3	   1.82574	8.20064e+06	   76.3068	      15.3	   1.86394	8.11421e+06	
         R10	   1066	   76.2992	      15.3	   1.83329	8.16749e+06	   76.3622	      15.3	   1.81819	8.21765e+06	   76.3455	      15.3	   1.74867	8.32701e+06	   76.2616	      15.3	   1.75572	8.27229e+06	   76.3307	      15.3	   1.82574	8.19232e+06	   76.3539	      15.3	   1.78343	8.27214e+06	   76.3035	      15.3	   1.75219	8.29907e+06	   76.2804	      15.3	    1.7945	8.21937e+06	
         R10	   1067	   76.1463	      15.3	   1.85665	7.98724e+06	   76.1556	      15.3	   1.76767	8.20543e+06	   76.0619	      15.3	   1.77045	 8.1776e+06	   76.0664	      15.3	   1.85148	7.97813e+06	   76.1509	      15.3	   1.81216	8.09618e+06	   76.1087	      15.3	   1.76906	8.19028e+06	   76.0641	      15.3	   1.81096	8.07784e+06	   76.1064	      15.3	   1.85406	7.98153e+06	
         R10	   1068	   76.0664	      15.3	   1.85148	7.98776e+06	   76.0619	      15.3	   1.77045	 8.1828e+06	   75.9674	      15.3	   1.77235	8.18836e+06	   75.9847	      15.3	    1.8507	7.98578e+06	   76.0641	      15.3	   1.81096	8.08526e+06	   76.0146	      15.3	    1.7714	8.18432e+06	    75.976	      15.3	   1.81152	8.08705e+06	   76.0255	      15.3	   1.85109	7.98573e+06	
         R10	   1069	   75.9855	      15.3	   1.93129	7.78295e+06	    75.904	      15.3	   1.92102	7.85133e+06	   75.8958	      15.3	   1.99812	 7.6718e+06	   75.9743	      15.3	   2.00678	7.58384e+06	   75.9447	      15.3	   1.92615	7.81618e+06	   75.8999	      15.3	   1.95957	7.76137e+06	    75.935	      15.3	   2.00245	7.62695e+06	   75.9799	      15.3	   1.96903	7.68315e+06	
         R10	   1070	   75.9743	      15.3	   2.00678	7.58269e+06	   75.8958	      15.3	   1.99812	7.66763e+06	   75.8866	      15.3	   2.07888	7.48251e+06	    75.962	      15.3	   2.08317	7.38593e+06	    75.935	      15.3	   2.00245	7.62426e+06	   75.8912	      15.3	    2.0385	7.57466e+06	   75.9243	      15.3	   2.08103	 7.4334e+06	   75.9682	      15.3	   2.04498	7.48382e+06	
         R10	   1071	    75.962	      15.3	   2.08317	7.38436e+06	   75.8866	      15.3	   2.07888	7.48278e+06	   75.8784	      15.3	   2.15946	 7.3111e+06	   75.9488	      15.3	   2.15673	 7.2221e+06	   75.9243	      15.3	   2.08103	 7.4328e+06	   75.8825	      15.3	   2.11917	7.39635e+06	   75.9136	      15.3	   2.15809	7.26589e+06	   75.9554	      15.3	   2.11995	7.30255e+06	
         R10	   1072	   76.0144	      15.3	   2.16395	7.09296e+06	   76.0057	      15.3	   2.22834	6.94978e+06	   76.0613	      15.3	   2.23993	6.79597e+06	   76.0714	      15.3	   2.18485	6.91855e+06	     76.01	      15.3	   2.19614	7.02054e+06	   76.0335	      15.3	   2.23413	6.87249e+06	   76.0663	      15.3	   2.21239	6.85623e+06	   76.0429	      15.3	    2.1744	7.00523e+06	
         R10	   1073	   76.0714	      15.3	   2.18485	6.92179e+06	   76.0613	      15.3	   2.23993	6.79334e+06	   76.1141	      15.3	   2.25393	6.61981e+06	   76.1269	      15.3	   2.20697	6.73562e+06	   76.0663	      15.3	   2.21239	6.85654e+06	   76.0877	      15.3	   2.24693	6.70611e+06	   76.1205	      15.3	   2.23045	6.67644e+06	   76.0991	      15.3	   2.19591	6.82802e+06	
         R10	   1074	   76.1269	      15.3	   2.20697	6.73037e+06	   76.1141	      15.3	   2.25393	6.62118e+06	   76.1604	      15.3	   2.26898	6.42769e+06	   76.1751	      15.3	   2.22512	6.55177e+06	   76.1205	      15.3	   2.23045	6.67447e+06	   76.1373	      15.3	   2.26145	6.52403e+06	   76.1678	      15.3	   2.24705	6.48763e+06	    76.151	      15.3	   2.21605	6.64027e+06	
         R10	   1075	   76.1751	      15.3	   2.22512	 6.5426e+06	   76.1604	      15.3	   2.26898	6.42914e+06	   76.1962	      15.3	   2.28713	6.24235e+06	   76.2206	      15.3	   2.25943	6.26475e+06	   76.1678	      15.3	   2.24705	6.48374e+06	   76.1783	      15.3	   2.27805	6.33556e+06	   76.2084	      15.3	   2.27328	6.25127e+06	   76.1978	      15.3	   2.24227	6.40307e+06	
         R10	   1076	   76.2876	      15.3	   2.35683	5.55114e+06	    76.309	      15.3	   2.35459	5.34749e+06	   76.3096	      15.3	    2.3341	5.39341e+06	   76.2895	      15.3	   2.33342	5.56236e+06	   76.2983	      15.3	   2.35571	  5.449e+06	   76.3093	      15.3	   2.34435	5.36621e+06	   76.2995	      15.3	   2.33376	5.47738e+06	   76.2885	      15.3	   2.34513	5.55341e+06	
         R10	   1077	   76.2593	      15.3	   2.19876	6.62187e+06	   76.2559	      15.3	     2.229	6.39339e+06	   76.2846	      15.3	   2.22953	6.40134e+06	   76.2886	      15.3	   2.20102	6.66751e+06	   76.2576	      15.3	   2.21388	6.50683e+06	   76.2703	      15.3	   2.22927	6.39578e+06	   76.2866	      15.3	   2.21528	6.53364e+06	    76.274	      15.3	   2.19989	6.64339e+06	
         R10	   1078	   76.2932	      15.3	   2.17339	 6.9199e+06	   76.2886	      15.3	   2.20102	6.67419e+06	   76.3079	      15.3	   2.20551	6.70792e+06	   76.3209	      15.3	   2.18062	6.99875e+06	   76.2909	      15.3	   2.18721	6.79659e+06	   76.2982	      15.3	   2.20327	 6.6905e+06	   76.3144	      15.3	   2.19307	6.85267e+06	   76.3071	      15.3	   2.17701	6.95826e+06	
         R10	   1079	    76.408	      15.3	   2.16093	7.89604e+06	   76.4344	      15.3	   2.15584	8.14224e+06	   76.4275	      15.3	   2.12562	8.08199e+06	   76.3918	      15.3	   2.13312	7.81658e+06	   76.4212	      15.3	   2.15838	8.01907e+06	    76.431	      15.3	   2.14073	8.11175e+06	   76.4097	      15.3	   2.12937	7.94928e+06	   76.3999	      15.3	   2.14703	 7.8558e+06	
         R10	   1080	   76.3378	      15.3	   2.11067	7.53682e+06	   76.3762	      15.3	   2.09877	7.80182e+06	   76.3614	      15.3	   2.05497	7.83216e+06	   76.3164	      15.3	   2.06516	7.62272e+06	    76.357	      15.3	   2.10472	7.66914e+06	   76.3688	      15.3	   2.07687	7.81626e+06	   76.3389	      15.3	   2.06007	7.72714e+06	   76.3271	      15.3	   2.08792	7.57872e+06	
         R10	   1081	   76.3164	      15.3	   2.06516	7.62204e+06	   76.3614	      15.3	   2.05497	7.83324e+06	    76.346	      15.3	   2.00475	7.89556e+06	   76.2951	      15.3	   2.01761	7.72292e+06	   76.3389	      15.3	   2.06007	7.72733e+06	   76.3537	      15.3	   2.02986	7.86368e+06	   76.3206	      15.3	   2.01118	7.80889e+06	   76.3058	      15.3	   2.04139	7.67172e+06	
         R10	   1082	   76.2951	      15.3	   2.01761	7.72224e+06	    76.346	      15.3	   2.00475	7.89409e+06	   76.3305	      15.3	   1.95242	7.97214e+06	   76.2674	      15.3	   1.96478	 7.8193e+06	   76.3206	      15.3	   2.01118	7.80781e+06	   76.3383	      15.3	   1.97859	7.93253e+06	    76.299	      15.3	    1.9586	7.89508e+06	   76.2813	      15.3	   1.99119	7.76994e+06	
         R10	   1083	   76.2674	      15.3	   1.96478	7.82097e+06	   76.3305	      15.3	   1.95242	7.97465e+06	   76.3143	      15.3	    1.8946	8.06207e+06	   76.2402	      15.3	   1.91033	7.93904e+06	    76.299	      15.3	    1.9586	7.89716e+06	   76.3224	      15.3	   1.92351	8.01783e+06	   76.2772	      15.3	   1.90246	7.99975e+06	   76.2538	      15.3	   1.93755	7.87941e+06	
         R10	   1084	   76.2402	      15.3	   1.91033	7.94271e+06	   76.3143	      15.3	    1.8946	8.05842e+06	   76.2992	      15.3	   1.83329	8.16167e+06	   76.2249	      15.3	   1.85516	8.04427e+06	   76.2772	      15.3	   1.90246	7.99989e+06	   76.3068	      15.3	   1.86394	8.10956e+06	   76.2621	      15.3	   1.84422	8.10245e+06	   76.2326	      15.3	   1.88274	7.99318e+06	
         R10	   1085	   76.1546	      15.3	   1.93476	7.77787e+06	   76.1463	      15.3	   1.85665	7.99181e+06	   76.0664	      15.3	   1.85148	7.98616e+06	   76.0639	      15.3	   1.93161	7.76218e+06	   76.1504	      15.3	    1.8957	7.88467e+06	   76.1064	      15.3	   1.85406	7.98795e+06	   76.0651	      15.3	   1.89154	7.87412e+06	   76.1092	      15.3	   1.93318	7.76816e+06	
         R10	   1086	   76.0504	      15.3	   2.00967	7.52283e+06	   75.9743	      15.3	   2.00678	 7.5802e+06	    75.962	      15.3	   2.08317	 7.3812e+06	   76.0356	      15.3	   2.08941	7.28333e+06	   76.0123	      15.3	   2.00823	7.55023e+06	   75.9682	      15.3	   2.04498	 7.4802e+06	   75.9988	      15.3	   2.08629	7.33116e+06	    76.043	      15.3	   2.04954	7.40243e+06	
         R10	   1087	   75.9488	      15.3	   2.15673	7.21887e+06	   75.8784	      15.3	   2.15946	7.30605e+06	   75.8759	      15.3	   2.24453	7.16135e+06	   75.9482	      15.3	   2.21722	7.07399e+06	   75.9136	      15.3	   2.15809	7.26182e+06	   75.8771	      15.3	     2.202	  7.233e+06	    75.912	      15.3	   2.23088	7.11671e+06	   75.9485	      15.3	   2.18697	7.14594e+06	
         R10	   1088	   75.9488	      15.3	   2.15673	7.22792e+06	   75.9482	      15.3	   2.21722	7.07449e+06	   76.0057	      15.3	   2.22834	6.95256e+06	   76.0144	      15.3	   2.16395	7.08956e+06	   75.9485	      15.3	   2.18697	7.15074e+06	   75.9769	      15.3	   2.22278	7.01317e+06	     76.01	      15.3	   2.19614	7.02021e+06	   75.9816	      15.3	   2.16034	7.15803e+06	
         R10	   1089	   76.0919	      15.3	   2.14197	7.03115e+06	   76.0714	      15.3	   2.18485	6.92785e+06	   76.1269	      15.3	   2.20697	 6.7337e+06	   76.1428	      15.3	   2.15992	 6.8915e+06	   76.0816	      15.3	   2.16341	6.97871e+06	   76.0991	      15.3	   2.19591	 6.8301e+06	   76.1348	      15.3	   2.18345	6.81123e+06	   76.1173	      15.3	   2.15094	6.96039e+06	
         R10	   1090	   76.1428	      15.3	   2.15992	6.89565e+06	   76.1269	      15.3	   2.20697	6.72996e+06	   76.1751	      15.3	   2.22512	 6.5535e+06	   76.1849	      15.3	   2.17906	6.75717e+06	   76.1348	      15.3	   2.18345	6.81148e+06	    76.151	      15.3	   2.21605	6.64096e+06	     76.18	      15.3	   2.20209	6.65387e+06	   76.1638	      15.3	   2.16949	6.82556e+06	
         R10	   1091	   76.2635	      15.3	   2.31677	5.80751e+06	   76.2595	      15.3	   2.34161	5.77436e+06	   76.2895	      15.3	   2.33342	5.56205e+06	   76.2875	      15.3	   2.31637	5.65477e+06	   76.2615	      15.3	   2.32919	5.78849e+06	   76.2745	      15.3	   2.33752	5.66659e+06	   76.2885	      15.3	    2.3249	5.60684e+06	   76.2755	      15.3	   2.31657	5.73035e+06	
         R10	   1092	   76.2635	      15.3	   2.31677	5.80995e+06	   76.2875	      15.3	   2.31637	5.65321e+06	     76.29	      15.3	   2.29741	 5.7686e+06	    76.265	      15.3	   2.28305	5.96175e+06	   76.2755	      15.3	   2.31657	5.73087e+06	   76.2887	      15.3	   2.30689	5.70892e+06	   76.2775	      15.3	   2.29023	5.86486e+06	   76.2642	      15.3	   2.29991	5.88214e+06	
         R10	   1093	   76.2255	      15.3	   2.22186	6.46508e+06	   76.2559	      15.3	     2.229	6.39841e+06	   76.2593	      15.3	   2.19876	6.62703e+06	   76.2256	      15.3	   2.19286	6.65771e+06	   76.2407	      15.3	   2.22543	6.43086e+06	   76.2576	      15.3	   2.21388	6.51193e+06	   76.2424	      15.3	   2.19581	 6.6409e+06	   76.2255	      15.3	   2.20736	6.56087e+06	
         R10	   1094	   76.2602	      15.3	   2.16702	6.86009e+06	   76.2593	      15.3	   2.19876	6.62537e+06	   76.2886	      15.3	   2.20102	6.67181e+06	   76.2932	      15.3	   2.17339	6.91523e+06	   76.2598	      15.3	   2.18289	 6.7423e+06	    76.274	      15.3	   2.19989	6.64723e+06	   76.2909	      15.3	   2.18721	6.79308e+06	   76.2767	      15.3	   2.17021	6.88645e+06	
         R10	   1095	   76.2689	      15.3	   2.08473	7.36836e+06	   76.3164	      15.3	   2.06516	7.62367e+06	   76.2951	      15.3	   2.01761	 7.7151e+06	   76.2473	      15.3	   2.03544	7.53961e+06	   76.2927	      15.3	   2.07494	7.49531e+06	   76.3058	      15.3	   2.04139	7.66863e+06	   76.2712	      15.3	   2.02653	7.62667e+06	   76.2581	      15.3	   2.06008	7.45324e+06	
         R10	   1096	   76.2473	      15.3	   2.03544	7.54169e+06	   76.2951	      15.3	   2.01761	7.71764e+06	   76.2674	      15.3	   1.96478	7.82278e+06	   76.2127	      15.3	   1.98594	7.66352e+06	   76.2712	      15.3	   2.02653	7.62898e+06	   76.2813	      15.3	   1.99119	7.76938e+06	   76.2401	      15.3	   1.97536	 7.7426e+06	     76.23	      15.3	   2.01069	7.60192e+06	
         R10	   1097	   76.2188	      15.3	   1.81365	8.10304e+06	   76.2249	      15.3	   1.85516	8.05468e+06	   76.2992	      15.3	   1.83329	8.14826e+06	   76.2616	      15.3	   1.75572	8.27925e+06	   76.2219	      15.3	    1.8344	 8.0787e+06	   76.2621	      15.3	   1.84422	8.10124e+06	   76.2804	      15.3	    1.7945	8.21323e+06	   76.2402	      15.3	   1.78468	8.19107e+06	
         R10	   1098	   76.0356	      15.3	   2.08941	7.27997e+06	    75.962	      15.3	   2.08317	7.37749e+06	   75.9488	      15.3	   2.15673	7.21973e+06	   76.0144	      15.3	   2.16395	7.08436e+06	   75.9988	      15.3	   2.08629	7.32755e+06	   75.9554	      15.3	   2.11995	7.29793e+06	   75.9816	      15.3	   2.16034	7.15139e+06	    76.025	      15.3	   2.12668	7.18087e+06	
         R10	   1099	   76.0356	      15.3	   2.08941	7.26986e+06	   76.0144	      15.3	   2.16395	7.08878e+06	   76.0714	      15.3	   2.18485	6.92537e+06	   76.0919	      15.3	   2.14197	7.03132e+06	    76.025	      15.3	   2.12668	7.17791e+06	   76.0429	      15.3	    2.1744	7.00655e+06	   76.0816	      15.3	   2.16341	 6.9775e+06	   76.0637	      15.3	   2.11569	7.15016e+06	
         R10	   1100	   76.1157	      15.3	   2.07221	7.26069e+06	   76.0919	      15.3	   2.14197	7.03929e+06	   76.1428	      15.3	   2.15992	6.89012e+06	   76.1656	      15.3	   2.11948	7.06352e+06	   76.1038	      15.3	   2.10709	7.14835e+06	   76.1173	      15.3	   2.15094	6.96376e+06	   76.1542	      15.3	    2.1397	6.97593e+06	   76.1407	      15.3	   2.09585	7.16137e+06	
         R10	   1101	   76.2206	      15.3	   2.25943	 6.2558e+06	   76.2362	      15.3	   2.29981	6.02386e+06	    76.265	      15.3	   2.28305	5.95543e+06	   76.2555	      15.3	   2.25767	6.17869e+06	   76.2284	      15.3	   2.27962	6.13858e+06	   76.2506	      15.3	   2.29143	5.98694e+06	   76.2603	      15.3	   2.27036	6.06603e+06	    76.238	      15.3	   2.25855	6.21537e+06	
         R10	   1102	   76.2206	      15.3	   2.25943	6.26079e+06	   76.2555	      15.3	   2.25767	6.18174e+06	   76.2559	      15.3	     2.229	6.38745e+06	   76.2255	      15.3	   2.22186	6.46643e+06	    76.238	      15.3	   2.25855	6.21945e+06	   76.2557	      15.3	   2.24333	6.28359e+06	   76.2407	      15.3	   2.22543	6.42588e+06	   76.2231	      15.3	   2.24064	6.36177e+06	
         R10	   1103	   76.2354	      15.3	   2.16716	6.81225e+06	   76.2256	      15.3	   2.19286	6.65631e+06	   76.2593	      15.3	   2.19876	6.62484e+06	   76.2602	      15.3	   2.16702	6.86062e+06	   76.2305	      15.3	   2.18001	6.73382e+06	   76.2424	      15.3	   2.19581	 6.6393e+06	   76.2598	      15.3	   2.18289	6.74229e+06	   76.2478	      15.3	   2.16709	6.83568e+06	
         R10	   1104	   76.2601	      15.3	   2.13184	7.09503e+06	   76.2602	      15.3	   2.16702	6.85964e+06	   76.2932	      15.3	   2.17339	6.92084e+06	   76.2978	      15.3	   2.14104	7.16266e+06	   76.2601	      15.3	   2.14943	6.97695e+06	   76.2767	      15.3	   2.17021	6.88898e+06	   76.2955	      15.3	   2.15721	7.04141e+06	   76.2789	      15.3	   2.13644	7.12761e+06	
         R10	   1105	   76.2253	      15.3	   2.09422	7.22654e+06	   76.2689	      15.3	   2.08473	7.37876e+06	   76.2473	      15.3	   2.03544	7.53717e+06	   76.1903	      15.3	   2.06079	7.34285e+06	   76.2471	      15.3	   2.08947	7.30133e+06	   76.2581	      15.3	   2.06008	7.45724e+06	   76.2188	      15.3	   2.04812	7.43872e+06	   76.2078	      15.3	    2.0775	 7.2841e+06	
         R10	   1106	   76.2124	      15.3	   2.13332	6.99947e+06	   76.1656	      15.3	   2.11948	7.05825e+06	   76.1428	      15.3	   2.15992	6.89394e+06	   76.1849	      15.3	   2.17906	6.75405e+06	    76.189	      15.3	    2.1264	 7.0274e+06	   76.1542	      15.3	    2.1397	6.97516e+06	   76.1638	      15.3	   2.16949	6.82319e+06	   76.1987	      15.3	   2.15619	 6.8748e+06	
         R10	   1107	   76.1849	      15.3	   2.17906	6.75045e+06	   76.1751	      15.3	   2.22512	6.55047e+06	   76.2255	      15.3	   2.22186	6.45528e+06	   76.2256	      15.3	   2.19286	 6.6581e+06	     76.18	      15.3	   2.20209	6.64885e+06	   76.2003	      15.3	   2.22349	6.50009e+06	   76.2255	      15.3	   2.20736	6.55606e+06	   76.2052	      15.3	   2.18596	6.70321e+06	
         R10	   1108	   76.1727	      15.3	    2.0166	7.51454e+06	   76.1903	      15.3	   2.06079	7.34141e+06	   76.2473	      15.3	   2.03544	7.53074e+06	   76.2127	      15.3	   1.98594	7.65908e+06	   76.1815	      15.3	    2.0387	7.42763e+06	   76.2188	      15.3	   2.04812	7.43471e+06	     76.23	      15.3	   2.01069	7.59417e+06	   76.1927	      15.3	   2.00127	7.58627e+06	
         R10	   1109	   76.1186	      15.3	   2.01081	7.51547e+06	   76.0504	      15.3	   2.00967	7.51248e+06	   76.0356	      15.3	   2.08941	7.28353e+06	   76.1157	      15.3	   2.07221	 7.2601e+06	   76.0845	      15.3	   2.01024	7.51269e+06	    76.043	      15.3	   2.04954	7.39726e+06	   76.0757	      15.3	   2.08081	7.26917e+06	   76.1172	      15.3	   2.04151	7.38749e+06	
         R10	   1110	   76.2124	      15.3	   2.13332	6.99807e+06	   76.2354	      15.3	   2.16716	6.82372e+06	   76.2602	      15.3	   2.16702	6.86636e+06	   76.2601	      15.3	   2.13184	 7.0899e+06	   76.2239	      15.3	   2.15024	6.91042e+06	   76.2478	      15.3	   2.16709	 6.8443e+06	   76.2601	      15.3	   2.14943	 6.9778e+06	   76.2363	      15.3	   2.13258	7.04185e+06	
         R10	   1111	   76.2865	      15.3	   2.27358	5.98106e+06	    76.286	      15.3	   2.25303	6.17884e+06	   76.2555	      15.3	   2.25767	6.18073e+06	    76.265	      15.3	   2.28305	5.98093e+06	   76.2862	      15.3	    2.2633	6.07921e+06	   76.2708	      15.3	   2.25535	6.17756e+06	   76.2603	      15.3	   2.27036	6.07989e+06	   76.2758	      15.3	   2.27832	5.97885e+06	
         R10	   1112	   76.4662	      15.3	   2.19301	8.51856e+06	   76.4532	      15.3	   2.18585	8.37215e+06	   76.4492	      15.3	   2.20937	8.38206e+06	    76.466	      15.3	   2.21083	8.61731e+06	   76.4597	      15.3	   2.18943	8.44518e+06	   76.4512	      15.3	   2.19761	 8.3767e+06	   76.4576	      15.3	    2.2101	8.49929e+06	   76.4661	      15.3	   2.20192	8.56782e+06	
         R10	   1113	   76.4662	      15.3	   2.19301	8.51454e+06	    76.466	      15.3	   2.21083	8.61818e+06	   76.4832	      15.3	   2.20993	8.77954e+06	   76.4805	      15.3	   2.18652	8.59944e+06	   76.4661	      15.3	   2.20192	8.56625e+06	   76.4746	      15.3	   2.21038	8.69813e+06	   76.4819	      15.3	   2.19823	8.68919e+06	   76.4734	      15.3	   2.18977	8.55673e+06	
         R10	   1114	   76.4662	      15.3	   2.19301	8.52157e+06	   76.4805	      15.3	   2.18652	8.59134e+06	   76.4668	      15.3	   2.15823	8.36661e+06	   76.4532	      15.3	   2.18585	8.37689e+06	   76.4734	      15.3	   2.18977	8.55615e+06	   76.4737	      15.3	   2.17238	8.47831e+06	     76.46	      15.3	   2.17204	8.37134e+06	   76.4597	      15.3	   2.18943	8.44903e+06	
         R10	   1115	   76.4348	      15.3	   2.18385	8.16115e+06	   76.4532	      15.3	   2.18585	8.38344e+06	   76.4668	      15.3	   2.15823	8.38805e+06	   76.4344	      15.3	   2.15584	8.15345e+06	    76.444	      15.3	   2.18485	8.27217e+06	     76.46	      15.3	   2.17204	8.38533e+06	   76.4506	      15.3	   2.15703	8.27029e+06	   76.4346	      15.3	   2.16984	8.15684e+06	
         R10	   1116	    76.415	      15.3	   2.18695	7.91947e+06	   76.4348	      15.3	   2.18385	8.15665e+06	   76.4344	      15.3	   2.15584	8.14633e+06	    76.408	      15.3	   2.16093	7.89488e+06	   76.4249	      15.3	    2.1854	8.03796e+06	   76.4346	      15.3	   2.16984	8.15107e+06	   76.4212	      15.3	   2.15838	8.02055e+06	   76.4115	      15.3	   2.17394	7.90671e+06	
         R10	   1117	   76.3897	      15.3	   2.16894	7.69356e+06	   76.3928	      15.3	     2.189	7.62965e+06	    76.415	      15.3	   2.18695	7.91652e+06	    76.408	      15.3	   2.16093	7.88982e+06	   76.3913	      15.3	   2.17897	7.66121e+06	   76.4039	      15.3	   2.18798	7.77307e+06	   76.4115	      15.3	   2.17394	 7.9027e+06	   76.3989	      15.3	   2.16493	7.79167e+06	
         R10	   1118	   76.3897	      15.3	   2.16894	7.68345e+06	    76.408	      15.3	   2.16093	7.89238e+06	   76.3918	      15.3	   2.13312	7.82217e+06	   76.3653	      15.3	   2.15364	7.52807e+06	   76.3989	      15.3	   2.16493	7.78789e+06	   76.3999	      15.3	   2.14703	7.85675e+06	   76.3786	      15.3	   2.14338	7.67492e+06	   76.3775	      15.3	   2.16129	7.60551e+06	
         R10	   1119	   76.3897	      15.3	   2.16894	7.67936e+06	   76.3653	      15.3	   2.15364	 7.5173e+06	   76.3746	      15.3	    2.1884	7.41358e+06	   76.3928	      15.3	     2.189	7.62635e+06	   76.3775	      15.3	   2.16129	7.59798e+06	     76.37	      15.3	   2.17102	7.46444e+06	   76.3837	      15.3	    2.1887	7.51989e+06	   76.3913	      15.3	   2.17897	7.65244e+06	
         R10	   1120	   76.3378	      15.3	   2.11067	7.53647e+06	   76.3653	      15.3	   2.15364	7.53108e+06	   76.3918	      15.3	   2.13312	7.81484e+06	   76.3762	      15.3	   2.09877	7.79824e+06	   76.3516	      15.3	   2.13215	7.53236e+06	   76.3786	      15.3	   2.14338	7.67285e+06	    76.384	      15.3	   2.11594	7.80594e+06	    76.357	      15.3	   2.10472	7.66717e+06	
         R10	   1121	   76.2249	      15.3	   1.85516	8.06484e+06	   76.2188	      15.3	   1.81365	8.17122e+06	   76.1556	      15.3	   1.76767	8.20495e+06	   76.1463	      15.3	   1.85665	7.98327e+06	   76.2219	      15.3	    1.8344	 8.1179e+06	   76.1872	      15.3	   1.79066	8.18736e+06	   76.1509	      15.3	   1.81216	8.09392e+06	   76.1856	      15.3	    1.8559	8.02286e+06	
         R10	   1122	   76.2402	      15.3	   1.91033	 7.9292e+06	   76.2249	      15.3	   1.85516	8.04309e+06	   76.1463	      15.3	   1.85665	7.99639e+06	   76.1546	      15.3	   1.93476	7.77545e+06	   76.2326	      15.3	   1.88274	7.98583e+06	   76.1856	      15.3	    1.8559	8.01874e+06	   76.1504	      15.3	    1.8957	7.88575e+06	   76.1974	      15.3	   1.92255	7.85069e+06	
         R10	   1123	   76.1546	      15.3	   1.93476	7.77661e+06	   76.2127	      15.3	   1.98594	7.66237e+06	   76.2674	      15.3	   1.96478	   7.82e+06	   76.2402	      15.3	   1.91033	7.91659e+06	   76.1836	      15.3	   1.96035	7.71825e+06	   76.2401	      15.3	   1.97536	7.74054e+06	   76.2538	      15.3	   1.93755	7.86776e+06	   76.1974	      15.3	   1.92255	7.84516e+06	
         R10	   1124	   75.9168	      15.3	   1.85761	7.98505e+06	   75.9847	      15.3	    1.8507	8.00555e+06	   75.9674	      15.3	   1.77235	8.18052e+06	   75.8564	      15.3	   1.79802	8.15704e+06	   75.9507	      15.3	   1.85416	 7.9946e+06	    75.976	      15.3	   1.81152	8.09303e+06	   75.9119	      15.3	   1.78518	8.16701e+06	   75.8866	      15.3	   1.82782	8.07074e+06	
         R10	   1125	   75.9168	      15.3	   1.85761	8.00164e+06	   75.8564	      15.3	   1.79802	8.15007e+06	   75.8231	      15.3	   1.89834	7.94605e+06	    75.904	      15.3	   1.92102	7.87069e+06	   75.8866	      15.3	   1.82782	8.07561e+06	   75.8398	      15.3	   1.84818	 8.0477e+06	   75.8635	      15.3	   1.90968	7.90783e+06	   75.9104	      15.3	   1.88932	7.93601e+06	
         R10	   1126	   75.9168	      15.3	   1.85761	7.97922e+06	    75.904	      15.3	   1.92102	7.86079e+06	   75.9855	      15.3	   1.93129	7.77359e+06	   75.9847	      15.3	    1.8507	8.00316e+06	   75.9104	      15.3	   1.88932	7.91988e+06	   75.9447	      15.3	   1.92615	7.81632e+06	   75.9851	      15.3	   1.89099	 7.8883e+06	   75.9507	      15.3	   1.85416	7.99049e+06	
         R10	   1127	   76.0639	      15.3	   1.93161	7.76611e+06	   76.0664	      15.3	   1.85148	7.99296e+06	   75.9847	      15.3	    1.8507	7.99739e+06	   75.9855	      15.3	   1.93129	7.78133e+06	   76.0651	      15.3	   1.89154	7.87949e+06	   76.0255	      15.3	   1.85109	7.99418e+06	   75.9851	      15.3	   1.89099	7.88928e+06	   76.0247	      15.3	   1.93145	7.77245e+06	
         R10	   1128	   76.0639	      15.3	   1.93161	7.76464e+06	   75.9855	      15.3	   1.93129	 7.7814e+06	   75.9743	      15.3	   2.00678	7.58064e+06	   76.0504	      15.3	   2.00967	7.52275e+06	   76.0247	      15.3	   1.93145	7.77179e+06	   75.9799	      15.3	   1.96903	7.68079e+06	   76.0123	      15.3	   2.00823	7.55043e+06	   76.0571	      15.3	   1.97064	7.64341e+06	
         R10	   1129	   76.1546	      15.3	   1.93476	 7.7806e+06	   76.0639	      15.3	   1.93161	7.76281e+06	   76.0504	      15.3	   2.00967	7.51748e+06	   76.1186	      15.3	   2.01081	7.51691e+06	   76.1092	      15.3	   1.93318	7.76982e+06	   76.0571	      15.3	   1.97064	7.63988e+06	   76.0845	      15.3	   2.01024	7.51583e+06	   76.1366	      15.3	   1.97279	7.64817e+06	
         R10	   1130	   76.1186	      15.3	   2.01081	7.50682e+06	   76.1727	      15.3	    2.0166	  7.513e+06	   76.2127	      15.3	   1.98594	7.65934e+06	   76.1546	      15.3	   1.93476	7.77801e+06	   76.1457	      15.3	   2.01371	7.50895e+06	   76.1927	      15.3	   2.00127	 7.5857e+06	   76.1836	      15.3	   1.96035	7.71754e+06	   76.1366	      15.3	   1.97279	7.64186e+06	
         R10	   1131	   76.1903	      15.3	   2.06079	7.33208e+06	   76.1727	      15.3	    2.0166	7.51623e+06	   76.1186	      15.3	   2.01081	7.50957e+06	   76.1157	      15.3	   2.07221	7.27364e+06	   76.1815	      15.3	    2.0387	7.42385e+06	   76.1457	      15.3	   2.01371	7.51197e+06	   76.1172	      15.3	   2.04151	7.39124e+06	    76.153	      15.3	    2.0665	7.30002e+06	
         R10	   1132	   76.2253	      15.3	   2.09422	7.23703e+06	   76.1903	      15.3	   2.06079	7.32649e+06	   76.1656	      15.3	   2.11948	7.06506e+06	   76.2124	      15.3	   2.13332	6.99405e+06	   76.2078	      15.3	    2.0775	7.28119e+06	   76.1779	      15.3	   2.09013	7.19463e+06	    76.189	      15.3	    2.1264	7.02821e+06	   76.2188	      15.3	   2.11377	7.11513e+06	
         R10	   1133	   76.2689	      15.3	   2.08473	7.37148e+06	   76.2253	      15.3	   2.09422	7.22676e+06	   76.2124	      15.3	   2.13332	7.00437e+06	   76.2601	      15.3	   2.13184	7.08923e+06	   76.2471	      15.3	   2.08947	7.29787e+06	   76.2188	      15.3	   2.11377	7.11509e+06	   76.2363	      15.3	   2.13258	7.04491e+06	   76.2645	      15.3	   2.10828	7.22987e+06	
         R10	   1134	   76.3034	      15.3	   2.11429	7.35935e+06	   76.2978	      15.3	   2.14104	7.16183e+06	    76.325	      15.3	    2.1517	7.26139e+06	   76.3378	      15.3	   2.11067	7.53449e+06	   76.3006	      15.3	   2.12766	7.26027e+06	   76.3114	      15.3	   2.14637	7.21098e+06	   76.3314	      15.3	   2.13119	7.39749e+06	   76.3206	      15.3	   2.11248	7.44641e+06	
         R10	   1135	   76.3034	      15.3	   2.11429	7.35161e+06	   76.3378	      15.3	   2.11067	7.52462e+06	   76.3164	      15.3	   2.06516	7.62667e+06	   76.2689	      15.3	   2.08473	7.36649e+06	   76.3206	      15.3	   2.11248	7.43766e+06	   76.3271	      15.3	   2.08792	7.57465e+06	   76.2927	      15.3	   2.07494	7.49581e+06	   76.2861	      15.3	   2.09951	7.35811e+06	
         R10	   1136	   76.3034	      15.3	   2.11429	  7.352e+06	   76.2689	      15.3	   2.08473	7.37724e+06	   76.2601	      15.3	   2.13184	7.08697e+06	   76.2978	      15.3	   2.14104	7.15477e+06	   76.2861	      15.3	   2.09951	7.36373e+06	   76.2645	      15.3	   2.10828	 7.2317e+06	   76.2789	      15.3	   2.13644	7.11966e+06	   76.3006	      15.3	   2.12766	7.25312e+06	
         R10	   1137	   76.3209	      15.3	   2.18062	 6.9916e+06	    76.325	      15.3	    2.1517	7.25259e+06	   76.2978	      15.3	   2.14104	7.15703e+06	   76.2932	      15.3	   2.17339	6.92048e+06	    76.323	      15.3	   2.16616	7.12161e+06	   76.3114	      15.3	   2.14637	7.20414e+06	   76.2955	      15.3	   2.15721	7.03846e+06	   76.3071	      15.3	   2.17701	6.95503e+06	
         R10	   1138	   76.2256	      15.3	   2.19286	6.65852e+06	   76.2354	      15.3	   2.16716	6.82387e+06	   76.2124	      15.3	   2.13332	7.00658e+06	   76.1849	      15.3	   2.17906	6.74957e+06	   76.2305	      15.3	   2.18001	6.74051e+06	   76.2239	      15.3	   2.15024	6.91478e+06	   76.1987	      15.3	   2.15619	6.87606e+06	   76.2052	      15.3	   2.18596	  6.703e+06	
         R10	   1139	   76.3094	      15.3	   2.37632	5.38926e+06	     76.33	      15.3	     2.383	 5.1991e+06	     76.33	      15.3	     2.366	5.12862e+06	   76.3197	      15.3	   2.37966	5.29262e+06	     76.33	      15.3	    2.3745	5.15914e+06	   76.3197	      15.3	   2.37116	5.25744e+06	       N/A	       N/A	       N/A	        N/A	       N/A	       N/A	       N/A	        N/A	
         R10	   1140	     76.29	      15.3	   2.29741	5.77093e+06	    76.312	      15.3	   2.29994	5.66263e+06	   76.3051	      15.3	   2.28063	 5.8763e+06	    76.301	      15.3	   2.29868	5.71552e+06	   76.3086	      15.3	   2.29028	5.76856e+06	   76.2975	      15.3	   2.28902	5.82012e+06	       N/A	       N/A	       N/A	        N/A	       N/A	       N/A	       N/A	        N/A	
         R10	   1141	    76.286	      15.3	   2.25303	6.17678e+06	   76.3113	      15.3	   2.26421	6.08336e+06	   76.3101	      15.3	   2.24502	6.29314e+06	   76.2987	      15.3	   2.25862	6.12893e+06	   76.3107	      15.3	   2.25462	 6.1877e+06	   76.2981	      15.3	   2.24902	6.23265e+06	       N/A	       N/A	       N/A	        N/A	       N/A	       N/A	       N/A	        N/A	
         R10	   1142	   76.3474	      15.3	   2.18439	7.17999e+06	   76.3442	      15.3	    2.2096	 6.9155e+06	   76.3622	      15.3	   2.20348	7.15407e+06	   76.3458	      15.3	     2.197	7.04731e+06	   76.3532	      15.3	   2.20654	7.03445e+06	   76.3548	      15.3	   2.19393	7.16648e+06	       N/A	       N/A	       N/A	        N/A	       N/A	       N/A	       N/A	        N/A	
         R10	   1143	   76.3079	      15.3	   2.20551	 6.7077e+06	   76.3298	      15.3	   2.20952	6.80009e+06	   76.3209	      15.3	   2.18062	7.01084e+06	   76.3188	      15.3	   2.20752	6.75307e+06	   76.3253	      15.3	   2.19507	6.90488e+06	   76.3144	      15.3	   2.19307	6.85859e+06	       N/A	       N/A	       N/A	        N/A	       N/A	       N/A	       N/A	        N/A	
         R10	   1144	   76.3746	      15.3	    2.1884	7.41921e+06	   76.3622	      15.3	   2.20348	7.15966e+06	   76.3815	      15.3	   2.21183	7.31489e+06	   76.3684	      15.3	   2.19594	7.28924e+06	   76.3719	      15.3	   2.20766	7.23691e+06	   76.3781	      15.3	   2.20011	7.36648e+06	       N/A	       N/A	       N/A	        N/A	       N/A	       N/A	       N/A	        N/A	
         R10	   1145	   75.8759	      15.3	   2.24453	7.16445e+06	    75.943	      15.3	   2.28502	6.98167e+06	   75.9482	      15.3	   2.21722	7.07872e+06	   75.9095	      15.3	   2.26478	7.07299e+06	   75.9456	      15.3	   2.25112	7.02952e+06	    75.912	      15.3	   2.23088	7.12067e+06	       N/A	       N/A	       N/A	        N/A	       N/A	       N/A	       N/A	        N/A	
         R10	   1146	   76.2595	      15.3	   2.34161	5.77881e+06	   76.2876	      15.3	   2.35683	5.54355e+06	   76.2895	      15.3	   2.33342	5.56756e+06	   76.2736	      15.3	   2.34922	5.66055e+06	   76.2885	      15.3	   2.34513	5.55223e+06	   76.2745	      15.3	   2.33752	5.67172e+06	       N/A	       N/A	       N/A	        N/A	       N/A	       N/A	       N/A	        N/A	
         R10	   1147	   76.2362	      15.3	   2.29981	6.02744e+06	   76.2635	      15.3	   2.31677	5.81577e+06	    76.265	      15.3	   2.28305	5.96466e+06	   76.2498	      15.3	   2.30829	5.92133e+06	   76.2642	      15.3	   2.29991	5.88676e+06	   76.2506	      15.3	   2.29143	5.99301e+06	       N/A	       N/A	       N/A	        N/A	       N/A	       N/A	       N/A	        N/A	
         R10	   1148	   76.2206	      15.3	   2.25943	6.26076e+06	   76.1962	      15.3	   2.28713	6.24342e+06	   76.2362	      15.3	   2.29981	6.03866e+06	   76.2084	      15.3	   2.27328	6.24957e+06	   76.2162	      15.3	   2.29347	6.14054e+06	   76.2284	      15.3	   2.27962	6.14855e+06	       N/A	       N/A	       N/A	        N/A	       N/A	       N/A	       N/A	        N/A	
         R10	   1149	   76.1751	      15.3	   2.22512	6.56545e+06	   76.2206	      15.3	   2.25943	6.27664e+06	   76.2255	      15.3	   2.22186	6.46572e+06	   76.1978	      15.3	   2.24227	 6.4204e+06	   76.2231	      15.3	   2.24064	6.36949e+06	   76.2003	      15.3	   2.22349	6.51296e+06	       N/A	       N/A	       N/A	        N/A	       N/A	       N/A	       N/A	        N/A	
         R10	   1150	   76.0356	      15.3	   2.08941	7.28889e+06	   76.0919	      15.3	   2.14197	7.04775e+06	   76.1157	      15.3	   2.07221	7.26829e+06	   76.0637	      15.3	   2.11569	 7.1678e+06	   76.1038	      15.3	   2.10709	7.15653e+06	   76.0757	      15.3	   2.08081	7.27576e+06	       N/A	       N/A	       N/A	        N/A	       N/A	       N/A	       N/A	        N/A	
         R10	   1151	   76.1656	      15.3	   2.11948	7.08269e+06	   76.1903	      15.3	   2.06079	7.33433e+06	   76.1157	      15.3	   2.07221	7.27974e+06	   76.1779	      15.3	   2.09013	7.20738e+06	    76.153	      15.3	    2.0665	7.30411e+06	   76.1407	      15.3	   2.09585	7.18024e+06	       N/A	       N/A	       N/A	        N/A	       N/A	       N/A	       N/A	        N/A	
         R10	   1152	   76.3653	      15.3	   2.15364	7.50328e+06	   76.3378	      15.3	   2.11067	7.53869e+06	    76.325	      15.3	    2.1517	7.24357e+06	   76.3516	      15.3	   2.13215	 7.5196e+06	   76.3314	      15.3	   2.13119	 7.3906e+06	   76.3452	      15.3	   2.15267	7.37277e+06	       N/A	       N/A	       N/A	        N/A	       N/A	       N/A	       N/A	        N/A	
         R10	   1153	   76.2616	      15.3	   1.75572	8.27879e+06	   76.1556	      15.3	   1.76767	8.20208e+06	   76.2188	      15.3	   1.81365	8.11664e+06	   76.2086	      15.3	   1.76169	8.23903e+06	   76.1872	      15.3	   1.79066	8.15856e+06	   76.2402	      15.3	   1.78468	8.19744e+06	       N/A	       N/A	       N/A	        N/A	       N/A	       N/A	       N/A	        N/A	
         R10	   1154	    76.581	      15.3	       1.6	 7.9994e+06	      76.5	      15.3	       1.6	8.62248e+06	      76.5	      15.3	    1.6796	  6.809e+06	   76.5799	      15.3	   1.67879	7.78812e+06	   76.5405	      15.3	       1.6	8.28389e+06	      76.5	      15.3	    1.6398	7.56526e+06	     76.54	      15.3	   1.67919	7.26304e+06	   76.5805	      15.3	   1.63939	7.88676e+06	
         R10	   1155	   76.5799	      15.3	   1.67879	7.84571e+06	      76.5	      15.3	    1.6796	7.46823e+06	      76.5	      15.3	   1.75401	7.17638e+06	   76.5753	      15.3	   1.75283	7.50661e+06	     76.54	      15.3	   1.67919	7.63962e+06	      76.5	      15.3	    1.7168	7.31612e+06	   76.5376	      15.3	   1.75342	7.33951e+06	   76.5776	      15.3	   1.71581	7.67484e+06	
         R10	   1156	   76.5753	      15.3	   1.75283	7.50028e+06	      76.5	      15.3	   1.75401	7.27768e+06	      76.5	      15.3	   1.82323	7.24159e+06	   76.5683	      15.3	   1.82146	  7.375e+06	   76.5376	      15.3	   1.75342	7.38606e+06	      76.5	      15.3	   1.78862	7.25922e+06	   76.5342	      15.3	   1.82235	7.30752e+06	   76.5718	      15.3	   1.78715	7.43679e+06	
         R10	   1157	   76.5683	      15.3	   1.82146	7.37421e+06	      76.5	      15.3	   1.82323	7.26016e+06	      76.5	      15.3	   1.88726	7.25817e+06	   76.5611	      15.3	   1.88567	 7.3233e+06	   76.5342	      15.3	   1.82235	7.31618e+06	      76.5	      15.3	   1.85525	7.25861e+06	   76.5305	      15.3	   1.88647	7.29021e+06	   76.5647	      15.3	   1.85357	7.34817e+06	
         R10	   1158	   76.5611	      15.3	   1.88567	7.32359e+06	      76.5	      15.3	   1.88726	7.26628e+06	      76.5	      15.3	    1.9461	7.29694e+06	   76.5557	      15.3	     1.945	7.30776e+06	   76.5305	      15.3	   1.88647	7.29438e+06	      76.5	      15.3	   1.91668	 7.2811e+06	   76.5279	      15.3	   1.94555	7.30199e+06	   76.5584	      15.3	   1.91533	7.31514e+06	
         R10	   1159	   76.5557	      15.3	     1.945	7.30752e+06	      76.5	      15.3	    1.9461	7.29947e+06	      76.5	      15.3	   1.99975	7.35698e+06	   76.5513	      15.3	   1.99859	7.32169e+06	   76.5279	      15.3	   1.94555	7.30313e+06	      76.5	      15.3	   1.97293	7.32774e+06	   76.5256	      15.3	   1.99917	7.33906e+06	   76.5535	      15.3	   1.97179	 7.3141e+06	
         R10	   1160	   76.5513	      15.3	   1.99859	7.32154e+06	      76.5	      15.3	   1.99975	7.35799e+06	      76.5	      15.3	   2.04821	7.44343e+06	   76.5464	      15.3	     2.047	7.36431e+06	   76.5256	      15.3	   1.99917	7.33949e+06	      76.5	      15.3	   2.02398	7.40025e+06	   76.5232	      15.3	   2.04761	7.40361e+06	   76.5488	      15.3	    2.0228	7.34243e+06	
         R10	   1161	   76.5464	      15.3	     2.047	7.36396e+06	      76.5	      15.3	   2.04821	7.44352e+06	      76.5	      15.3	   2.09149	7.55769e+06	    76.541	      15.3	   2.09001	7.43881e+06	   76.5232	      15.3	   2.04761	7.40349e+06	      76.5	      15.3	   2.06985	7.50017e+06	   76.5205	      15.3	   2.09075	7.49794e+06	   76.5437	      15.3	   2.06851	7.40092e+06	
         R10	   1162	    76.541	      15.3	   2.09001	7.43904e+06	      76.5	      15.3	   2.09149	 7.5578e+06	      76.5	      15.3	   2.12957	7.70227e+06	   76.5351	      15.3	   2.12799	7.55226e+06	   76.5205	      15.3	   2.09075	7.49811e+06	      76.5	      15.3	   2.11053	7.62962e+06	   76.5175	      15.3	   2.12878	7.62681e+06	    76.538	      15.3	     2.109	7.49524e+06	
         R10	   1163	   76.5351	      15.3	   2.12799	7.55169e+06	      76.5	      15.3	   2.12957	7.70295e+06	      76.5	      15.3	   2.16246	7.87915e+06	   76.5296	      15.3	   2.16111	7.70167e+06	   76.5175	      15.3	   2.12878	7.62686e+06	      76.5	      15.3	   2.14601	7.79071e+06	   76.5148	      15.3	   2.16178	7.78979e+06	   76.5323	      15.3	   2.14455	7.62631e+06	
         R10	   1164	   76.5296	      15.3	   2.16111	7.70194e+06	      76.5	      15.3	   2.16246	7.88082e+06	      76.5	      15.3	   2.19016	8.08638e+06	   76.5252	      15.3	   2.18892	7.88455e+06	   76.5148	      15.3	   2.16178	7.79074e+06	      76.5	      15.3	   2.17631	7.98322e+06	   76.5126	      15.3	   2.18954	7.98446e+06	   76.5274	      15.3	   2.17502	7.79297e+06	
         R10	   1165	   76.5252	      15.3	   2.18892	7.88449e+06	      76.5	      15.3	   2.19016	8.08408e+06	      76.5	      15.3	   2.21268	8.30994e+06	   76.5223	      15.3	   2.21175	8.07934e+06	   76.5126	      15.3	   2.18954	7.98329e+06	      76.5	      15.3	   2.20142	8.19673e+06	   76.5112	      15.3	   2.21221	8.19316e+06	   76.5237	      15.3	   2.20034	7.98175e+06	
         R10	   1166	   76.5223	      15.3	   2.21175	8.08436e+06	      76.5	      15.3	   2.21268	8.30915e+06	      76.5	      15.3	      2.23	8.53174e+06	    76.517	      15.3	      2.23	8.32579e+06	   76.5112	      15.3	   2.21221	8.19528e+06	      76.5	      15.3	   2.22134	8.42022e+06	   76.5085	      15.3	      2.23	8.42729e+06	   76.5197	      15.3	   2.22088	8.20487e+06	
         R10	   1167	   76.5484	      15.3	   2.21209	7.70977e+06	    76.551	      15.3	      2.23	7.70905e+06	    76.568	      15.3	      2.23	7.36737e+06	   76.5678	      15.3	   2.21248	7.38961e+06	   76.5497	      15.3	   2.22104	7.70905e+06	   76.5595	      15.3	      2.23	7.53793e+06	   76.5679	      15.3	   2.22124	7.37801e+06	   76.5581	      15.3	   2.21228	7.54949e+06	
         R10	   1168	   76.5678	      15.3	   2.21248	7.38884e+06	    76.568	      15.3	      2.23	 7.3643e+06	    76.585	      15.3	      2.23	7.02407e+06	   76.5851	      15.3	   2.21232	7.10416e+06	   76.5679	      15.3	   2.22124	7.37608e+06	   76.5765	      15.3	      2.23	7.19402e+06	   76.5851	      15.3	   2.22116	7.06354e+06	   76.5764	      15.3	    2.2124	7.24642e+06	
         R10	   1169	   76.5851	      15.3	   2.21232	7.09971e+06	    76.585	      15.3	      2.23	7.02259e+06	    76.602	      15.3	      2.23	6.71341e+06	    76.601	      15.3	   2.21312	6.84852e+06	   76.5851	      15.3	   2.22116	7.06059e+06	   76.5935	      15.3	      2.23	6.86776e+06	   76.6015	      15.3	   2.22156	6.78043e+06	    76.593	      15.3	   2.21272	6.97398e+06	
         R10	   1170	    76.601	      15.3	   2.21312	6.84877e+06	    76.602	      15.3	      2.23	6.71481e+06	    76.619	      15.3	      2.23	6.44771e+06	   76.6193	      15.3	   2.21207	6.60173e+06	   76.6015	      15.3	   2.22156	6.78125e+06	   76.6105	      15.3	      2.23	6.58077e+06	   76.6192	      15.3	   2.22103	6.52406e+06	   76.6101	      15.3	   2.21259	6.72498e+06	
         R10	   1171	   76.6193	      15.3	   2.21207	6.59947e+06	    76.619	      15.3	      2.23	6.44483e+06	    76.636	      15.3	      2.23	6.23227e+06	   76.6346	      15.3	   2.21138	6.42176e+06	   76.6192	      15.3	   2.22103	6.52148e+06	   76.6275	      15.3	      2.23	6.33794e+06	   76.6353	      15.3	   2.22069	6.32643e+06	   76.6269	      15.3	   2.21172	 6.5102e+06	
         R10	   1172	   76.6346	      15.3	   2.21138	6.42219e+06	    76.636	      15.3	      2.23	6.23608e+06	    76.653	      15.3	      2.23	6.06862e+06	   76.6519	      15.3	   2.21336	6.23944e+06	   76.6353	      15.3	   2.22069	6.32854e+06	   76.6445	      15.3	      2.23	6.15147e+06	   76.6525	      15.3	   2.22168	6.15348e+06	   76.6432	      15.3	   2.21237	6.33027e+06	
         R10	   1173	   76.6519	      15.3	   2.21336	6.23923e+06	    76.653	      15.3	      2.23	6.06852e+06	     76.67	      15.3	      2.23	5.95159e+06	   76.6698	      15.3	   2.21049	6.13688e+06	   76.6525	      15.3	   2.22168	6.15337e+06	   76.6615	      15.3	      2.23	6.00915e+06	   76.6699	      15.3	   2.22024	6.04344e+06	   76.6608	      15.3	   2.21192	6.18737e+06	
         R10	   1174	   76.6886	      15.3	   2.22785	5.88613e+06	     76.67	      15.3	      2.23	5.95332e+06	     76.67	      15.3	     2.247	5.77719e+06	   76.6865	      15.3	   2.24602	5.72684e+06	   76.6793	      15.3	   2.22892	5.91878e+06	     76.67	      15.3	    2.2385	5.86456e+06	   76.6782	      15.3	   2.24651	5.75107e+06	   76.6875	      15.3	   2.23693	5.80581e+06	
         R10	   1175	   76.6865	      15.3	   2.24602	5.72503e+06	     76.67	      15.3	     2.247	5.77563e+06	     76.67	      15.3	     2.264	 5.5866e+06	   76.6899	      15.3	   2.26385	5.54994e+06	   76.6782	      15.3	   2.24651	5.74936e+06	     76.67	      15.3	    2.2555	5.68008e+06	   76.6799	      15.3	   2.26392	5.56657e+06	   76.6882	      15.3	   2.25493	5.63614e+06	
         R10	   1176	   76.6899	      15.3	   2.26385	 5.5516e+06	     76.67	      15.3	     2.264	5.58763e+06	     76.67	      15.3	     2.281	5.39317e+06	   76.6872	      15.3	   2.28149	 5.3864e+06	   76.6799	      15.3	   2.26392	5.56796e+06	     76.67	      15.3	    2.2725	5.48892e+06	   76.6786	      15.3	   2.28124	5.38826e+06	   76.6885	      15.3	   2.27267	5.46784e+06	
         R10	   1177	   76.6872	      15.3	   2.28149	5.38522e+06	     76.67	      15.3	     2.281	5.39265e+06	     76.67	      15.3	     2.298	5.20288e+06	   76.6876	      15.3	    2.2981	5.24369e+06	   76.6786	      15.3	   2.28124	 5.3874e+06	     76.67	      15.3	    2.2895	5.29562e+06	   76.6788	      15.3	   2.29805	5.22178e+06	   76.6874	      15.3	   2.28979	5.31269e+06	
         R10	   1178	   76.6876	      15.3	    2.2981	5.24134e+06	     76.67	      15.3	     2.298	5.20329e+06	     76.67	      15.3	     2.315	5.03148e+06	   76.6868	      15.3	     2.314	5.12017e+06	   76.6788	      15.3	   2.29805	5.22076e+06	     76.67	      15.3	    2.3065	5.11431e+06	   76.6784	      15.3	    2.3145	5.07474e+06	   76.6872	      15.3	   2.30605	5.17885e+06	
         R10	   1179	   76.6868	      15.3	     2.314	5.12006e+06	     76.67	      15.3	     2.315	 5.0311e+06	     76.67	      15.3	     2.332	4.90429e+06	   76.6889	      15.3	   2.33208	5.02592e+06	   76.6784	      15.3	    2.3145	5.07448e+06	     76.67	      15.3	    2.3235	4.96357e+06	   76.6794	      15.3	   2.33204	4.96399e+06	   76.6878	      15.3	   2.32304	5.06934e+06	
         R10	   1180	   76.6889	      15.3	   2.33208	5.02413e+06	     76.67	      15.3	     2.332	4.90262e+06	     76.67	      15.3	     2.349	4.81588e+06	   76.6847	      15.3	   2.34923	4.94428e+06	   76.6794	      15.3	   2.33204	4.96228e+06	     76.67	      15.3	    2.3405	4.85426e+06	   76.6773	      15.3	   2.34911	4.87952e+06	   76.6868	      15.3	   2.34065	 4.9815e+06	
         R10	   1181	   76.6847	      15.3	   2.34923	4.94405e+06	     76.67	      15.3	     2.349	4.82056e+06	     76.67	      15.3	     2.366	4.79202e+06	   76.6869	      15.3	   2.36619	4.94618e+06	   76.6773	      15.3	   2.34911	4.88171e+06	     76.67	      15.3	    2.3575	4.80078e+06	   76.6784	      15.3	   2.36609	4.86856e+06	   76.6858	      15.3	   2.35771	4.94147e+06	
         R10	   1182	   76.6869	      15.3	   2.36619	4.94691e+06	     76.67	      15.3	     2.366	4.79306e+06	     76.67	      15.3	     2.383	4.80649e+06	   76.6885	      15.3	   2.38219	4.95861e+06	   76.6784	      15.3	   2.36609	4.86945e+06	     76.67	      15.3	    2.3745	4.79435e+06	   76.6793	      15.3	   2.38259	4.88168e+06	   76.6877	      15.3	   2.37419	4.94988e+06	
         R10	   1183	   76.6885	      15.3	   2.38219	4.96042e+06	     76.67	      15.3	     2.383	4.80867e+06	     76.67	      15.3	       2.4	4.81977e+06	   76.6874	      15.3	       2.4	4.97088e+06	   76.6793	      15.3	   2.38259	4.88364e+06	     76.67	      15.3	    2.3915	4.80887e+06	   76.6787	      15.3	       2.4	4.89428e+06	   76.6879	      15.3	   2.39109	4.96229e+06	
         R10	   1184	   76.6885	      15.3	   2.38219	4.96341e+06	   76.6874	      15.3	       2.4	4.95983e+06	   76.7095	      15.3	       2.4	  5.122e+06	   76.7111	      15.3	   2.37601	5.12962e+06	   76.6879	      15.3	   2.39109	4.95804e+06	   76.6984	      15.3	       2.4	5.04011e+06	   76.7103	      15.3	   2.38801	5.12241e+06	   76.6998	      15.3	    2.3791	5.04555e+06	
         R10	   1185	   76.7111	      15.3	   2.37601	5.12981e+06	   76.7095	      15.3	       2.4	5.12441e+06	   76.7365	      15.3	       2.4	5.28253e+06	   76.7377	      15.3	   2.37128	5.30432e+06	   76.7103	      15.3	   2.38801	 5.1237e+06	    76.723	      15.3	       2.4	5.20298e+06	   76.7371	      15.3	   2.38564	5.29093e+06	   76.7244	      15.3	   2.37364	5.21661e+06	
         R10	   1186	   76.7377	      15.3	   2.37128	5.30421e+06	   76.7365	      15.3	       2.4	5.28735e+06	   76.7683	      15.3	       2.4	5.44974e+06	   76.7695	      15.3	   2.36678	5.47972e+06	   76.7371	      15.3	   2.38564	5.29322e+06	   76.7524	      15.3	       2.4	 5.3683e+06	   76.7689	      15.3	   2.38339	5.46313e+06	   76.7536	      15.3	   2.36903	5.39168e+06	
         R10	   1187	   76.7695	      15.3	   2.36678	5.47958e+06	   76.7683	      15.3	       2.4	5.45156e+06	   76.8048	      15.3	       2.4	5.60982e+06	   76.8063	      15.3	   2.36165	5.65022e+06	   76.7689	      15.3	   2.38339	5.46391e+06	   76.7865	      15.3	       2.4	5.53061e+06	   76.8056	      15.3	   2.38082	  5.629e+06	   76.7879	      15.3	   2.36421	5.56469e+06	
         R10	   1188	   76.8063	      15.3	   2.36165	5.64952e+06	   76.8048	      15.3	       2.4	5.61093e+06	   76.8462	      15.3	       2.4	5.76018e+06	   76.8476	      15.3	    2.3561	5.81165e+06	   76.8056	      15.3	   2.38082	5.62916e+06	   76.8255	      15.3	       2.4	5.68553e+06	   76.8469	      15.3	   2.37805	5.78526e+06	    76.827	      15.3	   2.35888	5.73041e+06	
         R10	   1189	   76.8476	      15.3	    2.3561	5.81145e+06	   76.8462	      15.3	       2.4	5.76028e+06	   76.8924	      15.3	       2.4	5.90126e+06	   76.8935	      15.3	    2.3511	 5.9612e+06	   76.8469	      15.3	   2.37805	5.78519e+06	   76.8693	      15.3	       2.4	5.83073e+06	   76.8929	      15.3	   2.37555	5.93079e+06	   76.8705	      15.3	    2.3536	5.88614e+06	
         R10	   1190	   76.8935	      15.3	    2.3511	5.96161e+06	   76.8924	      15.3	       2.4	 5.8997e+06	   76.9433	      15.3	       2.4	 6.0306e+06	   76.9446	      15.3	   2.34606	6.10347e+06	   76.8929	      15.3	   2.37555	5.93021e+06	   76.9179	      15.3	       2.4	5.96506e+06	    76.944	      15.3	   2.37303	6.06669e+06	   76.9191	      15.3	   2.34858	6.03232e+06	
         R10	   1191	   76.9446	      15.3	   2.34606	6.10391e+06	   76.9433	      15.3	       2.4	6.03007e+06	   76.9991	      15.3	       2.4	6.14837e+06	   77.0004	      15.3	   2.34071	 6.2378e+06	    76.944	      15.3	   2.37303	6.06665e+06	   76.9712	      15.3	       2.4	6.08907e+06	   76.9997	      15.3	   2.37036	6.19275e+06	   76.9725	      15.3	   2.34339	6.17061e+06	
         R10	   1192	   77.0004	      15.3	   2.34071	6.23608e+06	   76.9991	      15.3	       2.4	 6.1517e+06	   77.0597	      15.3	       2.4	6.26026e+06	   77.0606	      15.3	   2.33606	6.35827e+06	   76.9997	      15.3	   2.37036	6.19357e+06	   77.0294	      15.3	       2.4	6.20576e+06	   77.0602	      15.3	   2.36803	6.30891e+06	   77.0305	      15.3	   2.33839	6.29692e+06	
         R10	   1193	   77.0606	      15.3	   2.33606	6.35766e+06	   77.0597	      15.3	       2.4	6.26183e+06	   77.1251	      15.3	       2.4	6.36643e+06	   77.1261	      15.3	   2.33184	6.47099e+06	   77.0602	      15.3	   2.36803	 6.3094e+06	   77.0924	      15.3	       2.4	6.31388e+06	   77.1256	      15.3	   2.36592	6.41834e+06	   77.0934	      15.3	   2.33395	6.41404e+06	
         R10	   1194	   77.1261	      15.3	   2.33184	6.47201e+06	   77.1251	      15.3	       2.4	6.36399e+06	   77.1952	      15.3	       2.4	6.46289e+06	   77.1966	      15.3	   2.32712	6.57887e+06	   77.1256	      15.3	   2.36592	6.41765e+06	   77.1601	      15.3	       2.4	6.41316e+06	   77.1959	      15.3	   2.36356	6.52041e+06	   77.1614	      15.3	   2.32948	6.52517e+06	
         R10	   1195	   77.1966	      15.3	   2.32712	6.57879e+06	   77.1952	      15.3	       2.4	6.45861e+06	   77.2702	      15.3	       2.4	6.55621e+06	   77.2714	      15.3	   2.32284	6.67471e+06	   77.1959	      15.3	   2.36356	6.51823e+06	   77.2327	      15.3	       2.4	6.50712e+06	   77.2708	      15.3	   2.36142	6.61495e+06	    77.234	      15.3	   2.32498	 6.6265e+06	
         R10	   1196	   77.2714	      15.3	   2.32284	6.67612e+06	   77.2702	      15.3	       2.4	6.54836e+06	     77.35	      15.3	       2.4	6.64443e+06	     77.35	      15.3	   2.32373	6.75122e+06	   77.2708	      15.3	   2.36142	6.61168e+06	   77.3101	      15.3	       2.4	6.59608e+06	     77.35	      15.3	   2.36187	6.69729e+06	   77.3107	      15.3	   2.32329	6.71342e+06	
         R10	   1197	   77.2694	      15.3	   2.24444	6.79297e+06	   77.2714	      15.3	   2.32284	6.67501e+06	     77.35	      15.3	   2.32373	6.74919e+06	     77.35	      15.3	   2.24431	6.87703e+06	   77.2704	      15.3	   2.28364	6.73341e+06	   77.3107	      15.3	   2.32329	6.71183e+06	     77.35	      15.3	   2.28402	6.81262e+06	   77.3097	      15.3	   2.24437	 6.8347e+06	
         R10	   1198	   77.2694	      15.3	   2.24444	6.79181e+06	     77.35	      15.3	   2.24431	6.87684e+06	     77.35	      15.3	   2.16173	7.00558e+06	   77.2656	      15.3	   2.16145	  6.922e+06	   77.3097	      15.3	   2.24437	6.83403e+06	     77.35	      15.3	   2.20302	6.94072e+06	   77.3078	      15.3	   2.16159	 6.9634e+06	   77.2675	      15.3	   2.20294	6.85628e+06	
         R10	   1199	   77.2656	      15.3	   2.16145	6.92244e+06	     77.35	      15.3	   2.16173	7.00639e+06	     77.35	      15.3	     2.076	7.14706e+06	   77.2626	      15.3	   2.07663	7.06675e+06	   77.3078	      15.3	   2.16159	6.96403e+06	     77.35	      15.3	   2.11887	7.07625e+06	   77.3063	      15.3	   2.07631	7.10645e+06	   77.2641	      15.3	   2.11904	6.99403e+06	
         R10	   1200	   77.2626	      15.3	   2.07663	7.06586e+06	     77.35	      15.3	     2.076	7.14642e+06	     77.35	      15.3	   1.98711	7.29834e+06	   77.2601	      15.3	   1.98623	7.23082e+06	   77.3063	      15.3	   2.07631	7.10567e+06	     77.35	      15.3	   2.03156	7.22194e+06	   77.3051	      15.3	   1.98667	7.26402e+06	   77.2613	      15.3	   2.03143	7.14783e+06	
         R10	   1201	   77.2601	      15.3	   1.98623	 7.2306e+06	     77.35	      15.3	   1.98711	7.29672e+06	     77.35	      15.3	   1.89507	 7.4689e+06	   77.2565	      15.3	   1.89413	7.40773e+06	   77.3051	      15.3	   1.98667	7.26306e+06	     77.35	      15.3	   1.94109	7.38244e+06	   77.3033	      15.3	    1.8946	7.43763e+06	   77.2583	      15.3	   1.94018	7.31875e+06	
         R10	   1202	   77.2565	      15.3	   1.89413	7.40296e+06	     77.35	      15.3	   1.89507	7.46574e+06	     77.35	      15.3	   1.79987	7.63614e+06	    77.253	      15.3	   1.79915	7.59453e+06	   77.3033	      15.3	    1.8946	7.43372e+06	     77.35	      15.3	   1.84747	7.55071e+06	   77.3015	      15.3	   1.79951	7.61459e+06	   77.2548	      15.3	   1.84664	7.49847e+06	
         R10	   1203	    77.253	      15.3	   1.79915	7.58816e+06	     77.35	      15.3	   1.79987	7.63438e+06	     77.35	      15.3	   1.70151	7.81281e+06	   77.2491	      15.3	   1.70037	7.78505e+06	   77.3015	      15.3	   1.79951	7.61061e+06	     77.35	      15.3	   1.75069	7.72333e+06	   77.2996	      15.3	   1.70094	7.79784e+06	   77.2511	      15.3	   1.74976	7.68633e+06	
         R10	   1204	   77.2491	      15.3	   1.70037	7.77739e+06	     77.35	      15.3	   1.70151	7.80555e+06	     77.35	      15.3	       1.6	8.00107e+06	   77.2421	      15.3	       1.6	7.95988e+06	   77.2996	      15.3	   1.70094	7.79038e+06	     77.35	      15.3	   1.65076	7.90295e+06	   77.2961	      15.3	       1.6	7.97988e+06	   77.2456	      15.3	   1.65018	7.86843e+06	
         R10	   1205	   77.1464	      15.3	   1.70423	7.71276e+06	   77.2491	      15.3	   1.70037	7.75982e+06	   77.2421	      15.3	       1.6	7.95874e+06	   77.1376	      15.3	       1.6	7.91559e+06	   77.1978	      15.3	    1.7023	7.73532e+06	   77.2456	      15.3	   1.65018	7.85904e+06	   77.1899	      15.3	       1.6	7.93647e+06	    77.142	      15.3	   1.65212	7.81404e+06	
         R10	   1206	   77.1464	      15.3	   1.70423	7.70006e+06	   77.1376	      15.3	       1.6	7.91553e+06	   77.0365	      15.3	       1.6	7.87117e+06	   77.0405	      15.3	   1.70043	7.66464e+06	    77.142	      15.3	   1.65212	7.80764e+06	   77.0871	      15.3	       1.6	 7.8926e+06	   77.0385	      15.3	   1.65021	7.76789e+06	   77.0934	      15.3	   1.70233	7.68111e+06	
         R10	   1207	   77.0405	      15.3	   1.70043	7.65638e+06	   77.0365	      15.3	       1.6	7.86855e+06	   76.9387	      15.3	       1.6	7.83041e+06	   76.9418	      15.3	   1.69568	7.62456e+06	   77.0385	      15.3	   1.65021	7.76244e+06	   76.9876	      15.3	       1.6	7.84858e+06	   76.9402	      15.3	   1.64784	7.72743e+06	   76.9911	      15.3	   1.69806	7.63933e+06	
         R10	   1208	   76.9418	      15.3	   1.69568	7.61881e+06	   76.9387	      15.3	       1.6	7.82876e+06	   76.8443	      15.3	       1.6	 7.8022e+06	   76.8451	      15.3	   1.69056	7.59911e+06	   76.9402	      15.3	   1.64784	7.72372e+06	   76.8915	      15.3	       1.6	7.81441e+06	   76.8447	      15.3	   1.64528	7.70037e+06	   76.8934	      15.3	   1.69312	7.60774e+06	
         R10	   1209	   76.8451	      15.3	   1.69056	7.59715e+06	   76.8443	      15.3	       1.6	7.79872e+06	   76.7532	      15.3	       1.6	7.80175e+06	   76.7541	      15.3	   1.68718	7.57214e+06	   76.8447	      15.3	   1.64528	7.69764e+06	   76.7987	      15.3	       1.6	 7.7988e+06	   76.7536	      15.3	   1.64359	7.68634e+06	   76.7996	      15.3	   1.68887	7.58362e+06	
         R10	   1210	   76.7541	      15.3	   1.68718	7.57415e+06	   76.7532	      15.3	       1.6	7.78913e+06	   76.6654	      15.3	       1.6	7.84606e+06	   76.6655	      15.3	   1.68368	7.58062e+06	   76.7536	      15.3	   1.64359	7.68099e+06	   76.7093	      15.3	       1.6	7.81549e+06	   76.6654	      15.3	   1.64184	7.71052e+06	   76.7098	      15.3	   1.68543	7.57606e+06	
         R10	   1211	   76.6655	      15.3	   1.68368	7.55932e+06	   76.6654	      15.3	       1.6	7.86324e+06	    76.581	      15.3	       1.6	8.03167e+06	   76.5799	      15.3	   1.67879	7.62012e+06	   76.6654	      15.3	   1.64184	7.70838e+06	   76.6232	      15.3	       1.6	7.94014e+06	   76.5805	      15.3	   1.63939	7.82106e+06	   76.6227	      15.3	   1.68123	7.58948e+06	
         R10	   1212	   76.6589	      15.3	   1.75971	7.47887e+06	   76.6655	      15.3	   1.68368	7.58539e+06	   76.5799	      15.3	   1.67879	7.61691e+06	   76.5753	      15.3	   1.75283	7.48527e+06	   76.6622	      15.3	    1.7217	7.53205e+06	   76.6227	      15.3	   1.68123	7.60103e+06	   76.5776	      15.3	   1.71581	7.55042e+06	   76.6171	      15.3	   1.75627	7.48076e+06	
         R10	   1213	   76.6589	      15.3	   1.75971	7.51499e+06	   76.5753	      15.3	   1.75283	7.46555e+06	   76.5683	      15.3	   1.82146	7.38358e+06	   76.6384	      15.3	   1.82622	7.38905e+06	   76.6171	      15.3	   1.75627	7.48954e+06	   76.5718	      15.3	   1.78715	7.42369e+06	   76.6034	      15.3	   1.82384	7.38528e+06	   76.6487	      15.3	   1.79297	 7.4518e+06	
         R10	   1214	   76.6384	      15.3	   1.82622	7.40678e+06	   76.5683	      15.3	   1.82146	7.37557e+06	   76.5611	      15.3	   1.88567	7.32255e+06	   76.6173	      15.3	   1.89072	7.31337e+06	   76.6034	      15.3	   1.82384	7.39049e+06	   76.5647	      15.3	   1.85357	7.34848e+06	   76.5892	      15.3	   1.88819	7.31756e+06	   76.6279	      15.3	   1.85847	7.35946e+06	
         R10	   1215	   76.6173	      15.3	   1.89072	7.32072e+06	   76.5611	      15.3	   1.88567	7.32229e+06	   76.5557	      15.3	     1.945	7.30824e+06	   76.6095	      15.3	   1.95018	7.26131e+06	   76.5892	      15.3	   1.88819	7.32118e+06	   76.5584	      15.3	   1.91533	7.31473e+06	   76.5826	      15.3	   1.94759	7.28453e+06	   76.6134	      15.3	   1.92045	7.29045e+06	
         R10	   1216	   76.6095	      15.3	   1.95018	7.26426e+06	   76.5557	      15.3	     1.945	7.30736e+06	   76.5513	      15.3	   1.99859	7.32262e+06	   76.6026	      15.3	   2.00372	7.22844e+06	   76.5826	      15.3	   1.94759	7.28559e+06	   76.5535	      15.3	   1.97179	7.31449e+06	   76.5769	      15.3	   2.00115	 7.2754e+06	    76.606	      15.3	   1.97695	7.24578e+06	
         R10	   1217	   76.6026	      15.3	   2.00372	7.22933e+06	   76.5513	      15.3	   1.99859	7.32156e+06	   76.5464	      15.3	     2.047	7.36473e+06	    76.593	      15.3	   2.05248	7.22548e+06	   76.5769	      15.3	   2.00115	7.27533e+06	   76.5488	      15.3	    2.0228	7.34266e+06	   76.5697	      15.3	   2.04974	7.29506e+06	   76.5978	      15.3	    2.0281	7.22678e+06	
         R10	   1218	    76.593	      15.3	   2.05248	7.22599e+06	   76.5464	      15.3	     2.047	7.36444e+06	    76.541	      15.3	   2.09001	7.44117e+06	   76.5829	      15.3	   2.09566	 7.2545e+06	   76.5697	      15.3	   2.04974	7.29518e+06	   76.5437	      15.3	   2.06851	7.40235e+06	   76.5619	      15.3	   2.09283	7.34781e+06	   76.5879	      15.3	   2.07407	7.23963e+06	
         R10	   1219	   76.5829	      15.3	   2.09566	7.25411e+06	    76.541	      15.3	   2.09001	 7.4402e+06	   76.5351	      15.3	   2.12799	7.55118e+06	    76.568	      15.3	   2.13292	7.35344e+06	   76.5619	      15.3	   2.09283	7.34713e+06	    76.538	      15.3	     2.109	7.49527e+06	   76.5516	      15.3	   2.13046	 7.4522e+06	   76.5755	      15.3	   2.11429	7.30323e+06	
         R10	   1220	    76.568	      15.3	   2.13292	7.35476e+06	   76.5351	      15.3	   2.12799	7.55183e+06	   76.5296	      15.3	   2.16111	 7.7051e+06	    76.558	      15.3	   2.16552	7.47682e+06	   76.5516	      15.3	   2.13046	7.45317e+06	   76.5323	      15.3	   2.14455	7.62811e+06	   76.5438	      15.3	   2.16332	7.59068e+06	    76.563	      15.3	   2.14922	7.41536e+06	
         R10	   1221	    76.558	      15.3	   2.16552	7.47555e+06	   76.5296	      15.3	   2.16111	7.70435e+06	   76.5252	      15.3	   2.18892	7.87228e+06	   76.5457	      15.3	   2.19313	7.68148e+06	   76.5438	      15.3	   2.16332	7.58967e+06	   76.5274	      15.3	   2.17502	  7.788e+06	   76.5354	      15.3	   2.19102	7.77645e+06	   76.5518	      15.3	   2.17933	7.57828e+06	
         R10	   1222	   76.5223	      15.3	   2.21175	8.08073e+06	    76.534	      15.3	      2.23	8.06263e+06	    76.551	      15.3	      2.23	7.71806e+06	   76.5484	      15.3	   2.21209	7.72482e+06	   76.5282	      15.3	   2.22088	8.07097e+06	   76.5425	      15.3	      2.23	7.88981e+06	   76.5497	      15.3	   2.22104	7.72103e+06	   76.5354	      15.3	   2.21192	7.90155e+06	
         R10	   1223	    76.568	      15.3	   2.19384	7.39114e+06	   76.5678	      15.3	   2.21248	7.38454e+06	   76.5851	      15.3	   2.21232	7.10227e+06	   76.5832	      15.3	   2.19385	7.17632e+06	   76.5679	      15.3	   2.20316	7.38748e+06	   76.5764	      15.3	    2.2124	7.24333e+06	   76.5841	      15.3	   2.20308	7.13884e+06	   76.5756	      15.3	   2.19384	7.28368e+06	
         R10	   1224	   76.5832	      15.3	   2.19385	7.17948e+06	   76.5851	      15.3	   2.21232	7.10693e+06	    76.601	      15.3	   2.21312	6.84504e+06	   76.6064	      15.3	   2.18945	6.89834e+06	   76.5841	      15.3	   2.20308	7.14272e+06	    76.593	      15.3	   2.21272	6.97583e+06	   76.6037	      15.3	   2.20128	6.87099e+06	   76.5948	      15.3	   2.19165	7.03884e+06	
         R10	   1225	   76.6344	      15.3	   2.18997	6.58279e+06	   76.6346	      15.3	   2.21138	6.42295e+06	   76.6519	      15.3	   2.21336	6.23691e+06	   76.6549	      15.3	   2.19396	6.37339e+06	   76.6345	      15.3	   2.20068	6.50221e+06	   76.6432	      15.3	   2.21237	6.32936e+06	   76.6534	      15.3	   2.20366	6.30471e+06	   76.6446	      15.3	   2.19196	6.47741e+06	
         R10	   1226	   76.6874	      15.3	   2.20362	6.10686e+06	   76.6698	      15.3	   2.21049	6.13508e+06	     76.67	      15.3	      2.23	5.95072e+06	   76.6886	      15.3	   2.22785	5.88642e+06	   76.6786	      15.3	   2.20705	6.12031e+06	   76.6699	      15.3	   2.22024	6.04217e+06	   76.6793	      15.3	   2.22892	5.91768e+06	    76.688	      15.3	   2.21573	5.99563e+06	
         R10	   1227	   76.7098	      15.3	   2.22772	5.83805e+06	   76.6886	      15.3	   2.22785	5.88831e+06	   76.6865	      15.3	   2.24602	5.72439e+06	   76.7062	      15.3	   2.24804	5.68171e+06	   76.6992	      15.3	   2.22778	5.86197e+06	   76.6875	      15.3	   2.23693	5.80569e+06	   76.6963	      15.3	   2.24703	5.70161e+06	    76.708	      15.3	   2.23788	5.75915e+06	
         R10	   1228	   76.7055	      15.3	    2.2691	5.50885e+06	   76.6899	      15.3	   2.26385	5.54941e+06	   76.6872	      15.3	   2.28149	5.38671e+06	   76.7102	      15.3	   2.28181	5.42683e+06	   76.6977	      15.3	   2.26647	5.52768e+06	   76.6885	      15.3	   2.27267	5.46691e+06	   76.6987	      15.3	   2.28165	5.40483e+06	   76.7079	      15.3	   2.27545	5.46688e+06	
         R10	   1229	   76.7102	      15.3	   2.28181	5.42864e+06	   76.6872	      15.3	   2.28149	5.38672e+06	   76.6876	      15.3	    2.2981	5.24335e+06	   76.7041	      15.3	   2.29777	5.29941e+06	   76.6987	      15.3	   2.28165	5.40583e+06	   76.6874	      15.3	   2.28979	5.31328e+06	   76.6959	      15.3	   2.29794	5.27041e+06	   76.7071	      15.3	   2.28979	5.36312e+06	
         R10	   1230	   76.7041	      15.3	   2.29777	5.30332e+06	   76.6876	      15.3	    2.2981	 5.2416e+06	   76.6868	      15.3	     2.314	5.12378e+06	   76.7081	      15.3	   2.31463	5.22851e+06	   76.6959	      15.3	   2.29794	5.27155e+06	   76.6872	      15.3	   2.30605	5.18081e+06	   76.6975	      15.3	   2.31432	5.17468e+06	   76.7061	      15.3	    2.3062	 5.2636e+06	
         R10	   1231	   76.6869	      15.3	   2.36619	4.94408e+06	   76.6885	      15.3	   2.38219	4.96286e+06	   76.7111	      15.3	   2.37601	5.13035e+06	   76.7068	      15.3	   2.35232	5.10535e+06	   76.6877	      15.3	   2.37419	4.95047e+06	   76.6998	      15.3	    2.3791	5.04569e+06	   76.7089	      15.3	   2.36417	 5.1137e+06	   76.6968	      15.3	   2.35926	5.02296e+06	
         R10	   1232	   76.7068	      15.3	   2.35232	5.10959e+06	   76.7111	      15.3	   2.37601	5.12995e+06	   76.7377	      15.3	   2.37128	5.30431e+06	   76.7346	      15.3	   2.34477	5.30307e+06	   76.7089	      15.3	   2.36417	5.11583e+06	   76.7244	      15.3	   2.37364	5.21667e+06	   76.7361	      15.3	   2.35802	5.30092e+06	   76.7207	      15.3	   2.34855	5.20577e+06	
         R10	   1233	   76.7346	      15.3	   2.34477	5.30274e+06	   76.7377	      15.3	   2.37128	5.30322e+06	   76.7695	      15.3	   2.36678	5.47836e+06	   76.7652	      15.3	   2.33521	5.48603e+06	   76.7361	      15.3	   2.35802	5.30023e+06	   76.7536	      15.3	   2.36903	 5.3905e+06	   76.7674	      15.3	     2.351	5.48009e+06	   76.7499	      15.3	   2.33999	5.39397e+06	
         R10	   1234	   76.7652	      15.3	   2.33521	5.48686e+06	   76.7695	      15.3	   2.36678	5.47749e+06	   76.8063	      15.3	   2.36165	5.64841e+06	   76.8017	      15.3	   2.32526	5.66503e+06	   76.7674	      15.3	     2.351	5.48009e+06	   76.7879	      15.3	   2.36421	5.56274e+06	    76.804	      15.3	   2.34345	5.65518e+06	   76.7835	      15.3	   2.33024	5.57558e+06	
         R10	   1235	   76.8017	      15.3	   2.32526	5.66634e+06	   76.8063	      15.3	   2.36165	5.64825e+06	   76.8476	      15.3	    2.3561	5.80975e+06	   76.8424	      15.3	   2.31147	5.84019e+06	    76.804	      15.3	   2.34345	5.65577e+06	    76.827	      15.3	   2.35888	5.72882e+06	    76.845	      15.3	   2.33378	5.82357e+06	    76.822	      15.3	   2.31836	5.75297e+06	
         R10	   1236	   76.8424	      15.3	   2.31147	5.84131e+06	   76.8476	      15.3	    2.3561	5.81022e+06	   76.8935	      15.3	    2.3511	5.96037e+06	   76.8882	      15.3	   2.30242	6.00357e+06	    76.845	      15.3	   2.33378	5.82438e+06	   76.8705	      15.3	    2.3536	5.88511e+06	   76.8909	      15.3	   2.32676	  5.981e+06	   76.8653	      15.3	   2.30694	5.92201e+06	
         R10	   1237	   76.8882	      15.3	   2.30242	6.00405e+06	   76.8935	      15.3	    2.3511	5.96046e+06	   76.9446	      15.3	   2.34606	6.10177e+06	     76.94	      15.3	   2.29241	6.16115e+06	   76.8909	      15.3	   2.32676	5.98129e+06	   76.9191	      15.3	   2.34858	 6.0309e+06	   76.9423	      15.3	   2.31923	6.13072e+06	   76.9141	      15.3	   2.29741	6.08219e+06	
         R10	   1238	     76.94	      15.3	   2.29241	6.15959e+06	   76.9446	      15.3	   2.34606	6.10219e+06	   77.0004	      15.3	   2.34071	6.23467e+06	   76.9953	      15.3	   2.27784	6.31247e+06	   76.9423	      15.3	   2.31923	6.13014e+06	   76.9725	      15.3	   2.34339	6.16819e+06	   76.9978	      15.3	   2.30928	6.27281e+06	   76.9677	      15.3	   2.28512	 6.2357e+06	
         R10	   1239	   76.9953	      15.3	   2.27784	6.31313e+06	   77.0004	      15.3	   2.34071	6.23431e+06	   77.0606	      15.3	   2.33606	6.35761e+06	   77.0552	      15.3	   2.26902	 6.4453e+06	   76.9978	      15.3	   2.30928	6.27296e+06	   77.0305	      15.3	   2.33839	6.29569e+06	   77.0579	      15.3	   2.30254	6.40079e+06	   77.0253	      15.3	   2.27343	6.37886e+06	
         R10	   1240	   77.0552	      15.3	   2.26902	6.44532e+06	   77.0606	      15.3	   2.33606	6.35608e+06	   77.1261	      15.3	   2.33184	6.47082e+06	   77.1211	      15.3	   2.26304	6.56756e+06	   77.0579	      15.3	   2.30254	6.40003e+06	   77.0934	      15.3	   2.33395	6.41317e+06	   77.1236	      15.3	   2.29744	6.51864e+06	   77.0881	      15.3	   2.26603	6.50609e+06	
         R10	   1241	   77.1211	      15.3	   2.26304	6.56778e+06	   77.1261	      15.3	   2.33184	  6.471e+06	   77.1966	      15.3	   2.32712	6.57613e+06	   77.1927	      15.3	    2.2538	6.68473e+06	   77.1236	      15.3	   2.29744	6.51882e+06	   77.1614	      15.3	   2.32948	6.52329e+06	   77.1947	      15.3	   2.29046	 6.6299e+06	   77.1569	      15.3	   2.25842	6.62595e+06	
         R10	   1242	   77.1927	      15.3	    2.2538	6.68435e+06	   77.1966	      15.3	   2.32712	6.57747e+06	   77.2714	      15.3	   2.32284	6.67335e+06	   77.2694	      15.3	   2.24444	6.79343e+06	   77.1947	      15.3	   2.29046	6.63037e+06	    77.234	      15.3	   2.32498	6.62515e+06	   77.2704	      15.3	   2.28364	6.73284e+06	    77.231	      15.3	   2.24912	6.73865e+06	
         R10	   1243	   77.1851	      15.3	   2.17706	6.79859e+06	   77.1927	      15.3	    2.2538	6.68485e+06	   77.2694	      15.3	   2.24444	6.79283e+06	   77.2656	      15.3	   2.16145	6.92058e+06	   77.1889	      15.3	   2.21543	6.74106e+06	    77.231	      15.3	   2.24912	6.73857e+06	   77.2675	      15.3	   2.20294	6.85607e+06	   77.2254	      15.3	   2.16925	6.85929e+06	
         R10	   1244	   77.1851	      15.3	   2.17706	6.79908e+06	   77.2656	      15.3	   2.16145	6.92009e+06	   77.2626	      15.3	   2.07663	 7.0637e+06	   77.1792	      15.3	   2.08167	6.95948e+06	   77.2254	      15.3	   2.16925	6.85931e+06	   77.2641	      15.3	   2.11904	6.99136e+06	   77.2209	      15.3	   2.07915	7.01103e+06	   77.1822	      15.3	   2.12936	 6.8783e+06	
         R10	   1245	   77.1792	      15.3	   2.08167	 6.9604e+06	   77.2626	      15.3	   2.07663	7.06322e+06	   77.2601	      15.3	   1.98623	7.22692e+06	   77.1727	      15.3	   1.99116	7.13645e+06	   77.2209	      15.3	   2.07915	7.01126e+06	   77.2613	      15.3	   2.03143	7.14456e+06	   77.2164	      15.3	   1.98869	7.18107e+06	    77.176	      15.3	   2.03641	7.04785e+06	
         R10	   1246	   77.1727	      15.3	   1.99116	7.13452e+06	   77.2601	      15.3	   1.98623	7.22388e+06	   77.2565	      15.3	   1.89413	 7.4026e+06	   77.1645	      15.3	   1.89718	7.32603e+06	   77.2164	      15.3	   1.98869	7.17855e+06	   77.2583	      15.3	   1.94018	7.31285e+06	   77.2105	      15.3	   1.89566	7.36353e+06	   77.1686	      15.3	   1.94417	7.22977e+06	
         R10	   1247	   77.1645	      15.3	   1.89718	7.32181e+06	   77.2565	      15.3	   1.89413	7.39899e+06	    77.253	      15.3	   1.79915	7.58519e+06	   77.1552	      15.3	   1.80128	 7.5246e+06	   77.2105	      15.3	   1.89566	7.35961e+06	   77.2548	      15.3	   1.84664	 7.4918e+06	   77.2041	      15.3	   1.80022	7.55404e+06	   77.1598	      15.3	   1.84923	7.42291e+06	
         R10	   1248	   77.1552	      15.3	   1.80128	7.51795e+06	    77.253	      15.3	   1.79915	7.57889e+06	   77.2491	      15.3	   1.70037	7.77138e+06	   77.1464	      15.3	   1.70423	7.72705e+06	   77.2041	      15.3	   1.80022	7.54756e+06	   77.2511	      15.3	   1.74976	7.67493e+06	   77.1978	      15.3	    1.7023	7.74822e+06	   77.1508	      15.3	   1.75276	7.62231e+06	
         R10	   1249	   77.0546	      15.3	   1.80551	7.44338e+06	   77.1552	      15.3	   1.80128	7.51142e+06	   77.1464	      15.3	   1.70423	7.71044e+06	   77.0405	      15.3	   1.70043	7.67613e+06	   77.1049	      15.3	   1.80339	7.47624e+06	   77.1508	      15.3	   1.75276	7.61076e+06	   77.0934	      15.3	   1.70233	7.69205e+06	   77.0476	      15.3	   1.75297	7.55956e+06	
         R10	   1250	   77.0546	      15.3	   1.80551	7.44539e+06	   77.0405	      15.3	   1.70043	 7.6692e+06	   76.9418	      15.3	   1.69568	7.64309e+06	    76.938	      15.3	   1.77633	7.45394e+06	   77.0476	      15.3	   1.75297	 7.5571e+06	   76.9911	      15.3	   1.69806	7.65494e+06	   76.9399	      15.3	   1.73601	7.54845e+06	   76.9963	      15.3	   1.79092	7.44757e+06	
         R10	   1251	    76.938	      15.3	   1.77633	7.45211e+06	   76.9418	      15.3	   1.69568	7.63634e+06	   76.8451	      15.3	   1.69056	7.62207e+06	    76.844	      15.3	   1.77482	7.42865e+06	   76.9399	      15.3	   1.73601	7.54415e+06	   76.8934	      15.3	   1.69312	7.62792e+06	   76.8446	      15.3	   1.73269	7.52519e+06	    76.891	      15.3	   1.77558	7.43903e+06	
         R10	   1252	    76.844	      15.3	   1.77482	7.42339e+06	   76.8451	      15.3	   1.69056	7.62857e+06	   76.7541	      15.3	   1.68718	7.60703e+06	   76.7487	      15.3	   1.76977	7.46075e+06	   76.8446	      15.3	   1.73269	7.52579e+06	   76.7996	      15.3	   1.68887	7.61676e+06	   76.7514	      15.3	   1.72848	7.53374e+06	   76.7964	      15.3	    1.7723	7.44092e+06	
         R10	   1253	   76.7487	      15.3	   1.76977	7.45046e+06	   76.7541	      15.3	   1.68718	7.61688e+06	   76.6655	      15.3	   1.68368	7.61919e+06	   76.6589	      15.3	   1.75971	7.46564e+06	   76.7514	      15.3	   1.72848	7.53352e+06	   76.7098	      15.3	   1.68543	7.61726e+06	   76.6622	      15.3	    1.7217	7.54242e+06	   76.7038	      15.3	   1.76474	7.45745e+06	
         R10	   1254	   76.7487	      15.3	   1.76977	7.45806e+06	   76.6589	      15.3	   1.75971	7.49525e+06	   76.6384	      15.3	   1.82622	7.38805e+06	   76.6954	      15.3	   1.84329	7.34656e+06	   76.7038	      15.3	   1.76474	7.47575e+06	   76.6487	      15.3	   1.79297	7.44152e+06	   76.6669	      15.3	   1.83476	7.36708e+06	    76.722	      15.3	   1.80653	7.40151e+06	
         R10	   1255	   76.6954	      15.3	   1.84329	7.34738e+06	   76.6384	      15.3	   1.82622	7.40296e+06	   76.6173	      15.3	   1.89072	7.31615e+06	   76.6712	      15.3	   1.90299	7.26249e+06	   76.6669	      15.3	   1.83476	7.37486e+06	   76.6279	      15.3	   1.85847	7.35895e+06	   76.6442	      15.3	   1.89685	  7.289e+06	   76.6833	      15.3	   1.87314	7.30446e+06	
         R10	   1256	   76.6712	      15.3	   1.90299	 7.2644e+06	   76.6173	      15.3	   1.89072	7.31957e+06	   76.6095	      15.3	   1.95018	7.25876e+06	   76.6616	      15.3	   1.95794	7.17545e+06	   76.6442	      15.3	   1.89685	7.29161e+06	   76.6134	      15.3	   1.92045	 7.2886e+06	   76.6356	      15.3	   1.95406	7.21682e+06	   76.6664	      15.3	   1.93046	7.21943e+06	
         R10	   1257	   76.6616	      15.3	   1.95794	7.17682e+06	   76.6095	      15.3	   1.95018	7.26302e+06	   76.6026	      15.3	   2.00372	7.22759e+06	   76.6521	      15.3	   2.01192	7.09452e+06	   76.6356	      15.3	   1.95406	 7.2196e+06	    76.606	      15.3	   1.97695	7.24473e+06	   76.6273	      15.3	   2.00782	7.16084e+06	   76.6568	      15.3	   1.98493	  7.135e+06	
         R10	   1258	   76.6521	      15.3	   2.01192	7.09369e+06	   76.6026	      15.3	   2.00372	7.22851e+06	    76.593	      15.3	   2.05248	7.22337e+06	   76.6384	      15.3	   2.06268	7.03574e+06	   76.6273	      15.3	   2.00782	7.16086e+06	   76.5978	      15.3	    2.0281	7.22531e+06	   76.6157	      15.3	   2.05758	7.12943e+06	   76.6452	      15.3	    2.0373	7.06385e+06	
         R10	   1259	   76.6384	      15.3	   2.06268	7.03597e+06	    76.593	      15.3	   2.05248	7.22343e+06	   76.5829	      15.3	   2.09566	7.25675e+06	   76.6233	      15.3	   2.11152	7.00218e+06	   76.6157	      15.3	   2.05758	7.12957e+06	   76.5879	      15.3	   2.07407	7.23947e+06	   76.6031	      15.3	   2.10359	7.12937e+06	   76.6308	      15.3	    2.0871	7.01796e+06	
         R10	   1260	   76.6233	      15.3	   2.11152	6.99863e+06	   76.5829	      15.3	   2.09566	7.25388e+06	    76.568	      15.3	   2.13292	7.35182e+06	   76.5981	      15.3	   2.14505	7.10839e+06	   76.6031	      15.3	   2.10359	7.12614e+06	   76.5755	      15.3	   2.11429	7.30232e+06	   76.5831	      15.3	   2.13899	7.23001e+06	   76.6107	      15.3	   2.12828	7.05275e+06	
         R10	   1261	   76.5981	      15.3	   2.14505	7.11015e+06	    76.568	      15.3	   2.13292	7.35401e+06	    76.558	      15.3	   2.16552	7.46976e+06	   76.5842	      15.3	   2.17158	7.20502e+06	   76.5831	      15.3	   2.13899	7.23199e+06	    76.563	      15.3	   2.14922	7.41144e+06	   76.5711	      15.3	   2.16855	7.33724e+06	   76.5912	      15.3	   2.15832	7.15711e+06	
         R10	   1262	   76.5457	      15.3	   2.19313	7.68508e+06	   76.5252	      15.3	   2.18892	7.88344e+06	   76.5223	      15.3	   2.21175	8.08174e+06	   76.5484	      15.3	   2.21209	 7.7127e+06	   76.5354	      15.3	   2.19102	7.78385e+06	   76.5237	      15.3	   2.20034	7.98242e+06	   76.5354	      15.3	   2.21192	7.89606e+06	   76.5471	      15.3	   2.20261	7.69856e+06	
         R10	   1263	   76.5457	      15.3	   2.19313	7.67662e+06	   76.5484	      15.3	   2.21209	7.71166e+06	   76.5678	      15.3	   2.21248	7.39182e+06	    76.568	      15.3	   2.19384	 7.3977e+06	   76.5471	      15.3	   2.20261	7.69383e+06	   76.5581	      15.3	   2.21228	7.55154e+06	   76.5679	      15.3	   2.20316	7.39441e+06	   76.5569	      15.3	   2.19348	7.53695e+06	
         R10	   1264	   76.6064	      15.3	   2.18945	6.89636e+06	   76.6193	      15.3	   2.21207	6.61339e+06	   76.6346	      15.3	   2.21138	6.42251e+06	   76.6344	      15.3	   2.18997	6.58847e+06	   76.6129	      15.3	   2.20076	  6.754e+06	   76.6269	      15.3	   2.21172	6.51755e+06	   76.6345	      15.3	   2.20068	6.50482e+06	   76.6204	      15.3	   2.18971	6.74188e+06	
         R10	   1265	    76.636	      15.3	   2.16039	6.74114e+06	   76.6344	      15.3	   2.18997	6.59175e+06	   76.6549	      15.3	   2.19396	6.37275e+06	   76.6665	      15.3	   2.16903	6.46083e+06	   76.6352	      15.3	   2.17518	6.66564e+06	   76.6446	      15.3	   2.19196	6.48151e+06	   76.6607	      15.3	   2.18149	6.41611e+06	   76.6513	      15.3	   2.16471	6.60008e+06	
         R10	   1266	   76.6665	      15.3	   2.16903	6.46161e+06	   76.6549	      15.3	   2.19396	6.37696e+06	   76.6698	      15.3	   2.21049	 6.1321e+06	   76.6874	      15.3	   2.20362	6.10357e+06	   76.6607	      15.3	   2.18149	6.41865e+06	   76.6623	      15.3	   2.20222	6.25352e+06	   76.6786	      15.3	   2.20705	6.11728e+06	    76.677	      15.3	   2.18632	 6.2801e+06	
         R10	   1267	   76.7105	      15.3	   2.19971	6.04634e+06	   76.6874	      15.3	   2.20362	6.09376e+06	   76.6886	      15.3	   2.22785	 5.8878e+06	   76.7098	      15.3	   2.22772	5.83752e+06	   76.6989	      15.3	   2.20166	6.06907e+06	    76.688	      15.3	   2.21573	5.98977e+06	   76.6992	      15.3	   2.22778	5.86143e+06	   76.7102	      15.3	   2.21372	5.94095e+06	
         R10	   1268	   76.7346	      15.3	   2.23091	5.80018e+06	   76.7098	      15.3	   2.22772	5.83744e+06	   76.7062	      15.3	   2.24804	5.67487e+06	   76.7269	      15.3	   2.25886	5.61621e+06	   76.7222	      15.3	   2.22932	5.81721e+06	    76.708	      15.3	   2.23788	5.75539e+06	   76.7166	      15.3	   2.25345	5.64331e+06	   76.7308	      15.3	   2.24488	5.70702e+06	
         R10	   1269	   76.7269	      15.3	   2.25886	5.61748e+06	   76.7062	      15.3	   2.24804	5.67433e+06	   76.6899	      15.3	   2.26385	5.55502e+06	   76.7055	      15.3	    2.2691	5.50697e+06	   76.7166	      15.3	   2.25345	5.64365e+06	    76.698	      15.3	   2.25594	5.61412e+06	   76.6977	      15.3	   2.26647	5.52953e+06	   76.7162	      15.3	   2.26398	5.56158e+06	
         R10	   1270	   76.7304	      15.3	   2.32001	5.32933e+06	   76.7346	      15.3	   2.34477	5.30251e+06	   76.7652	      15.3	   2.33521	5.48168e+06	   76.7575	      15.3	    2.3031	5.51144e+06	   76.7325	      15.3	   2.33239	5.31305e+06	   76.7499	      15.3	   2.33999	5.39173e+06	   76.7614	      15.3	   2.31916	5.49343e+06	    76.744	      15.3	   2.31155	5.41977e+06	
         R10	   1271	   76.7575	      15.3	    2.3031	5.51127e+06	   76.7652	      15.3	   2.33521	5.48329e+06	   76.8017	      15.3	   2.32526	5.66428e+06	   76.7904	      15.3	   2.28614	5.69355e+06	   76.7614	      15.3	   2.31916	5.49417e+06	   76.7835	      15.3	   2.33024	 5.5734e+06	   76.7961	      15.3	    2.3057	5.67614e+06	    76.774	      15.3	   2.29462	5.60185e+06	
         R10	   1272	   76.7904	      15.3	   2.28614	 5.6933e+06	   76.8017	      15.3	   2.32526	5.66602e+06	   76.8424	      15.3	   2.31147	5.84102e+06	   76.8293	      15.3	   2.26838	5.87695e+06	   76.7961	      15.3	    2.3057	5.67683e+06	    76.822	      15.3	   2.31836	5.75321e+06	   76.8358	      15.3	   2.28992	5.85682e+06	   76.8099	      15.3	   2.27726	5.78443e+06	
         R10	   1273	   76.8293	      15.3	   2.26838	5.87451e+06	   76.8424	      15.3	   2.31147	5.83973e+06	   76.8882	      15.3	   2.30242	6.00288e+06	   76.8782	      15.3	    2.2558	6.05194e+06	   76.8358	      15.3	   2.28992	5.85494e+06	   76.8653	      15.3	   2.30694	 5.9209e+06	   76.8832	      15.3	   2.27911	  6.026e+06	   76.8538	      15.3	   2.26209	5.96243e+06	
         R10	   1274	   76.8782	      15.3	    2.2558	6.05371e+06	   76.8882	      15.3	   2.30242	6.00249e+06	     76.94	      15.3	   2.29241	6.16057e+06	   76.9296	      15.3	   2.24197	 6.2133e+06	   76.8832	      15.3	   2.27911	6.02669e+06	   76.9141	      15.3	   2.29741	6.08112e+06	   76.9348	      15.3	   2.26719	6.18589e+06	   76.9039	      15.3	   2.24888	6.13292e+06	
         R10	   1275	   76.9296	      15.3	   2.24197	6.21463e+06	     76.94	      15.3	   2.29241	6.16047e+06	   76.9953	      15.3	   2.27784	6.30848e+06	   76.9837	      15.3	    2.2141	6.39094e+06	   76.9348	      15.3	   2.26719	6.18649e+06	   76.9677	      15.3	   2.28512	6.23415e+06	   76.9895	      15.3	   2.24597	6.34851e+06	   76.9566	      15.3	   2.22803	6.30239e+06	
         R10	   1276	   76.9837	      15.3	    2.2141	6.39006e+06	   76.9953	      15.3	   2.27784	6.31104e+06	   77.0552	      15.3	   2.26902	6.44251e+06	   77.0469	      15.3	       2.2	6.54587e+06	   76.9895	      15.3	   2.24597	6.34936e+06	   77.0253	      15.3	   2.27343	6.37644e+06	    77.051	      15.3	   2.23451	6.49326e+06	   77.0153	      15.3	   2.20705	 6.4674e+06	
         R10	   1277	   77.0469	      15.3	       2.2	6.54758e+06	   77.0552	      15.3	   2.26902	6.44078e+06	   77.1211	      15.3	   2.26304	 6.5653e+06	   77.1139	      15.3	   2.18767	6.67618e+06	    77.051	      15.3	   2.23451	6.49326e+06	   77.0881	      15.3	   2.26603	6.50265e+06	   77.1175	      15.3	   2.22535	6.61993e+06	   77.0804	      15.3	   2.19384	6.61147e+06	
         R10	   1278	   77.1139	      15.3	   2.18767	6.67585e+06	   77.1211	      15.3	   2.26304	6.56578e+06	   77.1927	      15.3	    2.2538	6.68405e+06	   77.1851	      15.3	   2.17706	6.79861e+06	   77.1175	      15.3	   2.22535	6.62001e+06	   77.1569	      15.3	   2.25842	6.62462e+06	   77.1889	      15.3	   2.21543	6.74068e+06	   77.1495	      15.3	   2.18236	6.73688e+06	
         R10	   1279	   77.1044	      15.3	    2.1056	6.81625e+06	   77.1139	      15.3	   2.18767	6.67664e+06	   77.1851	      15.3	   2.17706	6.79973e+06	   77.1792	      15.3	   2.08167	6.95782e+06	   77.1091	      15.3	   2.14663	6.74551e+06	   77.1495	      15.3	   2.18236	6.73779e+06	   77.1822	      15.3	   2.12936	 6.8778e+06	   77.1418	      15.3	   2.09363	6.88667e+06	
         R10	   1280	   77.1044	      15.3	    2.1056	6.81831e+06	   77.1792	      15.3	   2.08167	6.95748e+06	   77.1727	      15.3	   1.99116	 7.1315e+06	    77.089	      15.3	   2.00186	7.01928e+06	   77.1418	      15.3	   2.09363	6.88755e+06	    77.176	      15.3	   2.03641	7.04392e+06	   77.1309	      15.3	   1.99651	 7.0745e+06	   77.0967	      15.3	   2.05373	6.91739e+06	
         R10	   1281	    77.089	      15.3	   2.00186	7.02052e+06	   77.1727	      15.3	   1.99116	7.13221e+06	   77.1645	      15.3	   1.89718	7.32517e+06	   77.0787	      15.3	   1.90995	7.22484e+06	   77.1309	      15.3	   1.99651	7.07557e+06	   77.1686	      15.3	   1.94417	7.22819e+06	   77.1216	      15.3	   1.90356	7.27424e+06	   77.0838	      15.3	    1.9559	7.12221e+06	
         R10	   1282	   77.0787	      15.3	   1.90995	 7.2209e+06	   77.1645	      15.3	   1.89718	7.31587e+06	   77.1552	      15.3	   1.80128	7.51782e+06	   77.0546	      15.3	   1.80551	7.45176e+06	   77.1216	      15.3	   1.90356	7.26756e+06	   77.1598	      15.3	   1.84923	7.41655e+06	   77.1049	      15.3	   1.80339	7.48361e+06	   77.0667	      15.3	   1.85773	7.33577e+06	
         R10	   1283	   76.9264	      15.3	   1.84909	7.27024e+06	    76.938	      15.3	   1.77633	 7.4642e+06	    76.844	      15.3	   1.77482	7.44777e+06	   76.8419	      15.3	   1.85286	7.26274e+06	   76.9322	      15.3	   1.81271	7.36714e+06	    76.891	      15.3	   1.77558	7.45452e+06	    76.843	      15.3	   1.81384	7.35511e+06	   76.8841	      15.3	   1.85098	7.26514e+06	
         R10	   1284	   76.7471	      15.3	   1.87155	7.26111e+06	   76.6954	      15.3	   1.84329	7.34675e+06	   76.6712	      15.3	   1.90299	7.25349e+06	   76.7214	      15.3	   1.91583	7.18029e+06	   76.7213	      15.3	   1.85742	7.30351e+06	   76.6833	      15.3	   1.87314	7.29964e+06	   76.6963	      15.3	   1.90941	 7.2166e+06	   76.7343	      15.3	   1.89369	7.22026e+06	
         R10	   1285	   76.7214	      15.3	   1.91583	7.18656e+06	   76.6712	      15.3	   1.90299	7.26217e+06	   76.6616	      15.3	   1.95794	7.17562e+06	   76.7165	      15.3	   1.97016	7.05856e+06	   76.6963	      15.3	   1.90941	7.22401e+06	   76.6664	      15.3	   1.93046	 7.2184e+06	    76.689	      15.3	   1.96405	7.11648e+06	    76.719	      15.3	     1.943	7.12215e+06	
         R10	   1286	   76.7165	      15.3	   1.97016	7.06183e+06	   76.6616	      15.3	   1.95794	7.17406e+06	   76.6521	      15.3	   2.01192	 7.0936e+06	   76.6953	      15.3	   2.02525	 6.9464e+06	    76.689	      15.3	   1.96405	 7.1174e+06	   76.6568	      15.3	   1.98493	7.13317e+06	   76.6737	      15.3	   2.01859	 7.0196e+06	   76.7059	      15.3	   1.99771	 7.0034e+06	
         R10	   1287	   76.6953	      15.3	   2.02525	 6.9482e+06	   76.6521	      15.3	   2.01192	7.09295e+06	   76.6384	      15.3	   2.06268	7.03345e+06	   76.6805	      15.3	   2.07493	6.83543e+06	   76.6737	      15.3	   2.01859	7.02021e+06	   76.6452	      15.3	    2.0373	7.06232e+06	   76.6594	      15.3	   2.06881	6.93398e+06	   76.6879	      15.3	   2.05009	6.89093e+06	
         R10	   1288	   76.6805	      15.3	   2.07493	6.83471e+06	   76.6384	      15.3	   2.06268	7.03222e+06	   76.6233	      15.3	   2.11152	6.99897e+06	   76.6623	      15.3	   2.12384	6.72604e+06	   76.6594	      15.3	   2.06881	  6.933e+06	   76.6308	      15.3	    2.0871	 7.0145e+06	   76.6428	      15.3	   2.11768	6.86205e+06	   76.6714	      15.3	   2.09939	6.77901e+06	
         R10	   1289	   76.5842	      15.3	   2.17158	7.21768e+06	    76.558	      15.3	   2.16552	7.48041e+06	    76.568	      15.3	   2.19384	7.40717e+06	   76.5832	      15.3	   2.19385	7.18184e+06	   76.5711	      15.3	   2.16855	7.34886e+06	    76.563	      15.3	   2.17968	  7.443e+06	   76.5756	      15.3	   2.19384	7.29445e+06	   76.5837	      15.3	   2.18271	7.19931e+06	
         R10	   1290	   76.6124	      15.3	   2.16641	6.92209e+06	   76.6064	      15.3	   2.18945	6.88355e+06	   76.6344	      15.3	   2.18997	6.58584e+06	    76.636	      15.3	   2.16039	6.73228e+06	   76.6094	      15.3	   2.17793	6.90227e+06	   76.6204	      15.3	   2.18971	6.73425e+06	   76.6352	      15.3	   2.17518	6.65829e+06	   76.6242	      15.3	    2.1634	6.82683e+06	
         R10	   1291	   76.6665	      15.3	   2.16903	6.46266e+06	   76.6874	      15.3	   2.20362	 6.1062e+06	   76.7105	      15.3	   2.19971	6.04535e+06	   76.6987	      15.3	   2.17014	   6.29e+06	    76.677	      15.3	   2.18632	6.28208e+06	   76.6989	      15.3	   2.20166	 6.0747e+06	   76.7046	      15.3	   2.18492	6.16622e+06	   76.6826	      15.3	   2.16958	6.37492e+06	
         R10	   1292	   76.7381	      15.3	   2.19731	6.02484e+06	   76.7105	      15.3	   2.19971	6.04593e+06	   76.7098	      15.3	   2.22772	5.84114e+06	   76.7346	      15.3	   2.23091	5.80396e+06	   76.7243	      15.3	   2.19851	6.03402e+06	   76.7102	      15.3	   2.21372	5.94256e+06	   76.7222	      15.3	   2.22932	5.82092e+06	   76.7364	      15.3	   2.21411	 5.9129e+06	
         R10	   1293	    76.768	      15.3	   2.24052	5.79835e+06	   76.7346	      15.3	   2.23091	5.80003e+06	   76.7269	      15.3	   2.25886	5.61468e+06	   76.7498	      15.3	   2.27359	 5.5944e+06	   76.7513	      15.3	   2.23571	5.79638e+06	   76.7308	      15.3	   2.24488	5.70623e+06	   76.7384	      15.3	   2.26623	5.60178e+06	   76.7589	      15.3	   2.25706	5.69506e+06	
         R10	   1294	   76.7498	      15.3	   2.27359	5.59112e+06	   76.7269	      15.3	   2.25886	5.61708e+06	   76.7102	      15.3	   2.28181	5.43021e+06	   76.7291	      15.3	    2.2919	5.43521e+06	   76.7384	      15.3	   2.26623	5.60123e+06	   76.7186	      15.3	   2.27033	5.52271e+06	   76.7196	      15.3	   2.28685	5.43045e+06	   76.7394	      15.3	   2.28275	5.51264e+06	
         R10	   1295	   76.8158	      15.3	   2.22865	5.95356e+06	   76.8293	      15.3	   2.26838	 5.8797e+06	   76.8782	      15.3	    2.2558	6.05116e+06	   76.8648	      15.3	   2.21188	6.12748e+06	   76.8226	      15.3	   2.24852	5.91453e+06	   76.8538	      15.3	   2.26209	5.96463e+06	   76.8715	      15.3	   2.23384	 6.0877e+06	   76.8403	      15.3	   2.22027	6.03936e+06	
         R10	   1296	   76.8648	      15.3	   2.21188	6.12242e+06	   76.8782	      15.3	    2.2558	6.05312e+06	   76.9296	      15.3	   2.24197	  6.215e+06	   76.9124	      15.3	   2.19496	6.28069e+06	   76.8715	      15.3	   2.23384	6.08613e+06	   76.9039	      15.3	   2.24888	6.13344e+06	    76.921	      15.3	   2.21846	6.24654e+06	   76.8886	      15.3	   2.20342	 6.2008e+06	
         R10	   1297	   76.9124	      15.3	   2.19496	6.27186e+06	   76.9296	      15.3	   2.24197	6.21783e+06	   76.9837	      15.3	    2.2141	6.39104e+06	   76.9672	      15.3	   2.15994	6.47451e+06	    76.921	      15.3	   2.21846	 6.2435e+06	   76.9566	      15.3	   2.22803	6.30407e+06	   76.9755	      15.3	   2.18702	6.43171e+06	   76.9398	      15.3	   2.17745	6.37248e+06	
         R10	   1298	   76.9672	      15.3	   2.15994	6.47527e+06	   76.9837	      15.3	    2.2141	6.38811e+06	   77.0469	      15.3	       2.2	6.53779e+06	   77.0348	      15.3	   2.12457	6.67133e+06	   76.9755	      15.3	   2.18702	6.43064e+06	   77.0153	      15.3	   2.20705	6.46243e+06	   77.0409	      15.3	   2.16229	6.60338e+06	    77.001	      15.3	   2.14225	6.57278e+06	
         R10	   1299	   77.0348	      15.3	   2.12457	 6.6706e+06	   77.0469	      15.3	       2.2	6.54087e+06	   77.1139	      15.3	   2.18767	6.67659e+06	   77.1044	      15.3	    2.1056	6.81458e+06	   77.0409	      15.3	   2.16229	6.60453e+06	   77.0804	      15.3	   2.19384	 6.6083e+06	   77.1091	      15.3	   2.14663	6.74466e+06	   77.0696	      15.3	   2.11509	6.74207e+06	
         R10	   1300	   77.0091	      15.3	   2.04094	6.83153e+06	   77.0348	      15.3	   2.12457	6.67224e+06	   77.1044	      15.3	    2.1056	6.81827e+06	    77.089	      15.3	   2.00186	7.01361e+06	    77.022	      15.3	   2.08275	6.75041e+06	   77.0696	      15.3	   2.11509	6.74465e+06	   77.0967	      15.3	   2.05373	6.91459e+06	    77.049	      15.3	    2.0214	6.92194e+06	
         R10	   1301	   77.0091	      15.3	   2.04094	6.85049e+06	    77.089	      15.3	   2.00186	7.01541e+06	   77.0787	      15.3	   1.90995	7.22286e+06	   77.0019	      15.3	   1.92475	7.11345e+06	    77.049	      15.3	    2.0214	6.93216e+06	   77.0838	      15.3	    1.9559	7.11866e+06	   77.0403	      15.3	   1.91735	7.16726e+06	   77.0055	      15.3	   1.98284	6.98108e+06	
         R10	   1302	   76.9329	      15.3	   1.92023	7.10311e+06	   76.9264	      15.3	   1.84909	7.28166e+06	   76.8419	      15.3	   1.85286	7.27117e+06	   76.8649	      15.3	   1.91869	7.09069e+06	   76.9296	      15.3	   1.88466	7.19221e+06	   76.8841	      15.3	   1.85098	7.27513e+06	   76.8534	      15.3	   1.88577	7.18063e+06	   76.8989	      15.3	   1.91946	7.09572e+06	
         R10	   1303	   76.7487	      15.3	   1.76977	7.46305e+06	   76.6954	      15.3	   1.84329	7.35011e+06	   76.7471	      15.3	   1.87155	7.27043e+06	   76.7757	      15.3	   1.82919	7.32421e+06	    76.722	      15.3	   1.80653	7.40568e+06	   76.7213	      15.3	   1.85742	   7.31e+06	   76.7614	      15.3	   1.85037	 7.2971e+06	   76.7622	      15.3	   1.79948	7.39353e+06	
         R10	   1304	   76.7968	      15.3	   1.90292	7.15381e+06	   76.7471	      15.3	   1.87155	7.26106e+06	   76.7214	      15.3	   1.91583	7.18179e+06	   76.7822	      15.3	   1.94904	7.04336e+06	   76.7719	      15.3	   1.88723	7.20717e+06	   76.7343	      15.3	   1.89369	7.22096e+06	   76.7518	      15.3	   1.93243	 7.1116e+06	   76.7895	      15.3	   1.92598	7.09835e+06	
         R10	   1305	   76.7481	      15.3	   2.03618	6.80355e+06	   76.6953	      15.3	   2.02525	6.94017e+06	   76.6805	      15.3	   2.07493	6.83277e+06	   76.7213	      15.3	   2.09007	6.64104e+06	   76.7217	      15.3	   2.03072	6.87077e+06	   76.6879	      15.3	   2.05009	6.88558e+06	   76.7009	      15.3	    2.0825	6.73596e+06	   76.7347	      15.3	   2.06312	6.72112e+06	
         R10	   1306	   76.7213	      15.3	   2.09007	6.64355e+06	   76.6805	      15.3	   2.07493	6.83444e+06	   76.6623	      15.3	   2.12384	6.72878e+06	   76.6972	      15.3	   2.13056	6.52656e+06	   76.7009	      15.3	    2.0825	6.73812e+06	   76.6714	      15.3	   2.09939	6.78029e+06	   76.6797	      15.3	    2.1272	6.62675e+06	   76.7092	      15.3	   2.11031	  6.584e+06	
         R10	   1307	   76.5981	      15.3	   2.14505	7.11266e+06	   76.5842	      15.3	   2.17158	7.21007e+06	   76.6064	      15.3	   2.18945	6.90421e+06	   76.6124	      15.3	   2.16641	6.93066e+06	   76.5912	      15.3	   2.15832	7.16089e+06	   76.5953	      15.3	   2.18052	7.05663e+06	   76.6094	      15.3	   2.17793	6.91689e+06	   76.6053	      15.3	   2.15573	7.02131e+06	
         R10	   1308	   76.6233	      15.3	   2.11152	7.00564e+06	   76.5981	      15.3	   2.14505	7.10328e+06	   76.6124	      15.3	   2.16641	6.92804e+06	    76.636	      15.3	   2.16039	6.74866e+06	   76.6107	      15.3	   2.12828	7.05365e+06	   76.6053	      15.3	   2.15573	7.01529e+06	   76.6242	      15.3	    2.1634	6.83807e+06	   76.6296	      15.3	   2.13596	 6.8756e+06	
         R10	   1309	   76.6623	      15.3	   2.12384	6.73631e+06	   76.6233	      15.3	   2.11152	7.00987e+06	    76.636	      15.3	   2.16039	6.74948e+06	   76.6665	      15.3	   2.16903	6.47359e+06	   76.6428	      15.3	   2.11768	6.87267e+06	   76.6296	      15.3	   2.13596	6.87828e+06	   76.6513	      15.3	   2.16471	6.61054e+06	   76.6644	      15.3	   2.14644	 6.6035e+06	
         R10	   1310	   76.6972	      15.3	   2.13056	6.53055e+06	   76.6623	      15.3	   2.12384	6.73138e+06	   76.6665	      15.3	   2.16903	 6.4619e+06	   76.6987	      15.3	   2.17014	6.29391e+06	   76.6797	      15.3	    2.1272	6.63009e+06	   76.6644	      15.3	   2.14644	6.59526e+06	   76.6826	      15.3	   2.16958	6.37648e+06	   76.6979	      15.3	   2.15035	6.41122e+06	
         R10	   1311	   76.7279	      15.3	   2.13813	6.38857e+06	   76.6972	      15.3	   2.13056	6.53229e+06	   76.6987	      15.3	   2.17014	6.29665e+06	   76.7292	      15.3	    2.1648	6.23374e+06	   76.7125	      15.3	   2.13435	 6.4594e+06	   76.6979	      15.3	   2.15035	6.41351e+06	   76.7139	      15.3	   2.16747	  6.264e+06	   76.7285	      15.3	   2.15147	6.31066e+06	
         R10	   1312	   76.7292	      15.3	    2.1648	6.22788e+06	   76.6987	      15.3	   2.17014	 6.2918e+06	   76.7105	      15.3	   2.19971	  6.043e+06	   76.7381	      15.3	   2.19731	6.01936e+06	   76.7139	      15.3	   2.16747	6.25861e+06	   76.7046	      15.3	   2.18492	6.16598e+06	   76.7243	      15.3	   2.19851	 6.0298e+06	   76.7337	      15.3	   2.18106	6.12242e+06	
         R10	   1313	   76.7622	      15.3	   2.15683	6.23738e+06	   76.7292	      15.3	    2.1648	6.23137e+06	   76.7381	      15.3	   2.19731	6.02443e+06	   76.7697	      15.3	   2.19393	6.03282e+06	   76.7457	      15.3	   2.16082	6.23304e+06	   76.7337	      15.3	   2.18106	6.12668e+06	   76.7539	      15.3	   2.19562	6.02727e+06	   76.7659	      15.3	   2.17538	6.13365e+06	
         R10	   1314	   76.7697	      15.3	   2.19393	6.03005e+06	   76.7381	      15.3	   2.19731	6.01799e+06	   76.7346	      15.3	   2.23091	5.79776e+06	    76.768	      15.3	   2.24052	5.79187e+06	   76.7539	      15.3	   2.19562	6.02273e+06	   76.7364	      15.3	   2.21411	5.90635e+06	   76.7513	      15.3	   2.23571	5.79199e+06	   76.7688	      15.3	   2.21722	5.90852e+06	
         R10	   1315	    76.805	      15.3	   2.18842	6.09831e+06	   76.8158	      15.3	   2.22865	5.95018e+06	   76.8648	      15.3	   2.21188	6.12717e+06	     76.85	      15.3	   2.16971	6.22702e+06	   76.8104	      15.3	   2.20853	6.02223e+06	   76.8403	      15.3	   2.22027	6.03746e+06	   76.8574	      15.3	    2.1908	 6.1756e+06	   76.8275	      15.3	   2.17907	6.16153e+06	
         R10	   1316	     76.85	      15.3	   2.16971	6.23344e+06	   76.8648	      15.3	   2.21188	6.12468e+06	   76.9124	      15.3	   2.19496	6.28394e+06	   76.8929	      15.3	   2.15152	6.35767e+06	   76.8574	      15.3	    2.1908	6.17757e+06	   76.8886	      15.3	   2.20342	6.20355e+06	   76.9027	      15.3	   2.17324	6.31946e+06	   76.8714	      15.3	   2.16061	6.29488e+06	
         R10	   1317	   76.8929	      15.3	   2.15152	6.37947e+06	   76.9124	      15.3	   2.19496	6.26929e+06	   76.9672	      15.3	   2.15994	6.47478e+06	   76.9429	      15.3	   2.11734	6.51191e+06	   76.9027	      15.3	   2.17324	 6.3232e+06	   76.9398	      15.3	   2.17745	6.37132e+06	   76.9551	      15.3	   2.13864	 6.4922e+06	   76.9179	      15.3	   2.13443	6.44534e+06	
         R10	   1318	   76.9429	      15.3	   2.11734	6.53629e+06	   76.9672	      15.3	   2.15994	 6.4863e+06	   77.0348	      15.3	   2.12457	6.67342e+06	   77.0091	      15.3	   2.04094	6.83444e+06	   76.9551	      15.3	   2.13864	6.51019e+06	    77.001	      15.3	   2.14225	 6.5794e+06	    77.022	      15.3	   2.08275	6.75244e+06	    76.976	      15.3	   2.07914	6.68472e+06	
         R10	   1319	   77.0546	      15.3	   1.80551	7.44216e+06	    76.938	      15.3	   1.77633	7.45994e+06	   76.9264	      15.3	   1.84909	7.28712e+06	   76.9941	      15.3	   1.85397	7.29959e+06	   76.9963	      15.3	   1.79092	7.44873e+06	   76.9322	      15.3	   1.81271	7.37348e+06	   76.9603	      15.3	   1.85153	7.29241e+06	   77.0244	      15.3	   1.82974	7.37048e+06	
         R10	   1320	   76.9347	      15.3	   1.97923	6.93227e+06	   76.9329	      15.3	   1.92023	7.10808e+06	   76.8649	      15.3	   1.91869	7.09208e+06	   76.8601	      15.3	   1.97305	6.93025e+06	   76.9338	      15.3	   1.94973	7.01981e+06	   76.8989	      15.3	   1.91946	7.09897e+06	   76.8625	      15.3	   1.94587	7.01106e+06	   76.8974	      15.3	   1.97614	6.92924e+06	
         R10	   1321	   76.8419	      15.3	   1.85286	7.27016e+06	    76.844	      15.3	   1.77482	 7.4393e+06	   76.7487	      15.3	   1.76977	7.46628e+06	   76.7757	      15.3	   1.82919	7.33501e+06	    76.843	      15.3	   1.81384	7.35458e+06	   76.7964	      15.3	    1.7723	7.45176e+06	   76.7622	      15.3	   1.79948	7.40052e+06	   76.8088	      15.3	   1.84102	7.30173e+06	
         R10	   1322	   76.8419	      15.3	   1.85286	 7.2621e+06	   76.7757	      15.3	   1.82919	7.33546e+06	   76.7471	      15.3	   1.87155	7.25253e+06	   76.7968	      15.3	   1.90292	7.15856e+06	   76.8088	      15.3	   1.84102	7.29794e+06	   76.7614	      15.3	   1.85037	7.29384e+06	   76.7719	      15.3	   1.88723	7.20519e+06	   76.8193	      15.3	   1.87789	7.20969e+06	
         R10	   1323	   76.7555	      15.3	   2.11295	6.46409e+06	   76.7213	      15.3	   2.09007	6.63894e+06	   76.6972	      15.3	   2.13056	 6.5246e+06	   76.7279	      15.3	   2.13813	6.38784e+06	   76.7384	      15.3	   2.10151	6.55023e+06	   76.7092	      15.3	   2.11031	6.58079e+06	   76.7125	      15.3	   2.13435	6.45534e+06	   76.7417	      15.3	   2.12554	6.42513e+06	
         R10	   1324	   76.7555	      15.3	   2.11295	6.46941e+06	   76.7279	      15.3	   2.13813	6.39076e+06	   76.7292	      15.3	    2.1648	6.23009e+06	   76.7622	      15.3	   2.15683	6.23349e+06	   76.7417	      15.3	   2.12554	6.42928e+06	   76.7285	      15.3	   2.15147	6.30993e+06	   76.7457	      15.3	   2.16082	6.23063e+06	   76.7588	      15.3	   2.13489	6.35037e+06	
         R10	   1325	   76.8345	      15.3	   2.12526	6.38148e+06	     76.85	      15.3	   2.16971	6.23889e+06	   76.8929	      15.3	   2.15152	6.35462e+06	   76.8695	      15.3	    2.1087	6.47318e+06	   76.8422	      15.3	   2.14749	 6.3088e+06	   76.8714	      15.3	   2.16061	6.29604e+06	   76.8812	      15.3	   2.13011	6.41254e+06	    76.852	      15.3	   2.11698	6.42679e+06	
         R10	   1326	   76.8695	      15.3	    2.1087	6.47127e+06	   76.8929	      15.3	   2.15152	6.38687e+06	   76.9429	      15.3	   2.11734	6.53273e+06	   76.9077	      15.3	    2.0802	6.62128e+06	   76.8812	      15.3	   2.13011	6.42746e+06	   76.9179	      15.3	   2.13443	6.45944e+06	   76.9253	      15.3	   2.09877	6.57605e+06	   76.8886	      15.3	   2.09445	6.54569e+06	
         R10	   1327	   77.0019	      15.3	   1.92475	 7.1303e+06	   77.0787	      15.3	   1.90995	7.22069e+06	   77.0546	      15.3	   1.80551	 7.4373e+06	   76.9941	      15.3	   1.85397	  7.309e+06	   77.0403	      15.3	   1.91735	7.17451e+06	   77.0667	      15.3	   1.85773	7.32827e+06	   77.0244	      15.3	   1.82974	7.37285e+06	    76.998	      15.3	   1.88936	7.21957e+06	
         R10	   1328	   77.0019	      15.3	   1.92475	7.12175e+06	   76.9941	      15.3	   1.85397	 7.2938e+06	   76.9264	      15.3	   1.84909	7.28481e+06	   76.9329	      15.3	   1.92023	7.09818e+06	    76.998	      15.3	   1.88936	7.20769e+06	   76.9603	      15.3	   1.85153	7.28826e+06	   76.9296	      15.3	   1.88466	7.19125e+06	   76.9674	      15.3	   1.92249	7.10903e+06	
         R10	   1329	   77.0091	      15.3	   2.04094	6.83761e+06	   77.0019	      15.3	   1.92475	7.11443e+06	   76.9329	      15.3	   1.92023	7.10145e+06	   76.9347	      15.3	   1.97923	 6.9249e+06	   77.0055	      15.3	   1.98284	6.97513e+06	   76.9674	      15.3	   1.92249	7.10683e+06	   76.9338	      15.3	   1.94973	7.01287e+06	   76.9719	      15.3	   2.01008	  6.879e+06	
         R10	   1330	   76.9171	      15.3	   2.02684	6.77532e+06	   76.9347	      15.3	   1.97923	6.92396e+06	   76.8601	      15.3	   1.97305	6.93101e+06	   76.8605	      15.3	   2.02682	6.75059e+06	   76.9259	      15.3	   2.00303	6.84938e+06	   76.8974	      15.3	   1.97614	6.92514e+06	   76.8603	      15.3	   1.99993	6.84041e+06	   76.8888	      15.3	   2.02683	6.76192e+06	
         R10	   1331	   76.8601	      15.3	   1.97305	6.92427e+06	   76.8649	      15.3	   1.91869	7.09095e+06	   76.7968	      15.3	   1.90292	7.15421e+06	   76.7822	      15.3	   1.94904	7.03769e+06	   76.8625	      15.3	   1.94587	7.00745e+06	   76.8308	      15.3	    1.9108	7.12146e+06	   76.7895	      15.3	   1.92598	 7.0957e+06	   76.8211	      15.3	   1.96104	  6.979e+06	
         R10	   1332	   76.7481	      15.3	   2.03618	6.80402e+06	   76.7213	      15.3	   2.09007	6.64376e+06	   76.7555	      15.3	   2.11295	6.46724e+06	   76.7874	      15.3	   2.08995	6.53185e+06	   76.7347	      15.3	   2.06312	6.72269e+06	   76.7384	      15.3	   2.10151	6.55429e+06	   76.7715	      15.3	   2.10145	6.49888e+06	   76.7677	      15.3	   2.06306	6.66629e+06	
         R10	   1333	    76.805	      15.3	   2.18842	6.09519e+06	     76.85	      15.3	   2.16971	6.23322e+06	   76.8345	      15.3	   2.12526	6.38196e+06	   76.7989	      15.3	   2.14046	 6.3047e+06	   76.8275	      15.3	   2.17907	6.16303e+06	   76.8422	      15.3	   2.14749	6.30623e+06	   76.8167	      15.3	   2.13286	6.34253e+06	   76.8019	      15.3	   2.16444	6.19836e+06	
         R10	   1334	   76.7822	      15.3	   1.94904	 7.0469e+06	   76.7165	      15.3	   1.97016	7.05607e+06	   76.7481	      15.3	   2.03618	6.81812e+06	   76.7925	      15.3	   2.00892	6.83878e+06	   76.7493	      15.3	    1.9596	7.05002e+06	   76.7323	      15.3	   2.00317	6.93644e+06	   76.7703	      15.3	   2.02255	6.82747e+06	   76.7874	      15.3	   1.97898	6.94235e+06	
         R10	   1335	   76.7925	      15.3	   2.00892	6.82357e+06	   76.7481	      15.3	   2.03618	6.80063e+06	   76.7874	      15.3	   2.08995	6.52935e+06	   76.8154	      15.3	    2.0637	6.63019e+06	   76.7703	      15.3	   2.02255	6.81116e+06	   76.7677	      15.3	   2.06306	6.66328e+06	   76.8014	      15.3	   2.07683	6.57918e+06	    76.804	      15.3	   2.03631	6.72622e+06	
         R10	   1336	   76.8605	      15.3	   2.02682	6.75683e+06	   76.8601	      15.3	   1.97305	6.92899e+06	   76.7822	      15.3	   1.94904	7.03703e+06	   76.7925	      15.3	   2.00892	6.83329e+06	   76.8603	      15.3	   1.99993	6.84264e+06	   76.8211	      15.3	   1.96104	6.98097e+06	   76.7874	      15.3	   1.97898	6.93464e+06	   76.8265	      15.3	   2.01787	6.79282e+06	
         R10	   1337	   76.9417	      15.3	   2.05242	6.72181e+06	   76.9077	      15.3	    2.0802	6.60473e+06	   76.9429	      15.3	   2.11734	6.53917e+06	   77.0091	      15.3	   2.04094	6.82796e+06	   76.9247	      15.3	   2.06631	6.66277e+06	   76.9253	      15.3	   2.09877	6.57104e+06	    76.976	      15.3	   2.07914	6.68272e+06	   76.9754	      15.3	   2.04668	6.77339e+06	
         R10	   1338	   76.9417	      15.3	   2.05242	6.74653e+06	   77.0091	      15.3	   2.04094	6.84783e+06	   76.9347	      15.3	   1.97923	6.92144e+06	   76.9171	      15.3	   2.02684	6.77913e+06	   76.9754	      15.3	   2.04668	6.79641e+06	   76.9719	      15.3	   2.01008	6.88223e+06	   76.9259	      15.3	   2.00303	6.85011e+06	   76.9294	      15.3	   2.03963	6.76238e+06	
         R10	   1339	   76.9417	      15.3	   2.05242	 6.7215e+06	   76.9171	      15.3	   2.02684	6.76387e+06	   76.8605	      15.3	   2.02682	6.75816e+06	   76.9077	      15.3	    2.0802	6.62464e+06	   76.9294	      15.3	   2.03963	6.74241e+06	   76.8888	      15.3	   2.02683	6.75984e+06	   76.8841	      15.3	   2.05351	6.68909e+06	   76.9247	      15.3	   2.06631	6.67274e+06	
         R10	   1340	   76.8486	      15.3	   2.06779	6.61033e+06	   76.8605	      15.3	   2.02682	6.75926e+06	   76.7925	      15.3	   2.00892	 6.8361e+06	   76.8154	      15.3	    2.0637	6.63381e+06	   76.8546	      15.3	    2.0473	6.68451e+06	   76.8265	      15.3	   2.01787	6.79563e+06	    76.804	      15.3	   2.03631	6.73432e+06	    76.832	      15.3	   2.06574	6.62127e+06	
         R10	   1341	   76.8486	      15.3	   2.06779	6.59805e+06	   76.8154	      15.3	    2.0637	6.62532e+06	   76.8345	      15.3	   2.12526	6.38328e+06	   76.8695	      15.3	    2.1087	6.47776e+06	    76.832	      15.3	   2.06574	6.61091e+06	   76.8249	      15.3	   2.09448	6.50265e+06	    76.852	      15.3	   2.11698	   6.43e+06	    76.859	      15.3	   2.08824	6.53714e+06	
         R10	   1342	   76.8486	      15.3	   2.06779	6.60553e+06	   76.8695	      15.3	    2.1087	6.47212e+06	   76.9077	      15.3	    2.0802	6.61534e+06	   76.8605	      15.3	   2.02682	6.73318e+06	    76.859	      15.3	   2.08824	6.53815e+06	   76.8886	      15.3	   2.09445	6.54325e+06	   76.8841	      15.3	   2.05351	6.67205e+06	   76.8546	      15.3	    2.0473	6.66907e+06	
         R10	   1343	   76.7989	      15.3	   2.14046	6.30711e+06	   76.8345	      15.3	   2.12526	6.38544e+06	   76.8154	      15.3	    2.0637	6.62764e+06	   76.7874	      15.3	   2.08995	6.53285e+06	   76.8167	      15.3	   2.13286	6.34546e+06	   76.8249	      15.3	   2.09448	6.50478e+06	   76.8014	      15.3	   2.07683	6.57975e+06	   76.7931	      15.3	   2.11521	6.41885e+06	
         R10	   1344	   76.7622	      15.3	   2.15683	6.23641e+06	   76.7989	      15.3	   2.14046	6.30418e+06	   76.7874	      15.3	   2.08995	6.52977e+06	   76.7555	      15.3	   2.11295	6.46677e+06	   76.7805	      15.3	   2.14865	6.26919e+06	   76.7931	      15.3	   2.11521	6.41581e+06	   76.7715	      15.3	   2.10145	6.49753e+06	   76.7588	      15.3	   2.13489	6.35051e+06	
         R10	   1345	    76.805	      15.3	   2.18842	6.09094e+06	   76.7989	      15.3	   2.14046	6.30428e+06	   76.7622	      15.3	   2.15683	6.23517e+06	   76.7697	      15.3	   2.19393	 6.0322e+06	   76.8019	      15.3	   2.16444	6.19597e+06	   76.7805	      15.3	   2.14865	6.26868e+06	   76.7659	      15.3	   2.17538	6.13232e+06	   76.7873	      15.3	   2.19117	6.06029e+06	
         R10	   1346	   76.8158	      15.3	   2.22865	5.95271e+06	    76.805	      15.3	   2.18842	 6.0964e+06	   76.7697	      15.3	   2.19393	6.03372e+06	    76.768	      15.3	   2.24052	5.80335e+06	   76.8104	      15.3	   2.20853	6.02259e+06	   76.7873	      15.3	   2.19117	 6.0637e+06	   76.7688	      15.3	   2.21722	5.91625e+06	   76.7919	      15.3	   2.23458	5.87618e+06	
         R10	   1347	    76.768	      15.3	   2.24052	5.79281e+06	   76.7904	      15.3	   2.28614	5.68541e+06	   76.8293	      15.3	   2.26838	5.87627e+06	   76.8158	      15.3	   2.22865	5.94864e+06	   76.7792	      15.3	   2.26333	5.73343e+06	   76.8099	      15.3	   2.27726	5.78011e+06	   76.8226	      15.3	   2.24852	5.91025e+06	   76.7919	      15.3	   2.23458	5.86898e+06	
         R10	   1348	   76.7575	      15.3	    2.3031	5.51628e+06	   76.7904	      15.3	   2.28614	5.69161e+06	    76.768	      15.3	   2.24052	5.78653e+06	   76.7498	      15.3	   2.27359	5.58893e+06	    76.774	      15.3	   2.29462	5.60348e+06	   76.7792	      15.3	   2.26333	5.73306e+06	   76.7589	      15.3	   2.25706	5.68661e+06	   76.7536	      15.3	   2.28834	5.54942e+06	
         R10	   1349	   76.7304	      15.3	   2.32001	5.32962e+06	   76.7575	      15.3	    2.3031	5.51421e+06	   76.7498	      15.3	   2.27359	5.58646e+06	   76.7291	      15.3	    2.2919	5.42862e+06	    76.744	      15.3	   2.31155	5.42129e+06	   76.7536	      15.3	   2.28834	5.54743e+06	   76.7394	      15.3	   2.28275	5.50699e+06	   76.7298	      15.3	   2.30595	 5.3758e+06	
         R10	   1350	   76.7081	      15.3	   2.31463	5.22063e+06	   76.7291	      15.3	    2.2919	5.43996e+06	   76.7102	      15.3	   2.28181	5.41947e+06	   76.7041	      15.3	   2.29777	5.29588e+06	   76.7186	      15.3	   2.30326	5.32902e+06	   76.7196	      15.3	   2.28685	5.42749e+06	   76.7071	      15.3	   2.28979	5.35687e+06	   76.7061	      15.3	    2.3062	 5.2562e+06	
         R10	   1351	   76.7131	      15.3	    2.3299	5.20352e+06	   76.7068	      15.3	   2.35232	5.11163e+06	   76.7346	      15.3	   2.34477	5.30428e+06	   76.7304	      15.3	   2.32001	5.32689e+06	   76.7099	      15.3	   2.34111	5.15465e+06	   76.7207	      15.3	   2.34855	5.20748e+06	   76.7325	      15.3	   2.33239	5.31279e+06	   76.7217	      15.3	   2.32496	5.26488e+06	
         R10	   1352	   76.7131	      15.3	    2.3299	5.19484e+06	   76.7304	      15.3	   2.32001	5.32672e+06	   76.7291	      15.3	    2.2919	5.43194e+06	   76.7081	      15.3	   2.31463	5.23411e+06	   76.7217	      15.3	   2.32496	5.26033e+06	   76.7298	      15.3	   2.30595	5.37593e+06	   76.7186	      15.3	   2.30326	5.33187e+06	   76.7106	      15.3	   2.32227	 5.2121e+06	
         R10	   1353	   76.7131	      15.3	    2.3299	5.19728e+06	   76.7081	      15.3	   2.31463	5.22191e+06	   76.6889	      15.3	   2.33208	5.02505e+06	   76.7068	      15.3	   2.35232	5.10329e+06	   76.7106	      15.3	   2.32227	5.20743e+06	   76.6985	      15.3	   2.32336	5.12186e+06	   76.6978	      15.3	    2.3422	5.05849e+06	   76.7099	      15.3	   2.34111	5.14728e+06	
         R10	   1354	   76.5223	      15.3	   2.21175	8.07177e+06	    76.517	      15.3	      2.23	8.31779e+06	    76.534	      15.3	      2.23	8.05064e+06	   76.5197	      15.3	   2.22088	8.19462e+06	   76.5255	      15.3	      2.23	8.18318e+06	   76.5282	      15.3	   2.22088	8.06054e+06	       N/A	       N/A	       N/A	        N/A	       N/A	       N/A	       N/A	        N/A	
         R10	   1355	   76.6064	      15.3	   2.18945	6.89284e+06	    76.601	      15.3	   2.21312	6.83512e+06	   76.6193	      15.3	   2.21207	6.60771e+06	   76.6037	      15.3	   2.20128	6.86328e+06	   76.6101	      15.3	   2.21259	6.72121e+06	   76.6129	      15.3	   2.20076	6.74936e+06	       N/A	       N/A	       N/A	        N/A	       N/A	       N/A	       N/A	        N/A	
         R10	   1356	   76.6549	      15.3	   2.19396	6.36983e+06	   76.6519	      15.3	   2.21336	6.23572e+06	   76.6698	      15.3	   2.21049	6.13895e+06	   76.6534	      15.3	   2.20366	6.30231e+06	   76.6608	      15.3	   2.21192	6.18673e+06	   76.6623	      15.3	   2.20222	 6.2535e+06	       N/A	       N/A	       N/A	        N/A	       N/A	       N/A	       N/A	        N/A	
         R10	   1357	   76.7062	      15.3	   2.24804	5.67956e+06	   76.6865	      15.3	   2.24602	5.72581e+06	   76.6899	      15.3	   2.26385	5.55547e+06	   76.6963	      15.3	   2.24703	5.70118e+06	   76.6882	      15.3	   2.25493	5.63932e+06	    76.698	      15.3	   2.25594	5.61692e+06	       N/A	       N/A	       N/A	        N/A	       N/A	       N/A	       N/A	        N/A	
         R10	   1358	   76.7081	      15.3	   2.31463	5.23302e+06	   76.6868	      15.3	     2.314	5.12469e+06	   76.6889	      15.3	   2.33208	5.03856e+06	   76.6975	      15.3	   2.31432	5.17746e+06	   76.6878	      15.3	   2.32304	5.07794e+06	   76.6985	      15.3	   2.32336	5.13423e+06	       N/A	       N/A	       N/A	        N/A	       N/A	       N/A	       N/A	        N/A	
         R10	   1359	    76.558	      15.3	   2.16552	7.46792e+06	   76.5457	      15.3	   2.19313	7.67435e+06	    76.568	      15.3	   2.19384	7.39627e+06	   76.5518	      15.3	   2.17933	7.57088e+06	   76.5569	      15.3	   2.19348	 7.5351e+06	    76.563	      15.3	   2.17968	7.43134e+06	       N/A	       N/A	       N/A	        N/A	       N/A	       N/A	       N/A	        N/A	
         R10	   1360	   76.7269	      15.3	   2.25886	5.61981e+06	   76.7055	      15.3	    2.2691	5.51288e+06	   76.7102	      15.3	   2.28181	5.42376e+06	   76.7162	      15.3	   2.26398	5.56558e+06	   76.7079	      15.3	   2.27545	5.46727e+06	   76.7186	      15.3	   2.27033	 5.5208e+06	       N/A	       N/A	       N/A	        N/A	       N/A	       N/A	       N/A	        N/A	
         R10	   1361	   76.5842	      15.3	   2.17158	7.20923e+06	   76.5832	      15.3	   2.19385	7.16579e+06	   76.6064	      15.3	   2.18945	6.90051e+06	   76.5837	      15.3	   2.18271	7.18708e+06	   76.5948	      15.3	   2.19165	 7.0331e+06	   76.5953	      15.3	   2.18052	7.05436e+06	       N/A	       N/A	       N/A	        N/A	       N/A	       N/A	       N/A	        N/A	
         R10	   1362	   76.7822	      15.3	   1.94904	7.03664e+06	   76.7214	      15.3	   1.91583	7.17654e+06	   76.7165	      15.3	   1.97016	7.04606e+06	   76.7518	      15.3	   1.93243	7.10572e+06	    76.719	      15.3	     1.943	7.11088e+06	   76.7493	      15.3	    1.9596	 7.0399e+06	       N/A	       N/A	       N/A	        N/A	       N/A	       N/A	       N/A	        N/A	
         R10	   1363	   76.8649	      15.3	   1.91869	7.09238e+06	   76.8419	      15.3	   1.85286	7.26271e+06	   76.7968	      15.3	   1.90292	7.14923e+06	   76.8534	      15.3	   1.88577	7.17729e+06	   76.8193	      15.3	   1.87789	7.20549e+06	   76.8308	      15.3	    1.9108	7.11989e+06	       N/A	       N/A	       N/A	        N/A	       N/A	       N/A	       N/A	        N/A	
         R10	   1364	   76.7165	      15.3	   1.97016	 7.0518e+06	   76.6953	      15.3	   2.02525	6.93391e+06	   76.7481	      15.3	   2.03618	6.80474e+06	   76.7059	      15.3	   1.99771	6.99215e+06	   76.7217	      15.3	   2.03072	6.86843e+06	   76.7323	      15.3	   2.00317	6.92752e+06	       N/A	       N/A	       N/A	        N/A	       N/A	       N/A	       N/A	        N/A	
         R10	   1365	   76.6847	      15.3	   2.34923	4.94695e+06	   76.6869	      15.3	   2.36619	4.94301e+06	   76.7068	      15.3	   2.35232	 5.1131e+06	   76.6858	      15.3	   2.35771	4.94144e+06	   76.6968	      15.3	   2.35926	5.02629e+06	   76.6957	      15.3	   2.35077	5.02907e+06	       N/A	       N/A	       N/A	        N/A	       N/A	       N/A	       N/A	        N/A	
         R10	   1366	   76.6847	      15.3	   2.34923	4.95179e+06	   76.7068	      15.3	   2.35232	5.11102e+06	   76.6889	      15.3	   2.33208	5.03561e+06	   76.6957	      15.3	   2.35077	5.03024e+06	   76.6978	      15.3	    2.3422	5.06714e+06	   76.6868	      15.3	   2.34065	4.99106e+06	       N/A	       N/A	       N/A	        N/A	       N/A	       N/A	       N/A	        N/A	
         R10	   1367	      76.5	    15.147	      2.23	 1.9482e+07	      76.5	     15.13	      2.23	1.93287e+07	      76.5	     15.13	     2.247	1.93831e+07	      76.5	    15.147	     2.247	1.95596e+07	      76.5	   15.1385	      2.23	1.94052e+07	      76.5	     15.13	    2.2385	1.93558e+07	      76.5	   15.1385	     2.247	1.94711e+07	      76.5	    15.147	    2.2385	1.95207e+07	
         R10	   1368	      76.5	    15.147	     2.247	1.95599e+07	      76.5	     15.13	     2.247	1.93842e+07	      76.5	     15.13	     2.264	1.94258e+07	      76.5	    15.147	     2.264	 1.9628e+07	      76.5	   15.1385	     2.247	1.94719e+07	      76.5	     15.13	    2.2555	1.94049e+07	      76.5	   15.1385	     2.264	1.95268e+07	      76.5	    15.147	    2.2555	1.95938e+07	
         R10	   1369	      76.5	    15.147	     2.264	1.96285e+07	      76.5	     15.13	     2.264	1.94267e+07	      76.5	     15.13	     2.281	1.94521e+07	      76.5	    15.147	     2.281	1.96802e+07	      76.5	   15.1385	     2.264	1.95274e+07	      76.5	     15.13	    2.2725	1.94392e+07	      76.5	   15.1385	     2.281	 1.9566e+07	      76.5	    15.147	    2.2725	1.96541e+07	
         R10	   1370	      76.5	    15.147	     2.281	1.96807e+07	      76.5	     15.13	     2.281	1.94528e+07	      76.5	     15.13	     2.298	1.94576e+07	      76.5	    15.147	     2.298	1.97097e+07	      76.5	   15.1385	     2.281	1.95666e+07	      76.5	     15.13	    2.2895	 1.9455e+07	      76.5	   15.1385	     2.298	1.95836e+07	      76.5	    15.147	    2.2895	 1.9695e+07	
         R10	   1371	      76.5	    15.147	     2.298	1.97103e+07	      76.5	     15.13	     2.298	1.94576e+07	      76.5	     15.13	     2.315	1.94382e+07	      76.5	    15.147	     2.315	1.97097e+07	      76.5	   15.1385	     2.298	1.95838e+07	      76.5	     15.13	    2.3065	1.94477e+07	      76.5	   15.1385	     2.315	1.95739e+07	      76.5	    15.147	    2.3065	1.97097e+07	
         R10	   1372	      76.5	    15.147	     2.315	1.97099e+07	      76.5	     15.13	     2.315	 1.9438e+07	      76.5	     15.13	     2.332	1.93918e+07	      76.5	    15.147	     2.332	1.96762e+07	      76.5	   15.1385	     2.315	1.95739e+07	      76.5	     15.13	    2.3235	1.94147e+07	      76.5	   15.1385	     2.332	1.95339e+07	      76.5	    15.147	    2.3235	1.96927e+07	
         R10	   1373	      76.5	    15.147	     2.332	1.96757e+07	      76.5	     15.13	     2.332	1.93918e+07	      76.5	     15.13	     2.349	1.93216e+07	      76.5	    15.147	     2.349	1.96088e+07	      76.5	   15.1385	     2.332	1.95337e+07	      76.5	     15.13	    2.3405	1.93565e+07	      76.5	   15.1385	     2.349	1.94652e+07	      76.5	    15.147	    2.3405	 1.9642e+07	
         R10	   1374	      76.5	    15.147	     2.349	1.96077e+07	      76.5	     15.13	     2.349	1.93212e+07	      76.5	     15.13	     2.366	1.92346e+07	      76.5	    15.147	     2.366	1.95154e+07	      76.5	   15.1385	     2.349	1.94644e+07	      76.5	     15.13	    2.3575	1.92777e+07	      76.5	   15.1385	     2.366	 1.9375e+07	      76.5	    15.147	    2.3575	1.95613e+07	
         R10	   1375	      76.5	    15.147	     2.366	1.95141e+07	      76.5	     15.13	     2.366	 1.9232e+07	      76.5	     15.13	     2.383	1.91419e+07	      76.5	    15.147	     2.383	1.94127e+07	      76.5	   15.1385	     2.366	 1.9373e+07	      76.5	     15.13	    2.3745	1.91868e+07	      76.5	   15.1385	     2.383	1.92773e+07	      76.5	    15.147	    2.3745	1.94632e+07	
         R10	   1376	      76.5	    15.147	     2.383	1.94123e+07	      76.5	     15.13	     2.383	1.91406e+07	      76.5	     15.13	       2.4	1.90562e+07	      76.5	    15.147	       2.4	1.93175e+07	      76.5	   15.1385	     2.383	1.92764e+07	      76.5	     15.13	    2.3915	1.90983e+07	      76.5	   15.1385	       2.4	1.91869e+07	      76.5	    15.147	    2.3915	1.93647e+07	
         R10	   1377	      76.5	    15.164	     2.383	 1.9723e+07	      76.5	    15.147	     2.383	 1.9411e+07	      76.5	    15.147	       2.4	1.93185e+07	      76.5	    15.164	       2.4	1.96168e+07	      76.5	   15.1555	     2.383	 1.9567e+07	      76.5	    15.147	    2.3915	1.93646e+07	      76.5	   15.1555	       2.4	1.94676e+07	      76.5	    15.164	    2.3915	1.96697e+07	
         R10	   1378	      76.5	    15.164	     2.383	 1.9721e+07	      76.5	    15.164	       2.4	1.96191e+07	      76.5	    15.181	       2.4	1.99616e+07	      76.5	    15.181	     2.383	2.00888e+07	      76.5	    15.164	    2.3915	1.96699e+07	      76.5	   15.1725	       2.4	1.97904e+07	      76.5	    15.181	    2.3915	 2.0025e+07	      76.5	   15.1725	     2.383	1.99049e+07	
         R10	   1379	      76.5	    15.181	     2.383	2.00861e+07	      76.5	    15.181	       2.4	1.99645e+07	      76.5	    15.198	       2.4	2.03649e+07	      76.5	    15.198	     2.383	2.05275e+07	      76.5	    15.181	    2.3915	 2.0025e+07	      76.5	   15.1895	       2.4	2.01647e+07	      76.5	    15.198	    2.3915	2.04458e+07	      76.5	   15.1895	     2.383	2.03067e+07	
         R10	   1380	      76.5	    15.198	     2.383	2.05242e+07	      76.5	    15.198	       2.4	2.03677e+07	      76.5	    15.215	       2.4	2.08418e+07	      76.5	    15.215	     2.383	2.10686e+07	      76.5	    15.198	    2.3915	2.04456e+07	      76.5	   15.2065	       2.4	2.06047e+07	      76.5	    15.215	    2.3915	2.09547e+07	      76.5	   15.2065	     2.383	2.07963e+07	
         R10	   1381	      76.5	    15.215	     2.383	2.10658e+07	      76.5	    15.215	       2.4	2.08429e+07	      76.5	    15.232	       2.4	2.14199e+07	      76.5	    15.232	     2.383	2.17416e+07	      76.5	    15.215	    2.3915	2.09538e+07	      76.5	   15.2235	       2.4	2.11312e+07	      76.5	    15.232	    2.3915	  2.158e+07	      76.5	   15.2235	     2.383	2.14034e+07	
         R10	   1382	      76.5	    15.232	     2.383	2.17453e+07	      76.5	    15.232	       2.4	2.14106e+07	      76.5	    15.249	       2.4	 2.2097e+07	      76.5	    15.249	     2.383	2.26137e+07	      76.5	    15.232	    2.3915	2.15772e+07	      76.5	   15.2405	       2.4	2.17531e+07	      76.5	    15.249	    2.3915	 2.2354e+07	      76.5	   15.2405	     2.383	2.21783e+07	
         R10	   1383	      76.5	    15.249	     2.383	2.26343e+07	      76.5	    15.249	       2.4	2.20666e+07	      76.5	    15.266	       2.4	2.29844e+07	      76.5	    15.266	     2.383	2.35843e+07	      76.5	    15.249	    2.3915	2.23491e+07	      76.5	   15.2575	       2.4	2.25214e+07	      76.5	    15.266	    2.3915	2.32834e+07	      76.5	   15.2575	     2.383	 2.3106e+07	
         R10	   1384	      76.5	    15.266	     2.383	2.36861e+07	      76.5	    15.266	       2.4	2.28149e+07	      76.5	    15.283	       2.4	2.36335e+07	      76.5	    15.283	     2.383	2.48436e+07	      76.5	    15.266	    2.3915	2.32495e+07	      76.5	   15.2745	       2.4	2.32187e+07	      76.5	    15.283	    2.3915	2.42313e+07	      76.5	   15.2745	     2.383	2.42487e+07	
         R10	   1385	      76.5	    15.283	     2.383	 2.5193e+07	      76.5	    15.283	       2.4	2.30805e+07	      76.5	      15.3	       2.4	2.59448e+07	      76.5	      15.3	     2.383	2.50243e+07	      76.5	    15.283	    2.3915	2.41313e+07	      76.5	   15.2915	       2.4	2.44118e+07	      76.5	      15.3	    2.3915	2.54647e+07	      76.5	   15.2915	     2.383	2.50672e+07	
         R10	   1386	      76.5	    15.283	     2.366	 2.4516e+07	      76.5	    15.283	     2.383	  2.519e+07	      76.5	      15.3	     2.383	 2.5127e+07	      76.5	      15.3	     2.366	2.39799e+07	      76.5	    15.283	    2.3745	2.48391e+07	      76.5	   15.2915	     2.383	2.51095e+07	      76.5	      15.3	    2.3745	 2.4546e+07	      76.5	   15.2915	     2.366	2.42319e+07	
         R10	   1387	      76.5	    15.283	     2.366	  2.436e+07	      76.5	      15.3	     2.366	2.41274e+07	      76.5	      15.3	     2.349	2.29844e+07	      76.5	    15.283	     2.349	2.34769e+07	      76.5	   15.2915	     2.366	 2.4227e+07	      76.5	      15.3	    2.3575	2.35532e+07	      76.5	   15.2915	     2.349	2.32229e+07	      76.5	    15.283	    2.3575	2.39151e+07	
         R10	   1388	      76.5	    15.283	     2.349	2.34354e+07	      76.5	      15.3	     2.349	2.30167e+07	      76.5	      15.3	     2.332	2.22158e+07	      76.5	    15.283	     2.332	2.25511e+07	      76.5	   15.2915	     2.349	2.32181e+07	      76.5	      15.3	    2.3405	2.26158e+07	      76.5	   15.2915	     2.332	2.23793e+07	      76.5	    15.283	    2.3405	2.29924e+07	
         R10	   1389	      76.5	    15.283	     2.332	2.25471e+07	      76.5	      15.3	     2.332	2.22125e+07	      76.5	      15.3	     2.315	2.15854e+07	      76.5	    15.283	     2.315	2.18432e+07	      76.5	   15.2915	     2.332	2.23756e+07	      76.5	      15.3	    2.3235	2.18988e+07	      76.5	   15.2915	     2.315	2.17117e+07	      76.5	    15.283	    2.3235	 2.2195e+07	
         R10	   1390	      76.5	    15.283	     2.315	2.18482e+07	      76.5	      15.3	     2.315	2.15747e+07	      76.5	      15.3	     2.298	2.10832e+07	      76.5	    15.283	     2.298	2.12868e+07	      76.5	   15.2915	     2.315	2.17088e+07	      76.5	      15.3	    2.3065	2.13288e+07	      76.5	   15.2915	     2.298	2.11833e+07	      76.5	    15.283	    2.3065	2.15675e+07	
         R10	   1391	      76.5	    15.283	     2.298	2.12924e+07	      76.5	      15.3	     2.298	2.10735e+07	      76.5	      15.3	     2.281	2.06742e+07	      76.5	    15.283	     2.281	2.08438e+07	      76.5	   15.2915	     2.298	2.11812e+07	      76.5	      15.3	    2.2895	2.08737e+07	      76.5	   15.2915	     2.281	2.07577e+07	      76.5	    15.283	    2.2895	 2.1068e+07	
         R10	   1392	      76.5	    15.283	     2.281	2.08481e+07	      76.5	      15.3	     2.281	2.06672e+07	      76.5	      15.3	     2.264	2.03363e+07	      76.5	    15.283	     2.264	2.04824e+07	      76.5	   15.2915	     2.281	2.07564e+07	      76.5	      15.3	    2.2725	2.05016e+07	      76.5	   15.2915	     2.264	2.04084e+07	      76.5	    15.283	    2.2725	2.06652e+07	
         R10	   1393	      76.5	    15.283	     2.264	2.04856e+07	      76.5	      15.3	     2.264	2.03308e+07	      76.5	      15.3	     2.247	2.00527e+07	      76.5	    15.283	     2.247	2.01812e+07	      76.5	   15.2915	     2.264	2.04073e+07	      76.5	      15.3	    2.2555	2.01917e+07	      76.5	   15.2915	     2.247	2.01162e+07	      76.5	    15.283	    2.2555	2.03334e+07	
         R10	   1394	      76.5	    15.283	     2.247	2.01836e+07	      76.5	      15.3	     2.247	2.00481e+07	      76.5	      15.3	      2.23	 1.9812e+07	      76.5	    15.283	      2.23	1.99261e+07	      76.5	   15.2915	     2.247	2.01151e+07	      76.5	      15.3	    2.2385	  1.993e+07	      76.5	   15.2915	      2.23	1.98685e+07	      76.5	    15.283	    2.2385	2.00548e+07	
         R10	   1395	      76.5	    15.266	     2.247	2.02689e+07	      76.5	    15.283	     2.247	 2.0185e+07	      76.5	    15.283	      2.23	 1.9927e+07	      76.5	    15.266	      2.23	2.00081e+07	      76.5	   15.2745	     2.247	2.02261e+07	      76.5	    15.283	    2.2385	 2.0056e+07	      76.5	   15.2745	      2.23	1.99669e+07	      76.5	    15.266	    2.2385	2.01385e+07	
         R10	   1396	      76.5	    15.266	     2.247	2.02694e+07	      76.5	    15.266	      2.23	2.00087e+07	      76.5	    15.249	      2.23	 2.0043e+07	      76.5	    15.249	     2.247	2.02972e+07	      76.5	    15.266	    2.2385	 2.0139e+07	      76.5	   15.2575	      2.23	2.00252e+07	      76.5	    15.249	    2.2385	2.01701e+07	      76.5	   15.2575	     2.247	2.02824e+07	
         R10	   1397	      76.5	    15.249	     2.247	2.02968e+07	      76.5	    15.249	      2.23	2.00435e+07	      76.5	    15.232	      2.23	 2.0032e+07	      76.5	    15.232	     2.247	2.02658e+07	      76.5	    15.249	    2.2385	2.01701e+07	      76.5	   15.2405	      2.23	2.00371e+07	      76.5	    15.232	    2.2385	2.01489e+07	      76.5	   15.2405	     2.247	2.02805e+07	
         R10	   1398	      76.5	    15.232	     2.247	2.02649e+07	      76.5	    15.232	      2.23	2.00316e+07	      76.5	    15.215	      2.23	1.99771e+07	      76.5	    15.215	     2.247	2.01822e+07	      76.5	    15.232	    2.2385	2.01482e+07	      76.5	   15.2235	      2.23	2.00037e+07	      76.5	    15.215	    2.2385	2.00796e+07	      76.5	   15.2235	     2.247	2.02228e+07	
         R10	   1399	      76.5	    15.215	     2.247	 2.0181e+07	      76.5	    15.215	      2.23	1.99764e+07	      76.5	    15.198	      2.23	1.98861e+07	      76.5	    15.198	     2.247	2.00577e+07	      76.5	    15.215	    2.2385	2.00787e+07	      76.5	   15.2065	      2.23	1.99308e+07	      76.5	    15.198	    2.2385	1.99718e+07	      76.5	   15.2065	     2.247	2.01188e+07	
         R10	   1400	      76.5	    15.198	     2.247	2.00566e+07	      76.5	    15.198	      2.23	1.98849e+07	      76.5	    15.181	      2.23	1.97676e+07	      76.5	    15.181	     2.247	1.99054e+07	      76.5	    15.198	    2.2385	1.99707e+07	      76.5	   15.1895	      2.23	1.98258e+07	      76.5	    15.181	    2.2385	1.98364e+07	      76.5	   15.1895	     2.247	1.99806e+07	
         R10	   1401	      76.5	    15.181	     2.247	1.99045e+07	      76.5	    15.181	      2.23	1.97667e+07	      76.5	    15.164	      2.23	1.96299e+07	      76.5	    15.164	     2.247	1.97365e+07	      76.5	    15.181	    2.2385	1.98355e+07	      76.5	   15.1725	      2.23	 1.9698e+07	      76.5	    15.164	    2.2385	1.96831e+07	      76.5	   15.1725	     2.247	1.98201e+07	
         R10	   1402	      76.5	    15.164	     2.247	1.97355e+07	      76.5	    15.164	      2.23	1.96298e+07	      76.5	    15.147	      2.23	1.94817e+07	      76.5	    15.147	     2.247	1.95602e+07	      76.5	    15.164	    2.2385	1.96825e+07	      76.5	   15.1555	      2.23	1.95555e+07	      76.5	    15.147	    2.2385	1.95208e+07	      76.5	   15.1555	     2.247	1.96476e+07	
         R10	   1403	      76.5	    15.164	     2.264	1.98354e+07	      76.5	    15.164	     2.247	1.97362e+07	      76.5	    15.147	     2.247	1.95607e+07	      76.5	    15.147	     2.264	1.96285e+07	      76.5	    15.164	    2.2555	1.97856e+07	      76.5	   15.1555	     2.247	1.96482e+07	      76.5	    15.147	    2.2555	1.95944e+07	      76.5	   15.1555	     2.264	1.97317e+07	
         R10	   1404	      76.5	    15.164	     2.264	1.98362e+07	      76.5	    15.147	     2.264	 1.9629e+07	      76.5	    15.147	     2.281	1.96807e+07	      76.5	    15.164	     2.281	1.99212e+07	      76.5	   15.1555	     2.264	1.97323e+07	      76.5	    15.147	    2.2725	1.96546e+07	      76.5	   15.1555	     2.281	1.98007e+07	      76.5	    15.164	    2.2725	1.98784e+07	
         R10	   1405	      76.5	    15.164	     2.281	1.99221e+07	      76.5	    15.147	     2.281	1.96812e+07	      76.5	    15.147	     2.298	1.97099e+07	      76.5	    15.164	     2.298	 1.9984e+07	      76.5	   15.1555	     2.281	1.98014e+07	      76.5	    15.147	    2.2895	1.96953e+07	      76.5	   15.1555	     2.298	1.98468e+07	      76.5	    15.164	    2.2895	1.99527e+07	
         R10	   1406	      76.5	    15.164	     2.298	1.99849e+07	      76.5	    15.147	     2.298	1.97104e+07	      76.5	    15.147	     2.315	1.97096e+07	      76.5	    15.164	     2.315	2.00137e+07	      76.5	   15.1555	     2.298	1.98475e+07	      76.5	    15.147	    2.3065	1.97097e+07	      76.5	   15.1555	     2.315	1.98615e+07	      76.5	    15.164	    2.3065	 1.9999e+07	
         R10	   1407	      76.5	    15.164	     2.315	2.00144e+07	      76.5	    15.147	     2.315	1.97099e+07	      76.5	    15.147	     2.332	1.96756e+07	      76.5	    15.164	     2.332	2.00011e+07	      76.5	   15.1555	     2.315	 1.9862e+07	      76.5	    15.147	    2.3235	1.96924e+07	      76.5	   15.1555	     2.332	1.98382e+07	      76.5	    15.164	    2.3235	2.00073e+07	
         R10	   1408	      76.5	    15.164	     2.332	 2.0001e+07	      76.5	    15.147	     2.332	1.96752e+07	      76.5	    15.147	     2.349	 1.9608e+07	      76.5	    15.164	     2.349	1.99421e+07	      76.5	   15.1555	     2.332	 1.9838e+07	      76.5	    15.147	    2.3405	1.96413e+07	      76.5	   15.1555	     2.349	 1.9775e+07	      76.5	    15.164	    2.3405	1.99711e+07	
         R10	   1409	      76.5	    15.164	     2.349	1.99408e+07	      76.5	    15.147	     2.349	 1.9607e+07	      76.5	    15.147	     2.366	1.95145e+07	      76.5	    15.164	     2.366	1.98429e+07	      76.5	   15.1555	     2.349	1.97738e+07	      76.5	    15.147	    2.3575	1.95605e+07	      76.5	   15.1555	     2.366	1.96787e+07	      76.5	    15.164	    2.3575	1.98915e+07	
         R10	   1410	      76.5	    15.164	     2.366	1.98403e+07	      76.5	    15.147	     2.366	1.95132e+07	      76.5	    15.147	     2.383	1.94108e+07	      76.5	    15.164	     2.383	1.97251e+07	      76.5	   15.1555	     2.366	1.96767e+07	      76.5	    15.147	    2.3745	1.94618e+07	      76.5	   15.1555	     2.383	1.95679e+07	      76.5	    15.164	    2.3745	1.97824e+07	
         R10	   1411	      76.5	    15.181	     2.366	2.02283e+07	      76.5	    15.164	     2.366	1.98393e+07	      76.5	    15.164	     2.383	1.97226e+07	      76.5	    15.181	     2.383	2.00927e+07	      76.5	   15.1725	     2.366	2.00337e+07	      76.5	    15.164	    2.3745	1.97807e+07	      76.5	   15.1725	     2.383	1.99076e+07	      76.5	    15.181	    2.3745	2.01601e+07	
         R10	   1412	      76.5	    15.181	     2.366	 2.0227e+07	      76.5	    15.181	     2.383	2.00891e+07	      76.5	    15.198	     2.383	2.05356e+07	      76.5	    15.198	     2.366	 2.0697e+07	      76.5	    15.181	    2.3745	2.01576e+07	      76.5	   15.1895	     2.383	2.03123e+07	      76.5	    15.198	    2.3745	2.06157e+07	      76.5	   15.1895	     2.366	2.04619e+07	
         R10	   1413	      76.5	    15.198	     2.366	2.06959e+07	      76.5	    15.198	     2.383	2.05308e+07	      76.5	    15.215	     2.383	2.10796e+07	      76.5	    15.215	     2.366	2.12737e+07	      76.5	    15.198	    2.3745	2.06128e+07	      76.5	   15.2065	     2.383	2.08051e+07	      76.5	    15.215	    2.3745	2.11757e+07	      76.5	   15.2065	     2.366	2.09845e+07	
         R10	   1414	      76.5	    15.215	     2.366	2.12734e+07	      76.5	    15.215	     2.383	2.10748e+07	      76.5	    15.232	     2.383	2.17691e+07	      76.5	    15.232	     2.366	2.19743e+07	      76.5	    15.215	    2.3745	2.11731e+07	      76.5	   15.2235	     2.383	2.14216e+07	      76.5	    15.232	    2.3745	  2.187e+07	      76.5	   15.2235	     2.366	2.16231e+07	
         R10	   1415	      76.5	    15.232	     2.366	 2.1978e+07	      76.5	    15.232	     2.383	2.17674e+07	      76.5	    15.249	     2.383	2.26108e+07	      76.5	    15.249	     2.366	2.28264e+07	      76.5	    15.232	    2.3745	2.18711e+07	      76.5	   15.2405	     2.383	 2.2188e+07	      76.5	    15.249	    2.3745	2.27155e+07	      76.5	   15.2405	     2.366	2.24002e+07	
         R10	   1416	      76.5	    15.249	     2.366	2.28345e+07	      76.5	    15.249	     2.383	2.26389e+07	      76.5	    15.266	     2.383	2.36822e+07	      76.5	    15.266	     2.366	2.36838e+07	      76.5	    15.249	    2.3745	2.27336e+07	      76.5	   15.2575	     2.383	2.31564e+07	      76.5	    15.266	    2.3745	2.36778e+07	      76.5	   15.2575	     2.366	2.32541e+07	
         R10	   1417	      76.5	    15.266	     2.366	2.37057e+07	      76.5	    15.266	     2.383	2.37418e+07	      76.5	    15.283	     2.383	2.45602e+07	      76.5	    15.283	     2.366	2.45239e+07	      76.5	    15.266	    2.3745	2.37191e+07	      76.5	   15.2745	     2.383	2.41417e+07	      76.5	    15.283	    2.3745	2.45323e+07	      76.5	   15.2745	     2.366	2.41019e+07	
         R10	   1418	      76.5	    15.266	     2.349	2.32337e+07	      76.5	    15.266	     2.366	2.37083e+07	      76.5	    15.283	     2.366	2.43487e+07	      76.5	    15.283	     2.349	2.34547e+07	      76.5	    15.266	    2.3575	2.34669e+07	      76.5	   15.2745	     2.366	2.40162e+07	      76.5	    15.283	    2.3575	2.38983e+07	      76.5	   15.2745	     2.349	2.33351e+07	
         R10	   1419	      76.5	    15.266	     2.349	 2.3218e+07	      76.5	    15.283	     2.349	2.34071e+07	      76.5	    15.283	     2.332	2.25599e+07	      76.5	    15.266	     2.332	2.25496e+07	      76.5	   15.2745	     2.349	2.33035e+07	      76.5	    15.283	    2.3405	2.29828e+07	      76.5	   15.2745	     2.332	2.25493e+07	      76.5	    15.266	    2.3405	 2.2882e+07	
         R10	   1420	      76.5	    15.266	     2.332	2.25393e+07	      76.5	    15.283	     2.332	2.25607e+07	      76.5	    15.283	     2.315	2.18478e+07	      76.5	    15.266	     2.315	2.19202e+07	      76.5	   15.2745	     2.332	2.25444e+07	      76.5	    15.283	    2.3235	2.22041e+07	      76.5	   15.2745	     2.315	2.18806e+07	      76.5	    15.266	    2.3235	2.22292e+07	
         R10	   1421	      76.5	    15.266	     2.315	2.19169e+07	      76.5	    15.283	     2.315	2.18556e+07	      76.5	    15.283	     2.298	2.12915e+07	      76.5	    15.266	     2.298	2.13846e+07	      76.5	   15.2745	     2.315	2.18827e+07	      76.5	    15.283	    2.3065	2.15735e+07	      76.5	   15.2745	     2.298	2.13358e+07	      76.5	    15.266	    2.3065	2.16506e+07	
         R10	   1422	      76.5	    15.266	     2.298	 2.1384e+07	      76.5	    15.283	     2.298	2.12986e+07	      76.5	    15.283	     2.281	2.08468e+07	      76.5	    15.266	     2.281	2.09422e+07	      76.5	   15.2745	     2.298	 2.1339e+07	      76.5	    15.283	    2.2895	2.10727e+07	      76.5	   15.2745	     2.281	 2.0893e+07	      76.5	    15.266	    2.2895	2.11631e+07	
         R10	   1423	      76.5	    15.266	     2.281	2.09426e+07	      76.5	    15.283	     2.281	2.08518e+07	      76.5	    15.283	     2.264	2.04842e+07	      76.5	    15.266	     2.264	2.05755e+07	      76.5	   15.2745	     2.281	2.08956e+07	      76.5	    15.283	    2.2725	 2.0668e+07	      76.5	   15.2745	     2.264	2.05287e+07	      76.5	    15.266	    2.2725	 2.0759e+07	
         R10	   1424	      76.5	    15.266	     2.264	 2.0576e+07	      76.5	    15.283	     2.264	2.04878e+07	      76.5	    15.283	     2.247	2.01822e+07	      76.5	    15.266	     2.247	2.02685e+07	      76.5	   15.2745	     2.264	2.05308e+07	      76.5	    15.283	    2.2555	 2.0335e+07	      76.5	   15.2745	     2.247	2.02245e+07	      76.5	    15.266	    2.2555	2.04223e+07	
         R10	   1425	      76.5	    15.249	     2.264	2.05907e+07	      76.5	    15.266	     2.264	2.05767e+07	      76.5	    15.266	     2.247	2.02689e+07	      76.5	    15.249	     2.247	2.02966e+07	      76.5	   15.2575	     2.264	2.05825e+07	      76.5	    15.266	    2.2555	2.04228e+07	      76.5	   15.2575	     2.247	2.02818e+07	      76.5	    15.249	    2.2555	2.04436e+07	
         R10	   1426	      76.5	    15.249	     2.264	2.05901e+07	      76.5	    15.249	     2.247	 2.0296e+07	      76.5	    15.232	     2.247	2.02657e+07	      76.5	    15.232	     2.264	2.05291e+07	      76.5	    15.249	    2.2555	 2.0443e+07	      76.5	   15.2405	     2.247	2.02801e+07	      76.5	    15.232	    2.2555	2.03974e+07	      76.5	   15.2405	     2.264	2.05585e+07	
         R10	   1427	      76.5	    15.232	     2.264	2.05276e+07	      76.5	    15.232	     2.247	2.02648e+07	      76.5	    15.215	     2.247	2.01824e+07	      76.5	    15.215	     2.264	2.04052e+07	      76.5	    15.232	    2.2555	2.03961e+07	      76.5	   15.2235	     2.247	2.02229e+07	      76.5	    15.215	    2.2555	2.02937e+07	      76.5	   15.2235	     2.264	2.04655e+07	
         R10	   1428	      76.5	    15.215	     2.264	2.04034e+07	      76.5	    15.215	     2.247	2.01813e+07	      76.5	    15.198	     2.247	2.00583e+07	      76.5	    15.198	     2.264	 2.0237e+07	      76.5	    15.215	    2.2555	2.02923e+07	      76.5	   15.2065	     2.247	2.01192e+07	      76.5	    15.198	    2.2555	2.01475e+07	      76.5	   15.2065	     2.264	2.03195e+07	
         R10	   1429	      76.5	    15.198	     2.264	2.02354e+07	      76.5	    15.198	     2.247	2.00572e+07	      76.5	    15.181	     2.247	 1.9906e+07	      76.5	    15.181	     2.264	2.00425e+07	      76.5	    15.198	    2.2555	2.01462e+07	      76.5	   15.1895	     2.247	1.99811e+07	      76.5	    15.181	    2.2555	1.99741e+07	      76.5	   15.1895	     2.264	2.01385e+07	
         R10	   1430	      76.5	    15.181	     2.264	2.00413e+07	      76.5	    15.181	     2.247	 1.9905e+07	      76.5	    15.164	     2.247	1.97369e+07	      76.5	    15.164	     2.264	1.98362e+07	      76.5	    15.181	    2.2555	 1.9973e+07	      76.5	   15.1725	     2.247	1.98206e+07	      76.5	    15.164	    2.2555	1.97864e+07	      76.5	   15.1725	     2.264	1.99384e+07	
         R10	   1431	      76.5	    15.181	     2.281	2.01694e+07	      76.5	    15.181	     2.264	2.00422e+07	      76.5	    15.164	     2.264	 1.9837e+07	      76.5	    15.164	     2.281	 1.9922e+07	      76.5	    15.181	    2.2725	2.01055e+07	      76.5	   15.1725	     2.264	1.99392e+07	      76.5	    15.164	    2.2725	1.98792e+07	      76.5	   15.1725	     2.281	2.00453e+07	
         R10	   1432	      76.5	    15.181	     2.281	2.01706e+07	      76.5	    15.164	     2.281	1.99229e+07	      76.5	    15.164	     2.298	1.99846e+07	      76.5	    15.181	     2.298	2.02775e+07	      76.5	   15.1725	     2.281	2.00464e+07	      76.5	    15.164	    2.2895	1.99535e+07	      76.5	   15.1725	     2.298	2.01308e+07	      76.5	    15.181	    2.2895	2.02237e+07	
         R10	   1433	      76.5	    15.181	     2.298	 2.0279e+07	      76.5	    15.164	     2.298	1.99855e+07	      76.5	    15.164	     2.315	 2.0014e+07	      76.5	    15.181	     2.315	 2.0351e+07	      76.5	   15.1725	     2.298	 2.0132e+07	      76.5	    15.164	    2.3065	1.99994e+07	      76.5	   15.1725	     2.315	2.01823e+07	      76.5	    15.181	    2.3065	2.03145e+07	
         R10	   1434	      76.5	    15.181	     2.315	2.03524e+07	      76.5	    15.164	     2.315	2.00146e+07	      76.5	    15.164	     2.332	2.00007e+07	      76.5	    15.181	     2.332	2.03739e+07	      76.5	   15.1725	     2.315	2.01833e+07	      76.5	    15.164	    2.3235	2.00072e+07	      76.5	   15.1725	     2.332	2.01872e+07	      76.5	    15.181	    2.3235	2.03626e+07	
         R10	   1435	      76.5	    15.181	     2.332	2.03745e+07	      76.5	    15.164	     2.332	2.00007e+07	      76.5	    15.164	     2.349	1.99409e+07	      76.5	    15.181	     2.349	2.03338e+07	      76.5	   15.1725	     2.332	2.01874e+07	      76.5	    15.164	    2.3405	1.99704e+07	      76.5	   15.1725	     2.349	2.01373e+07	      76.5	    15.181	    2.3405	2.03536e+07	
         R10	   1436	      76.5	    15.181	     2.349	2.03327e+07	      76.5	    15.164	     2.349	1.99398e+07	      76.5	    15.164	     2.366	1.98415e+07	      76.5	    15.181	     2.366	2.02316e+07	      76.5	   15.1725	     2.349	2.01362e+07	      76.5	    15.164	    2.3575	1.98903e+07	      76.5	   15.1725	     2.366	2.00365e+07	      76.5	    15.181	    2.3575	2.02816e+07	
         R10	   1437	      76.5	    15.198	     2.349	2.07967e+07	      76.5	    15.181	     2.349	2.03319e+07	      76.5	    15.181	     2.366	  2.023e+07	      76.5	    15.198	     2.366	2.07019e+07	      76.5	   15.1895	     2.349	2.05641e+07	      76.5	    15.181	    2.3575	2.02804e+07	      76.5	   15.1895	     2.366	2.04659e+07	      76.5	    15.198	    2.3575	2.07485e+07	
         R10	   1438	      76.5	    15.198	     2.349	2.07966e+07	      76.5	    15.198	     2.366	2.07003e+07	      76.5	    15.215	     2.366	2.12763e+07	      76.5	    15.215	     2.349	2.13438e+07	      76.5	    15.198	    2.3575	2.07477e+07	      76.5	   15.2065	     2.366	2.09881e+07	      76.5	    15.215	    2.3575	2.13087e+07	      76.5	   15.2065	     2.349	2.10697e+07	
         R10	   1439	      76.5	    15.215	     2.349	 2.1346e+07	      76.5	    15.215	     2.366	2.12763e+07	      76.5	    15.232	     2.366	2.19811e+07	      76.5	    15.232	     2.349	2.19664e+07	      76.5	    15.215	    2.3575	2.13098e+07	      76.5	   15.2235	     2.366	 2.1628e+07	      76.5	    15.232	    2.3575	2.19716e+07	      76.5	   15.2235	     2.349	 2.1655e+07	
         R10	   1440	      76.5	    15.232	     2.349	2.19741e+07	      76.5	    15.232	     2.366	2.19842e+07	      76.5	    15.249	     2.366	2.28007e+07	      76.5	    15.249	     2.349	2.26323e+07	      76.5	    15.232	    2.3575	2.19771e+07	      76.5	   15.2405	     2.366	2.23905e+07	      76.5	    15.249	    2.3575	2.27133e+07	      76.5	   15.2405	     2.349	2.23005e+07	
         R10	   1441	      76.5	    15.249	     2.349	2.26503e+07	      76.5	    15.249	     2.366	2.28171e+07	      76.5	    15.266	     2.366	2.36914e+07	      76.5	    15.266	     2.349	2.32002e+07	      76.5	    15.249	    2.3575	2.27305e+07	      76.5	   15.2575	     2.366	 2.3249e+07	      76.5	    15.266	    2.3575	2.34417e+07	      76.5	   15.2575	     2.349	2.29196e+07	
         R10	   1442	      76.5	    15.249	   2.33201	 2.2239e+07	      76.5	    15.249	     2.349	2.26337e+07	      76.5	    15.266	     2.349	2.31771e+07	      76.5	    15.266	     2.332	2.25415e+07	      76.5	    15.249	    2.3405	2.24343e+07	      76.5	   15.2575	     2.349	   2.29e+07	      76.5	    15.266	    2.3405	2.28576e+07	      76.5	   15.2575	     2.332	2.23858e+07	
         R10	   1443	      76.5	    15.249	   2.33201	2.22288e+07	      76.5	    15.266	     2.332	2.25303e+07	      76.5	    15.266	     2.315	2.19159e+07	      76.5	    15.249	     2.315	2.17724e+07	      76.5	   15.2575	     2.332	2.23751e+07	      76.5	    15.266	    2.3235	2.22225e+07	      76.5	   15.2575	     2.315	2.18409e+07	      76.5	    15.249	    2.3235	2.19996e+07	
         R10	   1444	      76.5	    15.249	     2.315	2.17681e+07	      76.5	    15.266	     2.315	2.19122e+07	      76.5	    15.266	     2.298	2.13841e+07	      76.5	    15.249	     2.298	2.13268e+07	      76.5	   15.2575	     2.315	2.18369e+07	      76.5	    15.266	    2.3065	 2.1648e+07	      76.5	   15.2575	     2.298	2.13532e+07	      76.5	    15.249	    2.3065	2.15471e+07	
         R10	   1445	      76.5	    15.249	     2.298	2.13256e+07	      76.5	    15.266	     2.298	2.13839e+07	      76.5	    15.266	     2.281	2.09424e+07	      76.5	    15.249	     2.281	2.09319e+07	      76.5	   15.2575	     2.298	2.13525e+07	      76.5	    15.266	    2.2895	2.11631e+07	      76.5	   15.2575	     2.281	2.09355e+07	      76.5	    15.249	    2.2895	2.11286e+07	
         R10	   1446	      76.5	    15.249	     2.281	 2.0932e+07	      76.5	    15.266	     2.281	2.09431e+07	      76.5	    15.266	     2.264	 2.0576e+07	      76.5	    15.249	     2.264	2.05901e+07	      76.5	   15.2575	     2.281	2.09359e+07	      76.5	    15.266	    2.2725	2.07596e+07	      76.5	   15.2575	     2.264	2.05819e+07	      76.5	    15.249	    2.2725	 2.0761e+07	
         R10	   1447	      76.5	    15.232	     2.281	2.08231e+07	      76.5	    15.249	     2.281	2.09302e+07	      76.5	    15.249	     2.264	2.05894e+07	      76.5	    15.232	     2.264	2.05294e+07	      76.5	   15.2405	     2.281	2.08752e+07	      76.5	    15.249	    2.2725	2.07598e+07	      76.5	   15.2405	     2.264	2.05583e+07	      76.5	    15.232	    2.2725	2.06761e+07	
         R10	   1448	      76.5	    15.232	     2.281	2.08204e+07	      76.5	    15.232	     2.264	2.05279e+07	      76.5	    15.215	     2.264	2.04059e+07	      76.5	    15.215	     2.281	2.06418e+07	      76.5	    15.232	    2.2725	 2.0674e+07	      76.5	   15.2235	     2.264	 2.0466e+07	      76.5	    15.215	    2.2725	2.05236e+07	      76.5	   15.2235	     2.281	  2.073e+07	
         R10	   1449	      76.5	    15.215	     2.281	2.06392e+07	      76.5	    15.215	     2.264	2.04042e+07	      76.5	    15.198	     2.264	2.02379e+07	      76.5	    15.198	     2.281	2.04164e+07	      76.5	    15.215	    2.2725	2.05215e+07	      76.5	   15.2065	     2.264	2.03203e+07	      76.5	    15.198	    2.2725	2.03269e+07	      76.5	   15.2065	     2.281	 2.0527e+07	
         R10	   1450	      76.5	    15.198	     2.281	2.04144e+07	      76.5	    15.198	     2.264	2.02364e+07	      76.5	    15.181	     2.264	2.00434e+07	      76.5	    15.181	     2.281	2.01708e+07	      76.5	    15.198	    2.2725	2.03251e+07	      76.5	   15.1895	     2.264	2.01394e+07	      76.5	    15.181	    2.2725	2.01068e+07	      76.5	   15.1895	     2.281	 2.0292e+07	
         R10	   1451	      76.5	    15.198	     2.298	2.05813e+07	      76.5	    15.198	     2.281	2.04159e+07	      76.5	    15.181	     2.281	2.01719e+07	      76.5	    15.181	     2.298	2.02789e+07	      76.5	    15.198	    2.2895	2.04982e+07	      76.5	   15.1895	     2.281	2.02933e+07	      76.5	    15.181	    2.2895	 2.0225e+07	      76.5	   15.1895	     2.298	2.04296e+07	
         R10	   1452	      76.5	    15.198	     2.298	2.05834e+07	      76.5	    15.181	     2.298	2.02803e+07	      76.5	    15.181	     2.315	 2.0352e+07	      76.5	    15.198	     2.315	2.07174e+07	      76.5	   15.1895	     2.298	2.04313e+07	      76.5	    15.181	    2.3065	2.03157e+07	      76.5	   15.1895	     2.315	2.05343e+07	      76.5	    15.198	    2.3065	2.06498e+07	
         R10	   1453	      76.5	    15.198	     2.315	2.07199e+07	      76.5	    15.181	     2.315	2.03533e+07	      76.5	    15.181	     2.332	2.03742e+07	      76.5	    15.198	     2.332	 2.0798e+07	      76.5	   15.1895	     2.315	2.05362e+07	      76.5	    15.181	    2.3235	2.03632e+07	      76.5	   15.1895	     2.332	2.05857e+07	      76.5	    15.198	    2.3235	2.07582e+07	
         R10	   1454	      76.5	    15.198	     2.332	2.07998e+07	      76.5	    15.181	     2.332	2.03747e+07	      76.5	    15.181	     2.349	2.03328e+07	      76.5	    15.198	     2.349	2.07973e+07	      76.5	   15.1895	     2.332	2.05869e+07	      76.5	    15.181	    2.3405	2.03532e+07	      76.5	   15.1895	     2.349	2.05649e+07	      76.5	    15.198	    2.3405	2.07977e+07	
         R10	   1455	      76.5	    15.215	     2.332	2.12725e+07	      76.5	    15.198	     2.332	2.08013e+07	      76.5	    15.198	     2.349	2.07971e+07	      76.5	    15.215	     2.349	 2.1341e+07	      76.5	   15.2065	     2.332	2.10362e+07	      76.5	    15.198	    2.3405	2.07983e+07	      76.5	   15.2065	     2.349	2.10686e+07	      76.5	    15.215	    2.3405	2.13055e+07	
         R10	   1456	      76.5	    15.215	     2.332	2.12763e+07	      76.5	    15.215	     2.349	2.13437e+07	      76.5	    15.232	     2.349	2.19609e+07	      76.5	    15.232	   2.33201	2.17678e+07	      76.5	    15.215	    2.3405	2.13088e+07	      76.5	   15.2235	     2.349	2.16511e+07	      76.5	    15.232	   2.34051	2.18626e+07	      76.5	   15.2235	     2.332	2.15206e+07	
         R10	   1457	      76.5	    15.232	   2.33201	2.17753e+07	      76.5	    15.232	     2.349	2.19697e+07	      76.5	    15.249	     2.349	 2.2612e+07	      76.5	    15.249	   2.33201	2.22281e+07	      76.5	    15.232	   2.34051	2.18708e+07	      76.5	   15.2405	     2.349	2.22882e+07	      76.5	    15.249	    2.3405	2.24181e+07	      76.5	   15.2405	   2.33201	2.19989e+07	
         R10	   1458	      76.5	    15.232	   2.31501	2.14754e+07	      76.5	    15.232	   2.33201	2.17688e+07	      76.5	    15.249	   2.33201	2.22168e+07	      76.5	    15.249	     2.315	2.17652e+07	      76.5	    15.232	   2.32351	 2.1621e+07	      76.5	   15.2405	   2.33201	2.19901e+07	      76.5	    15.249	    2.3235	  2.199e+07	      76.5	   15.2405	     2.315	2.16179e+07	
         R10	   1459	      76.5	    15.232	   2.31501	2.14707e+07	      76.5	    15.249	     2.315	2.17602e+07	      76.5	    15.249	     2.298	2.13234e+07	      76.5	    15.232	     2.298	2.11449e+07	      76.5	   15.2405	     2.315	2.16132e+07	      76.5	    15.249	    2.3065	2.15414e+07	      76.5	   15.2405	     2.298	2.12323e+07	      76.5	    15.232	    2.3065	2.13073e+07	
         R10	   1460	      76.5	    15.232	     2.298	2.11425e+07	      76.5	    15.249	     2.298	2.13221e+07	      76.5	    15.249	     2.281	2.09301e+07	      76.5	    15.232	     2.281	2.08241e+07	      76.5	   15.2405	     2.298	2.12304e+07	      76.5	    15.249	    2.2895	2.11259e+07	      76.5	   15.2405	     2.281	2.08756e+07	      76.5	    15.232	    2.2895	 2.0983e+07	
         R10	   1461	      76.5	    15.215	     2.298	2.08814e+07	      76.5	    15.232	     2.298	2.11382e+07	      76.5	    15.232	     2.281	2.08215e+07	      76.5	    15.215	     2.281	2.06431e+07	      76.5	   15.2235	     2.298	2.10085e+07	      76.5	    15.232	    2.2895	2.09796e+07	      76.5	   15.2235	     2.281	2.07312e+07	      76.5	    15.215	    2.2895	2.07619e+07	
         R10	   1462	      76.5	    15.215	     2.298	2.08778e+07	      76.5	    15.215	     2.281	2.06407e+07	      76.5	    15.198	     2.281	2.04178e+07	      76.5	    15.198	     2.298	2.05836e+07	      76.5	    15.215	    2.2895	2.07589e+07	      76.5	   15.2065	     2.281	2.05284e+07	      76.5	    15.198	    2.2895	2.05003e+07	      76.5	   15.2065	     2.298	2.07299e+07	
         R10	   1463	      76.5	    15.215	     2.315	2.10987e+07	      76.5	    15.215	     2.298	2.08805e+07	      76.5	    15.198	     2.298	2.05856e+07	      76.5	    15.198	     2.315	2.07198e+07	      76.5	    15.215	    2.3065	 2.0989e+07	      76.5	   15.2065	     2.298	2.07322e+07	      76.5	    15.198	    2.3065	2.06521e+07	      76.5	   15.2065	     2.315	2.09084e+07	
         R10	   1464	      76.5	    15.215	     2.315	2.11026e+07	      76.5	    15.198	     2.315	 2.0722e+07	      76.5	    15.198	     2.332	2.07996e+07	      76.5	    15.215	     2.332	2.12681e+07	      76.5	   15.2065	     2.315	2.09115e+07	      76.5	    15.198	    2.3235	2.07601e+07	      76.5	   15.2065	     2.332	2.10331e+07	      76.5	    15.215	    2.3235	2.11844e+07	
         R10	   1465	      76.5	    15.215	     2.315	2.11065e+07	      76.5	    15.215	     2.332	2.12724e+07	      76.5	    15.232	   2.33201	2.17603e+07	      76.5	    15.232	   2.31501	2.14693e+07	      76.5	    15.215	    2.3235	2.11885e+07	      76.5	   15.2235	     2.332	2.15149e+07	      76.5	    15.232	   2.32351	2.16137e+07	      76.5	   15.2235	     2.315	2.12864e+07	
         R10	   1466	      76.5	    15.215	     2.298	2.08837e+07	      76.5	    15.215	     2.315	 2.1103e+07	      76.5	    15.232	   2.31501	2.14641e+07	      76.5	    15.232	     2.298	2.11409e+07	      76.5	    15.215	    2.3065	2.09928e+07	      76.5	   15.2235	     2.315	2.12821e+07	      76.5	    15.232	    2.3065	2.13019e+07	      76.5	   15.2235	     2.298	 2.1011e+07	
         R10	   1467	   75.7994	   15.3563	   2.45475	8.45096e+06	   75.8048	      15.3	       2.4	 8.5382e+06	   75.7298	      15.3	       2.4	8.47521e+06	   75.7264	   15.3594	   2.45783	8.40957e+06	   75.8021	   15.3281	   2.42738	8.48757e+06	   75.7673	      15.3	       2.4	8.50571e+06	   75.7281	   15.3297	   2.42891	8.43421e+06	   75.7629	   15.3579	   2.45629	8.42976e+06	
         R10	   1468	   75.8692	   15.3507	   2.44936	8.50427e+06	   75.8749	      15.3	       2.4	8.59328e+06	   75.8048	      15.3	       2.4	8.53767e+06	   75.7994	   15.3563	   2.45475	8.45079e+06	   75.8721	   15.3254	   2.42468	8.54271e+06	   75.8399	      15.3	       2.4	8.56452e+06	   75.8021	   15.3281	   2.42738	8.48719e+06	   75.8343	   15.3535	   2.45206	 8.4769e+06	
         R10	   1469	   75.9352	   15.3452	   2.44397	 8.5646e+06	   75.9403	      15.3	       2.4	8.64265e+06	   75.8749	      15.3	       2.4	 8.5924e+06	   75.8692	   15.3507	   2.44936	8.50478e+06	   75.9377	   15.3226	   2.42199	8.59879e+06	   75.9076	      15.3	       2.4	8.61649e+06	   75.8721	   15.3254	   2.42468	8.54254e+06	   75.9022	    15.348	   2.44667	8.53396e+06	
         R10	   1470	   75.9966	   15.3412	   2.44008	8.62564e+06	   76.0009	      15.3	       2.4	8.70035e+06	   75.9403	      15.3	       2.4	8.64328e+06	   75.9352	   15.3452	   2.44397	8.56531e+06	   75.9988	   15.3206	   2.42004	 8.6588e+06	   75.9706	      15.3	       2.4	8.67069e+06	   75.9377	   15.3226	   2.42199	8.59948e+06	   75.9659	   15.3432	   2.44202	8.59462e+06	
         R10	   1471	   76.0529	   15.3384	   2.43732	8.69029e+06	   76.0567	      15.3	       2.4	 8.7659e+06	   76.0009	      15.3	       2.4	8.70301e+06	   75.9966	   15.3412	   2.44008	8.62495e+06	   76.0548	   15.3192	   2.41866	8.72434e+06	   76.0288	      15.3	       2.4	8.73325e+06	   75.9988	   15.3206	   2.42004	8.65978e+06	   76.0248	   15.3398	    2.4387	8.65663e+06	
         R10	   1472	   76.1036	   15.3355	   2.43453	8.75985e+06	   76.1076	      15.3	       2.4	8.83885e+06	   76.0567	      15.3	       2.4	8.76735e+06	   76.0529	   15.3384	   2.43732	8.69072e+06	   76.1056	   15.3177	   2.41726	8.79603e+06	   76.0821	      15.3	       2.4	8.80183e+06	   76.0548	   15.3192	   2.41866	8.72526e+06	   76.0783	   15.3369	   2.43592	8.72428e+06	
         R10	   1473	   76.1495	    15.332	   2.43116	8.83941e+06	   76.1538	      15.3	       2.4	8.91734e+06	   76.1076	      15.3	       2.4	8.83943e+06	   76.1036	   15.3355	   2.43453	8.76054e+06	   76.1516	    15.316	   2.41558	8.87558e+06	   76.1307	      15.3	       2.4	8.87711e+06	   76.1056	   15.3177	   2.41726	8.79662e+06	   76.1266	   15.3338	   2.43284	8.79896e+06	
         R10	   1474	   76.1915	   15.3285	   2.42777	8.93012e+06	   76.1952	      15.3	       2.4	9.00166e+06	   76.1538	      15.3	       2.4	8.91521e+06	   76.1495	    15.332	   2.43116	8.84447e+06	   76.1933	   15.3143	   2.41389	8.96345e+06	   76.1745	      15.3	       2.4	8.95722e+06	   76.1516	    15.316	   2.41558	8.87698e+06	   76.1705	   15.3303	   2.42947	8.88619e+06	
         R10	   1475	   76.2276	    15.325	   2.42436	9.02283e+06	   76.2317	      15.3	       2.4	9.08995e+06	   76.1952	      15.3	       2.4	8.99971e+06	   76.1915	   15.3285	   2.42777	8.93698e+06	   76.2297	   15.3125	   2.41218	9.05442e+06	   76.2135	      15.3	       2.4	9.04369e+06	   76.1933	   15.3143	   2.41389	8.96589e+06	   76.2095	   15.3268	   2.42607	8.97891e+06	
         R10	   1476	   76.2592	   15.3207	   2.42015	9.13021e+06	   76.2635	      15.3	       2.4	9.17445e+06	   76.2317	      15.3	       2.4	 9.0861e+06	   76.2276	    15.325	   2.42436	9.03617e+06	   76.2614	   15.3104	   2.41007	9.15079e+06	   76.2476	      15.3	       2.4	 9.1293e+06	   76.2297	   15.3125	   2.41218	9.05906e+06	   76.2434	   15.3229	   2.42225	9.08224e+06	
         R10	   1477	   76.2868	   15.3174	    2.4169	9.24466e+06	   76.2905	      15.3	       2.4	9.25563e+06	   76.2635	      15.3	       2.4	9.16875e+06	   76.2592	   15.3207	   2.42015	 9.1403e+06	   76.2886	   15.3087	   2.40845	9.24889e+06	    76.277	      15.3	       2.4	9.21137e+06	   76.2614	   15.3104	   2.41007	9.15299e+06	    76.273	    15.319	   2.41852	9.19165e+06	
         R10	   1478	   76.3098	   15.3169	   2.41643	9.34964e+06	   76.3126	      15.3	       2.4	9.33046e+06	   76.2905	      15.3	       2.4	9.25306e+06	   76.2868	   15.3174	    2.4169	9.24578e+06	   76.3112	   15.3084	   2.40821	9.33851e+06	   76.3016	      15.3	       2.4	9.29117e+06	   76.2886	   15.3087	   2.40845	9.24815e+06	   76.2983	   15.3171	   2.41667	 9.2969e+06	
         R10	   1479	     76.33	   15.3122	   2.41185	9.44078e+06	     76.33	      15.3	       2.4	9.38864e+06	   76.3126	      15.3	       2.4	9.33421e+06	   76.3098	   15.3169	   2.41643	9.35014e+06	     76.33	   15.3061	   2.40593	9.41373e+06	   76.3213	      15.3	       2.4	9.36097e+06	   76.3112	   15.3084	   2.40821	 9.3406e+06	   76.3199	   15.3145	   2.41414	9.39489e+06	
         R10	   1480	   76.3111	   15.3471	    2.4458	9.35858e+06	     76.33	   15.3487	   2.44742	9.38789e+06	     76.33	   15.3366	   2.43556	9.50388e+06	   76.3103	   15.3332	   2.43227	9.34634e+06	   76.3206	   15.3479	   2.44661	9.37244e+06	     76.33	   15.3426	   2.44149	9.44497e+06	   76.3201	   15.3349	   2.43392	9.42231e+06	   76.3107	   15.3401	   2.43903	 9.3505e+06	
         R10	   1481	   76.3095	     15.36	   2.45837	9.25209e+06	     76.33	   15.3609	   2.45928	9.35834e+06	     76.33	   15.3487	   2.44742	9.39089e+06	   76.3111	   15.3471	    2.4458	 9.3566e+06	   76.3197	   15.3605	   2.45882	9.30369e+06	     76.33	   15.3548	   2.45335	9.37364e+06	   76.3206	   15.3479	   2.44661	9.37224e+06	   76.3103	   15.3535	   2.45208	9.30294e+06	
         R10	   1482	   76.3116	   15.3707	   2.46879	9.23074e+06	     76.33	   15.3731	   2.47113	9.30027e+06	     76.33	   15.3609	   2.45928	9.38462e+06	   76.3095	     15.36	   2.45837	9.24023e+06	   76.3208	   15.3719	   2.46996	9.26386e+06	     76.33	    15.367	    2.4652	9.34125e+06	   76.3197	   15.3605	   2.45882	 9.3111e+06	   76.3106	   15.3653	   2.46358	9.23473e+06	
         R10	   1483	   76.3065	   15.3854	   2.48306	9.11073e+06	     76.33	   15.3853	   2.48299	9.21209e+06	     76.33	   15.3731	   2.47113	9.29659e+06	   76.3116	   15.3707	   2.46879	9.22592e+06	   76.3183	   15.3853	   2.48302	9.15962e+06	     76.33	   15.3792	   2.47706	9.25343e+06	   76.3208	   15.3719	   2.46996	 9.2598e+06	   76.3091	    15.378	   2.47593	9.16752e+06	
         R10	   1484	    76.312	    15.397	   2.49437	9.05816e+06	     76.33	   15.3975	   2.49484	9.11367e+06	     76.33	   15.3853	   2.48299	9.19808e+06	   76.3065	   15.3854	   2.48306	9.13029e+06	    76.321	   15.3972	    2.4946	9.08473e+06	     76.33	   15.3914	   2.48891	9.15507e+06	   76.3183	   15.3853	   2.48302	9.16245e+06	   76.3092	   15.3912	   2.48872	9.09328e+06	
         R10	   1485	   76.3116	   15.4106	   2.50759	8.96443e+06	     76.33	   15.4097	    2.5067	 9.0413e+06	     76.33	   15.3975	   2.49484	9.10477e+06	    76.312	    15.397	   2.49437	9.07039e+06	   76.3208	   15.4101	   2.50714	9.00218e+06	     76.33	   15.4036	   2.50077	9.07267e+06	    76.321	   15.3972	    2.4946	9.08641e+06	   76.3118	   15.4038	   2.50098	9.01677e+06	
         R10	   1486	   76.3092	   15.4229	   2.51959	8.87608e+06	     76.33	   15.4218	   2.51855	8.94535e+06	     76.33	   15.4097	    2.5067	9.03842e+06	   76.3116	   15.4106	   2.50759	8.98809e+06	   76.3196	   15.4224	   2.51907	8.90952e+06	     76.33	   15.4158	   2.51262	8.99134e+06	   76.3208	   15.4101	   2.50714	9.01237e+06	   76.3104	   15.4167	   2.51359	8.93178e+06	
         R10	   1487	   76.3452	   15.4349	   2.53121	8.87781e+06	    76.347	   15.4218	   2.51855	8.96561e+06	     76.33	   15.4218	   2.51855	8.96546e+06	   76.3311	   15.4347	   2.53106	8.83656e+06	   76.3461	   15.4284	   2.52488	8.92113e+06	   76.3385	   15.4218	   2.51855	8.96493e+06	   76.3305	   15.4283	    2.5248	8.90083e+06	   76.3382	   15.4348	   2.53113	8.85607e+06	
         R10	   1488	   76.3635	   15.4343	   2.53068	8.90375e+06	    76.364	   15.4218	   2.51855	8.99865e+06	    76.347	   15.4218	   2.51855	8.97956e+06	   76.3452	   15.4349	   2.53121	8.84423e+06	   76.3637	   15.4281	   2.52462	8.95064e+06	   76.3555	   15.4218	   2.51855	8.98746e+06	   76.3461	   15.4284	   2.52488	8.91145e+06	   76.3543	   15.4346	   2.53095	8.87353e+06	
         R10	   1489	     76.38	   15.4368	   2.53309	8.96129e+06	    76.381	   15.4218	   2.51855	 9.1242e+06	    76.364	   15.4218	   2.51855	8.97404e+06	   76.3635	   15.4343	   2.53068	8.88177e+06	   76.3805	   15.4293	   2.52582	9.04194e+06	   76.3725	   15.4218	   2.51855	9.04896e+06	   76.3637	   15.4281	   2.52462	8.92755e+06	   76.3717	   15.4356	   2.53189	8.92101e+06	
         R10	   1490	   76.3948	   15.4356	   2.53193	8.87957e+06	    76.398	   15.4218	   2.51855	9.12169e+06	    76.381	   15.4218	   2.51855	9.24114e+06	     76.38	   15.4368	   2.53309	8.90002e+06	   76.3964	   15.4287	   2.52524	8.99936e+06	   76.3895	   15.4218	   2.51855	9.18068e+06	   76.3805	   15.4293	   2.52582	9.07036e+06	   76.3874	   15.4362	   2.53251	8.88809e+06	
         R10	   1491	   76.4143	   15.4355	    2.5318	8.99541e+06	    76.415	   15.4218	   2.51855	9.12784e+06	    76.398	   15.4218	   2.51855	9.11835e+06	   76.3948	   15.4356	   2.53193	8.91817e+06	   76.4146	   15.4286	   2.52517	9.06141e+06	   76.4065	   15.4218	   2.51855	9.12135e+06	   76.3964	   15.4287	   2.52524	 9.0169e+06	   76.4045	   15.4355	   2.53186	8.95592e+06	
         R10	   1492	   76.4288	   15.4365	   2.53282	9.01663e+06	    76.432	   15.4218	   2.51855	9.20588e+06	    76.415	   15.4218	   2.51855	9.17887e+06	   76.4143	   15.4355	    2.5318	 8.9271e+06	   76.4304	   15.4292	   2.52569	 9.1103e+06	   76.4235	   15.4218	   2.51855	9.19151e+06	   76.4146	   15.4286	   2.52517	9.05294e+06	   76.4215	    15.436	   2.53231	8.97138e+06	
         R10	   1493	   76.4453	   15.4339	   2.53029	9.19841e+06	    76.449	   15.4218	   2.51855	9.20988e+06	    76.432	   15.4218	   2.51855	9.29083e+06	   76.4288	   15.4365	   2.53282	8.90722e+06	   76.4472	   15.4279	   2.52442	9.20312e+06	   76.4405	   15.4218	   2.51855	9.24934e+06	   76.4304	   15.4292	   2.52569	9.09902e+06	   76.4371	   15.4352	   2.53155	9.05224e+06	
         R10	   1494	   76.4641	   15.4373	   2.53358	9.13426e+06	    76.466	   15.4218	   2.51855	9.34298e+06	    76.449	   15.4218	   2.51855	9.34394e+06	   76.4453	   15.4339	   2.53029	9.05804e+06	   76.4651	   15.4296	   2.52607	9.23854e+06	   76.4575	   15.4218	   2.51855	9.34316e+06	   76.4472	   15.4279	   2.52442	9.20057e+06	   76.4547	   15.4356	   2.53193	9.09496e+06	
         R10	   1495	   76.4839	   15.4361	   2.53243	 9.1936e+06	    76.483	   15.4218	   2.51855	9.43934e+06	    76.466	   15.4218	   2.51855	9.40198e+06	   76.4641	   15.4373	   2.53358	9.06372e+06	   76.4835	    15.429	   2.52549	9.31627e+06	   76.4745	   15.4218	   2.51855	9.42015e+06	   76.4651	   15.4296	   2.52607	9.23275e+06	    76.474	   15.4367	     2.533	9.12827e+06	
         R10	   1496	      76.5	   15.4344	   2.53078	9.25387e+06	      76.5	   15.4218	   2.51855	9.53216e+06	    76.483	   15.4218	   2.51855	 9.4647e+06	   76.4839	   15.4361	   2.53243	9.16414e+06	      76.5	   15.4281	   2.52466	  9.393e+06	   76.4915	   15.4218	   2.51855	 9.4982e+06	   76.4835	    15.429	   2.52549	9.31432e+06	    76.492	   15.4353	    2.5316	9.20855e+06	
         R10	   1497	   76.4742	   15.4563	   2.55203	8.81637e+06	      76.5	   15.4512	   2.54714	8.92002e+06	      76.5	   15.4344	   2.53078	9.24241e+06	   76.4839	   15.4361	   2.53243	 9.1643e+06	   76.4871	   15.4537	   2.54958	8.86703e+06	      76.5	   15.4428	   2.53896	9.08112e+06	    76.492	   15.4353	    2.5316	9.20289e+06	    76.479	   15.4462	   2.54223	8.98983e+06	
         R10	   1498	   76.4679	   15.4776	   2.57279	8.55063e+06	      76.5	   15.4723	   2.56762	8.57769e+06	      76.5	   15.4512	   2.54714	8.91589e+06	   76.4742	   15.4563	   2.55203	8.82565e+06	   76.4839	   15.4749	   2.57021	8.56187e+06	      76.5	   15.4618	   2.55738	8.74673e+06	   76.4871	   15.4537	   2.54958	8.86999e+06	    76.471	   15.4669	   2.56241	8.68731e+06	
         R10	   1499	   76.4609	   15.5021	   2.59662	8.29666e+06	      76.5	   15.4976	   2.59224	8.24635e+06	      76.5	   15.4723	   2.56762	8.57857e+06	   76.4679	   15.4776	   2.57279	8.54959e+06	   76.4805	   15.4998	   2.59443	8.26888e+06	      76.5	   15.4849	   2.57993	8.41229e+06	   76.4839	   15.4749	   2.57021	8.56252e+06	   76.4644	   15.4898	   2.58471	8.42242e+06	
         R10	   1500	   76.4548	   15.5311	   2.62487	8.05654e+06	      76.5	   15.5271	     2.621	7.93735e+06	      76.5	   15.4976	   2.59224	8.24577e+06	   76.4609	   15.5021	   2.59662	8.29453e+06	   76.4774	   15.5291	   2.62293	7.99402e+06	      76.5	   15.5124	   2.60662	8.09122e+06	   76.4805	   15.4998	   2.59443	8.26749e+06	   76.4579	   15.5166	   2.61075	8.17503e+06	
         R10	   1501	   76.4491	   15.5648	   2.65765	7.84645e+06	      76.5	   15.5609	   2.65388	7.64878e+06	      76.5	   15.5271	     2.621	 7.9368e+06	   76.4548	   15.5311	   2.62487	8.05429e+06	   76.4746	   15.5629	   2.65576	7.74415e+06	      76.5	    15.544	   2.63744	7.79233e+06	   76.4774	   15.5291	   2.62293	7.99251e+06	    76.452	    15.548	   2.64126	7.94969e+06	
         R10	   1502	   76.4445	   15.6025	   2.69436	 7.6669e+06	      76.5	    15.599	   2.69089	7.39954e+06	      76.5	   15.5609	   2.65388	 7.6496e+06	   76.4491	   15.5648	   2.65765	7.84514e+06	   76.4722	   15.6008	   2.69262	7.52959e+06	      76.5	     15.58	   2.67238	7.52386e+06	   76.4746	   15.5629	   2.65576	7.74387e+06	   76.4468	   15.5837	     2.676	7.75527e+06	
         R10	   1503	     76.44	   15.6452	   2.73583	7.52332e+06	      76.5	   15.6413	   2.73204	 7.1983e+06	      76.5	    15.599	   2.69089	7.40004e+06	   76.4445	   15.6025	   2.69436	7.66309e+06	     76.47	   15.6432	   2.73394	7.35715e+06	      76.5	   15.6201	   2.71146	7.29805e+06	   76.4722	   15.6008	   2.69262	7.52791e+06	   76.4423	   15.6238	    2.7151	7.59229e+06	
         R10	   1504	   76.4347	    15.692	   2.78144	7.41258e+06	      76.5	   15.6878	   2.77731	7.06798e+06	      76.5	   15.6413	   2.73204	7.20093e+06	     76.44	   15.6452	   2.73583	7.51132e+06	   76.4674	   15.6899	   2.77938	7.23664e+06	      76.5	   15.6645	   2.75467	7.13268e+06	     76.47	   15.6432	   2.73394	7.35254e+06	   76.4374	   15.6686	   2.75864	7.46088e+06	
         R10	   1505	   76.4277	   15.7435	   2.83151	7.33577e+06	      76.5	   15.7386	   2.82672	6.99966e+06	      76.5	   15.6878	   2.77731	 7.0721e+06	   76.4347	    15.692	   2.78144	7.38617e+06	   76.4638	    15.741	   2.82911	7.16235e+06	      76.5	   15.7132	   2.80201	7.03326e+06	   76.4674	   15.6899	   2.77938	7.22587e+06	   76.4312	   15.7178	   2.80648	7.35959e+06	
         R10	   1506	   76.4204	   15.7983	   2.88486	7.11552e+06	      76.5	   15.7936	   2.88026	7.11058e+06	      76.5	   15.7386	   2.82672	7.00785e+06	   76.4277	   15.7435	   2.83151	7.29233e+06	   76.4602	    15.796	   2.88256	7.10634e+06	      76.5	   15.7661	   2.85349	7.05544e+06	   76.4638	    15.741	   2.82911	7.14694e+06	    76.424	   15.7709	   2.85819	7.20302e+06	
         R10	   1507	   76.4156	   15.8564	   2.94138	 6.3212e+06	      76.5	   15.8529	   2.93793	 7.0505e+06	      76.5	   15.7936	   2.88026	7.28982e+06	   76.4204	   15.7983	   2.88486	6.90137e+06	   76.4578	   15.8546	   2.93965	6.64794e+06	      76.5	   15.8232	   2.90909	7.13701e+06	   76.4602	    15.796	   2.88256	7.09126e+06	    76.418	   15.8274	   2.91312	6.60296e+06	
         R10	   1508	   76.4145	   15.9164	   2.99973	5.67013e+06	      76.5	   15.9164	   2.99973	5.71913e+06	      76.5	   15.8529	   2.93793	8.02554e+06	   76.4156	   15.8564	   2.94138	5.55956e+06	   76.4573	   15.9164	   2.99973	5.57785e+06	      76.5	   15.8846	   2.96883	6.14133e+06	   76.4578	   15.8546	   2.93965	6.76158e+06	   76.4151	   15.8864	   2.97055	5.52528e+06	
         R10	   1509	   76.3268	   15.9164	   2.99973	6.61023e+06	   76.4145	   15.9164	   2.99973	6.07285e+06	   76.4156	   15.8564	   2.94138	5.82897e+06	   76.3286	   15.8559	   2.94083	 6.1511e+06	   76.3707	   15.9164	   2.99973	6.33498e+06	   76.4151	   15.8864	   2.97055	5.85342e+06	   76.3721	   15.8561	   2.94111	5.98436e+06	   76.3277	   15.8861	   2.97028	6.34305e+06	
         R10	   1510	    76.239	   15.8537	   2.93877	6.57783e+06	   76.2369	   15.9164	   2.99973	 6.9358e+06	   76.3268	   15.9164	   2.99973	6.69588e+06	   76.3286	   15.8559	   2.94083	6.16096e+06	   76.2379	   15.8851	   2.96925	6.73113e+06	   76.2818	   15.9164	   2.99973	 6.8158e+06	   76.3277	   15.8861	   2.97028	6.39155e+06	   76.2838	   15.8548	    2.9398	6.36751e+06	
         R10	   1511	   76.1457	   15.8522	    2.9373	6.82355e+06	   76.1447	   15.9164	   2.99973	7.12594e+06	   76.2369	   15.9164	   2.99973	6.91939e+06	    76.239	   15.8537	   2.93877	6.59819e+06	   76.1452	   15.8843	   2.96851	6.95513e+06	   76.1908	   15.9164	   2.99973	7.02249e+06	   76.2379	   15.8851	   2.96925	6.73292e+06	   76.1923	    15.853	   2.93803	6.70957e+06	
         R10	   1512	   76.0498	   15.8513	   2.93637	7.00423e+06	   76.0502	   15.9164	   2.99973	7.27278e+06	   76.1447	   15.9164	   2.99973	7.12604e+06	   76.1457	   15.8522	    2.9373	6.83218e+06	     76.05	   15.8838	   2.96805	7.12094e+06	   76.0974	   15.9164	   2.99973	7.19909e+06	   76.1452	   15.8843	   2.96851	6.95904e+06	   76.0977	   15.8517	   2.93684	6.91747e+06	
         R10	   1513	   75.9509	   15.8489	   2.93411	7.13318e+06	   75.9535	   15.9164	   2.99973	7.36925e+06	   76.0502	   15.9164	   2.99973	 7.2742e+06	   76.0498	   15.8513	   2.93637	6.99408e+06	   75.9522	   15.8827	   2.96692	7.23561e+06	   76.0019	   15.9164	   2.99973	 7.3214e+06	     76.05	   15.8838	   2.96805	7.11666e+06	   76.0004	   15.8501	   2.93524	7.06312e+06	
         R10	   1514	   75.8516	   15.8457	   2.93098	7.22633e+06	   75.8546	   15.9164	   2.99973	7.42013e+06	   75.9535	   15.9164	   2.99973	7.36934e+06	   75.9509	   15.8489	   2.93411	7.12689e+06	   75.8531	   15.8811	   2.96535	7.30909e+06	   75.9041	   15.9164	   2.99973	7.39439e+06	   75.9522	   15.8827	   2.96692	7.23251e+06	   75.9012	   15.8473	   2.93255	7.17625e+06	
         R10	   1515	   75.7507	   15.8425	   2.92782	7.28666e+06	   75.7534	   15.9164	   2.99973	7.44312e+06	   75.8546	   15.9164	   2.99973	7.41968e+06	   75.8516	   15.8457	   2.93098	7.22379e+06	   75.7521	   15.8794	   2.96377	7.35123e+06	    75.804	   15.9164	   2.99973	7.43103e+06	   75.8531	   15.8811	   2.96535	7.30745e+06	   75.8011	   15.8441	    2.9294	7.25493e+06	
         R10	   1516	     75.65	   15.8382	   2.92363	7.33332e+06	     75.65	   15.9164	   2.99973	7.43237e+06	   75.7534	   15.9164	   2.99973	7.44828e+06	   75.7507	   15.8425	   2.92782	7.27744e+06	     75.65	   15.8773	   2.96168	7.37026e+06	   75.7017	   15.9164	   2.99973	7.43986e+06	   75.7521	   15.8794	   2.96377	7.34926e+06	   75.7004	   15.8403	   2.92572	7.30516e+06	
         R10	   1517	     75.65	   15.7624	   2.84989	7.67511e+06	     75.65	   15.8382	   2.92363	7.62763e+06	   75.7507	   15.8425	   2.92782	7.61659e+06	   75.7517	   15.7678	   2.85512	7.66656e+06	     75.65	   15.8003	   2.88676	7.64664e+06	   75.7004	   15.8403	   2.92572	7.62182e+06	   75.7512	   15.8051	   2.89147	7.63591e+06	   75.7008	   15.7651	   2.85251	7.67037e+06	
         R10	   1518	   75.7501	   15.6963	   2.78554	7.94641e+06	     75.65	    15.689	   2.77853	 7.9379e+06	     75.65	   15.7624	   2.84989	 7.8434e+06	   75.7517	   15.7678	   2.85512	7.85104e+06	      75.7	   15.6926	   2.78203	7.94153e+06	     75.65	   15.7257	   2.81421	7.88956e+06	   75.7008	   15.7651	   2.85251	7.84679e+06	   75.7509	    15.732	   2.82033	 7.8972e+06	
         R10	   1519	    75.744	   15.6234	   2.71465	8.14047e+06	     75.65	   15.6181	   2.70953	8.13934e+06	     75.65	    15.689	   2.77853	8.03034e+06	   75.7501	   15.6963	   2.78554	8.04907e+06	    75.697	   15.6208	   2.71209	8.13929e+06	     75.65	   15.6536	   2.74403	8.08483e+06	      75.7	   15.6926	   2.78203	 8.0391e+06	    75.747	   15.6598	    2.7501	8.09462e+06	
         R10	   1520	   75.7395	   15.5526	   2.64582	8.28098e+06	     75.65	   15.5496	   2.64289	8.23096e+06	     75.65	   15.6181	   2.70953	8.19531e+06	    75.744	   15.6234	   2.71465	8.19003e+06	   75.6948	   15.5511	   2.64435	8.25529e+06	     75.65	   15.5839	   2.67621	8.21281e+06	    75.697	   15.6208	   2.71209	8.19215e+06	   75.7418	    15.588	   2.68024	8.23515e+06	
         R10	   1521	   75.7359	   15.4855	   2.58052	8.32851e+06	     75.65	   15.4836	   2.57862	8.30178e+06	     75.65	   15.5496	   2.64289	8.25578e+06	   75.7395	   15.5526	   2.64582	8.30786e+06	    75.693	   15.4846	   2.57957	 8.3145e+06	     75.65	   15.5166	   2.61075	8.27732e+06	   75.6948	   15.5511	   2.64435	8.28109e+06	   75.7377	   15.5191	   2.61317	8.31667e+06	
         R10	   1522	   75.7301	   15.4214	    2.5181	8.36204e+06	     75.65	     15.42	   2.51671	8.35327e+06	     75.65	   15.4836	   2.57862	8.30044e+06	   75.7359	   15.4855	   2.58052	8.35482e+06	   75.6901	   15.4207	    2.5174	8.35705e+06	     75.65	   15.4518	   2.54767	8.32327e+06	    75.693	   15.4846	   2.57957	8.32685e+06	    75.733	   15.4535	   2.54931	8.35512e+06	
         R10	   1523	   75.7264	   15.3594	   2.45783	8.41467e+06	   75.7298	      15.3	       2.4	  8.471e+06	     75.65	      15.3	       2.4	 8.4315e+06	     75.65	   15.3588	   2.45717	8.36353e+06	   75.7281	   15.3297	   2.42891	8.43466e+06	   75.6899	      15.3	       2.4	8.45061e+06	     75.65	   15.3294	   2.42859	8.39118e+06	   75.6882	   15.3591	    2.4575	8.38824e+06	
         R10	   1524	    75.872	   15.3999	   2.49721	8.47215e+06	   75.8692	   15.3507	   2.44936	8.51447e+06	   75.7994	   15.3563	   2.45475	8.45951e+06	   75.8028	   15.4145	   2.51139	8.43215e+06	   75.8706	   15.3753	   2.47328	8.48923e+06	   75.8343	   15.3535	   2.45206	8.48638e+06	   75.8011	   15.3854	   2.48307	8.44061e+06	   75.8374	   15.4072	    2.5043	8.45178e+06	
         R10	   1525	   75.9399	   15.3876	   2.48519	8.54122e+06	   75.9352	   15.3452	   2.44397	8.56788e+06	   75.8692	   15.3507	   2.44936	8.51519e+06	    75.872	   15.3999	   2.49721	8.47358e+06	   75.9375	   15.3664	   2.46458	8.55112e+06	   75.9022	    15.348	   2.44667	8.54085e+06	   75.8706	   15.3753	   2.47328	8.49028e+06	   75.9059	   15.3937	    2.4912	 8.5068e+06	
         R10	   1526	   76.0007	   15.3815	   2.47931	8.59049e+06	   75.9966	   15.3412	   2.44008	8.63029e+06	   75.9352	   15.3452	   2.44397	8.56723e+06	   75.9399	   15.3876	   2.48519	8.53694e+06	   75.9986	   15.3614	   2.45969	8.60707e+06	   75.9659	   15.3432	   2.44202	8.59791e+06	   75.9375	   15.3664	   2.46458	 8.5487e+06	   75.9703	   15.3845	   2.48225	8.56295e+06	
         R10	   1527	   76.0576	   15.3762	   2.47417	 8.6534e+06	   76.0529	   15.3384	   2.43732	8.69533e+06	   75.9966	   15.3412	   2.44008	8.63022e+06	   76.0007	   15.3815	   2.47931	8.58997e+06	   76.0553	   15.3573	   2.45575	 8.6712e+06	   76.0248	   15.3398	    2.4387	8.66178e+06	   75.9986	   15.3614	   2.45969	8.60675e+06	   76.0291	   15.3789	   2.47674	8.62079e+06	
         R10	   1528	   76.1083	   15.3706	   2.46867	8.72408e+06	   76.1036	   15.3355	   2.43453	8.76642e+06	   76.0529	   15.3384	   2.43732	8.69576e+06	   76.0576	   15.3762	   2.47417	8.65223e+06	    76.106	    15.353	    2.4516	8.74225e+06	   76.0783	   15.3369	   2.43592	8.73008e+06	   76.0553	   15.3573	   2.45575	 8.6708e+06	    76.083	   15.3734	   2.47142	8.68724e+06	
         R10	   1529	    76.154	   15.3633	   2.46155	8.80383e+06	   76.1495	    15.332	   2.43116	8.84864e+06	   76.1036	   15.3355	   2.43453	8.76647e+06	   76.1083	   15.3706	   2.46867	8.72315e+06	   76.1517	   15.3476	   2.44636	8.82355e+06	   76.1266	   15.3338	   2.43284	8.80654e+06	    76.106	    15.353	    2.4516	8.74177e+06	   76.1311	   15.3669	   2.46511	8.76262e+06	
         R10	   1530	   76.1958	   15.3552	   2.45368	8.90243e+06	   76.1915	   15.3285	   2.42777	8.94264e+06	   76.1495	    15.332	   2.43116	 8.8431e+06	    76.154	   15.3633	   2.46155	8.80545e+06	   76.1936	   15.3419	   2.44073	8.92024e+06	   76.1705	   15.3303	   2.42947	8.89184e+06	   76.1517	   15.3476	   2.44636	8.82156e+06	   76.1749	   15.3592	   2.45761	8.85295e+06	
         R10	   1531	    76.235	   15.3497	   2.44833	9.02098e+06	   76.2276	    15.325	   2.42436	9.03785e+06	   76.1915	   15.3285	   2.42777	8.93435e+06	   76.1958	   15.3552	   2.45368	8.90382e+06	   76.2313	   15.3374	   2.43635	9.02682e+06	   76.2095	   15.3268	   2.42607	8.98524e+06	   76.1936	   15.3419	   2.44073	8.91677e+06	   76.2154	   15.3524	   2.45101	8.96107e+06	
         R10	   1532	   76.2648	   15.3381	   2.43705	9.15326e+06	   76.2592	   15.3207	   2.42015	9.14379e+06	   76.2276	    15.325	   2.42436	9.03812e+06	    76.235	   15.3497	   2.44833	 9.0123e+06	    76.262	   15.3294	    2.4286	9.14687e+06	   76.2434	   15.3229	   2.42225	9.09013e+06	   76.2313	   15.3374	   2.43635	9.02242e+06	   76.2499	   15.3439	   2.44269	9.08207e+06	
         R10	   1533	   76.2895	   15.3333	   2.43243	 9.2543e+06	   76.2868	   15.3174	    2.4169	9.25175e+06	   76.2592	   15.3207	   2.42015	9.13796e+06	   76.2648	   15.3381	   2.43705	9.14591e+06	   76.2882	   15.3254	   2.42467	9.25143e+06	    76.273	    15.319	   2.41852	9.19409e+06	    76.262	   15.3294	    2.4286	9.14046e+06	   76.2772	   15.3357	   2.43474	 9.1994e+06	
         R10	   1534	   76.3103	   15.3332	   2.43227	9.37229e+06	     76.33	   15.3366	   2.43556	9.46926e+06	     76.33	   15.3244	   2.42371	9.48384e+06	   76.3098	   15.3169	   2.41643	9.35035e+06	   76.3201	   15.3349	   2.43392	9.41925e+06	     76.33	   15.3305	   2.42964	9.47495e+06	   76.3199	   15.3206	   2.42007	9.41509e+06	   76.3101	    15.325	   2.42435	9.35932e+06	
         R10	   1535	   76.2907	   15.3712	    2.4693	9.15538e+06	   76.3116	   15.3707	   2.46879	9.21834e+06	   76.3095	     15.36	   2.45837	9.27617e+06	   76.2828	   15.3559	   2.45444	9.15044e+06	   76.3012	    15.371	   2.46904	9.18578e+06	   76.3106	   15.3653	   2.46358	9.24665e+06	   76.2961	    15.358	    2.4564	9.21001e+06	   76.2867	   15.3636	   2.46187	9.15015e+06	
         R10	   1536	   76.2882	   15.4032	   2.50043	8.97038e+06	    76.312	    15.397	   2.49437	9.03754e+06	   76.3065	   15.3854	   2.48306	9.12208e+06	   76.2883	   15.3899	   2.48749	9.03775e+06	   76.3001	   15.4001	    2.4974	9.00297e+06	   76.3092	   15.3912	   2.48872	9.07901e+06	   76.2974	   15.3876	   2.48528	 9.0791e+06	   76.2882	   15.3966	   2.49396	 9.0033e+06	
         R10	   1537	   76.2874	   15.4227	   2.51942	8.87929e+06	   76.3092	   15.4229	   2.51959	8.88494e+06	   76.3116	   15.4106	   2.50759	8.97411e+06	   76.2882	   15.4032	   2.50043	8.95974e+06	   76.2983	   15.4228	    2.5195	8.88085e+06	   76.3104	   15.4167	   2.51359	8.92914e+06	   76.2999	   15.4069	   2.50401	8.96517e+06	   76.2878	    15.413	   2.50992	8.91874e+06	
         R10	   1538	   76.3311	   15.4347	   2.53106	8.85787e+06	     76.33	   15.4218	   2.51855	8.92977e+06	   76.3092	   15.4229	   2.51959	8.90394e+06	     76.31	   15.4362	   2.53254	8.79728e+06	   76.3305	   15.4283	    2.5248	8.89334e+06	   76.3196	   15.4224	   2.51907	 8.9159e+06	   76.3096	   15.4296	   2.52606	8.85024e+06	   76.3206	   15.4355	    2.5318	8.82661e+06	
         R10	   1539	   76.3497	   15.4511	   2.54698	8.74016e+06	   76.3452	   15.4349	   2.53121	8.86271e+06	   76.3311	   15.4347	   2.53106	8.85612e+06	   76.3269	   15.4508	   2.54669	8.79715e+06	   76.3475	    15.443	    2.5391	8.80081e+06	   76.3382	   15.4348	   2.53113	8.85925e+06	    76.329	   15.4427	   2.53887	8.82615e+06	   76.3383	   15.4509	   2.54684	8.76732e+06	
         R10	   1540	   76.4028	   15.4556	   2.55143	8.78543e+06	   76.3948	   15.4356	   2.53193	8.90123e+06	     76.38	   15.4368	   2.53309	 8.9915e+06	   76.3765	   15.4499	   2.54586	8.75076e+06	   76.3988	   15.4456	   2.54168	 8.8426e+06	   76.3874	   15.4362	   2.53251	8.94566e+06	   76.3782	   15.4434	   2.53948	8.87098e+06	   76.3896	   15.4528	   2.54865	8.76474e+06	
         R10	   1541	   76.4237	   15.4999	   2.59454	8.36144e+06	   76.4609	   15.5021	   2.59662	8.29581e+06	   76.4679	   15.4776	   2.57279	8.54063e+06	   76.4367	   15.4738	    2.5691	 8.6058e+06	   76.4423	    15.501	   2.59558	8.32667e+06	   76.4644	   15.4898	   2.58471	8.41787e+06	   76.4523	   15.4757	   2.57095	8.57218e+06	   76.4302	   15.4869	   2.58182	8.48266e+06	
         R10	   1542	   76.4107	   15.5276	    2.6215	8.18772e+06	   76.4548	   15.5311	   2.62487	8.05628e+06	   76.4609	   15.5021	   2.59662	8.29015e+06	   76.4237	   15.4999	   2.59454	8.37632e+06	   76.4327	   15.5294	   2.62318	8.12001e+06	   76.4579	   15.5166	   2.61075	8.17259e+06	   76.4423	    15.501	   2.59558	8.33153e+06	   76.4172	   15.5138	   2.60802	8.28126e+06	
         R10	   1543	   76.3993	   15.5618	   2.65471	8.02489e+06	   76.4491	   15.5648	   2.65765	7.84579e+06	   76.4548	   15.5311	   2.62487	8.05242e+06	   76.4107	   15.5276	    2.6215	8.19903e+06	   76.4242	   15.5633	   2.65618	7.93322e+06	    76.452	    15.548	   2.64126	7.94842e+06	   76.4327	   15.5294	   2.62318	8.12379e+06	    76.405	   15.5447	    2.6381	8.11115e+06	
         R10	   1544	   76.3902	   15.5993	   2.69123	7.88524e+06	   76.4445	   15.6025	   2.69436	7.66542e+06	   76.4491	   15.5648	   2.65765	7.84336e+06	   76.3993	   15.5618	   2.65471	8.02717e+06	   76.4174	   15.6009	    2.6928	7.77336e+06	   76.4468	   15.5837	     2.676	7.75365e+06	   76.4242	   15.5633	   2.65618	7.93321e+06	   76.3948	   15.5806	   2.67297	7.95551e+06	
         R10	   1545	   76.3818	   15.6423	   2.73307	7.75253e+06	     76.44	   15.6452	   2.73583	7.51775e+06	   76.4445	   15.6025	   2.69436	7.66177e+06	   76.3902	   15.5993	   2.69123	7.87935e+06	   76.4109	   15.6437	   2.73445	7.63337e+06	   76.4423	   15.6238	    2.7151	7.58887e+06	   76.4174	   15.6009	    2.6928	7.76864e+06	    76.386	   15.6208	   2.71215	7.81521e+06	
         R10	   1546	   76.3721	   15.6887	   2.77824	7.62469e+06	   76.4347	    15.692	   2.78144	7.40976e+06	     76.44	   15.6452	   2.73583	7.50606e+06	   76.3818	   15.6423	   2.73307	7.73548e+06	   76.4034	   15.6904	   2.77984	7.51577e+06	   76.4374	   15.6686	   2.75864	7.45681e+06	   76.4109	   15.6437	   2.73445	7.61909e+06	   76.3769	   15.6655	   2.75565	7.67927e+06	
         R10	   1547	   76.3555	   15.7423	    2.8303	7.42841e+06	   76.4277	   15.7435	   2.83151	7.30299e+06	   76.4347	    15.692	   2.78144	7.38526e+06	   76.3721	   15.6887	   2.77824	7.58242e+06	   76.3916	   15.7429	   2.83091	7.36401e+06	   76.4312	   15.7178	   2.80648	7.34292e+06	   76.4034	   15.6904	   2.77984	 7.4826e+06	   76.3638	   15.7155	   2.80427	7.50392e+06	
         R10	   1548	    76.339	   15.7965	   2.88305	7.04935e+06	   76.4204	   15.7983	   2.88486	7.08618e+06	   76.4277	   15.7435	   2.83151	7.23775e+06	   76.3555	   15.7423	    2.8303	7.33708e+06	   76.3797	   15.7974	   2.88396	7.06495e+06	    76.424	   15.7709	   2.85819	7.16099e+06	   76.3916	   15.7429	   2.83091	7.28642e+06	   76.3473	   15.7694	   2.85668	7.19028e+06	
         R10	   1549	   76.3286	   15.8559	   2.94083	6.66579e+06	   76.4156	   15.8564	   2.94138	 6.4471e+06	   76.4204	   15.7983	   2.88486	6.82549e+06	    76.339	   15.7965	   2.88305	6.87598e+06	   76.3721	   15.8561	   2.94111	6.54387e+06	    76.418	   15.8274	   2.91312	6.63451e+06	   76.3797	   15.7974	   2.88396	6.84982e+06	   76.3338	   15.8262	   2.91194	6.75479e+06	
         R10	   1550	    76.239	   15.8537	   2.93877	6.94981e+06	   76.3286	   15.8559	   2.94083	6.64283e+06	    76.339	   15.7965	   2.88305	6.91415e+06	   76.2555	   15.7925	    2.8792	7.05186e+06	   76.2838	   15.8548	    2.9398	6.79469e+06	   76.3338	   15.8262	   2.91194	6.76343e+06	   76.2973	   15.7945	   2.88112	6.97907e+06	   76.2472	   15.8231	   2.90898	6.99044e+06	
         R10	   1551	   76.1457	   15.7899	   2.87667	7.29415e+06	   76.1457	   15.8522	    2.9373	7.22638e+06	    76.239	   15.8537	   2.93877	6.98238e+06	   76.2555	   15.7925	    2.8792	7.04595e+06	   76.1457	   15.8211	   2.90699	7.25315e+06	   76.1923	    15.853	   2.93803	 7.1035e+06	   76.2472	   15.8231	   2.90898	7.00355e+06	   76.2006	   15.7912	   2.87794	7.16728e+06	
         R10	   1552	   76.0511	   15.7892	   2.87598	7.40459e+06	   76.0498	   15.8513	   2.93637	7.40056e+06	   76.1457	   15.8522	    2.9373	7.21943e+06	   76.1457	   15.7899	   2.87667	7.29597e+06	   76.0504	   15.8202	   2.90618	7.39549e+06	   76.0977	   15.8517	   2.93684	7.30922e+06	   76.1457	   15.8211	   2.90699	7.25095e+06	   76.0984	   15.7896	   2.87633	7.34922e+06	
         R10	   1553	   75.9505	    15.782	   2.86899	7.53226e+06	   75.9509	   15.8489	   2.93411	 7.5129e+06	   76.0498	   15.8513	   2.93637	7.40922e+06	   76.0511	   15.7892	   2.87598	 7.4059e+06	   75.9507	   15.8155	   2.90155	7.51636e+06	   76.0004	   15.8501	   2.93524	7.46058e+06	   76.0504	   15.8202	   2.90618	7.40088e+06	   76.0008	   15.7856	   2.87249	7.46846e+06	
         R10	   1554	   75.8528	   15.7733	   2.86052	7.62095e+06	   75.8516	   15.8457	   2.93098	7.57803e+06	   75.9509	   15.8489	   2.93411	7.51343e+06	   75.9505	    15.782	   2.86899	7.53613e+06	   75.8522	   15.8095	   2.89575	7.59375e+06	   75.9012	   15.8473	   2.93255	7.54538e+06	   75.9507	   15.8155	   2.90155	7.51873e+06	   75.9017	   15.7777	   2.86476	7.57813e+06	
         R10	   1555	   75.7517	   15.7678	   2.85512	7.65974e+06	   75.7507	   15.8425	   2.92782	 7.6202e+06	   75.8516	   15.8457	   2.93098	7.57075e+06	   75.8528	   15.7733	   2.86052	7.63321e+06	   75.7512	   15.8051	   2.89147	7.63419e+06	   75.8011	   15.8441	    2.9294	7.59512e+06	   75.8522	   15.8095	   2.89575	7.59632e+06	   75.8022	   15.7705	   2.85782	7.64604e+06	
         R10	   1556	   75.7501	   15.6963	   2.78554	7.94209e+06	   75.7517	   15.7678	   2.85512	7.84025e+06	   75.8528	   15.7733	   2.86052	7.79875e+06	   75.8566	   15.7001	   2.78933	7.95909e+06	   75.7509	    15.732	   2.82033	7.88957e+06	   75.8022	   15.7705	   2.85782	7.81907e+06	   75.8547	   15.7367	   2.82493	7.87719e+06	   75.8034	   15.6982	   2.78744	7.94968e+06	
         R10	   1557	   75.8276	   15.6194	   2.71076	8.19323e+06	    75.744	   15.6234	   2.71465	8.16634e+06	   75.7501	   15.6963	   2.78554	8.03817e+06	   75.8566	   15.7001	   2.78933	8.02987e+06	   75.7858	   15.6214	   2.71271	8.17922e+06	    75.747	   15.6598	    2.7501	8.10218e+06	   75.8034	   15.6982	   2.78744	8.03311e+06	   75.8421	   15.6598	   2.75005	8.11152e+06	
         R10	   1558	   75.8226	   15.5517	   2.64494	8.31943e+06	   75.7395	   15.5526	   2.64582	 8.2765e+06	    75.744	   15.6234	   2.71465	8.21136e+06	   75.8276	   15.6194	   2.71076	8.22329e+06	   75.7811	   15.5522	   2.64538	 8.2973e+06	   75.7418	    15.588	   2.68024	8.24361e+06	   75.7858	   15.6214	   2.71271	8.21682e+06	   75.8251	   15.5856	   2.67785	  8.271e+06	
         R10	   1559	   75.8176	   15.4817	   2.57677	8.38844e+06	   75.7359	   15.4855	   2.58052	8.35089e+06	   75.7395	   15.5526	   2.64582	8.29701e+06	   75.8226	   15.5517	   2.64494	8.34102e+06	   75.7768	   15.4836	   2.57864	  8.369e+06	   75.7377	   15.5191	   2.61317	8.32235e+06	   75.7811	   15.5522	   2.64538	8.31832e+06	   75.8201	   15.5167	   2.61086	8.36301e+06	
         R10	   1560	   75.7264	   15.3594	   2.45783	8.40168e+06	     75.65	   15.3588	   2.45717	8.34394e+06	     75.65	     15.42	   2.51671	8.34206e+06	   75.7301	   15.4214	    2.5181	8.36503e+06	   75.6882	   15.3591	    2.4575	8.37206e+06	     75.65	   15.3894	   2.48694	8.33714e+06	   75.6901	   15.4207	    2.5174	8.35305e+06	   75.7283	   15.3904	   2.48796	 8.3776e+06	
         R10	   1561	   75.8028	   15.4145	   2.51139	8.42308e+06	   75.7994	   15.3563	   2.45475	8.46277e+06	   75.7264	   15.3594	   2.45783	8.40771e+06	   75.7301	   15.4214	    2.5181	8.38088e+06	   75.8011	   15.3854	   2.48307	8.43768e+06	   75.7629	   15.3579	   2.45629	8.43459e+06	   75.7283	   15.3904	   2.48796	8.38853e+06	   75.7665	   15.4179	   2.51474	8.40157e+06	
         R10	   1562	   75.9502	   15.4321	   2.52849	8.50179e+06	   75.9399	   15.3876	   2.48519	8.53824e+06	    75.872	   15.3999	   2.49721	8.46237e+06	    75.889	    15.441	   2.53717	8.47633e+06	   75.9451	   15.4098	   2.50684	8.51706e+06	   75.9059	   15.3937	    2.4912	8.49961e+06	   75.8805	   15.4204	   2.51719	8.46695e+06	   75.9196	   15.4365	   2.53283	8.48865e+06	
         R10	   1563	   76.0089	   15.4214	   2.51814	8.56337e+06	   76.0007	   15.3815	   2.47931	 8.5925e+06	   75.9399	   15.3876	   2.48519	8.53981e+06	   75.9502	   15.4321	   2.52849	8.50656e+06	   76.0048	   15.4015	   2.49872	8.57542e+06	   75.9703	   15.3845	   2.48225	8.56541e+06	   75.9451	   15.4098	   2.50684	8.52022e+06	   75.9796	   15.4267	   2.52331	8.53437e+06	
         R10	   1564	   76.0671	   15.4132	    2.5101	8.61921e+06	   76.0576	   15.3762	   2.47417	8.65427e+06	   76.0007	   15.3815	   2.47931	8.58942e+06	   76.0089	   15.4214	   2.51814	8.56305e+06	   76.0623	   15.3947	   2.49214	8.63423e+06	   76.0291	   15.3789	   2.47674	8.62093e+06	   76.0048	   15.4015	   2.49872	8.57373e+06	    76.038	   15.4173	   2.51412	8.59029e+06	
         R10	   1565	   76.1185	   15.4051	   2.50228	8.68415e+06	   76.1083	   15.3706	   2.46867	8.72291e+06	   76.0576	   15.3762	   2.47417	8.65313e+06	   76.0671	   15.4132	    2.5101	8.62051e+06	   76.1134	   15.3878	   2.48548	8.70091e+06	    76.083	   15.3734	   2.47142	8.68711e+06	   76.0623	   15.3947	   2.49214	8.63432e+06	   76.0928	   15.4091	   2.50619	8.65141e+06	
         R10	   1566	   76.1641	   15.3947	   2.49216	8.76279e+06	    76.154	   15.3633	   2.46155	8.80532e+06	   76.1083	   15.3706	   2.46867	8.72353e+06	   76.1185	   15.4051	   2.50228	8.68256e+06	    76.159	    15.379	   2.47685	8.78141e+06	   76.1311	   15.3669	   2.46511	8.76351e+06	   76.1134	   15.3878	   2.48548	8.70043e+06	   76.1413	   15.3999	   2.49722	8.72175e+06	
         R10	   1567	   76.2027	   15.3823	   2.48004	8.85683e+06	   76.1958	   15.3552	   2.45368	8.90384e+06	    76.154	   15.3633	   2.46155	8.80542e+06	   76.1641	   15.3947	   2.49216	8.76279e+06	   76.1992	   15.3687	   2.46686	8.87801e+06	   76.1749	   15.3592	   2.45761	8.85364e+06	    76.159	    15.379	   2.47685	8.78145e+06	   76.1834	   15.3885	    2.4861	8.80899e+06	
         R10	   1568	   76.2358	   15.3748	    2.4728	 8.9587e+06	    76.235	   15.3497	   2.44833	 9.0155e+06	   76.1958	   15.3552	   2.45368	8.90486e+06	   76.2027	   15.3823	   2.48004	8.85707e+06	   76.2354	   15.3622	   2.46057	8.98501e+06	   76.2154	   15.3524	   2.45101	8.95886e+06	   76.1992	   15.3687	   2.46686	8.87858e+06	   76.2193	   15.3785	   2.47642	8.90696e+06	
         R10	   1569	   76.3103	   15.3332	   2.43227	9.36124e+06	   76.3098	   15.3169	   2.41643	9.35379e+06	   76.2868	   15.3174	    2.4169	9.24711e+06	   76.2895	   15.3333	   2.43243	9.25511e+06	   76.3101	    15.325	   2.42435	9.35572e+06	   76.2983	   15.3171	   2.41667	9.29964e+06	   76.2882	   15.3254	   2.42467	9.24959e+06	   76.2999	   15.3332	   2.43235	9.30729e+06	
         R10	   1570	   76.2954	   15.3454	    2.4442	9.25822e+06	   76.2828	   15.3559	   2.45444	9.14696e+06	   76.3095	     15.36	   2.45837	9.27346e+06	   76.3111	   15.3471	    2.4458	 9.3295e+06	   76.2891	   15.3507	   2.44932	9.20207e+06	   76.2961	    15.358	    2.4564	9.20757e+06	   76.3103	   15.3535	   2.45208	 9.3005e+06	   76.3032	   15.3462	     2.445	9.29312e+06	
         R10	   1571	   76.2686	   15.3784	   2.47625	 9.0394e+06	   76.2907	   15.3712	    2.4693	9.11265e+06	   76.2828	   15.3559	   2.45444	  9.171e+06	   76.2639	   15.3609	   2.45922	9.07835e+06	   76.2796	   15.3748	   2.47277	9.07533e+06	   76.2867	   15.3636	   2.46187	9.14083e+06	   76.2734	   15.3584	   2.45683	9.12416e+06	   76.2663	   15.3696	   2.46773	9.05667e+06	
         R10	   1572	   76.2883	   15.3899	   2.48749	 9.0335e+06	   76.3065	   15.3854	   2.48306	9.11212e+06	   76.2907	   15.3712	    2.4693	9.16892e+06	   76.2686	   15.3784	   2.47625	9.03004e+06	   76.2974	   15.3876	   2.48528	9.07213e+06	   76.2986	   15.3783	   2.47618	9.13784e+06	   76.2796	   15.3748	   2.47277	 9.0988e+06	   76.2784	   15.3841	   2.48187	9.02947e+06	
         R10	   1573	   76.2666	   15.4245	   2.52115	8.81392e+06	   76.2874	   15.4227	   2.51942	8.86494e+06	   76.2882	   15.4032	   2.50043	8.95671e+06	   76.2613	   15.4006	   2.49785	8.92795e+06	    76.277	   15.4236	   2.52028	8.83877e+06	   76.2878	    15.413	   2.50992	8.91009e+06	   76.2748	   15.4019	   2.49914	8.94053e+06	   76.2639	   15.4125	    2.5095	8.86919e+06	
         R10	   1574	     76.31	   15.4362	   2.53254	8.80835e+06	   76.3092	   15.4229	   2.51959	8.89702e+06	   76.2874	   15.4227	   2.51942	8.84928e+06	   76.2902	   15.4411	   2.53729	8.79136e+06	   76.3096	   15.4296	   2.52606	8.85223e+06	   76.2983	   15.4228	    2.5195	8.87217e+06	   76.2888	   15.4319	   2.52835	8.81987e+06	   76.3001	   15.4387	   2.53491	 8.7994e+06	
         R10	   1575	   76.3501	   15.4702	   2.56563	8.66164e+06	   76.3497	   15.4511	   2.54698	8.73113e+06	   76.3269	   15.4508	   2.54669	8.74535e+06	   76.3209	   15.4683	   2.56379	8.61361e+06	   76.3499	   15.4607	   2.55631	8.69587e+06	   76.3383	   15.4509	   2.54684	 8.7367e+06	   76.3239	   15.4596	   2.55524	8.67908e+06	   76.3355	   15.4693	   2.56471	 8.6363e+06	
         R10	   1576	   76.3765	   15.4499	   2.54586	8.92971e+06	     76.38	   15.4368	   2.53309	8.89932e+06	   76.3635	   15.4343	   2.53068	8.93539e+06	   76.3497	   15.4511	   2.54698	8.68249e+06	   76.3782	   15.4434	   2.53948	 8.9135e+06	   76.3717	   15.4356	   2.53189	 8.9164e+06	   76.3566	   15.4427	   2.53883	8.80843e+06	   76.3631	   15.4505	   2.54642	8.80431e+06	
         R10	   1577	   76.3839	    15.492	   2.58685	8.44548e+06	   76.4237	   15.4999	   2.59454	8.38969e+06	   76.4367	   15.4738	    2.5691	8.57624e+06	    76.411	   15.4723	   2.56765	8.61921e+06	   76.4038	    15.496	    2.5907	8.41586e+06	   76.4302	   15.4869	   2.58182	 8.4821e+06	   76.4239	   15.4731	   2.56838	8.59682e+06	   76.3974	   15.4822	   2.57725	8.53075e+06	
         R10	   1578	   76.3679	   15.5224	   2.61638	8.29846e+06	   76.4107	   15.5276	    2.6215	8.20628e+06	   76.4237	   15.4999	   2.59454	8.36035e+06	   76.3839	    15.492	   2.58685	8.46939e+06	   76.3893	    15.525	   2.61894	8.25071e+06	   76.4172	   15.5138	   2.60802	8.28248e+06	   76.4038	    15.496	    2.5907	8.41327e+06	   76.3759	   15.5072	   2.60162	8.38302e+06	
         R10	   1579	   76.3516	   15.5561	    2.6492	8.16417e+06	   76.3993	   15.5618	   2.65471	8.02887e+06	   76.4107	   15.5276	    2.6215	 8.1877e+06	   76.3679	   15.5224	   2.61638	8.30524e+06	   76.3755	    15.559	   2.65196	8.09499e+06	    76.405	   15.5447	    2.6381	8.10748e+06	   76.3893	    15.525	   2.61894	8.24486e+06	   76.3598	   15.5393	   2.63279	8.23392e+06	
         R10	   1580	   76.3382	    15.593	   2.68505	  8.042e+06	   76.3902	   15.5993	   2.69123	 7.8822e+06	   76.3993	   15.5618	   2.65471	8.02344e+06	   76.3516	   15.5561	    2.6492	 8.1691e+06	   76.3642	   15.5961	   2.68814	 7.9608e+06	   76.3948	   15.5806	   2.67297	7.95212e+06	   76.3755	    15.559	   2.65196	8.09472e+06	   76.3449	   15.5745	   2.66713	8.10497e+06	
         R10	   1581	   76.3263	   15.6356	   2.72655	7.90753e+06	   76.3818	   15.6423	   2.73307	7.74924e+06	   76.3902	   15.5993	   2.69123	7.87573e+06	   76.3382	    15.593	   2.68505	8.04166e+06	    76.354	    15.639	   2.72981	7.82736e+06	    76.386	   15.6208	   2.71215	7.81175e+06	   76.3642	   15.5961	   2.68814	7.95735e+06	   76.3322	   15.6143	    2.7058	7.97406e+06	
         R10	   1582	   76.3108	   15.6816	   2.77129	7.76141e+06	   76.3721	   15.6887	   2.77824	7.61791e+06	   76.3818	   15.6423	   2.73307	7.72943e+06	   76.3263	   15.6356	   2.72655	7.89783e+06	   76.3414	   15.6852	   2.77476	7.68877e+06	   76.3769	   15.6655	   2.75565	7.67286e+06	    76.354	    15.639	   2.72981	7.81255e+06	   76.3185	   15.6586	   2.74892	7.82891e+06	
         R10	   1583	   76.2924	   15.7323	   2.82059	7.54177e+06	   76.3555	   15.7423	    2.8303	7.43713e+06	   76.3721	   15.6887	   2.77824	7.56897e+06	   76.3108	   15.6816	   2.77129	7.73503e+06	    76.324	   15.7373	   2.82545	7.48874e+06	   76.3638	   15.7155	   2.80427	7.50151e+06	   76.3414	   15.6852	   2.77476	7.65102e+06	   76.3016	   15.7069	   2.79594	7.63713e+06	
         R10	   1584	   76.2555	   15.7925	    2.8792	7.26144e+06	    76.339	   15.7965	   2.88305	7.08632e+06	   76.3555	   15.7423	    2.8303	7.30752e+06	   76.2924	   15.7323	   2.82059	7.46189e+06	   76.2973	   15.7945	   2.88112	7.17221e+06	   76.3473	   15.7694	   2.85668	7.19322e+06	    76.324	   15.7373	   2.82545	7.38336e+06	    76.274	   15.7624	   2.84989	7.35705e+06	
         R10	   1585	   76.0522	   15.7317	      2.82	7.74376e+06	   76.0511	   15.7892	   2.87598	7.59998e+06	   76.1457	   15.7899	   2.87667	7.46952e+06	   76.1303	   15.7303	   2.81863	7.69133e+06	   76.0516	   15.7604	   2.84799	 7.6696e+06	   76.0984	   15.7896	   2.87633	 7.5333e+06	    76.138	   15.7601	   2.84765	7.57908e+06	   76.0913	    15.731	   2.81931	7.71667e+06	
         R10	   1586	   75.9595	   15.7256	   2.81409	7.81171e+06	   75.9505	    15.782	   2.86899	7.74166e+06	   76.0511	   15.7892	   2.87598	7.62569e+06	   76.0522	   15.7317	      2.82	7.73169e+06	    75.955	   15.7538	   2.84154	7.77424e+06	   76.0008	   15.7856	   2.87249	7.68305e+06	   76.0516	   15.7604	   2.84799	7.67624e+06	   76.0059	   15.7286	   2.81704	7.77094e+06	
         R10	   1587	   75.8566	   15.7001	   2.78933	7.94353e+06	   75.8528	   15.7733	   2.86052	7.80664e+06	   75.9505	    15.782	   2.86899	7.76154e+06	   75.9595	   15.7256	   2.81409	7.79972e+06	   75.8547	   15.7367	   2.82493	7.87334e+06	   75.9017	   15.7777	   2.86476	7.78371e+06	    75.955	   15.7538	   2.84154	7.77822e+06	   75.9081	   15.7129	   2.80171	7.87112e+06	
         R10	   1588	   75.9043	   15.5497	   2.64299	8.36516e+06	   75.8226	   15.5517	   2.64494	8.31689e+06	   75.8276	   15.6194	   2.71076	8.22209e+06	   75.9076	   15.6109	   2.70252	8.25394e+06	   75.8634	   15.5507	   2.64396	8.34014e+06	   75.8251	   15.5856	   2.67785	8.26915e+06	   75.8676	   15.6152	   2.70664	8.23747e+06	   75.9059	   15.5803	   2.67275	8.30913e+06	
         R10	   1589	   75.8028	   15.4145	   2.51139	8.42199e+06	   75.7301	   15.4214	    2.5181	8.36833e+06	   75.7359	   15.4855	   2.58052	8.36582e+06	   75.8176	   15.4817	   2.57677	8.38993e+06	   75.7665	   15.4179	   2.51474	8.39469e+06	    75.733	   15.4535	   2.54931	8.36376e+06	   75.7768	   15.4836	   2.57864	8.37731e+06	   75.8102	   15.4481	   2.54408	8.40174e+06	
         R10	   1590	    75.889	    15.441	   2.53717	8.47985e+06	    75.872	   15.3999	   2.49721	8.47327e+06	   75.8028	   15.4145	   2.51139	8.44196e+06	   75.8176	   15.4817	   2.57677	8.38378e+06	   75.8805	   15.4204	   2.51719	8.47403e+06	   75.8374	   15.4072	    2.5043	 8.4573e+06	   75.8102	   15.4481	   2.54408	8.40856e+06	   75.8533	   15.4613	   2.55697	 8.4311e+06	
         R10	   1591	   75.9607	   15.4742	   2.56952	8.47574e+06	   75.9502	   15.4321	   2.52849	8.51001e+06	    75.889	    15.441	   2.53717	8.47364e+06	      75.9	    15.494	   2.58873	8.43066e+06	   75.9554	   15.4531	   2.54901	 8.4912e+06	   75.9196	   15.4365	   2.53283	8.49134e+06	   75.8945	   15.4675	   2.56295	8.44992e+06	   75.9303	   15.4841	   2.57913	8.45284e+06	
         R10	   1592	   76.0211	   15.4606	    2.5563	8.53011e+06	   76.0089	   15.4214	   2.51814	8.56049e+06	   75.9502	   15.4321	   2.52849	8.50893e+06	   75.9607	   15.4742	   2.56952	 8.4798e+06	    76.015	    15.441	   2.53722	8.54346e+06	   75.9796	   15.4267	   2.52331	8.53417e+06	   75.9554	   15.4531	   2.54901	8.49271e+06	   75.9909	   15.4674	   2.56291	8.50437e+06	
         R10	   1593	   76.0816	   15.4511	   2.54698	8.57773e+06	   76.0671	   15.4132	    2.5101	8.61886e+06	   76.0089	   15.4214	   2.51814	8.56063e+06	   76.0211	   15.4606	    2.5563	8.53022e+06	   76.0743	   15.4321	   2.52854	8.59613e+06	    76.038	   15.4173	   2.51412	 8.5889e+06	    76.015	    15.441	   2.53722	8.54359e+06	   76.0513	   15.4559	   2.55164	8.55301e+06	
         R10	   1594	   76.1309	   15.4399	   2.53614	8.63459e+06	   76.1185	   15.4051	   2.50228	8.68339e+06	   76.0671	   15.4132	    2.5101	8.61972e+06	   76.0816	   15.4511	   2.54698	8.57713e+06	   76.1247	   15.4225	   2.51921	8.65689e+06	   76.0928	   15.4091	   2.50619	8.65062e+06	   76.0743	   15.4321	   2.52854	8.59628e+06	   76.1062	   15.4455	   2.54156	8.60504e+06	
         R10	   1595	   76.1831	   15.4263	   2.52287	8.70951e+06	   76.1641	   15.3947	   2.49216	8.76511e+06	   76.1185	   15.4051	   2.50228	8.68077e+06	   76.1309	   15.4399	   2.53614	8.63379e+06	   76.1736	   15.4105	   2.50751	8.73456e+06	   76.1413	   15.3999	   2.49722	  8.722e+06	   76.1247	   15.4225	   2.51921	8.65518e+06	    76.157	   15.4331	    2.5295	 8.6704e+06	
         R10	   1596	   76.2164	   15.4046	   2.50178	8.81999e+06	   76.2027	   15.3823	   2.48004	8.85811e+06	   76.1641	   15.3947	   2.49216	8.76644e+06	   76.1831	   15.4263	   2.52287	8.71284e+06	   76.2096	   15.3934	   2.49091	8.83706e+06	   76.1834	   15.3885	    2.4861	 8.8115e+06	   76.1736	   15.4105	   2.50751	8.73683e+06	   76.1998	   15.4154	   2.51232	8.76568e+06	
         R10	   1597	   76.2954	   15.3454	    2.4442	9.26172e+06	   76.3111	   15.3471	    2.4458	 9.3255e+06	   76.3103	   15.3332	   2.43227	 9.3667e+06	   76.2895	   15.3333	   2.43243	9.25488e+06	   76.3032	   15.3462	     2.445	9.29275e+06	   76.3107	   15.3401	   2.43903	9.34462e+06	   76.2999	   15.3332	   2.43235	9.30998e+06	   76.2924	   15.3394	   2.43831	9.25711e+06	
         R10	   1598	   76.2902	   15.4411	   2.53729	8.78632e+06	   76.2874	   15.4227	   2.51942	 8.8533e+06	   76.2666	   15.4245	   2.52115	8.81907e+06	   76.2625	   15.4436	   2.53971	8.71807e+06	   76.2888	   15.4319	   2.52835	8.81915e+06	    76.277	   15.4236	   2.52028	8.83553e+06	   76.2645	    15.434	   2.53043	8.76809e+06	   76.2764	   15.4423	    2.5385	8.75092e+06	
         R10	   1599	   76.3269	   15.4508	   2.54669	8.77722e+06	     76.31	   15.4362	   2.53254	8.77598e+06	   76.2902	   15.4411	   2.53729	8.77594e+06	   76.2968	   15.4574	   2.55317	8.68327e+06	   76.3185	   15.4435	   2.53961	8.77595e+06	   76.3001	   15.4387	   2.53491	8.77518e+06	   76.2935	   15.4493	   2.54523	 8.7291e+06	   76.3118	   15.4541	   2.54993	8.72901e+06	
         R10	   1600	   76.3374	   15.4944	   2.58912	8.49263e+06	   76.3501	   15.4702	   2.56563	8.62822e+06	   76.3209	   15.4683	   2.56379	8.63847e+06	   76.3027	   15.4865	    2.5815	 8.5276e+06	   76.3438	   15.4823	   2.57738	8.55999e+06	   76.3355	   15.4693	   2.56471	8.63242e+06	   76.3118	   15.4774	   2.57264	8.58212e+06	     76.32	   15.4905	   2.58531	8.50838e+06	
         R10	   1601	   76.2865	   15.5846	    2.6769	8.16336e+06	   76.3382	    15.593	   2.68505	8.04065e+06	   76.3516	   15.5561	    2.6492	8.16359e+06	   76.3047	   15.5494	   2.64265	8.27189e+06	   76.3123	   15.5888	   2.68098	8.10087e+06	   76.3449	   15.5745	   2.66713	8.10156e+06	   76.3282	   15.5528	   2.64593	8.21634e+06	   76.2956	    15.567	   2.65977	8.21715e+06	
         R10	   1602	   76.2709	   15.6246	   2.71587	8.03348e+06	   76.3263	   15.6356	   2.72655	7.90735e+06	   76.3382	    15.593	   2.68505	8.03741e+06	   76.2865	   15.5846	    2.6769	8.16633e+06	   76.2986	   15.6301	   2.72121	7.96959e+06	   76.3322	   15.6143	    2.7058	7.97183e+06	   76.3123	   15.5888	   2.68098	8.10066e+06	   76.2787	   15.6046	   2.69639	8.09953e+06	
         R10	   1603	   76.2561	    15.668	   2.75808	7.87856e+06	   76.3108	   15.6816	   2.77129	 7.7585e+06	   76.3263	   15.6356	   2.72655	 7.8946e+06	   76.2709	   15.6246	   2.71587	8.04769e+06	   76.2835	   15.6748	   2.76469	7.81807e+06	   76.3185	   15.6586	   2.74892	7.82584e+06	   76.2986	   15.6301	   2.72121	7.97009e+06	   76.2635	   15.6463	   2.73698	7.96277e+06	
         R10	   1604	   76.2172	   15.7163	   2.80509	7.67379e+06	   76.2924	   15.7323	   2.82059	7.56329e+06	   76.3108	   15.6816	   2.77129	7.72834e+06	   76.2561	    15.668	   2.75808	7.90736e+06	   76.2548	   15.7243	   2.81284	7.61794e+06	   76.3016	   15.7069	   2.79594	7.64445e+06	   76.2835	   15.6748	   2.76469	7.81688e+06	   76.2367	   15.6922	   2.78159	7.78957e+06	
         R10	   1605	   76.0555	   15.6752	   2.76507	7.99796e+06	   76.0522	   15.7317	      2.82	7.83531e+06	   76.1303	   15.7303	   2.81863	7.75936e+06	   76.1286	   15.6803	   2.77002	7.93385e+06	   76.0538	   15.7034	   2.79253	7.91599e+06	   76.0913	    15.731	   2.81931	7.79627e+06	   76.1295	   15.7053	   2.79432	7.84613e+06	   76.0921	   15.6778	   2.76754	7.96503e+06	
         R10	   1606	   75.9807	   15.6683	   2.75832	  8.052e+06	   75.9595	   15.7256	   2.81409	7.91568e+06	   76.0522	   15.7317	      2.82	7.83861e+06	   76.0555	   15.6752	   2.76507	7.99811e+06	   75.9701	   15.6969	   2.78621	7.98268e+06	   76.0059	   15.7286	   2.81704	7.87609e+06	   76.0538	   15.7034	   2.79253	 7.9177e+06	   76.0181	   15.6717	    2.7617	8.02444e+06	
         R10	   1607	   75.9175	   15.6585	   2.74881	8.08502e+06	   75.9076	   15.6109	   2.70252	8.24721e+06	   75.8276	   15.6194	   2.71076	8.20575e+06	   75.8566	   15.7001	   2.78933	8.03509e+06	   75.9125	   15.6347	   2.72567	8.16604e+06	   75.8676	   15.6152	   2.70664	8.22598e+06	   75.8421	   15.6598	   2.75005	 8.1204e+06	   75.8871	   15.6793	   2.76907	 8.0589e+06	
         R10	   1608	   75.9802	   15.5601	   2.65303	8.35305e+06	   75.9043	   15.5497	   2.64299	8.36866e+06	   75.9076	   15.6109	   2.70252	8.24751e+06	   75.9934	   15.6099	   2.70157	8.25534e+06	   75.9422	   15.5549	   2.64801	8.35978e+06	   75.9059	   15.5803	   2.67275	8.30773e+06	   75.9505	   15.6104	   2.70204	8.25047e+06	   75.9868	    15.585	    2.6773	8.30395e+06	
         R10	   1609	   76.0356	   15.5017	   2.59622	  8.475e+06	   76.0211	   15.4606	    2.5563	8.52624e+06	   75.9607	   15.4742	   2.56952	8.47162e+06	   75.9775	   15.5109	   2.60517	 8.4468e+06	   76.0284	   15.4812	   2.57626	8.49926e+06	   75.9909	   15.4674	   2.56291	8.49825e+06	   75.9691	   15.4926	   2.58735	8.45811e+06	   76.0066	   15.5063	    2.6007	8.46031e+06	
         R10	   1610	   76.0957	   15.4883	   2.58322	8.52476e+06	   76.0816	   15.4511	   2.54698	8.57773e+06	   76.0211	   15.4606	    2.5563	8.53187e+06	   76.0356	   15.5017	   2.59622	8.47548e+06	   76.0887	   15.4697	    2.5651	8.54986e+06	   76.0513	   15.4559	   2.55164	8.55387e+06	   76.0284	   15.4812	   2.57626	8.50228e+06	   76.0657	    15.495	   2.58972	8.49923e+06	
         R10	   1611	   76.1518	   15.4761	   2.57133	8.56139e+06	   76.1309	   15.4399	   2.53614	8.63392e+06	   76.0816	   15.4511	   2.54698	8.57346e+06	   76.0957	   15.4883	   2.58322	8.52465e+06	   76.1413	    15.458	   2.55374	8.59568e+06	   76.1062	   15.4455	   2.54156	8.60282e+06	   76.0887	   15.4697	    2.5651	8.54766e+06	   76.1237	   15.4822	   2.57728	8.54194e+06	
         R10	   1612	   76.1882	   15.4527	    2.5486	8.64617e+06	   76.1831	   15.4263	   2.52287	8.70693e+06	   76.1309	   15.4399	   2.53614	8.63964e+06	   76.1518	   15.4761	   2.57133	8.56322e+06	   76.1856	   15.4395	   2.53573	8.67556e+06	    76.157	   15.4331	    2.5295	8.67208e+06	   76.1413	    15.458	   2.55374	8.59944e+06	     76.17	   15.4644	   2.55996	8.60405e+06	
         R10	   1613	   76.2294	   15.4382	   2.53446	8.72088e+06	   76.2625	   15.4436	   2.53971	8.72523e+06	   76.2666	   15.4245	   2.52115	8.82387e+06	   76.2372	   15.4191	   2.51588	 8.8052e+06	    76.246	   15.4409	   2.53708	8.72143e+06	   76.2645	    15.434	   2.53043	8.77405e+06	   76.2519	   15.4218	   2.51851	8.81272e+06	   76.2333	   15.4286	   2.52517	8.76264e+06	
         R10	   1614	   76.2968	   15.4574	   2.55317	8.67999e+06	   76.2902	   15.4411	   2.53729	8.78569e+06	   76.2625	   15.4436	   2.53971	8.72135e+06	   76.2646	   15.4645	   2.56001	8.63927e+06	   76.2935	   15.4493	   2.54523	8.73201e+06	   76.2764	   15.4423	    2.5385	8.75265e+06	   76.2635	    15.454	   2.54986	 8.6799e+06	   76.2807	   15.4609	   2.55659	8.65778e+06	
         R10	   1615	   76.3027	   15.4865	    2.5815	8.55542e+06	   76.3209	   15.4683	   2.56379	8.61238e+06	   76.2968	   15.4574	   2.55317	8.71743e+06	   76.2646	   15.4645	   2.56001	8.64639e+06	   76.3118	   15.4774	   2.57264	8.58339e+06	   76.3088	   15.4629	   2.55848	8.66363e+06	   76.2807	   15.4609	   2.55659	8.68035e+06	   76.2836	   15.4755	   2.57075	8.59786e+06	
         R10	   1616	   76.3248	   15.5176	   2.61172	8.39637e+06	   76.3047	   15.5494	   2.64265	8.26168e+06	   76.3516	   15.5561	    2.6492	  8.164e+06	   76.3679	   15.5224	   2.61638	 8.2999e+06	   76.3147	   15.5335	   2.62719	8.32834e+06	   76.3282	   15.5528	   2.64593	8.21137e+06	   76.3598	   15.5393	   2.63279	8.23116e+06	   76.3463	     15.52	   2.61405	8.34642e+06	
         R10	   1617	   76.2321	   15.5715	   2.66421	8.27077e+06	   76.2865	   15.5846	    2.6769	8.16104e+06	   76.3047	   15.5494	   2.64265	8.26875e+06	   76.2557	   15.5403	   2.63382	8.35993e+06	   76.2593	   15.5781	   2.67055	8.21458e+06	   76.2956	    15.567	   2.65977	8.21437e+06	   76.2802	   15.5449	   2.63824	8.31286e+06	   76.2439	   15.5559	   2.64901	8.31492e+06	
         R10	   1618	   76.2136	   15.6087	   2.70034	8.16104e+06	   76.2709	   15.6246	   2.71587	8.03608e+06	   76.2865	   15.5846	    2.6769	8.16347e+06	   76.2321	   15.5715	   2.66421	8.27387e+06	   76.2422	   15.6167	   2.70811	8.09758e+06	   76.2787	   15.6046	   2.69639	8.09937e+06	   76.2593	   15.5781	   2.67055	8.21741e+06	   76.2229	   15.5901	   2.68227	8.21715e+06	
         R10	   1619	   76.1987	   15.6473	    2.7379	8.03694e+06	   76.2561	    15.668	   2.75808	7.87538e+06	   76.2709	   15.6246	   2.71587	8.04645e+06	   76.2136	   15.6087	   2.70034	8.16343e+06	   76.2274	   15.6577	   2.74799	7.95543e+06	   76.2635	   15.6463	   2.73698	7.96057e+06	   76.2422	   15.6167	   2.70811	8.10413e+06	   76.2061	    15.628	   2.71912	8.09987e+06	
         R10	   1620	   76.2555	   15.7925	    2.8792	7.21036e+06	   76.2924	   15.7323	   2.82059	7.46355e+06	   76.2172	   15.7163	   2.80509	7.72698e+06	    76.211	   15.7517	   2.83948	7.52223e+06	    76.274	   15.7624	   2.84989	7.33272e+06	   76.2548	   15.7243	   2.81284	7.59388e+06	   76.2141	    15.734	   2.82228	7.62333e+06	   76.2333	   15.7721	   2.85934	7.36613e+06	
         R10	   1621	   76.0686	   15.6275	   2.71868	 8.1686e+06	   76.0555	   15.6752	   2.76507	8.04447e+06	   76.1286	   15.6803	   2.77002	7.96662e+06	    76.137	   15.6341	   2.72507	8.12022e+06	    76.062	   15.6514	   2.74187	 8.1063e+06	   76.0921	   15.6778	   2.76754	8.00466e+06	   76.1328	   15.6572	   2.74754	8.04312e+06	   76.1028	   15.6308	   2.72187	8.14341e+06	
         R10	   1622	   75.9175	   15.6585	   2.74881	8.09708e+06	   75.8566	   15.7001	   2.78933	8.03774e+06	   75.9595	   15.7256	   2.81409	7.93217e+06	   75.9807	   15.6683	   2.75832	8.04182e+06	   75.8871	   15.6793	   2.76907	8.06636e+06	   75.9081	   15.7129	   2.80171	 7.9845e+06	   75.9701	   15.6969	   2.78621	7.98576e+06	   75.9491	   15.6634	   2.75357	 8.0689e+06	
         R10	   1623	   75.9934	   15.6099	   2.70157	8.24373e+06	   75.9076	   15.6109	   2.70252	 8.2464e+06	   75.9175	   15.6585	   2.74881	8.12017e+06	   75.9807	   15.6683	   2.75832	8.09593e+06	   75.9505	   15.6104	   2.70204	8.24378e+06	   75.9125	   15.6347	   2.72567	8.18319e+06	   75.9491	   15.6634	   2.75357	 8.1077e+06	    75.987	   15.6391	   2.72994	8.16965e+06	
         R10	   1624	      75.9	    15.494	   2.58873	8.41578e+06	   75.8176	   15.4817	   2.57677	8.41272e+06	   75.8226	   15.5517	   2.64494	8.33968e+06	   75.9043	   15.5497	   2.64299	8.35956e+06	   75.8588	   15.4878	   2.58275	8.41269e+06	   75.8201	   15.5167	   2.61086	 8.3744e+06	   75.8634	   15.5507	   2.64396	8.34889e+06	   75.9021	   15.5219	   2.61586	8.38664e+06	
         R10	   1625	   75.9775	   15.5109	   2.60517	8.44882e+06	   75.9607	   15.4742	   2.56952	8.48056e+06	      75.9	    15.494	   2.58873	8.43528e+06	   75.9043	   15.5497	   2.64299	8.35519e+06	   75.9691	   15.4926	   2.58735	8.46363e+06	   75.9303	   15.4841	   2.57913	8.45764e+06	   75.9021	   15.5219	   2.61586	8.39419e+06	   75.9409	   15.5303	   2.62408	8.40129e+06	
         R10	   1626	   76.0441	   15.5414	   2.63485	8.40536e+06	   76.0356	   15.5017	   2.59622	8.47769e+06	   75.9775	   15.5109	   2.60517	8.44317e+06	   75.9802	   15.5601	   2.65303	8.36258e+06	   76.0399	   15.5215	   2.61554	8.44093e+06	   76.0066	   15.5063	    2.6007	8.45974e+06	   75.9789	   15.5355	    2.6291	8.40228e+06	   76.0122	   15.5507	   2.64394	8.38337e+06	
         R10	   1627	   76.1144	   15.5334	   2.62708	8.43247e+06	   76.0957	   15.4883	   2.58322	8.52099e+06	   76.0356	   15.5017	   2.59622	 8.4785e+06	   76.0441	   15.5414	   2.63485	8.40719e+06	    76.105	   15.5108	   2.60515	8.47552e+06	   76.0657	    15.495	   2.58972	8.49886e+06	   76.0399	   15.5215	   2.61554	8.44223e+06	   76.0793	   15.5374	   2.63096	8.41849e+06	
         R10	   1628	   76.1592	   15.5079	   2.60224	8.49682e+06	   76.1518	   15.4761	   2.57133	8.56458e+06	   76.0957	   15.4883	   2.58322	 8.5274e+06	   76.1144	   15.5334	   2.62708	8.42064e+06	   76.1555	    15.492	   2.58679	   8.53e+06	   76.1237	   15.4822	   2.57728	8.54491e+06	    76.105	   15.5108	   2.60515	8.47278e+06	   76.1368	   15.5206	   2.61466	8.45818e+06	
         R10	   1629	   76.2646	   15.4645	   2.56001	8.64574e+06	   76.2625	   15.4436	   2.53971	8.72942e+06	   76.2294	   15.4382	   2.53446	8.72615e+06	   76.2231	   15.4602	   2.55591	8.64097e+06	   76.2635	    15.454	   2.54986	8.68713e+06	    76.246	   15.4409	   2.53708	8.72598e+06	   76.2263	   15.4492	   2.54519	8.68315e+06	   76.2439	   15.4623	   2.55796	8.64136e+06	
         R10	   1630	   76.2557	   15.5403	   2.63382	8.35341e+06	   76.3047	   15.5494	   2.64265	8.27254e+06	   76.3248	   15.5176	   2.61172	8.37519e+06	   76.2833	   15.5128	   2.60706	8.43814e+06	   76.2802	   15.5449	   2.63824	8.31134e+06	   76.3147	   15.5335	   2.62719	8.32328e+06	    76.304	   15.5152	   2.60939	8.40524e+06	   76.2695	   15.5266	   2.62044	8.39504e+06	
         R10	   1631	    76.178	   15.5561	    2.6492	8.35443e+06	   76.2321	   15.5715	   2.66421	8.27133e+06	   76.2557	   15.5403	   2.63382	8.35229e+06	   76.2083	   15.5203	   2.61437	8.44764e+06	    76.205	   15.5638	   2.65671	8.31146e+06	   76.2439	   15.5559	   2.64901	8.31143e+06	    76.232	   15.5303	   2.62409	8.39847e+06	   76.1931	   15.5382	   2.63178	8.40048e+06	
         R10	   1632	   76.0942	   15.5804	   2.67281	8.30922e+06	   76.0686	   15.6275	   2.71868	8.19258e+06	    76.137	   15.6341	   2.72507	 8.1336e+06	   76.1551	   15.5916	   2.68369	8.25517e+06	   76.0814	    15.604	   2.69574	8.25061e+06	   76.1028	   15.6308	   2.72187	8.16204e+06	    76.146	   15.6128	   2.70438	8.19413e+06	   76.1246	    15.586	   2.67825	8.28114e+06	
         R10	   1633	   75.9934	   15.6099	   2.70157	8.24058e+06	   75.9807	   15.6683	   2.75832	8.09826e+06	   76.0555	   15.6752	   2.76507	8.05031e+06	   76.0686	   15.6275	   2.71868	8.16236e+06	    75.987	   15.6391	   2.72994	8.16923e+06	   76.0181	   15.6717	    2.7617	8.07354e+06	    76.062	   15.6514	   2.74187	8.10607e+06	    76.031	   15.6187	   2.71012	 8.2005e+06	
         R10	   1634	   76.2504	   15.4889	   2.58382	 8.5424e+06	   76.2646	   15.4645	   2.56001	8.64014e+06	   76.2231	   15.4602	   2.55591	8.64823e+06	   76.2121	   15.4866	   2.58153	8.54771e+06	   76.2575	   15.4767	   2.57191	8.59085e+06	   76.2439	   15.4623	   2.55796	8.64255e+06	   76.2176	   15.4734	   2.56872	8.59768e+06	   76.2312	   15.4877	   2.58268	8.54328e+06	
         R10	   1635	   76.1303	   15.7303	   2.81863	7.68553e+06	   76.1457	   15.7899	   2.87667	7.48152e+06	    76.211	   15.7517	   2.83948	7.41727e+06	   76.2172	   15.7163	   2.80509	7.71706e+06	    76.138	   15.7601	   2.84765	7.58197e+06	   76.1784	   15.7708	   2.85807	 7.4451e+06	   76.2141	    15.734	   2.82228	7.56683e+06	   76.1738	   15.7233	   2.81186	7.69916e+06	
         R10	   1636	   76.1987	   15.6473	    2.7379	8.01786e+06	    76.137	   15.6341	   2.72507	8.12597e+06	   76.1286	   15.6803	   2.77002	7.96904e+06	    76.183	   15.6806	   2.77034	7.91853e+06	   76.1678	   15.6407	   2.73148	8.07109e+06	   76.1328	   15.6572	   2.74754	8.04718e+06	   76.1558	   15.6805	   2.77018	7.94311e+06	   76.1909	    15.664	   2.75412	7.96786e+06	
         R10	   1637	   76.2172	   15.7163	   2.80509	7.67524e+06	   76.2561	    15.668	   2.75808	7.90646e+06	   76.1987	   15.6473	    2.7379	8.02203e+06	    76.183	   15.6806	   2.77034	7.91619e+06	   76.2367	   15.6922	   2.78159	7.78974e+06	   76.2274	   15.6577	   2.74799	7.96379e+06	   76.1909	    15.664	   2.75412	7.96872e+06	   76.2001	   15.6985	   2.78772	7.79564e+06	
         R10	   1638	   76.1286	   15.6803	   2.77002	7.93346e+06	   76.1303	   15.7303	   2.81863	7.73809e+06	   76.2172	   15.7163	   2.80509	 7.7207e+06	    76.183	   15.6806	   2.77034	7.89964e+06	   76.1295	   15.7053	   2.79432	7.83537e+06	   76.1738	   15.7233	   2.81186	7.72738e+06	   76.2001	   15.6985	   2.78772	7.81004e+06	   76.1558	   15.6805	   2.77018	7.91585e+06	
         R10	   1639	    76.137	   15.6341	   2.72507	8.13423e+06	   76.1987	   15.6473	    2.7379	8.03333e+06	   76.2136	   15.6087	   2.70034	8.16185e+06	   76.1551	   15.5916	   2.68369	8.25568e+06	   76.1678	   15.6407	   2.73148	 8.0829e+06	   76.2061	    15.628	   2.71912	8.09729e+06	   76.1843	   15.6001	   2.69202	8.20775e+06	    76.146	   15.6128	   2.70438	 8.1947e+06	
         R10	   1640	   76.2136	   15.6087	   2.70034	8.16161e+06	   76.2321	   15.5715	   2.66421	8.26795e+06	    76.178	   15.5561	    2.6492	8.35849e+06	   76.1551	   15.5916	   2.68369	  8.261e+06	   76.2229	   15.5901	   2.68227	8.21443e+06	    76.205	   15.5638	   2.65671	8.31188e+06	   76.1665	   15.5738	   2.66645	8.30949e+06	   76.1843	   15.6001	   2.69202	8.21025e+06	
         R10	   1641	   75.9934	   15.6099	   2.70157	8.25136e+06	   76.0686	   15.6275	   2.71868	8.20031e+06	   76.0942	   15.5804	   2.67281	8.30088e+06	   76.0481	   15.5753	   2.66787	8.33577e+06	    76.031	   15.6187	   2.71012	8.22471e+06	   76.0814	    15.604	   2.69574	8.25032e+06	   76.0711	   15.5778	   2.67034	8.31767e+06	   76.0208	   15.5926	   2.68472	  8.293e+06	
         R10	   1642	   76.0441	   15.5414	   2.63485	8.40803e+06	   75.9802	   15.5601	   2.65303	8.35973e+06	   75.9934	   15.6099	   2.70157	  8.249e+06	   76.0481	   15.5753	   2.66787	8.33352e+06	   76.0122	   15.5507	   2.64394	 8.3833e+06	   75.9868	    15.585	    2.6773	8.30409e+06	   76.0208	   15.5926	   2.68472	8.29065e+06	   76.0461	   15.5583	   2.65136	8.37054e+06	
         R10	   1643	   76.0942	   15.5804	   2.67281	8.30822e+06	   76.1144	   15.5334	   2.62708	8.43168e+06	   76.0441	   15.5414	   2.63485	8.40197e+06	   76.0481	   15.5753	   2.66787	8.33228e+06	   76.1043	   15.5569	   2.64994	8.36969e+06	   76.0793	   15.5374	   2.63096	8.41543e+06	   76.0461	   15.5583	   2.65136	8.36693e+06	   76.0711	   15.5778	   2.67034	 8.3197e+06	
         R10	   1644	   76.1144	   15.5334	   2.62708	8.43542e+06	   76.0942	   15.5804	   2.67281	8.31708e+06	   76.1551	   15.5916	   2.68369	8.26319e+06	    76.178	   15.5561	    2.6492	8.35301e+06	   76.1043	   15.5569	   2.64994	  8.376e+06	   76.1246	    15.586	   2.67825	8.28906e+06	   76.1665	   15.5738	   2.66645	8.30781e+06	   76.1462	   15.5448	   2.63814	8.39221e+06	
         R10	   1645	   76.1592	   15.5079	   2.60224	8.50135e+06	   76.1144	   15.5334	   2.62708	8.42521e+06	    76.178	   15.5561	    2.6492	8.35658e+06	   76.2083	   15.5203	   2.61437	8.44654e+06	   76.1368	   15.5206	   2.61466	8.46263e+06	   76.1462	   15.5448	   2.63814	8.38889e+06	   76.1931	   15.5382	   2.63178	8.40112e+06	   76.1838	   15.5141	    2.6083	8.47219e+06	
         R10	   1646	   76.2954	   15.3454	    2.4442	9.25303e+06	   76.2895	   15.3333	   2.43243	9.25058e+06	   76.2648	   15.3381	   2.43705	9.14527e+06	   76.2828	   15.3559	   2.45444	9.17625e+06	   76.2924	   15.3394	   2.43831	 9.2505e+06	   76.2772	   15.3357	   2.43474	9.19718e+06	   76.2738	    15.347	   2.44574	9.15768e+06	   76.2891	   15.3507	   2.44932	 9.2143e+06	
         R10	   1647	   76.2639	   15.3609	   2.45922	9.09568e+06	   76.2828	   15.3559	   2.45444	9.15945e+06	   76.2648	   15.3381	   2.43705	9.14032e+06	    76.235	   15.3497	   2.44833	9.02092e+06	   76.2734	   15.3584	   2.45683	9.12721e+06	   76.2738	    15.347	   2.44574	9.14673e+06	   76.2499	   15.3439	   2.44269	9.07975e+06	   76.2495	   15.3553	   2.45377	9.05561e+06	
         R10	   1648	   76.2639	   15.3609	   2.45922	9.09656e+06	    76.235	   15.3497	   2.44833	9.01513e+06	   76.2358	   15.3748	    2.4728	8.96459e+06	   76.2686	   15.3784	   2.47625	9.01952e+06	   76.2495	   15.3553	   2.45377	9.05307e+06	   76.2354	   15.3622	   2.46057	8.98775e+06	   76.2522	   15.3766	   2.47452	 8.9901e+06	   76.2663	   15.3696	   2.46773	9.05667e+06	
         R10	   1649	   76.2882	   15.4032	   2.50043	8.95558e+06	   76.2883	   15.3899	   2.48749	9.04963e+06	   76.2686	   15.3784	   2.47625	9.03432e+06	   76.2613	   15.4006	   2.49785	8.93056e+06	   76.2882	   15.3966	   2.49396	9.00187e+06	   76.2784	   15.3841	   2.48187	9.03972e+06	    76.265	   15.3895	   2.48705	 8.9813e+06	   76.2748	   15.4019	   2.49914	8.94158e+06	
         R10	   1650	   76.2164	   15.4046	   2.50178	8.81991e+06	   76.2372	   15.4191	   2.51588	8.80035e+06	   76.2613	   15.4006	   2.49785	8.92432e+06	   76.2402	   15.3927	   2.49019	8.90253e+06	   76.2268	   15.4119	   2.50883	8.80856e+06	   76.2492	   15.4098	   2.50686	8.86167e+06	   76.2507	   15.3966	   2.49402	8.91212e+06	   76.2283	   15.3987	   2.49598	8.86083e+06	
         R10	   1651	   76.2358	   15.3748	    2.4728	8.95044e+06	   76.2027	   15.3823	   2.48004	 8.8543e+06	   76.2164	   15.4046	   2.50178	8.82518e+06	   76.2402	   15.3927	   2.49019	8.90317e+06	   76.2193	   15.3785	   2.47642	8.90145e+06	   76.2096	   15.3934	   2.49091	8.83775e+06	   76.2283	   15.3987	   2.49598	8.86378e+06	    76.238	   15.3838	   2.48149	8.92566e+06	
         R10	   1652	   76.2613	   15.4006	   2.49785	8.92639e+06	   76.2686	   15.3784	   2.47625	9.03123e+06	   76.2358	   15.3748	    2.4728	 8.9612e+06	   76.2402	   15.3927	   2.49019	8.90278e+06	    76.265	   15.3895	   2.48705	8.97773e+06	   76.2522	   15.3766	   2.47452	8.99421e+06	    76.238	   15.3838	   2.48149	8.93084e+06	   76.2507	   15.3966	   2.49402	8.91332e+06	
         R10	   1653	   76.2372	   15.4191	   2.51588	8.79657e+06	   76.2164	   15.4046	   2.50178	8.82131e+06	   76.1831	   15.4263	   2.52287	8.70963e+06	   76.2294	   15.4382	   2.53446	8.72922e+06	   76.2268	   15.4119	   2.50883	 8.8074e+06	   76.1998	   15.4154	   2.51232	 8.7647e+06	   76.2063	   15.4322	   2.52866	8.71615e+06	   76.2333	   15.4286	   2.52517	8.76256e+06	
         R10	   1654	   76.2294	   15.4382	   2.53446	8.72128e+06	   76.1831	   15.4263	   2.52287	8.71474e+06	   76.1882	   15.4527	    2.5486	8.64826e+06	   76.2231	   15.4602	   2.55591	8.64058e+06	   76.2063	   15.4322	   2.52866	8.71497e+06	   76.1856	   15.4395	   2.53573	8.68052e+06	   76.2057	   15.4565	   2.55226	8.64299e+06	   76.2263	   15.4492	   2.54519	 8.6805e+06	
         R10	   1655	   76.2231	   15.4602	   2.55591	8.62453e+06	   76.1882	   15.4527	    2.5486	8.64936e+06	   76.1518	   15.4761	   2.57133	8.56352e+06	   76.2121	   15.4866	   2.58153	8.58407e+06	   76.2057	   15.4565	   2.55226	 8.6355e+06	     76.17	   15.4644	   2.55996	 8.6059e+06	    76.182	   15.4813	   2.57643	 8.5707e+06	   76.2176	   15.4734	   2.56872	8.60398e+06	
         R10	   1656	   76.2121	   15.4866	   2.58153	8.54577e+06	   76.1518	   15.4761	   2.57133	8.57475e+06	   76.1592	   15.5079	   2.60224	8.48707e+06	   76.2083	   15.5203	   2.61437	8.44446e+06	    76.182	   15.4813	   2.57643	8.55727e+06	   76.1555	    15.492	   2.58679	8.53034e+06	   76.1838	   15.5141	    2.6083	8.46413e+06	   76.2102	   15.5034	   2.59795	8.49457e+06	
         R10	   1657	   76.2083	   15.5203	   2.61437	8.43892e+06	   76.2557	   15.5403	   2.63382	8.36387e+06	   76.2833	   15.5128	   2.60706	8.43135e+06	   76.2508	   15.5057	   2.60015	8.49342e+06	    76.232	   15.5303	   2.62409	8.39988e+06	   76.2695	   15.5266	   2.62044	8.39693e+06	   76.2671	   15.5093	    2.6036	 8.4614e+06	   76.2296	    15.513	   2.60726	8.46511e+06	
         R10	   1658	   76.2504	   15.4889	   2.58382	8.53574e+06	   76.2121	   15.4866	   2.58153	8.56327e+06	   76.2083	   15.5203	   2.61437	8.43833e+06	   76.2508	   15.5057	   2.60015	8.49643e+06	   76.2312	   15.4877	   2.58268	8.54826e+06	   76.2102	   15.5034	   2.59795	8.50034e+06	   76.2296	    15.513	   2.60726	8.46638e+06	   76.2506	   15.4973	   2.59198	  8.516e+06	
         R10	   1659	   76.2833	   15.5128	   2.60706	8.43063e+06	   76.3027	   15.4865	    2.5815	8.53831e+06	   76.2504	   15.4889	   2.58382	8.53388e+06	   76.2508	   15.5057	   2.60015	8.47875e+06	    76.293	   15.4997	   2.59428	8.48396e+06	   76.2765	   15.4877	   2.58266	8.53348e+06	   76.2506	   15.4973	   2.59198	8.50621e+06	   76.2671	   15.5093	    2.6036	8.45366e+06	
         R10	   1660	   76.3027	   15.4865	    2.5815	 8.5657e+06	   76.2833	   15.5128	   2.60706	8.42674e+06	   76.3248	   15.5176	   2.61172	 8.3874e+06	   76.3374	   15.4944	   2.58912	8.48285e+06	    76.293	   15.4997	   2.59428	8.49573e+06	    76.304	   15.5152	   2.60939	8.40556e+06	   76.3311	    15.506	   2.60042	8.43466e+06	     76.32	   15.4905	   2.58531	8.52276e+06	
         R10	   1661	   76.3374	   15.4944	   2.58912	8.48355e+06	   76.3248	   15.5176	   2.61172	8.38191e+06	   76.3679	   15.5224	   2.61638	8.29879e+06	   76.3839	    15.492	   2.58685	8.47321e+06	   76.3311	    15.506	   2.60042	8.43235e+06	   76.3463	     15.52	   2.61405	8.33874e+06	   76.3759	   15.5072	   2.60162	8.38502e+06	   76.3606	   15.4932	   2.58799	8.47557e+06	
         R10	   1662	   76.3501	   15.4702	   2.56563	8.60921e+06	   76.3839	    15.492	   2.58685	8.53792e+06	    76.386	   15.4672	   2.56269	8.64991e+06	    76.374	   15.4633	   2.55884	8.67429e+06	    76.367	   15.4811	   2.57624	8.57148e+06	    76.385	   15.4796	   2.57477	8.59267e+06	     76.38	   15.4652	   2.56077	8.66163e+06	   76.3621	   15.4667	   2.56224	8.64063e+06	
         R10	   1663	   76.3765	   15.4499	   2.54586	8.65967e+06	   76.3497	   15.4511	   2.54698	8.87172e+06	   76.3501	   15.4702	   2.56563	8.54568e+06	    76.374	   15.4633	   2.55884	8.80569e+06	   76.3631	   15.4505	   2.54642	8.76421e+06	   76.3499	   15.4607	   2.55631	8.70866e+06	   76.3621	   15.4667	   2.56224	8.67456e+06	   76.3752	   15.4566	   2.55235	8.73232e+06	
         R10	   1664	    76.386	   15.4672	   2.56269	8.62212e+06	   76.4028	   15.4556	   2.55143	 8.7231e+06	   76.3765	   15.4499	   2.54586	8.90476e+06	    76.374	   15.4633	   2.55884	8.58593e+06	   76.3944	   15.4614	   2.55706	8.66946e+06	   76.3896	   15.4528	   2.54865	8.81303e+06	   76.3752	   15.4566	   2.55235	8.74477e+06	     76.38	   15.4652	   2.56077	8.60144e+06	
         R10	   1665	    76.386	   15.4672	   2.56269	8.71805e+06	   76.3839	    15.492	   2.58685	8.45214e+06	    76.411	   15.4723	   2.56765	8.59416e+06	   76.4028	   15.4556	   2.55143	8.77889e+06	    76.385	   15.4796	   2.57477	8.58408e+06	   76.3974	   15.4822	   2.57725	 8.5189e+06	   76.4069	    15.464	   2.55954	8.68606e+06	   76.3944	   15.4614	   2.55706	8.74786e+06	
         R10	   1666	   76.4282	   15.4527	   2.54857	8.80675e+06	   76.4028	   15.4556	   2.55143	8.79186e+06	    76.411	   15.4723	   2.56765	8.59898e+06	   76.4367	   15.4738	    2.5691	8.60069e+06	   76.4155	   15.4542	      2.55	8.79794e+06	   76.4069	    15.464	   2.55954	8.69522e+06	   76.4239	   15.4731	   2.56838	8.59892e+06	   76.4325	   15.4632	   2.55884	8.70354e+06	
         R10	   1667	   76.4742	   15.4563	   2.55203	8.85964e+06	   76.4641	   15.4373	   2.53358	 9.0301e+06	   76.4473	   15.4489	   2.54487	8.97099e+06	    76.454	   15.4581	   2.55379	8.73052e+06	   76.4691	   15.4468	   2.54281	8.94476e+06	   76.4557	   15.4431	   2.53922	9.00016e+06	   76.4507	   15.4535	   2.54933	8.85062e+06	   76.4641	   15.4572	   2.55291	8.79441e+06	
         R10	   1668	   76.4367	   15.4738	    2.5691	8.61728e+06	   76.4679	   15.4776	   2.57279	8.54964e+06	   76.4742	   15.4563	   2.55203	8.81551e+06	    76.454	   15.4581	   2.55379	8.76601e+06	   76.4523	   15.4757	   2.57095	8.58212e+06	    76.471	   15.4669	   2.56241	8.68232e+06	   76.4641	   15.4572	   2.55291	8.79024e+06	   76.4454	   15.4659	   2.56145	8.69076e+06	
         R10	   1669	   76.4473	   15.4489	   2.54487	8.89461e+06	   76.4282	   15.4527	   2.54857	8.82975e+06	   76.4367	   15.4738	    2.5691	8.56715e+06	    76.454	   15.4581	   2.55379	8.81431e+06	   76.4378	   15.4508	   2.54672	8.86189e+06	   76.4325	   15.4632	   2.55884	8.69832e+06	   76.4454	   15.4659	   2.56145	8.68987e+06	   76.4507	   15.4535	   2.54933	8.85391e+06	
         R10	   1670	   76.4473	   15.4489	   2.54487	8.94584e+06	   76.4453	   15.4339	   2.53029	9.00199e+06	   76.4288	   15.4365	   2.53282	9.11063e+06	   76.4282	   15.4527	   2.54857	8.75817e+06	   76.4463	   15.4414	   2.53758	8.97353e+06	   76.4371	   15.4352	   2.53155	9.05621e+06	   76.4285	   15.4446	    2.5407	8.93363e+06	   76.4378	   15.4508	   2.54672	8.84934e+06	
         R10	   1671	   76.4282	   15.4527	   2.54857	8.83982e+06	   76.4288	   15.4365	   2.53282	8.97587e+06	   76.4143	   15.4355	    2.5318	8.98604e+06	   76.4028	   15.4556	   2.55143	8.76607e+06	   76.4285	   15.4446	    2.5407	8.90748e+06	   76.4215	    15.436	   2.53231	8.98089e+06	   76.4086	   15.4455	   2.54161	8.87511e+06	   76.4155	   15.4542	      2.55	 8.8008e+06	
         R10	   1672	     76.33	   15.3244	   2.42371	9.48282e+06	     76.33	   15.3122	   2.41185	9.44191e+06	   76.3098	   15.3169	   2.41643	9.34693e+06	     76.33	   15.3183	   2.41778	9.46133e+06	   76.3199	   15.3145	   2.41414	9.39386e+06	   76.3199	   15.3206	   2.42007	9.41301e+06	       N/A	       N/A	       N/A	        N/A	       N/A	       N/A	       N/A	        N/A	
         R10	   1673	   76.3065	   15.3854	   2.48306	9.12634e+06	   76.3116	   15.3707	   2.46879	9.23089e+06	   76.2907	   15.3712	    2.4693	9.12552e+06	   76.3091	    15.378	   2.47593	9.17776e+06	   76.3012	    15.371	   2.46904	9.17713e+06	   76.2986	   15.3783	   2.47618	9.12341e+06	       N/A	       N/A	       N/A	        N/A	       N/A	       N/A	       N/A	        N/A	
         R10	   1674	   76.3116	   15.4106	   2.50759	8.98806e+06	    76.312	    15.397	   2.49437	9.06642e+06	   76.2882	   15.4032	   2.50043	8.93309e+06	   76.3118	   15.4038	   2.50098	9.02682e+06	   76.3001	   15.4001	    2.4974	8.99877e+06	   76.2999	   15.4069	   2.50401	8.95852e+06	       N/A	       N/A	       N/A	        N/A	       N/A	       N/A	       N/A	        N/A	
         R10	   1675	   76.3635	   15.4343	   2.53068	8.83752e+06	   76.3452	   15.4349	   2.53121	8.87018e+06	   76.3497	   15.4511	   2.54698	8.80482e+06	   76.3543	   15.4346	   2.53095	8.85343e+06	   76.3475	    15.443	    2.5391	8.83693e+06	   76.3566	   15.4427	   2.53883	8.82056e+06	       N/A	       N/A	       N/A	        N/A	       N/A	       N/A	       N/A	        N/A	
         R10	   1676	   76.4143	   15.4355	    2.5318	8.96008e+06	   76.3948	   15.4356	   2.53193	8.95751e+06	   76.4028	   15.4556	   2.55143	8.77966e+06	   76.4045	   15.4355	   2.53186	8.95837e+06	   76.3988	   15.4456	   2.54168	8.86819e+06	   76.4086	   15.4455	   2.54161	8.86911e+06	       N/A	       N/A	       N/A	        N/A	       N/A	       N/A	       N/A	        N/A	
         R10	   1677	   76.3269	   15.4508	   2.54669	8.73798e+06	   76.3311	   15.4347	   2.53106	8.80659e+06	     76.31	   15.4362	   2.53254	8.84673e+06	    76.329	   15.4427	   2.53887	8.77208e+06	   76.3206	   15.4355	    2.5318	8.82578e+06	   76.3185	   15.4435	   2.53961	8.79152e+06	       N/A	       N/A	       N/A	        N/A	       N/A	       N/A	       N/A	        N/A	
         R10	   1678	   76.3209	   15.4683	   2.56379	8.63145e+06	   76.3269	   15.4508	   2.54669	8.76173e+06	   76.2968	   15.4574	   2.55317	8.68481e+06	   76.3239	   15.4596	   2.55524	8.69621e+06	   76.3118	   15.4541	   2.54993	8.72179e+06	   76.3088	   15.4629	   2.55848	8.65698e+06	       N/A	       N/A	       N/A	        N/A	       N/A	       N/A	       N/A	        N/A	
         R10	   1679	      75.9	    15.494	   2.58873	8.41263e+06	    75.889	    15.441	   2.53717	8.47763e+06	   75.8176	   15.4817	   2.57677	8.38615e+06	   75.8945	   15.4675	   2.56295	8.44287e+06	   75.8533	   15.4613	   2.55697	8.43119e+06	   75.8588	   15.4878	   2.58275	8.39748e+06	       N/A	       N/A	       N/A	        N/A	       N/A	       N/A	       N/A	        N/A	
         R10	   1680	   75.9775	   15.5109	   2.60517	8.44469e+06	   75.9043	   15.5497	   2.64299	 8.3495e+06	   75.9802	   15.5601	   2.65303	8.36259e+06	   75.9409	   15.5303	   2.62408	8.39651e+06	   75.9422	   15.5549	   2.64801	8.35466e+06	   75.9789	   15.5355	    2.6291	8.40302e+06	       N/A	       N/A	       N/A	        N/A	       N/A	       N/A	       N/A	        N/A	
         R10	   1681	   76.3501	   15.4702	   2.56563	8.61887e+06	   76.3374	   15.4944	   2.58912	8.49218e+06	   76.3839	    15.492	   2.58685	8.47653e+06	   76.3438	   15.4823	   2.57738	8.55485e+06	   76.3606	   15.4932	   2.58799	8.48155e+06	    76.367	   15.4811	   2.57624	8.54637e+06	       N/A	       N/A	       N/A	        N/A	       N/A	       N/A	       N/A	        N/A	
         R10	   1682	   76.2613	   15.4006	   2.49785	8.91161e+06	   76.2372	   15.4191	   2.51588	8.79846e+06	   76.2666	   15.4245	   2.52115	8.82447e+06	   76.2492	   15.4098	   2.50686	8.85434e+06	   76.2519	   15.4218	   2.51851	8.80974e+06	   76.2639	   15.4125	    2.5095	8.86641e+06	       N/A	       N/A	       N/A	        N/A	       N/A	       N/A	       N/A	        N/A	
         R10	   1683	   76.4641	   15.4373	   2.53358	9.16661e+06	   76.4453	   15.4339	   2.53029	9.13104e+06	   76.4473	   15.4489	   2.54487	 8.8038e+06	   76.4547	   15.4356	   2.53193	9.14847e+06	   76.4463	   15.4414	   2.53758	8.96722e+06	   76.4557	   15.4431	   2.53922	8.98415e+06	       N/A	       N/A	       N/A	        N/A	       N/A	       N/A	       N/A	        N/A	
         R10	   1684	   76.2646	   15.4645	   2.56001	8.65846e+06	   76.2504	   15.4889	   2.58382	8.52957e+06	   76.3027	   15.4865	    2.5815	8.55604e+06	   76.2575	   15.4767	   2.57191	8.59377e+06	   76.2765	   15.4877	   2.58266	8.54028e+06	   76.2836	   15.4755	   2.57075	8.60511e+06	       N/A	       N/A	       N/A	        N/A	       N/A	       N/A	       N/A	        N/A	
         R10	   1685	   76.4641	   15.4373	   2.53358	9.08991e+06	   76.4742	   15.4563	   2.55203	8.83831e+06	   76.4839	   15.4361	   2.53243	9.16336e+06	   76.4691	   15.4468	   2.54281	8.96405e+06	    76.479	   15.4462	   2.54223	9.00031e+06	    76.474	   15.4367	     2.533	9.12624e+06	       N/A	       N/A	       N/A	        N/A	       N/A	       N/A	       N/A	        N/A	
         R10	   1686	    76.211	   15.7517	   2.83948	7.44831e+06	   76.1457	   15.7899	   2.87667	 7.4835e+06	   76.2555	   15.7925	    2.8792	7.27704e+06	   76.1784	   15.7708	   2.85807	7.46192e+06	   76.2006	   15.7912	   2.87794	7.37693e+06	   76.2333	   15.7721	   2.85934	7.36259e+06	       N/A	       N/A	       N/A	        N/A	       N/A	       N/A	       N/A	        N/A	
         R10	   1687	   76.5349	   15.4345	   2.53086	8.27665e+06	    76.534	   15.4218	   2.51855	8.59453e+06	    76.517	   15.4218	   2.51855	8.60103e+06	   76.5159	   15.4351	   2.53148	 8.4008e+06	   76.5344	   15.4282	    2.5247	8.43548e+06	   76.5255	   15.4218	   2.51855	 8.5973e+06	   76.5164	   15.4285	   2.52502	8.50078e+06	   76.5254	   15.4348	   2.53117	8.33844e+06	
         R10	   1688	   76.5507	   15.4353	   2.53169	8.20164e+06	    76.551	   15.4218	   2.51855	8.50477e+06	    76.534	   15.4218	   2.51855	8.49827e+06	   76.5349	   15.4345	   2.53086	 8.3052e+06	   76.5509	   15.4286	   2.52512	8.35315e+06	   76.5425	   15.4218	   2.51855	 8.5002e+06	   76.5344	   15.4282	    2.5247	8.40075e+06	   76.5428	   15.4349	   2.53127	8.25309e+06	
         R10	   1689	   76.5695	    15.435	   2.53134	8.12834e+06	    76.568	   15.4218	   2.51855	8.30723e+06	    76.551	   15.4218	   2.51855	8.39259e+06	   76.5507	   15.4353	   2.53169	8.23969e+06	   76.5688	   15.4284	   2.52494	8.21757e+06	   76.5595	   15.4218	   2.51855	8.34934e+06	   76.5509	   15.4286	   2.52512	 8.3157e+06	   76.5601	   15.4352	   2.53151	8.18324e+06	
         R10	   1690	   76.5856	    15.434	   2.53033	7.99862e+06	    76.585	   15.4218	   2.51855	8.24299e+06	    76.568	   15.4218	   2.51855	8.26187e+06	   76.5695	    15.435	   2.53134	8.18384e+06	   76.5853	   15.4279	   2.52444	8.12001e+06	   76.5765	   15.4218	   2.51855	8.25163e+06	   76.5688	   15.4284	   2.52494	8.22271e+06	   76.5776	   15.4345	   2.53084	 8.0901e+06	
         R10	   1691	   76.6035	   15.4339	   2.53032	7.94746e+06	    76.602	   15.4218	   2.51855	8.14128e+06	    76.585	   15.4218	   2.51855	8.13994e+06	   76.5856	    15.434	   2.53033	8.18571e+06	   76.6028	   15.4279	   2.52444	8.04416e+06	   76.5935	   15.4218	   2.51855	8.13965e+06	   76.5853	   15.4279	   2.52444	8.16218e+06	   76.5945	   15.4339	   2.53033	8.06463e+06	
         R10	   1692	   76.6173	   15.4337	   2.53013	  7.963e+06	    76.619	   15.4218	   2.51855	8.04166e+06	    76.602	   15.4218	   2.51855	8.07428e+06	   76.6035	   15.4339	   2.53032	 8.0652e+06	   76.6182	   15.4278	   2.52434	8.00223e+06	   76.6105	   15.4218	   2.51855	8.05642e+06	   76.6028	   15.4279	   2.52444	8.06888e+06	   76.6104	   15.4338	   2.53022	8.01222e+06	
         R10	   1693	   76.6366	   15.4346	   2.53096	7.85933e+06	    76.636	   15.4218	   2.51855	7.90248e+06	    76.619	   15.4218	   2.51855	8.02585e+06	   76.6173	   15.4337	   2.53013	8.07107e+06	   76.6363	   15.4282	   2.52476	 7.8806e+06	   76.6275	   15.4218	   2.51855	7.96335e+06	   76.6182	   15.4278	   2.52434	8.04828e+06	    76.627	   15.4342	   2.53054	7.96313e+06	
         R10	   1694	   76.6511	   15.4357	   2.53202	7.76336e+06	    76.653	   15.4218	   2.51855	7.86343e+06	    76.636	   15.4218	   2.51855	7.88071e+06	   76.6366	   15.4346	   2.53096	7.95385e+06	   76.6521	   15.4288	   2.52528	 7.8131e+06	   76.6445	   15.4218	   2.51855	7.87073e+06	   76.6363	   15.4282	   2.52476	7.91728e+06	   76.6438	   15.4351	   2.53149	7.85821e+06	
         R10	   1695	   76.6716	   15.4355	   2.53181	7.71207e+06	     76.67	   15.4218	   2.51855	7.81212e+06	    76.653	   15.4218	   2.51855	7.84122e+06	   76.6511	   15.4357	   2.53202	7.81455e+06	   76.6708	   15.4287	   2.52518	7.76162e+06	   76.6615	   15.4218	   2.51855	7.82507e+06	   76.6521	   15.4288	   2.52528	7.82766e+06	   76.6613	   15.4356	   2.53191	7.76264e+06	
         R10	   1696	   76.6861	   15.4106	   2.50766	 7.8705e+06	     76.67	   15.4097	    2.5067	7.84014e+06	     76.67	   15.4218	   2.51855	7.84129e+06	   76.6864	   15.4209	   2.51764	7.77424e+06	   76.6781	   15.4102	   2.50718	7.85471e+06	     76.67	   15.4158	   2.51262	7.83938e+06	   76.6782	   15.4214	   2.51809	7.80546e+06	   76.6863	   15.4158	   2.51265	7.82204e+06	
         R10	   1697	   76.6913	   15.3977	   2.49502	7.85035e+06	     76.67	   15.3975	   2.49484	7.90401e+06	     76.67	   15.4097	    2.5067	7.89374e+06	   76.6861	   15.4106	   2.50766	 7.8139e+06	   76.6807	   15.3976	   2.49493	7.87455e+06	     76.67	   15.4036	   2.50077	 7.8981e+06	   76.6781	   15.4102	   2.50718	7.85368e+06	   76.6887	   15.4042	   2.50134	7.83047e+06	
         R10	   1698	   76.6873	   15.3848	    2.4825	7.87432e+06	     76.67	   15.3853	   2.48299	7.96611e+06	     76.67	   15.3975	   2.49484	7.94146e+06	   76.6913	   15.3977	   2.49502	 7.8436e+06	   76.6786	    15.385	   2.48274	7.91921e+06	     76.67	   15.3914	   2.48891	7.95243e+06	   76.6807	   15.3976	   2.49493	7.89053e+06	   76.6893	   15.3912	   2.48876	7.85851e+06	
         R10	   1699	   76.6879	    15.373	   2.47103	7.94272e+06	     76.67	   15.3731	   2.47113	7.99314e+06	     76.67	   15.3853	   2.48299	7.97719e+06	   76.6873	   15.3848	    2.4825	7.87729e+06	    76.679	   15.3731	   2.47108	 7.9662e+06	     76.67	   15.3792	   2.47706	7.98422e+06	   76.6786	    15.385	   2.48274	7.92618e+06	   76.6876	   15.3789	   2.47676	7.90864e+06	
         R10	   1700	   76.6878	    15.361	   2.45931	7.90491e+06	     76.67	   15.3609	   2.45928	8.06175e+06	     76.67	   15.3731	   2.47113	7.98737e+06	   76.6879	    15.373	   2.47103	7.95221e+06	   76.6789	   15.3609	   2.45929	 7.9831e+06	     76.67	    15.367	    2.4652	8.02276e+06	    76.679	   15.3731	   2.47108	 7.9681e+06	   76.6879	    15.367	   2.46517	 7.9282e+06	
         R10	   1701	    76.687	   15.3486	   2.44733	 7.9076e+06	     76.67	   15.3487	   2.44742	 8.0943e+06	     76.67	   15.3609	   2.45928	 7.9628e+06	   76.6878	    15.361	   2.45931	7.97449e+06	   76.6785	   15.3487	   2.44737	7.99918e+06	     76.67	   15.3548	   2.45335	8.02708e+06	   76.6789	   15.3609	   2.45929	7.96709e+06	   76.6874	   15.3548	   2.45332	7.93931e+06	
         R10	   1702	   76.6853	   15.3372	   2.43616	  7.984e+06	     76.67	   15.3366	   2.43556	 8.0704e+06	     76.67	   15.3487	   2.44742	8.06488e+06	    76.687	   15.3486	   2.44733	7.93119e+06	   76.6776	   15.3369	   2.43586	8.02563e+06	     76.67	   15.3426	   2.44149	8.06589e+06	   76.6785	   15.3487	   2.44737	7.99665e+06	   76.6861	   15.3429	   2.44174	7.95584e+06	
         R10	   1703	   76.6868	   15.3242	   2.42351	7.85691e+06	     76.67	   15.3244	   2.42371	 8.1112e+06	     76.67	   15.3366	   2.43556	7.97986e+06	   76.6853	   15.3372	   2.43616	7.99162e+06	   76.6784	   15.3243	   2.42361	7.98331e+06	     76.67	   15.3305	   2.42964	8.04469e+06	   76.6776	   15.3369	   2.43586	7.98533e+06	    76.686	   15.3307	   2.42983	7.92111e+06	
         R10	   1704	   76.6893	   15.3131	   2.41271	7.89089e+06	     76.67	   15.3122	   2.41185	7.99896e+06	     76.67	   15.3244	   2.42371	7.93681e+06	   76.6868	   15.3242	   2.42351	7.98481e+06	   76.6796	   15.3126	   2.41228	7.94449e+06	     76.67	   15.3183	   2.41778	7.96581e+06	   76.6784	   15.3243	   2.42361	7.95801e+06	    76.688	   15.3186	   2.41811	7.93679e+06	
         R10	   1705	   76.6874	      15.3	       2.4	7.83395e+06	     76.67	      15.3	       2.4	  7.902e+06	     76.67	   15.3122	   2.41185	7.97889e+06	   76.6893	   15.3131	   2.41271	7.90075e+06	   76.6787	      15.3	       2.4	7.86698e+06	     76.67	   15.3061	   2.40593	7.93958e+06	   76.6796	   15.3126	   2.41228	7.93934e+06	   76.6883	   15.3065	   2.40635	7.86484e+06	
         R10	   1706	   76.7118	    15.317	   2.41652	7.84878e+06	   76.7095	      15.3	       2.4	7.80604e+06	   76.6874	      15.3	       2.4	7.86882e+06	   76.6893	   15.3131	   2.41271	7.87037e+06	   76.7107	   15.3085	   2.40826	7.82557e+06	   76.6984	      15.3	       2.4	7.83632e+06	   76.6883	   15.3065	   2.40635	7.86907e+06	   76.7005	    15.315	   2.41461	7.85895e+06	
         R10	   1707	   76.7382	   15.3203	   2.41978	7.76901e+06	   76.7365	      15.3	       2.4	7.75426e+06	   76.7095	      15.3	       2.4	7.81128e+06	   76.7118	    15.317	   2.41652	7.83457e+06	   76.7373	   15.3102	   2.40989	7.75968e+06	    76.723	      15.3	       2.4	7.78186e+06	   76.7107	   15.3085	   2.40826	7.82112e+06	    76.725	   15.3187	   2.41815	7.80076e+06	
         R10	   1708	   76.7701	   15.3235	   2.42284	7.68899e+06	   76.7683	      15.3	       2.4	7.69252e+06	   76.7365	      15.3	       2.4	7.75668e+06	   76.7382	   15.3203	   2.41978	7.75841e+06	   76.7692	   15.3117	   2.41142	7.68834e+06	   76.7524	      15.3	       2.4	7.72338e+06	   76.7373	   15.3102	   2.40989	7.75556e+06	   76.7542	   15.3219	   2.42131	 7.7225e+06	
         R10	   1709	    76.807	   15.3273	   2.42655	7.61513e+06	   76.8048	      15.3	       2.4	7.63615e+06	   76.7683	      15.3	       2.4	7.69564e+06	   76.7701	   15.3235	   2.42284	7.68379e+06	   76.8059	   15.3136	   2.41328	 7.6228e+06	   76.7865	      15.3	       2.4	7.66451e+06	   76.7692	   15.3117	   2.41142	 7.6874e+06	   76.7886	   15.3254	   2.42469	 7.6482e+06	
         R10	   1710	   76.8482	   15.3315	   2.43061	7.55434e+06	   76.8462	      15.3	       2.4	7.57946e+06	   76.8048	      15.3	       2.4	7.63752e+06	    76.807	   15.3273	   2.42655	7.61454e+06	   76.8472	   15.3157	   2.41531	7.56312e+06	   76.8255	      15.3	       2.4	7.60692e+06	   76.8059	   15.3136	   2.41328	7.62321e+06	   76.8276	   15.3294	   2.42858	7.58324e+06	
         R10	   1711	    76.894	   15.3352	   2.43428	7.50291e+06	   76.8924	      15.3	       2.4	7.53552e+06	   76.8462	      15.3	       2.4	7.58307e+06	   76.8482	   15.3315	   2.43061	7.54894e+06	   76.8932	   15.3176	   2.41714	7.51496e+06	   76.8693	      15.3	       2.4	7.55769e+06	   76.8472	   15.3157	   2.41531	7.56262e+06	   76.8711	   15.3334	   2.43245	7.52474e+06	
         R10	   1712	   76.9448	   15.3385	   2.43744	7.45743e+06	   76.9433	      15.3	       2.4	 7.4962e+06	   76.8924	      15.3	       2.4	7.53472e+06	    76.894	   15.3352	   2.43428	7.50073e+06	   76.9441	   15.3192	   2.41872	7.47201e+06	   76.9179	      15.3	       2.4	7.51395e+06	   76.8932	   15.3176	   2.41714	7.51347e+06	   76.9194	   15.3369	   2.43586	7.47784e+06	
         R10	   1713	   77.0006	   15.3412	   2.44013	7.42291e+06	   76.9991	      15.3	       2.4	7.46222e+06	   76.9433	      15.3	       2.4	7.49585e+06	   76.9448	   15.3385	   2.43744	7.45614e+06	   76.9998	   15.3206	   2.42007	7.43726e+06	   76.9712	      15.3	       2.4	7.47755e+06	   76.9441	   15.3192	   2.41872	7.47122e+06	   76.9727	   15.3399	   2.43879	7.43832e+06	
         R10	   1714	   77.0619	   15.3449	   2.44365	7.39231e+06	   77.0597	      15.3	       2.4	7.44141e+06	   76.9991	      15.3	       2.4	7.46102e+06	   77.0006	   15.3412	   2.44013	7.42364e+06	   77.0608	   15.3224	   2.42182	7.41091e+06	   77.0294	      15.3	       2.4	7.44985e+06	   76.9998	   15.3206	   2.42007	7.43704e+06	   77.0312	   15.3431	   2.44189	7.40686e+06	
         R10	   1715	   77.1272	   15.3492	   2.44791	7.36681e+06	   77.1251	      15.3	       2.4	7.42501e+06	   77.0597	      15.3	       2.4	7.43842e+06	   77.0619	   15.3449	   2.44365	7.39245e+06	   77.1261	   15.3246	   2.42396	 7.3888e+06	   77.0924	      15.3	       2.4	7.43046e+06	   77.0608	   15.3224	   2.42182	7.40949e+06	   77.0945	   15.3471	   2.44578	7.37867e+06	
         R10	   1716	    77.197	   15.3529	    2.4515	7.34249e+06	   77.1952	      15.3	       2.4	7.40765e+06	   77.1251	      15.3	       2.4	7.42357e+06	   77.1272	   15.3492	   2.44791	 7.3671e+06	   77.1961	   15.3265	   2.42575	7.36723e+06	   77.1601	      15.3	       2.4	7.41442e+06	   77.1261	   15.3246	   2.42396	7.38832e+06	   77.1621	   15.3511	   2.44971	7.35388e+06	
         R10	   1717	   77.2726	   15.3565	   2.45498	7.32927e+06	   77.2702	      15.3	       2.4	7.39144e+06	   77.1952	      15.3	       2.4	7.40065e+06	    77.197	   15.3529	    2.4515	7.34798e+06	   77.2714	   15.3283	   2.42749	7.35166e+06	   77.2327	      15.3	       2.4	7.39492e+06	   77.1961	   15.3265	   2.42575	7.36657e+06	   77.2348	   15.3547	   2.45324	7.33779e+06	
         R10	   1718	     77.35	   15.3588	   2.45717	 7.3093e+06	     77.35	      15.3	       2.4	 7.3864e+06	   77.2702	      15.3	       2.4	7.37518e+06	   77.2726	   15.3565	   2.45498	7.33788e+06	     77.35	   15.3294	   2.42859	7.33863e+06	   77.3101	      15.3	       2.4	7.37994e+06	   77.2714	   15.3283	   2.42749	7.34802e+06	   77.3113	   15.3576	   2.45608	7.32265e+06	
         R10	   1719	     77.35	     15.42	   2.51671	 7.2981e+06	     77.35	   15.3588	   2.45717	7.30686e+06	   77.2726	   15.3565	   2.45498	7.33429e+06	   77.2694	   15.4169	   2.51371	7.32359e+06	     77.35	   15.3894	   2.48694	7.29609e+06	   77.3113	   15.3576	   2.45608	7.31968e+06	    77.271	   15.3867	   2.48435	7.32215e+06	   77.3097	   15.4184	   2.51521	7.31009e+06	
         R10	   1720	   77.2623	   15.4826	   2.57766	7.31977e+06	     77.35	   15.4836	   2.57862	7.29879e+06	     77.35	     15.42	   2.51671	7.29342e+06	   77.2694	   15.4169	   2.51371	7.31383e+06	   77.3061	   15.4831	   2.57814	7.30836e+06	     77.35	   15.4518	   2.54767	7.29213e+06	   77.3097	   15.4184	   2.51521	7.30295e+06	   77.2659	   15.4497	   2.54569	7.31194e+06	
         R10	   1721	   77.2578	    15.549	   2.64226	7.29408e+06	     77.35	   15.5496	   2.64289	7.26706e+06	     77.35	   15.4836	   2.57862	7.28641e+06	   77.2623	   15.4826	   2.57766	7.30495e+06	   77.3039	   15.5493	   2.64258	7.27978e+06	     77.35	   15.5166	   2.61075	7.27474e+06	   77.3061	   15.4831	   2.57814	7.29477e+06	     77.26	   15.5158	   2.60996	7.29769e+06	
         R10	   1722	   77.2563	    15.619	   2.71036	7.20893e+06	     77.35	   15.6181	   2.70953	7.20304e+06	     77.35	   15.5496	   2.64289	7.24874e+06	   77.2578	    15.549	   2.64226	7.27984e+06	   77.3032	   15.6186	   2.70994	7.20517e+06	     77.35	   15.5839	   2.67621	7.22546e+06	   77.3039	   15.5493	   2.64258	7.26344e+06	    77.257	    15.584	   2.67631	 7.2438e+06	
         R10	   1723	   77.2534	   15.6904	   2.77984	7.06914e+06	     77.35	    15.689	   2.77853	7.06889e+06	     77.35	   15.6181	   2.70953	7.17117e+06	   77.2563	    15.619	   2.71036	7.17949e+06	   77.3017	   15.6897	   2.77918	7.06839e+06	     77.35	   15.6536	   2.74403	7.12001e+06	   77.3032	   15.6186	   2.70994	7.17455e+06	   77.2548	   15.6547	    2.7451	 7.1243e+06	
         R10	   1724	   77.2487	    15.764	   2.85143	6.85482e+06	     77.35	   15.7624	   2.84989	6.87485e+06	     77.35	    15.689	   2.77853	7.00406e+06	   77.2534	   15.6904	   2.77984	7.01726e+06	   77.2994	   15.7632	   2.85066	6.86438e+06	     77.35	   15.7257	   2.81421	6.93872e+06	   77.3017	   15.6897	   2.77918	 7.0098e+06	    77.251	   15.7272	   2.81563	6.93482e+06	
         R10	   1725	   77.2458	    15.839	   2.92447	6.62768e+06	     77.35	   15.8382	   2.92363	6.62399e+06	     77.35	   15.7624	   2.84989	6.77612e+06	   77.2487	    15.764	   2.85143	6.75179e+06	   77.2979	   15.8386	   2.92405	6.62505e+06	     77.35	   15.8003	   2.88676	6.69525e+06	   77.2994	   15.7632	   2.85066	6.76345e+06	   77.2473	   15.8015	   2.88795	 6.6842e+06	
         R10	   1726	   77.2466	   15.9164	   2.99973	6.38922e+06	     77.35	   15.9164	   2.99973	6.41769e+06	     77.35	   15.8382	   2.92363	6.46008e+06	   77.2458	    15.839	   2.92447	6.43236e+06	   77.2983	   15.9164	   2.99973	6.40306e+06	     77.35	   15.8773	   2.96168	6.42377e+06	   77.2979	   15.8386	   2.92405	6.44572e+06	   77.2462	   15.8777	    2.9621	6.39568e+06	
         R10	   1727	   77.1454	   15.9164	   2.99973	6.33553e+06	   77.2466	   15.9164	   2.99973	6.38909e+06	   77.2458	    15.839	   2.92447	6.42024e+06	   77.1459	   15.8391	   2.92449	6.37073e+06	    77.196	   15.9164	   2.99973	6.36201e+06	   77.2462	   15.8777	    2.9621	6.38865e+06	   77.1959	    15.839	   2.92448	6.39502e+06	   77.1457	   15.8777	   2.96211	6.33585e+06	
         R10	   1728	    77.048	    15.842	   2.92734	6.26664e+06	   77.0465	   15.9164	   2.99973	6.26267e+06	   77.1454	   15.9164	   2.99973	6.33934e+06	   77.1459	   15.8391	   2.92449	6.35622e+06	   77.0472	   15.8792	   2.96353	6.24589e+06	   77.0959	   15.9164	   2.99973	6.30073e+06	   77.1457	   15.8777	   2.96211	6.33011e+06	   77.0969	   15.8405	   2.92592	6.31109e+06	
         R10	   1729	    76.954	   15.8465	   2.93172	6.10952e+06	   76.9498	   15.9164	   2.99973	6.17109e+06	   77.0465	   15.9164	   2.99973	6.26993e+06	    77.048	    15.842	   2.92734	6.25478e+06	   76.9519	   15.8814	   2.96572	6.11856e+06	   76.9981	   15.9164	   2.99973	6.22028e+06	   77.0472	   15.8792	   2.96353	6.24347e+06	    77.001	   15.8442	   2.92953	6.18166e+06	
         R10	   1730	   76.8559	   15.8514	   2.93649	5.93053e+06	   76.8553	   15.9164	   2.99973	6.02903e+06	   76.9498	   15.9164	   2.99973	6.16929e+06	    76.954	   15.8465	   2.93172	6.11231e+06	   76.8556	   15.8839	   2.96811	5.95319e+06	   76.9026	   15.9164	   2.99973	6.09895e+06	   76.9519	   15.8814	   2.96572	6.11903e+06	    76.905	   15.8489	    2.9341	6.02045e+06	
         R10	   1731	   76.7635	   15.8528	   2.93788	5.75367e+06	   76.7631	   15.9164	   2.99973	5.81768e+06	   76.8553	   15.9164	   2.99973	6.02098e+06	   76.8559	   15.8514	   2.93649	5.94331e+06	   76.7633	   15.8846	    2.9688	 5.7495e+06	   76.8092	   15.9164	   2.99973	5.91905e+06	   76.8556	   15.8839	   2.96811	5.95551e+06	   76.8097	   15.8521	   2.93718	5.84648e+06	
         R10	   1732	   76.6737	   15.8538	   2.93883	5.42393e+06	   76.6732	   15.9164	   2.99973	5.57685e+06	   76.7631	   15.9164	   2.99973	5.82963e+06	   76.7635	   15.8528	   2.93788	5.75087e+06	   76.6734	   15.8851	   2.96928	5.44633e+06	   76.7182	   15.9164	   2.99973	5.70279e+06	   76.7633	   15.8846	    2.9688	5.75356e+06	   76.7186	   15.8533	   2.93835	5.58361e+06	
         R10	   1733	   76.5861	   15.8546	   2.93963	5.39632e+06	   76.5855	   15.9164	   2.99973	5.00314e+06	   76.6732	   15.9164	   2.99973	5.48602e+06	   76.6737	   15.8538	   2.93883	5.42313e+06	   76.5858	   15.8855	   2.96968	 5.0319e+06	   76.6293	   15.9164	   2.99973	5.22847e+06	   76.6734	   15.8851	   2.96928	 5.4024e+06	   76.6299	   15.8542	   2.93923	5.39616e+06	
         R10	   1734	      76.5	   15.8529	   2.93793	7.97141e+06	      76.5	   15.9164	   2.99973	4.73498e+06	   76.5855	   15.9164	   2.99973	4.77365e+06	   76.5861	   15.8546	   2.93963	4.92475e+06	      76.5	   15.8846	   2.96883	5.65755e+06	   76.5427	   15.9164	   2.99973	4.65972e+06	   76.5858	   15.8855	   2.96968	 4.6698e+06	   76.5431	   15.8537	   2.93878	 6.4466e+06	
         R10	   1735	      76.5	   15.7936	   2.88026	6.89218e+06	      76.5	   15.8529	   2.93793	6.89791e+06	   76.5861	   15.8546	   2.93963	5.35087e+06	   76.5851	   15.7954	   2.88205	6.29831e+06	      76.5	   15.8232	   2.90909	6.85562e+06	   76.5431	   15.8537	   2.93878	6.07865e+06	   76.5856	    15.825	   2.91084	5.82017e+06	   76.5425	   15.7945	   2.88115	6.59108e+06	
         R10	   1736	    76.578	   15.7407	   2.82882	6.62379e+06	      76.5	   15.7386	   2.82672	6.48093e+06	      76.5	   15.7936	   2.88026	6.69191e+06	   76.5851	   15.7954	   2.88205	6.43125e+06	    76.539	   15.7397	   2.82777	6.54642e+06	      76.5	   15.7661	   2.85349	6.58193e+06	   76.5425	   15.7945	   2.88115	6.55119e+06	   76.5816	   15.7681	   2.85543	6.52683e+06	
         R10	   1737	   76.5686	   15.6905	   2.77997	6.68938e+06	      76.5	   15.6878	   2.77731	6.46485e+06	      76.5	   15.7386	   2.82672	6.48124e+06	    76.578	   15.7407	   2.82882	6.63935e+06	   76.5343	   15.6892	   2.77864	6.57222e+06	      76.5	   15.7132	   2.80201	6.46985e+06	    76.539	   15.7397	   2.82777	6.55134e+06	   76.5733	   15.7156	   2.80439	6.66273e+06	
         R10	   1738	   76.5606	   15.6427	   2.73346	6.77527e+06	      76.5	   15.6413	   2.73204	6.53468e+06	      76.5	   15.6878	   2.77731	6.45848e+06	   76.5686	   15.6905	   2.77997	6.70288e+06	   76.5303	    15.642	   2.73275	6.65049e+06	      76.5	   15.6645	   2.75467	6.49421e+06	   76.5343	   15.6892	   2.77864	6.57476e+06	   76.5646	   15.6666	   2.75671	6.73762e+06	
         R10	   1739	    76.556	   15.6005	    2.6924	6.90138e+06	      76.5	    15.599	   2.69089	6.69065e+06	      76.5	   15.6413	   2.73204	6.53002e+06	   76.5606	   15.6427	   2.73346	6.78493e+06	    76.528	   15.5997	   2.69165	6.79171e+06	      76.5	   15.6201	   2.71146	6.60873e+06	   76.5303	    15.642	   2.73275	6.65253e+06	   76.5583	   15.6216	   2.71293	6.84205e+06	
         R10	   1740	   76.5509	   15.5624	   2.65534	 7.0654e+06	      76.5	   15.5609	   2.65388	6.90762e+06	      76.5	    15.599	   2.69089	6.68853e+06	    76.556	   15.6005	    2.6924	6.90661e+06	   76.5254	   15.5617	   2.65461	6.98253e+06	      76.5	     15.58	   2.67238	6.79699e+06	    76.528	   15.5997	   2.69165	6.79309e+06	   76.5535	   15.5815	   2.67387	6.98506e+06	
         R10	   1741	   76.5447	    15.529	   2.62282	7.26072e+06	      76.5	   15.5271	     2.621	7.17071e+06	      76.5	   15.5609	   2.65388	6.90475e+06	   76.5509	   15.5624	   2.65534	7.06912e+06	   76.5224	   15.5281	   2.62191	7.21245e+06	      76.5	    15.544	   2.63744	7.03699e+06	   76.5254	   15.5617	   2.65461	6.98295e+06	   76.5478	   15.5457	   2.63908	 7.1641e+06	
         R10	   1742	   76.5375	   15.4995	   2.59408	 7.4967e+06	      76.5	   15.4976	   2.59224	7.46769e+06	      76.5	   15.5271	     2.621	7.16939e+06	   76.5447	    15.529	   2.62282	7.26115e+06	   76.5188	   15.4985	   2.59316	 7.4797e+06	      76.5	   15.5124	   2.60662	7.31804e+06	   76.5224	   15.5281	   2.62191	7.21203e+06	   76.5411	   15.5142	   2.60845	7.37819e+06	
         R10	   1743	    76.531	    15.474	   2.56934	 7.7614e+06	      76.5	   15.4723	   2.56762	7.78359e+06	      76.5	   15.4976	   2.59224	 7.4685e+06	   76.5375	   15.4995	   2.59408	 7.4984e+06	   76.5155	   15.4732	   2.56848	7.77077e+06	      76.5	   15.4849	   2.57993	7.62569e+06	   76.5188	   15.4985	   2.59316	7.48113e+06	   76.5343	   15.4868	   2.58171	7.62939e+06	
         R10	   1744	   76.5262	   15.4528	   2.54863	8.05364e+06	      76.5	   15.4512	   2.54714	8.11979e+06	      76.5	   15.4723	   2.56762	7.79795e+06	    76.531	    15.474	   2.56934	7.75281e+06	   76.5131	    15.452	   2.54788	8.08579e+06	      76.5	   15.4618	   2.55738	7.95875e+06	   76.5155	   15.4732	   2.56848	7.77364e+06	   76.5286	   15.4634	   2.55898	7.90267e+06	
         R10	   1745	   76.5159	   15.4351	   2.53148	8.35847e+06	    76.517	   15.4218	   2.51855	8.65138e+06	      76.5	   15.4218	   2.51855	8.73533e+06	      76.5	   15.4344	   2.53078	 8.4523e+06	   76.5164	   15.4285	   2.52502	8.50433e+06	   76.5085	   15.4218	   2.51855	8.69312e+06	      76.5	   15.4281	   2.52466	8.59381e+06	   76.5079	   15.4348	   2.53113	 8.4047e+06	
         R10	   1746	    76.625	   15.4493	   2.54528	7.79719e+06	   76.6173	   15.4337	   2.53013	8.01892e+06	   76.6035	   15.4339	   2.53032	7.92833e+06	      76.6	   15.4477	   2.54374	7.95555e+06	   76.6212	   15.4415	    2.5377	7.90705e+06	   76.6104	   15.4338	   2.53022	7.97346e+06	   76.6018	   15.4408	   2.53703	 7.9405e+06	   76.6125	   15.4485	   2.54451	7.87508e+06	
         R10	   1747	   76.6728	   15.4505	   2.54641	7.66613e+06	   76.6716	   15.4355	   2.53181	7.77055e+06	   76.6511	   15.4357	   2.53202	7.78426e+06	   76.6481	   15.4508	   2.54673	7.77832e+06	   76.6722	    15.443	   2.53911	 7.7181e+06	   76.6613	   15.4356	   2.53191	7.77654e+06	   76.6496	   15.4432	   2.53937	7.78066e+06	   76.6605	   15.4506	   2.54657	7.72129e+06	
         R10	   1748	   76.6864	   15.4209	   2.51764	7.87465e+06	     76.67	   15.4218	   2.51855	7.77284e+06	   76.6716	   15.4355	   2.53181	7.74439e+06	   76.6916	   15.4354	   2.53179	7.70294e+06	   76.6782	   15.4214	   2.51809	 7.8232e+06	   76.6708	   15.4287	   2.52518	7.75806e+06	   76.6816	   15.4355	    2.5318	7.71988e+06	    76.689	   15.4282	   2.52471	7.78638e+06	
         R10	   1749	   76.7071	   15.4092	   2.50621	 7.7665e+06	   76.6861	   15.4106	   2.50766	7.81832e+06	   76.6864	   15.4209	   2.51764	7.75779e+06	   76.7113	   15.4257	   2.52233	7.66898e+06	   76.6966	   15.4099	   2.50693	 7.7914e+06	   76.6863	   15.4158	   2.51265	7.78723e+06	   76.6989	   15.4233	   2.51998	7.71126e+06	   76.7092	   15.4174	   2.51427	7.71711e+06	
         R10	   1750	   76.7127	   15.3819	   2.47973	7.83298e+06	   76.6873	   15.3848	    2.4825	7.87999e+06	   76.6913	   15.3977	   2.49502	7.83296e+06	   76.7124	   15.3915	   2.48907	7.76739e+06	      76.7	   15.3834	   2.48111	7.85462e+06	   76.6893	   15.3912	   2.48876	7.85554e+06	   76.7018	   15.3946	   2.49204	7.79714e+06	   76.7125	   15.3867	    2.4844	7.80005e+06	
         R10	   1751	    76.708	   15.3727	   2.47069	7.82703e+06	   76.6879	    15.373	   2.47103	7.92375e+06	   76.6873	   15.3848	    2.4825	7.89669e+06	   76.7127	   15.3819	   2.47973	7.79288e+06	    76.698	   15.3728	   2.47086	 7.8729e+06	   76.6876	   15.3789	   2.47676	7.90935e+06	      76.7	   15.3834	   2.48111	7.84269e+06	   76.7104	   15.3773	   2.47521	7.80951e+06	
         R10	   1752	   76.7184	   15.3586	   2.45706	7.82127e+06	   76.6878	    15.361	   2.45931	 7.8909e+06	   76.6879	    15.373	   2.47103	7.95389e+06	    76.708	   15.3727	   2.47069	7.81029e+06	   76.7031	   15.3598	   2.45819	7.85336e+06	   76.6879	    15.367	   2.46517	7.92165e+06	    76.698	   15.3728	   2.47086	7.88122e+06	   76.7132	   15.3657	   2.46388	7.81341e+06	
         R10	   1753	   76.7073	   15.3337	   2.43278	7.88556e+06	   76.7118	    15.317	   2.41652	7.84393e+06	   76.6893	   15.3131	   2.41271	7.90668e+06	   76.6868	   15.3242	   2.42351	7.96312e+06	   76.7095	   15.3253	   2.42465	7.86162e+06	   76.7005	    15.315	   2.41461	7.87443e+06	    76.688	   15.3186	   2.41811	7.93407e+06	   76.6971	   15.3289	   2.42815	7.92342e+06	
         R10	   1754	   76.7332	   15.3414	   2.44028	7.79443e+06	   76.7382	   15.3203	   2.41978	7.76797e+06	   76.7118	    15.317	   2.41652	7.83875e+06	   76.7073	   15.3337	   2.43278	7.88994e+06	   76.7357	   15.3309	   2.43003	7.77819e+06	    76.725	   15.3187	   2.41815	7.80245e+06	   76.7095	   15.3253	   2.42465	7.86237e+06	   76.7202	   15.3375	   2.43653	7.84145e+06	
         R10	   1755	   76.7631	   15.3475	   2.44619	7.69946e+06	   76.7701	   15.3235	   2.42284	7.68715e+06	   76.7382	   15.3203	   2.41978	7.77267e+06	   76.7332	   15.3414	   2.44028	7.78853e+06	   76.7666	   15.3355	   2.43452	7.69028e+06	   76.7542	   15.3219	   2.42131	7.72882e+06	   76.7357	   15.3309	   2.43003	7.77768e+06	   76.7481	   15.3444	   2.44324	7.74275e+06	
         R10	   1756	   76.8018	   15.3545	   2.45304	7.62265e+06	    76.807	   15.3273	   2.42655	7.61724e+06	   76.7701	   15.3235	   2.42284	7.69109e+06	   76.7631	   15.3475	   2.44619	7.69998e+06	   76.8044	   15.3409	    2.4398	7.61685e+06	   76.7886	   15.3254	   2.42469	7.65292e+06	   76.7666	   15.3355	   2.43452	7.69245e+06	   76.7825	    15.351	   2.44962	7.65988e+06	
         R10	   1757	   76.8424	   15.3636	   2.46184	7.55452e+06	   76.8482	   15.3315	   2.43061	7.55635e+06	    76.807	   15.3273	   2.42655	7.62297e+06	   76.8018	   15.3545	   2.45304	7.61916e+06	   76.8453	   15.3475	   2.44622	7.55179e+06	   76.8276	   15.3294	   2.42858	7.58843e+06	   76.8044	   15.3409	    2.4398	7.61795e+06	   76.8221	    15.359	   2.45744	 7.5857e+06	
         R10	   1758	   76.8883	   15.3705	   2.46855	7.49781e+06	    76.894	   15.3352	   2.43428	7.50719e+06	   76.8482	   15.3315	   2.43061	7.55841e+06	   76.8424	   15.3636	   2.46184	7.55328e+06	   76.8912	   15.3528	   2.45142	7.49865e+06	   76.8711	   15.3334	   2.43245	7.53159e+06	   76.8453	   15.3475	   2.44622	7.55218e+06	   76.8654	    15.367	   2.46519	7.52435e+06	
         R10	   1759	   76.9397	   15.3767	   2.47464	7.45381e+06	   76.9448	   15.3385	   2.43744	7.46194e+06	    76.894	   15.3352	   2.43428	7.50498e+06	   76.8883	   15.3705	   2.46855	7.49883e+06	   76.9422	   15.3576	   2.45604	7.45386e+06	   76.9194	   15.3369	   2.43586	7.48222e+06	   76.8912	   15.3528	   2.45142	7.49808e+06	    76.914	   15.3736	   2.47159	7.47517e+06	
         R10	   1760	   76.9953	   15.3815	   2.47931	7.41742e+06	   77.0006	   15.3412	   2.44013	7.42487e+06	   76.9448	   15.3385	   2.43744	7.46298e+06	   76.9397	   15.3767	   2.47464	7.45464e+06	    76.998	   15.3614	   2.45972	  7.417e+06	   76.9727	   15.3399	   2.43879	7.44272e+06	   76.9422	   15.3576	   2.45604	 7.4548e+06	   76.9675	   15.3791	   2.47697	7.43493e+06	
         R10	   1761	   77.0576	   15.3874	   2.48507	7.38928e+06	   77.0619	   15.3449	   2.44365	7.39757e+06	   77.0006	   15.3412	   2.44013	7.42562e+06	   76.9953	   15.3815	   2.47931	7.42029e+06	   77.0597	   15.3661	   2.46436	 7.3893e+06	   77.0312	   15.3431	   2.44189	7.41053e+06	    76.998	   15.3614	   2.45972	7.41884e+06	   77.0265	   15.3845	   2.48219	7.40377e+06	
         R10	   1762	   77.1229	   15.3984	   2.49575	7.36364e+06	   77.1272	   15.3492	   2.44791	7.37382e+06	   77.0619	   15.3449	   2.44365	7.39836e+06	   77.0576	   15.3874	   2.48507	7.38949e+06	   77.1251	   15.3738	   2.47183	7.36356e+06	   77.0945	   15.3471	   2.44578	7.38514e+06	   77.0597	   15.3661	   2.46436	7.38976e+06	   77.0902	   15.3929	   2.49041	7.37586e+06	
         R10	   1763	   77.1938	   15.4077	   2.50483	7.34311e+06	    77.197	   15.3529	    2.4515	7.35122e+06	   77.1272	   15.3492	   2.44791	7.37531e+06	   77.1229	   15.3984	   2.49575	7.36053e+06	   77.1954	   15.3803	   2.47816	7.34139e+06	   77.1621	   15.3511	   2.44971	7.36238e+06	   77.1251	   15.3738	   2.47183	7.36276e+06	   77.1584	   15.4031	   2.50029	7.35113e+06	
         R10	   1764	   77.2694	   15.4169	   2.51371	7.32445e+06	   77.2726	   15.3565	   2.45498	7.32686e+06	    77.197	   15.3529	    2.4515	 7.3557e+06	   77.1938	   15.4077	   2.50483	7.33708e+06	    77.271	   15.3867	   2.48435	 7.3189e+06	   77.2348	   15.3547	   2.45324	 7.3403e+06	   77.1954	   15.3803	   2.47816	7.34057e+06	   77.2316	   15.4123	   2.50927	 7.3302e+06	
         R10	   1765	   77.2623	   15.4826	   2.57766	7.31656e+06	   77.2694	   15.4169	   2.51371	7.31851e+06	   77.1938	   15.4077	   2.50483	7.33908e+06	   77.1873	   15.4685	   2.56395	7.34488e+06	   77.2659	   15.4497	   2.54569	7.31266e+06	   77.2316	   15.4123	   2.50927	 7.3281e+06	   77.1906	   15.4381	   2.53439	7.33767e+06	   77.2248	   15.4756	   2.57081	7.33031e+06	
         R10	   1766	   77.1725	    15.549	   2.64227	7.30397e+06	   77.2578	    15.549	   2.64226	7.29338e+06	   77.2623	   15.4826	   2.57766	7.31376e+06	   77.1873	   15.4685	   2.56395	7.34644e+06	   77.2152	    15.549	   2.64227	7.29767e+06	     77.26	   15.5158	   2.60996	7.30165e+06	   77.2248	   15.4756	   2.57081	7.32959e+06	   77.1799	   15.5088	   2.60311	7.32182e+06	
         R10	   1767	   77.1671	   15.6172	   2.70862	7.22323e+06	   77.2563	    15.619	   2.71036	7.20855e+06	   77.2578	    15.549	   2.64226	7.28158e+06	   77.1725	    15.549	   2.64227	 7.2905e+06	   77.2117	   15.6181	   2.70949	7.21509e+06	    77.257	    15.584	   2.67631	7.24449e+06	   77.2152	    15.549	   2.64227	7.28506e+06	   77.1698	   15.5831	   2.67544	7.25638e+06	
         R10	   1768	   77.1635	   15.6891	   2.77856	7.06793e+06	   77.2534	   15.6904	   2.77984	7.06008e+06	   77.2563	    15.619	   2.71036	7.18342e+06	   77.1671	   15.6172	   2.70862	7.19288e+06	   77.2084	   15.6897	    2.7792	7.06319e+06	   77.2548	   15.6547	    2.7451	7.12174e+06	   77.2117	   15.6181	   2.70949	7.18736e+06	   77.1653	   15.6531	   2.74359	7.13039e+06	
         R10	   1769	    77.152	    15.764	   2.85149	 6.8322e+06	   77.2487	    15.764	   2.85143	6.85407e+06	   77.2534	   15.6904	   2.77984	7.01379e+06	   77.1635	   15.6891	   2.77856	 7.0041e+06	   77.2004	    15.764	   2.85146	6.84241e+06	    77.251	   15.7272	   2.81563	6.93268e+06	   77.2084	   15.6897	    2.7792	7.00829e+06	   77.1578	   15.7266	   2.81503	6.91688e+06	
         R10	   1770	   77.1459	   15.8391	   2.92449	6.57835e+06	   77.2458	    15.839	   2.92447	6.60569e+06	   77.2487	    15.764	   2.85143	6.75455e+06	    77.152	    15.764	   2.85149	6.71413e+06	   77.1959	    15.839	   2.92448	6.59145e+06	   77.2473	   15.8015	   2.88795	6.67494e+06	   77.2004	    15.764	   2.85146	6.73368e+06	    77.149	   15.8015	   2.88799	6.63992e+06	
         R10	   1771	    77.048	    15.842	   2.92734	6.47625e+06	   77.1459	   15.8391	   2.92449	6.56964e+06	    77.152	    15.764	   2.85149	6.71497e+06	   77.0546	   15.7639	   2.85139	6.68231e+06	   77.0969	   15.8405	   2.92592	6.52258e+06	    77.149	   15.8015	   2.88799	  6.636e+06	   77.1033	    15.764	   2.85144	6.69758e+06	   77.0513	    15.803	   2.88937	6.57258e+06	
         R10	   1772	   76.9485	   15.7881	   2.87489	6.41487e+06	    76.954	   15.8465	   2.93172	6.42207e+06	    77.048	    15.842	   2.92734	6.50328e+06	   77.0546	   15.7639	   2.85139	6.63573e+06	   76.9512	   15.8173	    2.9033	6.40971e+06	    77.001	   15.8442	   2.92953	6.46237e+06	   77.0513	    15.803	   2.88937	 6.5626e+06	   77.0015	    15.776	   2.86314	6.52472e+06	
         R10	   1773	   76.8523	   15.7896	   2.87639	6.33579e+06	   76.8559	   15.8514	   2.93649	6.19537e+06	    76.954	   15.8465	   2.93172	 6.3936e+06	   76.9485	   15.7881	   2.87489	6.44785e+06	   76.8541	   15.8205	   2.90644	6.25572e+06	    76.905	   15.8489	    2.9341	6.29368e+06	   76.9512	   15.8173	    2.9033	6.41126e+06	   76.9004	   15.7889	   2.87564	6.39058e+06	
         R10	   1774	   76.7608	   15.7939	   2.88054	 6.1581e+06	   76.7635	   15.8528	   2.93788	5.98641e+06	   76.8559	   15.8514	   2.93649	 6.1867e+06	   76.8523	   15.7896	   2.87639	6.32904e+06	   76.7622	   15.8234	   2.90921	6.06064e+06	   76.8097	   15.8521	   2.93718	  6.085e+06	   76.8541	   15.8205	   2.90644	6.24791e+06	   76.8066	   15.7918	   2.87847	6.24127e+06	
         R10	   1775	   76.6698	   15.7943	   2.88089	6.16965e+06	   76.6737	   15.8538	   2.93883	5.68907e+06	   76.7635	   15.8528	   2.93788	5.94155e+06	   76.7608	   15.7939	   2.88054	6.16403e+06	   76.6718	    15.824	   2.90986	5.91646e+06	   76.7186	   15.8533	   2.93835	5.81109e+06	   76.7622	   15.8234	   2.90921	6.04166e+06	   76.7153	   15.7941	   2.88072	6.16191e+06	
         R10	   1776	   76.5851	   15.7954	   2.88205	6.18363e+06	   76.5861	   15.8546	   2.93963	5.70004e+06	   76.6737	   15.8538	   2.93883	5.76079e+06	   76.6698	   15.7943	   2.88089	6.11154e+06	   76.5856	    15.825	   2.91084	5.94005e+06	   76.6299	   15.8542	   2.93923	5.71778e+06	   76.6718	    15.824	   2.90986	5.92071e+06	   76.6275	   15.7948	   2.88147	6.14652e+06	
         R10	   1777	    76.578	   15.7407	   2.82882	6.56505e+06	   76.5851	   15.7954	   2.88205	6.38087e+06	   76.6698	   15.7943	   2.88089	6.16917e+06	   76.6658	   15.7372	   2.82535	6.58084e+06	   76.5816	   15.7681	   2.85543	6.47239e+06	   76.6275	   15.7948	   2.88147	6.27247e+06	   76.6678	   15.7657	   2.85312	6.37301e+06	   76.6219	   15.7389	   2.82708	 6.5713e+06	
         R10	   1778	   76.6226	   15.6845	   2.77408	6.79567e+06	   76.5686	   15.6905	   2.77997	6.68568e+06	    76.578	   15.7407	   2.82882	6.60545e+06	   76.6658	   15.7372	   2.82535	6.62253e+06	   76.5956	   15.6875	   2.77702	 6.7394e+06	   76.5733	   15.7156	   2.80439	6.64424e+06	   76.6219	   15.7389	   2.82708	6.61203e+06	   76.6442	   15.7108	   2.79971	6.70708e+06	
         R10	   1779	   76.6187	   15.6386	    2.7294	6.94614e+06	   76.5606	   15.6427	   2.73346	 6.7716e+06	   76.5686	   15.6905	   2.77997	6.69825e+06	   76.6226	   15.6845	   2.77408	6.80493e+06	   76.5897	   15.6406	   2.73143	6.85641e+06	   76.5646	   15.6666	   2.75671	6.73345e+06	   76.5956	   15.6875	   2.77702	6.75054e+06	   76.6207	   15.6615	   2.75174	6.87497e+06	
         R10	   1780	    76.611	    15.597	   2.68897	7.06343e+06	    76.556	   15.6005	    2.6924	6.90036e+06	   76.5606	   15.6427	   2.73346	6.78005e+06	   76.6187	   15.6386	    2.7294	6.94166e+06	   76.5835	   15.5988	   2.69068	6.97929e+06	   76.5583	   15.6216	   2.71293	6.83912e+06	   76.5897	   15.6406	   2.73143	6.85874e+06	   76.6149	   15.6178	   2.70919	7.00189e+06	
         R10	   1781	    76.601	   15.5583	   2.65128	7.19998e+06	   76.5509	   15.5624	   2.65534	7.06378e+06	    76.556	   15.6005	    2.6924	6.90436e+06	    76.611	    15.597	   2.68897	7.06331e+06	   76.5759	   15.5603	   2.65331	7.12926e+06	   76.5535	   15.5815	   2.67387	6.98311e+06	   76.5835	   15.5988	   2.69068	6.98139e+06	    76.606	   15.5776	   2.67013	7.13079e+06	
         R10	   1782	   76.5896	   15.5245	   2.61839	7.35688e+06	   76.5447	    15.529	   2.62282	7.26208e+06	   76.5509	   15.5624	   2.65534	7.06657e+06	    76.601	   15.5583	   2.65128	7.19593e+06	   76.5671	   15.5267	   2.62061	7.30707e+06	   76.5478	   15.5457	   2.63908	7.16349e+06	   76.5759	   15.5603	   2.65331	7.12872e+06	   76.5953	   15.5414	   2.63484	7.27546e+06	
         R10	   1783	   76.5744	   15.4951	   2.58982	7.53775e+06	   76.5375	   15.4995	   2.59408	7.49524e+06	   76.5447	    15.529	   2.62282	7.26099e+06	   76.5896	   15.5245	   2.61839	7.35799e+06	   76.5559	   15.4973	   2.59195	7.51434e+06	   76.5411	   15.5142	   2.60845	7.37732e+06	   76.5671	   15.5267	   2.62061	7.30717e+06	    76.582	   15.5098	   2.60411	7.44687e+06	
         R10	   1784	    76.562	   15.4704	   2.56582	7.77991e+06	    76.531	    15.474	   2.56934	7.76103e+06	   76.5375	   15.4995	   2.59408	 7.4887e+06	   76.5744	   15.4951	   2.58982	7.54972e+06	   76.5465	   15.4722	   2.56758	7.76938e+06	   76.5343	   15.4868	   2.58171	7.62439e+06	   76.5559	   15.4973	   2.59195	  7.517e+06	   76.5682	   15.4828	   2.57782	7.66358e+06	
         R10	   1785	   76.5527	   15.4511	   2.54699	8.00254e+06	   76.5262	   15.4528	   2.54863	8.04637e+06	    76.531	    15.474	   2.56934	7.77248e+06	    76.562	   15.4704	   2.56582	7.76191e+06	   76.5395	   15.4519	   2.54781	8.02357e+06	   76.5286	   15.4634	   2.55898	7.90902e+06	   76.5465	   15.4722	   2.56758	7.76571e+06	   76.5574	   15.4607	    2.5564	7.88172e+06	
         R10	   1786	   76.5159	   15.4351	   2.53148	8.36835e+06	      76.5	   15.4344	   2.53078	8.43552e+06	      76.5	   15.4512	   2.54714	 8.1178e+06	   76.5262	   15.4528	   2.54863	8.06347e+06	   76.5079	   15.4348	   2.53113	8.40147e+06	      76.5	   15.4428	   2.53896	8.27656e+06	   76.5131	    15.452	   2.54788	8.08932e+06	    76.521	   15.4439	   2.54005	8.21537e+06	
         R10	   1787	   76.6481	   15.4508	   2.54673	 7.6707e+06	   76.6511	   15.4357	   2.53202	7.91937e+06	   76.6366	   15.4346	   2.53096	7.86475e+06	    76.625	   15.4493	   2.54528	7.86304e+06	   76.6496	   15.4432	   2.53937	 7.7946e+06	   76.6438	   15.4351	   2.53149	7.89149e+06	   76.6308	    15.442	   2.53812	7.86278e+06	   76.6366	   15.4501	   2.54601	7.76632e+06	
         R10	   1788	   76.6738	   15.4687	   2.56417	7.60221e+06	   76.6728	   15.4505	   2.54641	7.69375e+06	   76.6481	   15.4508	   2.54673	7.78306e+06	   76.6456	   15.4694	    2.5648	7.62968e+06	   76.6733	   15.4596	   2.55529	7.64757e+06	   76.6605	   15.4506	   2.54657	7.73597e+06	   76.6469	   15.4601	   2.55576	 7.7052e+06	   76.6597	   15.4691	   2.56448	7.61504e+06	
         R10	   1789	   76.6916	   15.4354	   2.53179	7.68535e+06	   76.6716	   15.4355	   2.53181	7.73475e+06	   76.6728	   15.4505	   2.54641	7.67218e+06	   76.6954	   15.4488	   2.54477	7.65358e+06	   76.6816	   15.4355	    2.5318	7.70754e+06	   76.6722	    15.443	   2.53911	7.70309e+06	   76.6841	   15.4496	   2.54559	 7.6624e+06	   76.6935	   15.4421	   2.53828	7.66823e+06	
         R10	   1790	   76.7124	   15.3915	   2.48907	7.80507e+06	   76.6913	   15.3977	   2.49502	7.82001e+06	   76.7071	   15.4092	   2.50621	7.73866e+06	   76.7363	   15.4007	   2.49799	7.67724e+06	   76.7018	   15.3946	   2.49204	7.80997e+06	   76.6992	   15.4034	   2.50062	7.77833e+06	   76.7217	   15.4049	    2.5021	7.70531e+06	   76.7243	   15.3961	   2.49353	7.74058e+06	
         R10	   1791	   76.7886	   15.3814	   2.47916	7.62747e+06	   76.8018	   15.3545	   2.45304	7.61906e+06	   76.7631	   15.3475	   2.44619	7.70407e+06	   76.7501	   15.3717	   2.46976	7.71447e+06	   76.7952	   15.3679	    2.4661	7.61959e+06	   76.7825	    15.351	   2.44962	7.66002e+06	   76.7566	   15.3596	   2.45797	7.70576e+06	   76.7693	   15.3765	   2.47446	7.66953e+06	
         R10	   1792	   76.8302	    15.394	   2.49146	7.55282e+06	   76.8424	   15.3636	   2.46184	7.55449e+06	   76.8018	   15.3545	   2.45304	7.61946e+06	   76.7886	   15.3814	   2.47916	 7.6259e+06	   76.8363	   15.3788	   2.47665	7.55035e+06	   76.8221	    15.359	   2.45744	7.58587e+06	   76.7952	   15.3679	    2.4661	7.61905e+06	   76.8094	   15.3877	   2.48531	7.58808e+06	
         R10	   1793	   76.8781	   15.4048	   2.50201	7.49466e+06	   76.8883	   15.3705	   2.46855	7.49918e+06	   76.8424	   15.3636	   2.46184	7.55405e+06	   76.8302	    15.394	   2.49146	7.55512e+06	   76.8832	   15.3876	   2.48528	7.49365e+06	   76.8654	    15.367	   2.46519	7.52542e+06	   76.8363	   15.3788	   2.47665	7.55127e+06	   76.8542	   15.3994	   2.49674	7.52361e+06	
         R10	   1794	   76.9318	   15.4141	   2.51104	7.45349e+06	   76.9397	   15.3767	   2.47464	 7.4533e+06	   76.8883	   15.3705	   2.46855	7.49904e+06	   76.8781	   15.4048	   2.50201	 7.4974e+06	   76.9357	   15.3954	   2.49284	7.45031e+06	    76.914	   15.3736	   2.47159	  7.475e+06	   76.8832	   15.3876	   2.48528	7.49499e+06	   76.9049	   15.4095	   2.50652	7.47427e+06	
         R10	   1795	   76.9872	   15.4205	   2.51724	7.41929e+06	   76.9953	   15.3815	   2.47931	7.42047e+06	   76.9397	   15.3767	   2.47464	  7.455e+06	   76.9318	   15.4141	   2.51104	7.45173e+06	   76.9913	    15.401	   2.49827	7.41687e+06	   76.9675	   15.3791	   2.47697	7.43667e+06	   76.9357	   15.3954	   2.49284	7.45026e+06	   76.9595	   15.4173	   2.51414	7.43447e+06	
         R10	   1796	   77.0479	   15.4287	   2.52518	7.38743e+06	   77.0576	   15.3874	   2.48507	7.38911e+06	   76.9953	   15.3815	   2.47931	7.42122e+06	   76.9872	   15.4205	   2.51724	 7.4179e+06	   77.0527	    15.408	   2.50513	7.38525e+06	   77.0265	   15.3845	   2.48219	7.40413e+06	   76.9913	    15.401	   2.49827	7.41654e+06	   77.0175	   15.4246	   2.52121	 7.4018e+06	
         R10	   1797	   77.1108	   15.4427	   2.53889	7.37437e+06	   77.1229	   15.3984	   2.49575	7.35849e+06	   77.0576	   15.3874	   2.48507	7.38705e+06	   77.0479	   15.4287	   2.52518	7.38916e+06	   77.1169	   15.4206	   2.51732	7.36323e+06	   77.0902	   15.3929	   2.49041	7.37198e+06	   77.0527	    15.408	   2.50513	7.38506e+06	   77.0794	   15.4357	   2.53204	7.38136e+06	
         R10	   1798	   77.1873	   15.4685	   2.56395	 7.3282e+06	   77.1938	   15.4077	   2.50483	7.34725e+06	   77.1229	   15.3984	   2.49575	7.36148e+06	   77.1108	   15.4427	   2.53889	7.37799e+06	   77.1906	   15.4381	   2.53439	7.33331e+06	   77.1584	   15.4031	   2.50029	7.35375e+06	   77.1169	   15.4206	   2.51732	7.36653e+06	    77.149	   15.4556	   2.55142	7.35251e+06	
         R10	   1799	   77.0855	   15.6151	   2.70654	7.23191e+06	   77.1671	   15.6172	   2.70862	7.22293e+06	   77.1725	    15.549	   2.64227	7.31101e+06	    77.085	   15.5505	   2.64376	7.29319e+06	   77.1263	   15.6161	   2.70758	7.22649e+06	   77.1698	   15.5831	   2.67544	7.26646e+06	   77.1288	   15.5498	   2.64302	7.30082e+06	   77.0852	   15.5828	   2.67515	7.26214e+06	
         R10	   1800	   77.0823	    15.684	   2.77362	7.05753e+06	   77.1635	   15.6891	   2.77856	7.06491e+06	   77.1671	   15.6172	   2.70862	7.18736e+06	   77.0855	   15.6151	   2.70654	7.20026e+06	   77.1229	   15.6865	   2.77609	7.06052e+06	   77.1653	   15.6531	   2.74359	7.12612e+06	   77.1263	   15.6161	   2.70758	7.19285e+06	   77.0839	   15.6495	   2.74008	7.12884e+06	
         R10	   1801	   77.0546	   15.7639	   2.85139	6.76838e+06	    77.152	    15.764	   2.85149	6.83416e+06	   77.1635	   15.6891	   2.77856	7.00506e+06	   77.0823	    15.684	   2.77362	 7.0199e+06	   77.1033	    15.764	   2.85144	6.80037e+06	   77.1578	   15.7266	   2.81503	6.91839e+06	   77.1229	   15.6865	   2.77609	7.01157e+06	   77.0685	    15.724	    2.8125	6.89323e+06	
         R10	   1802	   76.8479	   15.7321	   2.82041	6.68206e+06	   76.8523	   15.7896	   2.87639	 6.4619e+06	   76.9485	   15.7881	   2.87489	6.57289e+06	   76.9302	   15.7289	   2.81727	6.76337e+06	   76.8501	   15.7609	    2.8484	6.56905e+06	   76.9004	   15.7889	   2.87564	6.51542e+06	   76.9393	   15.7585	   2.84608	6.66359e+06	   76.8891	   15.7305	   2.81884	6.72165e+06	
         R10	   1803	   76.7579	   15.7397	   2.82783	6.56551e+06	   76.7608	   15.7939	   2.88054	6.30953e+06	   76.8523	   15.7896	   2.87639	6.46235e+06	   76.8479	   15.7321	   2.82041	6.66945e+06	   76.7594	   15.7668	   2.85419	6.43481e+06	   76.8066	   15.7918	   2.87847	6.38386e+06	   76.8501	   15.7609	    2.8484	6.56296e+06	   76.8029	   15.7359	   2.82412	6.61548e+06	
         R10	   1804	   76.6658	   15.7372	   2.82535	6.56935e+06	   76.6698	   15.7943	   2.88089	6.20803e+06	   76.7608	   15.7939	   2.88054	6.30557e+06	   76.7579	   15.7397	   2.82783	6.56949e+06	   76.6678	   15.7657	   2.85312	6.38633e+06	   76.7153	   15.7941	   2.88072	6.25362e+06	   76.7594	   15.7668	   2.85419	6.43487e+06	   76.7119	   15.7384	   2.82659	6.56661e+06	
         R10	   1805	   76.6694	   15.6294	    2.7205	7.04033e+06	   76.6187	   15.6386	    2.7294	6.93449e+06	   76.6226	   15.6845	   2.77408	 6.8003e+06	   76.6976	   15.6778	   2.76758	 6.9043e+06	   76.6441	    15.634	   2.72495	6.98643e+06	   76.6207	   15.6615	   2.75174	6.86681e+06	   76.6601	   15.6811	   2.77083	6.85057e+06	   76.6835	   15.6536	   2.74404	6.97124e+06	
         R10	   1806	   76.6639	   15.5911	   2.68319	7.16948e+06	    76.611	    15.597	   2.68897	7.05973e+06	   76.6187	   15.6386	    2.7294	6.94032e+06	   76.6694	   15.6294	    2.7205	7.04497e+06	   76.6375	    15.594	   2.68608	7.11297e+06	   76.6149	   15.6178	   2.70919	6.99937e+06	   76.6441	    15.634	   2.72495	6.99158e+06	   76.6667	   15.6102	   2.70184	7.10682e+06	
         R10	   1807	   76.6486	   15.5495	   2.64276	 7.2975e+06	    76.601	   15.5583	   2.65128	7.19903e+06	    76.611	    15.597	   2.68897	7.06206e+06	   76.6639	   15.5911	   2.68319	7.16757e+06	   76.6248	   15.5539	   2.64702	7.24641e+06	    76.606	   15.5776	   2.67013	7.12965e+06	   76.6375	    15.594	   2.68608	7.11313e+06	   76.6562	   15.5703	   2.66297	7.23171e+06	
         R10	   1808	   76.6247	   15.5164	   2.61056	7.41558e+06	   76.5896	   15.5245	   2.61839	7.34808e+06	    76.601	   15.5583	   2.65128	7.19777e+06	   76.6486	   15.5495	   2.64276	7.29693e+06	   76.6071	   15.5204	   2.61448	7.38045e+06	   76.5953	   15.5414	   2.63484	7.27205e+06	   76.6248	   15.5539	   2.64702	7.24551e+06	   76.6366	    15.533	   2.62666	7.35497e+06	
         R10	   1809	   76.6065	   15.4869	   2.58183	7.60968e+06	   76.5744	   15.4951	   2.58982	 7.5405e+06	   76.5896	   15.5245	   2.61839	 7.3571e+06	   76.6247	   15.5164	   2.61056	7.39919e+06	   76.5904	    15.491	   2.58583	 7.5735e+06	    76.582	   15.5098	   2.60411	7.44758e+06	   76.6071	   15.5204	   2.61448	7.37679e+06	   76.6156	   15.5016	    2.5962	 7.5033e+06	
         R10	   1810	    76.587	   15.4648	   2.56036	7.76079e+06	    76.562	   15.4704	   2.56582	7.74949e+06	   76.5744	   15.4951	   2.58982	7.55606e+06	   76.6065	   15.4869	   2.58183	7.59799e+06	   76.5745	   15.4676	   2.56309	7.75434e+06	   76.5682	   15.4828	   2.57782	7.65195e+06	   76.5904	    15.491	   2.58583	7.57524e+06	   76.5967	   15.4758	    2.5711	7.67797e+06	
         R10	   1811	   76.5507	   15.4353	   2.53169	8.18814e+06	   76.5349	   15.4345	   2.53086	8.30944e+06	   76.5262	   15.4528	   2.54863	8.06363e+06	   76.5527	   15.4511	   2.54699	8.00813e+06	   76.5428	   15.4349	   2.53127	8.24825e+06	   76.5305	   15.4436	   2.53974	8.18644e+06	   76.5395	   15.4519	   2.54781	8.03524e+06	   76.5517	   15.4432	   2.53934	8.09806e+06	
         R10	   1812	   76.5695	    15.435	   2.53134	8.13989e+06	   76.5507	   15.4353	   2.53169	8.22301e+06	   76.5527	   15.4511	   2.54699	7.99284e+06	   76.5732	    15.448	   2.54395	7.94841e+06	   76.5601	   15.4352	   2.53151	8.18102e+06	   76.5517	   15.4432	   2.53934	8.10757e+06	    76.563	   15.4495	   2.54547	7.96971e+06	   76.5714	   15.4415	   2.53765	8.04322e+06	
         R10	   1813	      76.6	   15.4477	   2.54374	7.85283e+06	   76.5856	    15.434	   2.53033	8.10672e+06	   76.5695	    15.435	   2.53134	8.07559e+06	   76.5732	    15.448	   2.54395	8.01223e+06	   76.5928	   15.4408	   2.53703	7.97915e+06	   76.5776	   15.4345	   2.53084	8.09061e+06	   76.5714	   15.4415	   2.53765	8.04376e+06	   76.5866	   15.4478	   2.54384	  7.931e+06	
         R10	   1814	   76.6255	   15.4665	     2.562	7.64097e+06	   76.6456	   15.4694	    2.5648	7.65673e+06	   76.6481	   15.4508	   2.54673	7.78371e+06	    76.625	   15.4493	   2.54528	7.86629e+06	   76.6356	   15.4679	    2.5634	7.64786e+06	   76.6469	   15.4601	   2.55576	7.71925e+06	   76.6366	   15.4501	   2.54601	7.82229e+06	   76.6253	   15.4579	   2.55364	7.75093e+06	
         R10	   1815	   76.6793	    15.489	   2.58393	7.50643e+06	   76.6738	   15.4687	   2.56417	  7.635e+06	   76.6456	   15.4694	    2.5648	7.61361e+06	    76.648	   15.4954	   2.59012	7.56372e+06	   76.6765	   15.4789	   2.57405	7.57007e+06	   76.6597	   15.4691	   2.56448	7.62355e+06	   76.6468	   15.4824	   2.57746	7.58838e+06	   76.6636	   15.4922	   2.58703	7.53332e+06	
         R10	   1816	   76.6954	   15.4488	   2.54477	 7.6606e+06	   76.6728	   15.4505	   2.54641	 7.6869e+06	   76.6738	   15.4687	   2.56417	7.63233e+06	    76.699	   15.4673	   2.56276	7.55259e+06	   76.6841	   15.4496	   2.54559	7.67295e+06	   76.6733	   15.4596	   2.55529	7.65895e+06	   76.6864	    15.468	   2.56346	7.59107e+06	   76.6972	    15.458	   2.55376	7.60615e+06	
         R10	   1817	   76.7363	   15.4007	   2.49799	7.69639e+06	   76.7071	   15.4092	   2.50621	7.76042e+06	   76.7113	   15.4257	   2.52233	7.68387e+06	   76.7332	   15.4225	   2.51916	7.65085e+06	   76.7217	   15.4049	    2.5021	7.72546e+06	   76.7092	   15.4174	   2.51427	7.72076e+06	   76.7223	   15.4241	   2.52075	 7.6665e+06	   76.7348	   15.4116	   2.50857	7.67188e+06	
         R10	   1818	   76.8139	   15.4236	   2.52022	7.54571e+06	   76.8302	    15.394	   2.49146	7.55478e+06	   76.7886	   15.3814	   2.47916	7.62188e+06	   76.7727	   15.4085	   2.50555	7.61703e+06	   76.8221	   15.4088	   2.50584	7.54729e+06	   76.8094	   15.3877	   2.48531	7.58707e+06	   76.7807	   15.3949	   2.49236	 7.6158e+06	   76.7933	    15.416	   2.51289	7.57994e+06	
         R10	   1819	   76.8647	   15.4374	   2.53369	7.49085e+06	   76.8781	   15.4048	   2.50201	7.49512e+06	   76.8302	    15.394	   2.49146	7.55337e+06	   76.8139	   15.4236	   2.52022	7.54568e+06	   76.8714	   15.4211	   2.51785	7.49049e+06	   76.8542	   15.3994	   2.49674	7.52291e+06	   76.8221	   15.4088	   2.50584	7.54655e+06	   76.8393	   15.4305	   2.52695	7.51683e+06	
         R10	   1820	   76.9214	   15.4502	   2.54616	7.44513e+06	   76.9318	   15.4141	   2.51104	7.45127e+06	   76.8781	   15.4048	   2.50201	7.49695e+06	   76.8647	   15.4374	   2.53369	7.48997e+06	   76.9266	   15.4322	    2.5286	7.44601e+06	   76.9049	   15.4095	   2.50652	7.47292e+06	   76.8714	   15.4211	   2.51785	7.49095e+06	   76.8931	   15.4438	   2.53992	7.46622e+06	
         R10	   1821	   76.9779	    15.463	   2.55856	7.40794e+06	   76.9872	   15.4205	   2.51724	7.42468e+06	   76.9318	   15.4141	   2.51104	7.45212e+06	   76.9214	   15.4502	   2.54616	7.44925e+06	   76.9825	   15.4417	    2.5379	7.41383e+06	   76.9595	   15.4173	   2.51414	7.43746e+06	   76.9266	   15.4322	    2.5286	7.44846e+06	   76.9496	   15.4566	   2.55236	7.42756e+06	
         R10	   1822	   77.0345	   15.4782	   2.57334	7.38879e+06	   77.0479	   15.4287	   2.52518	 7.3877e+06	   76.9872	   15.4205	   2.51724	7.41956e+06	   76.9779	    15.463	   2.55856	7.40223e+06	   77.0412	   15.4534	   2.54926	7.38526e+06	   77.0175	   15.4246	   2.52121	7.40273e+06	   76.9825	   15.4417	    2.5379	7.40843e+06	   77.0062	   15.4706	   2.56595	7.39501e+06	
         R10	   1823	   77.0895	   15.4913	   2.58613	7.36409e+06	   77.1108	   15.4427	   2.53889	7.36937e+06	   77.0479	   15.4287	   2.52518	7.38955e+06	   77.0345	   15.4782	   2.57334	7.39564e+06	   77.1002	    15.467	   2.56251	7.36371e+06	   77.0794	   15.4357	   2.53204	7.37885e+06	   77.0412	   15.4534	   2.54926	7.38962e+06	    77.062	   15.4847	   2.57974	7.37948e+06	
         R10	   1824	   77.0095	   15.6124	   2.70397	 7.2166e+06	   77.0855	   15.6151	   2.70654	7.23069e+06	    77.085	   15.5505	   2.64376	7.31719e+06	   77.0134	   15.5451	    2.6385	7.33344e+06	   77.0475	   15.6137	   2.70526	7.22273e+06	   77.0852	   15.5828	   2.67515	7.27345e+06	   77.0492	   15.5478	   2.64113	7.32417e+06	   77.0114	   15.5788	   2.67124	7.27432e+06	
         R10	   1825	    77.007	   15.6769	   2.76674	7.06864e+06	   77.0823	    15.684	   2.77362	7.03153e+06	   77.0855	   15.6151	   2.70654	7.20202e+06	   77.0095	   15.6124	   2.70397	7.21942e+06	   77.0447	   15.6805	   2.77018	 7.0492e+06	   77.0839	   15.6495	   2.74008	7.11675e+06	   77.0475	   15.6137	   2.70526	7.20958e+06	   77.0082	   15.6447	   2.73536	7.14348e+06	
         R10	   1826	   76.8456	   15.6806	   2.77036	6.93884e+06	   76.8479	   15.7321	   2.82041	6.73913e+06	   76.9302	   15.7289	   2.81727	6.82619e+06	   76.9279	   15.6741	   2.76403	6.99183e+06	   76.8467	   15.7064	   2.79539	6.83816e+06	   76.8891	   15.7305	   2.81884	 6.7812e+06	    76.929	   15.7015	   2.79065	6.90819e+06	   76.8867	   15.6774	    2.7672	 6.9639e+06	
         R10	   1827	   76.7597	   15.6903	   2.77973	6.85199e+06	   76.7579	   15.7397	   2.82783	6.64132e+06	   76.8479	   15.7321	   2.82041	 6.7403e+06	   76.8456	   15.6806	   2.77036	6.94065e+06	   76.7588	    15.715	   2.80378	6.74591e+06	   76.8029	   15.7359	   2.82412	  6.689e+06	   76.8467	   15.7064	   2.79539	6.83963e+06	   76.8026	   15.6855	   2.77505	 6.8945e+06	
         R10	   1828	   76.7146	   15.5843	   2.67665	7.23291e+06	   76.6639	   15.5911	   2.68319	7.16141e+06	   76.6694	   15.6294	    2.7205	 7.0461e+06	   76.7276	   15.6287	   2.71979	7.10931e+06	   76.6892	   15.5877	   2.67992	7.19583e+06	   76.6667	   15.6102	   2.70184	7.10337e+06	   76.6985	    15.629	   2.72014	7.07641e+06	   76.7211	   15.6065	   2.69822	7.17069e+06	
         R10	   1829	    76.698	   15.5469	   2.64022	7.33384e+06	   76.6486	   15.5495	   2.64276	7.29406e+06	   76.6639	   15.5911	   2.68319	7.16435e+06	   76.7146	   15.5843	   2.67665	 7.2328e+06	   76.6733	   15.5482	   2.64149	7.31219e+06	   76.6562	   15.5703	   2.66297	7.22848e+06	   76.6892	   15.5877	   2.67992	7.19709e+06	   76.7063	   15.5656	   2.65844	7.28267e+06	
         R10	   1830	   76.5732	    15.448	   2.54395	7.96555e+06	   76.5527	   15.4511	   2.54699	7.99424e+06	    76.562	   15.4704	   2.56582	7.77172e+06	    76.587	   15.4648	   2.56036	7.75789e+06	    76.563	   15.4495	   2.54547	7.97908e+06	   76.5574	   15.4607	    2.5564	7.88241e+06	   76.5745	   15.4676	   2.56309	 7.7641e+06	   76.5801	   15.4564	   2.55216	7.86094e+06	
         R10	   1831	   76.6255	   15.4665	     2.562	7.64777e+06	    76.625	   15.4493	   2.54528	7.86128e+06	      76.6	   15.4477	   2.54374	7.81006e+06	    76.587	   15.4648	   2.56036	7.81948e+06	   76.6253	   15.4579	   2.55364	7.75302e+06	   76.6125	   15.4485	   2.54451	 7.8312e+06	   76.5935	   15.4563	   2.55205	7.81377e+06	   76.6062	   15.4657	   2.56118	 7.7317e+06	
         R10	   1832	    76.648	   15.4954	   2.59012	7.50483e+06	   76.6456	   15.4694	    2.5648	7.69958e+06	   76.6255	   15.4665	     2.562	7.69426e+06	   76.6065	   15.4869	   2.58183	7.58947e+06	   76.6468	   15.4824	   2.57746	7.60139e+06	   76.6356	   15.4679	    2.5634	7.69652e+06	    76.616	   15.4767	   2.57191	7.64071e+06	   76.6272	   15.4911	   2.58597	7.54349e+06	
         R10	   1833	   76.6856	   15.5145	   2.60875	 7.4096e+06	   76.6793	    15.489	   2.58393	  7.552e+06	    76.648	   15.4954	   2.59012	7.50721e+06	   76.6634	    15.517	   2.61118	7.47032e+06	   76.6825	   15.5018	   2.59634	7.48047e+06	   76.6636	   15.4922	   2.58703	7.52852e+06	   76.6557	   15.5062	   2.60065	7.48811e+06	   76.6745	   15.5158	   2.60997	7.43938e+06	
         R10	   1834	    76.699	   15.4673	   2.56276	7.60748e+06	   76.6738	   15.4687	   2.56417	7.58198e+06	   76.6793	    15.489	   2.58393	7.56383e+06	   76.7069	   15.4873	   2.58226	7.48642e+06	   76.6864	    15.468	   2.56346	7.59396e+06	   76.6765	   15.4789	   2.57405	7.57256e+06	   76.6931	   15.4882	    2.5831	7.52441e+06	    76.703	   15.4773	   2.57251	7.54646e+06	
         R10	   1835	   76.7197	   15.4447	   2.54083	7.64016e+06	   76.6954	   15.4488	   2.54477	7.62307e+06	    76.699	   15.4673	   2.56276	7.63145e+06	    76.728	   15.4633	    2.5589	7.54462e+06	   76.7076	   15.4468	    2.5428	7.63065e+06	   76.6972	    15.458	   2.55376	7.62684e+06	   76.7135	   15.4653	   2.56083	7.58612e+06	   76.7239	    15.454	   2.54987	7.59189e+06	
         R10	   1836	   76.7113	   15.4257	   2.52233	7.69616e+06	   76.6916	   15.4354	   2.53179	7.75793e+06	   76.6954	   15.4488	   2.54477	7.62768e+06	   76.7197	   15.4447	   2.54083	7.62316e+06	   76.7014	   15.4306	   2.52706	7.72548e+06	   76.6935	   15.4421	   2.53828	7.69203e+06	   76.7076	   15.4468	    2.5428	7.62379e+06	   76.7155	   15.4352	   2.53158	7.65951e+06	
         R10	   1837	   76.7332	   15.4225	   2.51916	7.68317e+06	   76.7113	   15.4257	   2.52233	 7.6819e+06	   76.7197	   15.4447	   2.54083	7.66264e+06	   76.7563	   15.4362	   2.53248	7.57012e+06	   76.7223	   15.4241	   2.52075	7.68062e+06	   76.7155	   15.4352	   2.53158	7.67158e+06	    76.738	   15.4405	   2.53666	7.61313e+06	   76.7448	   15.4293	   2.52582	 7.6263e+06	
         R10	   1838	    76.849	   15.4697	   2.56511	7.46847e+06	   76.8647	   15.4374	   2.53369	7.48789e+06	   76.8139	   15.4236	   2.52022	7.54493e+06	      76.8	    15.451	   2.54695	7.52685e+06	   76.8568	   15.4535	    2.5494	7.47624e+06	   76.8393	   15.4305	   2.52695	7.51496e+06	    76.807	   15.4373	   2.53358	7.53399e+06	   76.8245	   15.4604	   2.55603	7.49635e+06	
         R10	   1839	   76.9046	   15.4838	   2.57885	7.43061e+06	   76.9214	   15.4502	   2.54616	7.44739e+06	   76.8647	   15.4374	   2.53369	7.49015e+06	    76.849	   15.4697	   2.56511	 7.4685e+06	    76.913	    15.467	   2.56251	7.43731e+06	   76.8931	   15.4438	   2.53992	 7.4675e+06	   76.8568	   15.4535	    2.5494	 7.4773e+06	   76.8768	   15.4768	   2.57198	 7.4483e+06	
         R10	   1840	   76.9637	   15.4977	   2.59232	 7.4017e+06	   76.9779	    15.463	   2.55856	7.39603e+06	   76.9214	   15.4502	   2.54616	7.44324e+06	   76.9046	   15.4838	   2.57885	7.42015e+06	   76.9708	   15.4803	   2.57544	7.39734e+06	   76.9496	   15.4566	   2.55236	7.41849e+06	    76.913	    15.467	   2.56251	7.43006e+06	   76.9342	   15.4907	   2.58559	7.41029e+06	
         R10	   1841	   77.1873	   15.4685	   2.56395	7.32528e+06	   77.1108	   15.4427	   2.53889	7.37483e+06	   77.0895	   15.4913	   2.58613	7.36337e+06	   77.1339	   15.4998	   2.59444	7.34682e+06	    77.149	   15.4556	   2.55142	7.34928e+06	   77.1002	    15.467	   2.56251	7.36613e+06	   77.1117	   15.4956	   2.59029	7.35494e+06	   77.1606	   15.4842	    2.5792	7.33359e+06	
         R10	   1842	   76.9299	   15.6115	   2.70308	7.22726e+06	   77.0095	   15.6124	   2.70397	7.21519e+06	   77.0134	   15.5451	    2.6385	7.37216e+06	   76.9333	   15.5636	   2.65648	7.29992e+06	   76.9697	    15.612	   2.70352	7.21972e+06	   77.0114	   15.5788	   2.67124	7.29272e+06	   76.9734	   15.5544	   2.64749	7.33389e+06	   76.9316	   15.5875	   2.67978	7.26335e+06	
         R10	   1843	   77.0546	   15.7639	   2.85139	6.82451e+06	   77.0823	    15.684	   2.77362	7.00952e+06	    77.007	   15.6769	   2.76674	7.04658e+06	   76.9992	   15.7251	   2.81362	6.75626e+06	   77.0685	    15.724	    2.8125	6.91572e+06	   77.0447	   15.6805	   2.77018	7.02722e+06	   77.0031	    15.701	   2.79018	6.90128e+06	   77.0269	   15.7445	    2.8325	6.78749e+06	
         R10	   1844	   76.6976	   15.6778	   2.76758	6.89071e+06	   76.6658	   15.7372	   2.82535	6.58731e+06	   76.7579	   15.7397	   2.82783	6.62085e+06	   76.7597	   15.6903	   2.77973	6.86248e+06	   76.6817	   15.7075	   2.79646	6.73868e+06	   76.7119	   15.7384	   2.82659	6.60118e+06	   76.7588	    15.715	   2.80378	6.74116e+06	   76.7286	    15.684	   2.77365	6.87516e+06	
         R10	   1845	   76.7748	   15.5793	   2.67176	7.27615e+06	   76.7146	   15.5843	   2.67665	7.22608e+06	   76.7276	   15.6287	   2.71979	7.10913e+06	   76.7811	   15.6301	   2.72114	 7.1247e+06	   76.7447	   15.5818	   2.67421	 7.2494e+06	   76.7211	   15.6065	   2.69822	 7.1672e+06	   76.7544	   15.6294	   2.72046	7.11589e+06	    76.778	   15.6047	   2.69645	7.20009e+06	
         R10	   1846	   76.7472	   15.5375	   2.63107	7.38329e+06	    76.698	   15.5469	   2.64022	7.32758e+06	   76.7146	   15.5843	   2.67665	7.24019e+06	   76.7748	   15.5793	   2.67176	7.27244e+06	   76.7226	   15.5422	   2.63564	 7.3537e+06	   76.7063	   15.5656	   2.65844	7.28337e+06	   76.7447	   15.5818	   2.67421	 7.2545e+06	    76.761	   15.5584	   2.65141	 7.3271e+06	
         R10	   1847	   76.6634	    15.517	   2.61118	7.41434e+06	    76.648	   15.4954	   2.59012	7.54692e+06	   76.6247	   15.5164	   2.61056	7.41377e+06	   76.6486	   15.5495	   2.64276	7.28473e+06	   76.6557	   15.5062	   2.60065	7.48008e+06	   76.6363	   15.5059	   2.60034	7.47941e+06	   76.6366	    15.533	   2.62666	7.34801e+06	    76.656	   15.5333	   2.62697	7.34907e+06	
         R10	   1848	   76.7069	   15.4873	   2.58226	7.50209e+06	   76.6793	    15.489	   2.58393	7.53056e+06	   76.6856	   15.5145	   2.60875	  7.454e+06	   76.7195	     15.51	    2.6043	7.44683e+06	   76.6931	   15.4882	    2.5831	 7.5157e+06	   76.6825	   15.5018	   2.59634	7.49183e+06	   76.7026	   15.5123	   2.60653	7.44925e+06	   76.7132	   15.4986	   2.59328	7.47402e+06	
         R10	   1849	    76.728	   15.4633	    2.5589	7.59326e+06	    76.699	   15.4673	   2.56276	7.55869e+06	   76.7069	   15.4873	   2.58226	7.53851e+06	   76.7356	   15.4816	   2.57665	7.49907e+06	   76.7135	   15.4653	   2.56083	7.57469e+06	    76.703	   15.4773	   2.57251	7.54801e+06	   76.7213	   15.4844	   2.57945	7.51752e+06	   76.7318	   15.4724	   2.56777	7.54593e+06	
         R10	   1850	   76.8292	   15.5008	   2.59536	7.43945e+06	    76.849	   15.4697	   2.56511	7.46886e+06	      76.8	    15.451	   2.54695	7.52316e+06	   76.7847	   15.4802	   2.57532	7.48815e+06	   76.8391	   15.4852	   2.58023	7.45267e+06	   76.8245	   15.4604	   2.55603	7.49476e+06	   76.7923	   15.4656	   2.56113	7.50395e+06	   76.8069	   15.4905	   2.58534	7.46244e+06	
         R10	   1851	   76.8817	   15.5173	   2.61145	7.39602e+06	   76.9046	   15.4838	   2.57885	 7.4276e+06	    76.849	   15.4697	   2.56511	7.46827e+06	   76.8292	   15.5008	   2.59536	7.43355e+06	   76.8931	   15.5006	   2.59515	7.41036e+06	   76.8768	   15.4768	   2.57198	7.44665e+06	   76.8391	   15.4852	   2.58023	 7.4494e+06	   76.8554	   15.5091	    2.6034	7.41377e+06	
         R10	   1852	   76.7811	   15.6301	   2.72114	  7.126e+06	   76.7276	   15.6287	   2.71979	7.09507e+06	   76.6976	   15.6778	   2.76758	6.90984e+06	   76.7597	   15.6903	   2.77973	6.87464e+06	   76.7544	   15.6294	   2.72046	7.10962e+06	   76.7126	   15.6532	   2.74368	 7.0023e+06	   76.7286	    15.684	   2.77365	6.89084e+06	   76.7704	   15.6602	   2.75043	6.99998e+06	
         R10	   1853	   76.8526	   15.6219	   2.71322	7.16811e+06	   76.7811	   15.6301	   2.72114	7.12063e+06	   76.7597	   15.6903	   2.77973	6.88224e+06	   76.8456	   15.6806	   2.77036	6.96649e+06	   76.8169	    15.626	   2.71718	7.14286e+06	   76.7704	   15.6602	   2.75043	 7.0011e+06	   76.8026	   15.6855	   2.77505	6.92249e+06	   76.8491	   15.6513	   2.74179	7.06699e+06	
         R10	   1854	   76.7356	   15.4816	   2.57665	7.52648e+06	   76.7069	   15.4873	   2.58226	7.51039e+06	   76.7195	     15.51	    2.6043	7.44761e+06	   76.7614	   15.5042	   2.59867	7.44623e+06	   76.7213	   15.4844	   2.57945	7.51729e+06	   76.7132	   15.4986	   2.59328	7.47852e+06	   76.7405	   15.5071	   2.60149	7.44528e+06	   76.7485	   15.4929	   2.58766	7.48572e+06	
         R10	   1855	   76.8491	   15.5689	   2.66163	7.30378e+06	   76.8817	   15.5173	   2.61145	7.40895e+06	   76.8292	   15.5008	   2.59536	7.44204e+06	   76.7988	   15.5275	   2.62134	7.40414e+06	   76.8654	   15.5431	   2.63654	7.35486e+06	   76.8554	   15.5091	    2.6034	7.42458e+06	    76.814	   15.5141	   2.60835	7.42169e+06	   76.8239	   15.5482	   2.64149	7.35284e+06	
         R10	   1856	    77.085	   15.5505	   2.64376	7.30958e+06	   77.1725	    15.549	   2.64227	7.31814e+06	   77.1339	   15.4998	   2.59444	7.35095e+06	   77.0895	   15.4913	   2.58613	7.35201e+06	   77.1288	   15.5498	   2.64302	7.31228e+06	   77.1532	   15.5244	   2.61835	7.33377e+06	   77.1117	   15.4956	   2.59029	7.35117e+06	   77.0872	   15.5209	   2.61495	7.32948e+06	
         R10	   1857	   77.0134	   15.5451	    2.6385	7.31928e+06	    77.085	   15.5505	   2.64376	7.33098e+06	   77.0895	   15.4913	   2.58613	7.35558e+06	   77.0345	   15.4782	   2.57334	7.39497e+06	   77.0492	   15.5478	   2.64113	7.32422e+06	   77.0872	   15.5209	   2.61495	7.34198e+06	    77.062	   15.4847	   2.57974	7.37467e+06	    77.024	   15.5116	   2.60592	7.35439e+06	
         R10	   1858	   77.0345	   15.4782	   2.57334	7.40749e+06	   76.9779	    15.463	   2.55856	7.41674e+06	   76.9637	   15.4977	   2.59232	7.40871e+06	   77.0134	   15.5451	    2.6385	7.33415e+06	   77.0062	   15.4706	   2.56595	7.41178e+06	   76.9708	   15.4803	   2.57544	7.41114e+06	   76.9886	   15.5214	   2.61541	7.37064e+06	    77.024	   15.5116	   2.60592	7.36807e+06	
         R10	   1859	   76.9637	   15.4977	   2.59232	7.40791e+06	   76.9046	   15.4838	   2.57885	7.42285e+06	   76.8817	   15.5173	   2.61145	7.40787e+06	   76.9325	   15.5221	    2.6161	7.38784e+06	   76.9342	   15.4907	   2.58559	 7.4147e+06	   76.8931	   15.5006	   2.59515	7.41387e+06	   76.9071	   15.5197	   2.61378	 7.3967e+06	   76.9481	   15.5099	   2.60421	7.39717e+06	
         R10	   1860	   76.9333	   15.5636	   2.65648	7.30704e+06	   77.0134	   15.5451	    2.6385	7.32689e+06	   76.9637	   15.4977	   2.59232	7.40478e+06	   76.9325	   15.5221	    2.6161	 7.3675e+06	   76.9734	   15.5544	   2.64749	7.31418e+06	   76.9886	   15.5214	   2.61541	7.36519e+06	   76.9481	   15.5099	   2.60421	7.38515e+06	   76.9329	   15.5429	   2.63629	 7.3366e+06	
         R10	   1861	   76.8817	   15.5173	   2.61145	7.39761e+06	   76.8491	   15.5689	   2.66163	7.30668e+06	   76.9333	   15.5636	   2.65648	7.32669e+06	   76.9325	   15.5221	    2.6161	7.38807e+06	   76.8654	   15.5431	   2.63654	7.35059e+06	   76.8912	   15.5663	   2.65906	7.31428e+06	   76.9329	   15.5429	   2.63629	7.35683e+06	   76.9071	   15.5197	   2.61378	7.39168e+06	
         R10	   1862	   76.9485	   15.7881	   2.87489	6.62047e+06	   77.0546	   15.7639	   2.85139	6.81134e+06	   76.9992	   15.7251	   2.81362	6.81363e+06	   76.9302	   15.7289	   2.81727	6.73617e+06	   77.0015	    15.776	   2.86314	6.71573e+06	   77.0269	   15.7445	    2.8325	6.80944e+06	   76.9647	    15.727	   2.81545	6.77404e+06	   76.9393	   15.7585	   2.84608	6.67333e+06	
         R10	   1863	   76.9302	   15.7289	   2.81727	6.82461e+06	   76.9992	   15.7251	   2.81362	6.85078e+06	    77.007	   15.6769	   2.76674	7.04714e+06	   76.9279	   15.6741	   2.76403	7.00392e+06	   76.9647	    15.727	   2.81545	6.83697e+06	   77.0031	    15.701	   2.79018	6.94837e+06	   76.9674	   15.6755	   2.76539	7.02376e+06	    76.929	   15.7015	   2.79065	6.91347e+06	
         R10	   1864	   76.9279	   15.6741	   2.76403	7.02077e+06	    77.007	   15.6769	   2.76674	7.03391e+06	   77.0095	   15.6124	   2.70397	7.22394e+06	   76.9299	   15.6115	   2.70308	 7.2127e+06	   76.9674	   15.6755	   2.76539	7.02624e+06	   77.0082	   15.6447	   2.73536	7.12866e+06	   76.9697	    15.612	   2.70352	7.21687e+06	   76.9289	   15.6428	   2.73355	7.11651e+06	
         R10	   1865	   76.8526	   15.6219	   2.71322	7.17029e+06	   76.8456	   15.6806	   2.77036	6.96606e+06	   76.9279	   15.6741	   2.76403	7.03567e+06	   76.9299	   15.6115	   2.70308	7.20192e+06	   76.8491	   15.6513	   2.74179	7.06785e+06	   76.8867	   15.6774	    2.7672	6.99941e+06	   76.9289	   15.6428	   2.73355	7.11851e+06	   76.8912	   15.6167	   2.70815	 7.1845e+06	
         R10	   1866	   76.9299	   15.6115	   2.70308	7.21895e+06	   76.9333	   15.5636	   2.65648	7.31016e+06	   76.8491	   15.5689	   2.66163	7.30991e+06	   76.8526	   15.6219	   2.71322	7.17278e+06	   76.9316	   15.5875	   2.67978	7.26428e+06	   76.8912	   15.5663	   2.65906	7.30743e+06	   76.8508	   15.5954	   2.68743	7.24096e+06	   76.8912	   15.6167	   2.70815	7.19427e+06	
         R10	   1867	   76.7811	   15.6301	   2.72114	7.13132e+06	   76.8526	   15.6219	   2.71322	7.17291e+06	   76.8491	   15.5689	   2.66163	 7.3272e+06	   76.7748	   15.5793	   2.67176	7.26431e+06	   76.8169	    15.626	   2.71718	7.15058e+06	   76.8508	   15.5954	   2.68743	7.24966e+06	    76.812	   15.5741	    2.6667	7.29324e+06	    76.778	   15.6047	   2.69645	7.19745e+06	
         R10	   1868	   76.7748	   15.5793	   2.67176	7.27474e+06	   76.8491	   15.5689	   2.66163	7.30843e+06	   76.7988	   15.5275	   2.62134	7.40045e+06	   76.7472	   15.5375	   2.63107	7.36934e+06	    76.812	   15.5741	    2.6667	7.28892e+06	   76.8239	   15.5482	   2.64149	7.35321e+06	    76.773	   15.5325	    2.6262	7.38292e+06	    76.761	   15.5584	   2.65141	7.32139e+06	
         R10	   1869	   76.6634	    15.517	   2.61118	7.40743e+06	   76.6486	   15.5495	   2.64276	7.30593e+06	    76.698	   15.5469	   2.64022	7.33956e+06	   76.6856	   15.5145	   2.60875	7.44206e+06	    76.656	   15.5333	   2.62697	7.35615e+06	   76.6733	   15.5482	   2.64149	7.32088e+06	   76.6918	   15.5307	   2.62448	7.39048e+06	   76.6745	   15.5158	   2.60997	7.42387e+06	
         R10	   1870	   76.7195	     15.51	    2.6043	7.43553e+06	   76.6856	   15.5145	   2.60875	7.45077e+06	    76.698	   15.5469	   2.64022	7.33153e+06	   76.7472	   15.5375	   2.63107	7.37579e+06	   76.7026	   15.5123	   2.60653	7.44205e+06	   76.6918	   15.5307	   2.62448	7.39053e+06	   76.7226	   15.5422	   2.63564	7.35166e+06	   76.7334	   15.5237	   2.61768	 7.4049e+06	
         R10	   1871	   76.7614	   15.5042	   2.59867	 7.4584e+06	   76.7195	     15.51	    2.6043	7.43949e+06	   76.7472	   15.5375	   2.63107	7.38618e+06	   76.7988	   15.5275	   2.62134	7.39218e+06	   76.7405	   15.5071	   2.60149	7.44695e+06	   76.7334	   15.5237	   2.61768	7.41197e+06	    76.773	   15.5325	    2.6262	7.38754e+06	   76.7801	   15.5158	   2.61001	7.42459e+06	
         R10	   1872	   76.7614	   15.5042	   2.59867	7.45023e+06	   76.7988	   15.5275	   2.62134	7.39038e+06	   76.8292	   15.5008	   2.59536	7.43375e+06	   76.7847	   15.4802	   2.57532	 7.4855e+06	   76.7801	   15.5158	   2.61001	7.41964e+06	    76.814	   15.5141	   2.60835	7.41045e+06	   76.8069	   15.4905	   2.58534	7.45831e+06	   76.7731	   15.4922	   2.58699	7.46667e+06	
         R10	   1873	   76.7563	   15.4362	   2.53248	7.60707e+06	   76.7197	   15.4447	   2.54083	7.60978e+06	    76.728	   15.4633	    2.5589	7.56133e+06	   76.7532	   15.4588	   2.55454	7.54793e+06	    76.738	   15.4405	   2.53666	 7.6054e+06	   76.7239	    15.454	   2.54987	7.58526e+06	   76.7406	   15.4611	   2.55672	7.55353e+06	   76.7548	   15.4475	   2.54351	7.57651e+06	
         R10	   1874	   76.7847	   15.4802	   2.57532	7.47862e+06	      76.8	    15.451	   2.54695	 7.5266e+06	   76.7563	   15.4362	   2.53248	7.58944e+06	   76.7532	   15.4588	   2.55454	7.56787e+06	   76.7923	   15.4656	   2.56113	7.50081e+06	   76.7781	   15.4436	   2.53971	7.55617e+06	   76.7548	   15.4475	   2.54351	7.57775e+06	    76.769	   15.4695	   2.56493	 7.5225e+06	
         R10	   1875	    76.728	   15.4633	    2.5589	7.56126e+06	   76.7356	   15.4816	   2.57665	7.52347e+06	   76.7847	   15.4802	   2.57532	7.48117e+06	   76.7532	   15.4588	   2.55454	7.54515e+06	   76.7318	   15.4724	   2.56777	7.54223e+06	   76.7601	   15.4809	   2.57598	7.49934e+06	    76.769	   15.4695	   2.56493	7.51235e+06	   76.7406	   15.4611	   2.55672	7.55208e+06	
         R10	   1876	      76.8	    15.451	   2.54695	7.52455e+06	   76.8139	   15.4236	   2.52022	7.53898e+06	   76.7727	   15.4085	   2.50555	7.62331e+06	   76.7563	   15.4362	   2.53248	 7.5931e+06	    76.807	   15.4373	   2.53358	7.52969e+06	   76.7933	    15.416	   2.51289	7.57963e+06	   76.7645	   15.4223	   2.51902	7.60515e+06	   76.7781	   15.4436	   2.53971	7.55723e+06	
         R10	   1877	   76.7332	   15.4225	   2.51916	7.64837e+06	   76.7563	   15.4362	   2.53248	7.60716e+06	   76.7727	   15.4085	   2.50555	7.61958e+06	   76.7363	   15.4007	   2.49799	7.69614e+06	   76.7448	   15.4293	   2.52582	7.62724e+06	   76.7645	   15.4223	   2.51902	7.61024e+06	   76.7545	   15.4046	   2.50177	7.65608e+06	   76.7348	   15.4116	   2.50857	7.67078e+06	
         R10	   1878	   76.7727	   15.4085	   2.50555	7.61813e+06	   76.7886	   15.3814	   2.47916	7.62931e+06	   76.7501	   15.3717	   2.46976	7.71853e+06	   76.7363	   15.4007	   2.49799	7.69823e+06	   76.7807	   15.3949	   2.49236	7.62018e+06	   76.7693	   15.3765	   2.47446	7.67225e+06	   76.7432	   15.3862	   2.48387	7.70397e+06	   76.7545	   15.4046	   2.50177	7.65641e+06	
         R10	   1879	   76.7127	   15.3819	   2.47973	7.78832e+06	   76.7124	   15.3915	   2.48907	 7.7608e+06	   76.7363	   15.4007	   2.49799	7.71162e+06	   76.7501	   15.3717	   2.46976	7.71829e+06	   76.7125	   15.3867	    2.4844	7.77376e+06	   76.7243	   15.3961	   2.49353	7.73536e+06	   76.7432	   15.3862	   2.48387	7.70936e+06	   76.7314	   15.3768	   2.47474	7.74815e+06	
         R10	   1880	    76.708	   15.3727	   2.47069	7.84205e+06	   76.7127	   15.3819	   2.47973	7.80032e+06	   76.7501	   15.3717	   2.46976	7.69309e+06	   76.7104	   15.3773	   2.47521	7.82099e+06	   76.7314	   15.3768	   2.47474	7.74165e+06	    76.729	   15.3722	   2.47022	7.76281e+06	       N/A	       N/A	       N/A	        N/A	       N/A	       N/A	       N/A	        N/A	
         R10	   1881	   76.7501	   15.3717	   2.46976	7.71431e+06	   76.7631	   15.3475	   2.44619	7.70567e+06	   76.7332	   15.3414	   2.44028	7.79098e+06	   76.7184	   15.3586	   2.45706	7.82065e+06	   76.7566	   15.3596	   2.45797	7.70627e+06	   76.7481	   15.3444	   2.44324	7.74715e+06	   76.7258	     15.35	   2.44867	7.80175e+06	   76.7342	   15.3652	   2.46341	7.76598e+06	
         R10	   1882	   76.7073	   15.3337	   2.43278	7.73599e+06	   76.6853	   15.3372	   2.43616	8.02324e+06	    76.687	   15.3486	   2.44733	7.93036e+06	   76.7028	    15.347	   2.44569	7.97246e+06	   76.6963	   15.3354	   2.43447	7.87822e+06	   76.6861	   15.3429	   2.44174	7.97528e+06	   76.6949	   15.3478	   2.44651	7.94804e+06	    76.705	   15.3403	   2.43924	7.85153e+06	
         R10	   1883	   76.7184	   15.3586	   2.45706	 7.8252e+06	   76.7332	   15.3414	   2.44028	7.79963e+06	   76.7073	   15.3337	   2.43278	7.84317e+06	   76.7028	    15.347	   2.44569	7.88736e+06	   76.7258	     15.35	   2.44867	7.80886e+06	   76.7202	   15.3375	   2.43653	7.82056e+06	    76.705	   15.3403	   2.43924	7.86447e+06	   76.7106	   15.3528	   2.45138	 7.8554e+06	
         R10	   1884	    76.687	   15.3486	   2.44733	7.99551e+06	   76.6878	    15.361	   2.45931	7.89229e+06	   76.7184	   15.3586	   2.45706	7.82182e+06	   76.7028	    15.347	   2.44569	7.84714e+06	   76.6874	   15.3548	   2.45332	7.94299e+06	   76.7031	   15.3598	   2.45819	7.85303e+06	   76.7106	   15.3528	   2.45138	7.83192e+06	   76.6949	   15.3478	   2.44651	7.92058e+06	
         R10	   1885	   76.6366	   15.4346	   2.53096	7.99129e+06	   76.6173	   15.4337	   2.53013	 7.8205e+06	    76.625	   15.4493	   2.54528	7.84498e+06	    76.627	   15.4342	   2.53054	7.90428e+06	   76.6212	   15.4415	    2.5377	7.83178e+06	   76.6308	    15.442	   2.53812	7.91717e+06	       N/A	       N/A	       N/A	        N/A	       N/A	       N/A	       N/A	        N/A	
         R10	   1886	   76.6913	   15.3977	   2.49502	7.81375e+06	   76.6861	   15.4106	   2.50766	7.82329e+06	   76.7071	   15.4092	   2.50621	7.74263e+06	   76.6887	   15.4042	   2.50134	7.81804e+06	   76.6966	   15.4099	   2.50693	7.78234e+06	   76.6992	   15.4034	   2.50062	7.77804e+06	       N/A	       N/A	       N/A	        N/A	       N/A	       N/A	       N/A	        N/A	
         R10	   1887	   76.5349	   15.4345	   2.53086	8.31721e+06	   76.5159	   15.4351	   2.53148	8.38908e+06	   76.5262	   15.4528	   2.54863	  8.049e+06	   76.5254	   15.4348	   2.53117	 8.3529e+06	    76.521	   15.4439	   2.54005	8.21866e+06	   76.5305	   15.4436	   2.53974	8.18305e+06	       N/A	       N/A	       N/A	        N/A	       N/A	       N/A	       N/A	        N/A	
         R10	   1888	      76.6	   15.4477	   2.54374	7.88993e+06	   76.6035	   15.4339	   2.53032	8.08378e+06	   76.5856	    15.434	   2.53033	 7.9836e+06	   76.6018	   15.4408	   2.53703	7.98618e+06	   76.5945	   15.4339	   2.53033	8.03298e+06	   76.5928	   15.4408	   2.53703	7.93565e+06	       N/A	       N/A	       N/A	        N/A	       N/A	       N/A	       N/A	        N/A	
         R10	   1889	   76.7113	   15.4257	   2.52233	7.68125e+06	   76.6864	   15.4209	   2.51764	 7.7792e+06	   76.6916	   15.4354	   2.53179	7.79384e+06	   76.6989	   15.4233	   2.51998	7.72967e+06	    76.689	   15.4282	   2.52471	7.78568e+06	   76.7014	   15.4306	   2.52706	7.73519e+06	       N/A	       N/A	       N/A	        N/A	       N/A	       N/A	       N/A	        N/A	
         R10	   1890	   76.6976	   15.6778	   2.76758	6.89455e+06	   76.6226	   15.6845	   2.77408	6.78589e+06	   76.6658	   15.7372	   2.82535	6.65919e+06	   76.6601	   15.6811	   2.77083	6.83854e+06	   76.6442	   15.7108	   2.79971	6.72026e+06	   76.6817	   15.7075	   2.79646	6.77639e+06	       N/A	       N/A	       N/A	        N/A	       N/A	       N/A	       N/A	        N/A	
         R10	   1891	      76.6	   15.4477	   2.54374	7.92645e+06	   76.5732	    15.448	   2.54395	7.94243e+06	    76.587	   15.4648	   2.56036	7.74853e+06	   76.5866	   15.4478	   2.54384	7.93254e+06	   76.5801	   15.4564	   2.55216	7.84465e+06	   76.5935	   15.4563	   2.55205	7.83685e+06	       N/A	       N/A	       N/A	        N/A	       N/A	       N/A	       N/A	        N/A	
         R10	   1892	   76.6255	   15.4665	     2.562	7.70114e+06	    76.587	   15.4648	   2.56036	7.75742e+06	   76.6065	   15.4869	   2.58183	7.58079e+06	   76.6062	   15.4657	   2.56118	7.72698e+06	   76.5967	   15.4758	    2.5711	7.66776e+06	    76.616	   15.4767	   2.57191	7.64027e+06	       N/A	       N/A	       N/A	        N/A	       N/A	       N/A	       N/A	        N/A	
         R10	   1893	    76.648	   15.4954	   2.59012	7.52635e+06	   76.6065	   15.4869	   2.58183	7.58379e+06	   76.6247	   15.5164	   2.61056	7.43221e+06	   76.6272	   15.4911	   2.58597	7.55246e+06	   76.6156	   15.5016	    2.5962	7.50706e+06	   76.6363	   15.5059	   2.60034	7.47822e+06	       N/A	       N/A	       N/A	        N/A	       N/A	       N/A	       N/A	        N/A	
         R10	   1894	   76.7276	   15.6287	   2.71979	 7.0956e+06	   76.6694	   15.6294	    2.7205	7.03998e+06	   76.6976	   15.6778	   2.76758	6.90409e+06	   76.6985	    15.629	   2.72014	7.06651e+06	   76.6835	   15.6536	   2.74404	6.97104e+06	   76.7126	   15.6532	   2.74368	6.99962e+06	       N/A	       N/A	       N/A	        N/A	       N/A	       N/A	       N/A	        N/A	
         R10	   1895	   76.6853	   15.3372	   2.43616	7.91424e+06	   76.7073	   15.3337	   2.43278	7.83987e+06	   76.6868	   15.3242	   2.42351	7.92603e+06	   76.6963	   15.3354	   2.43447	7.87366e+06	   76.6971	   15.3289	   2.42815	7.88085e+06	    76.686	   15.3307	   2.42983	7.91821e+06	       N/A	       N/A	       N/A	        N/A	       N/A	       N/A	       N/A	        N/A	
         R10	   1896	   76.7847	   15.4802	   2.57532	 7.4936e+06	   76.7356	   15.4816	   2.57665	7.51813e+06	   76.7614	   15.5042	   2.59867	 7.4447e+06	   76.7601	   15.4809	   2.57598	7.50363e+06	   76.7485	   15.4929	   2.58766	7.48088e+06	   76.7731	   15.4922	   2.58699	7.46784e+06	       N/A	       N/A	       N/A	        N/A	       N/A	       N/A	       N/A	        N/A	
         R10	   1897	   77.1339	   15.4998	   2.59444	7.32519e+06	   77.1725	    15.549	   2.64227	7.27513e+06	   77.1873	   15.4685	   2.56395	 7.3867e+06	   77.1532	   15.5244	   2.61835	7.29949e+06	   77.1799	   15.5088	   2.60311	7.32738e+06	   77.1606	   15.4842	    2.5792	7.35413e+06	       N/A	       N/A	       N/A	        N/A	       N/A	       N/A	       N/A	        N/A	
         R10	   1898	    76.708	   15.3727	   2.47069	7.83464e+06	   76.7501	   15.3717	   2.46976	7.69591e+06	   76.7184	   15.3586	   2.45706	7.82922e+06	    76.729	   15.3722	   2.47022	7.76071e+06	   76.7342	   15.3652	   2.46341	7.76068e+06	   76.7132	   15.3657	   2.46388	7.82959e+06	       N/A	       N/A	       N/A	        N/A	       N/A	       N/A	       N/A	        N/A	
         R10	   1899	    77.535	   15.3659	   2.46416	7.24421e+06	   77.5234	      15.3	       2.4	7.41708e+06	   77.4288	      15.3	       2.4	 7.3069e+06	   77.4369	     15.36	   2.45841	7.30997e+06	   77.5292	    15.333	   2.43208	 7.3191e+06	   77.4761	      15.3	       2.4	7.36146e+06	   77.4329	     15.33	    2.4292	7.29973e+06	   77.4859	    15.363	   2.46128	7.27544e+06	
         R10	   1900	   77.6461	   15.3829	   2.48063	7.21685e+06	   77.6336	      15.3	       2.4	7.38224e+06	   77.5234	      15.3	       2.4	7.30707e+06	    77.535	   15.3659	   2.46416	7.25978e+06	   77.6399	   15.3414	   2.44032	7.28087e+06	   77.5785	      15.3	       2.4	7.34405e+06	   77.5292	    15.333	   2.43208	7.27375e+06	   77.5906	   15.3744	   2.47239	7.23641e+06	
         R10	   1901	   77.7668	   15.3978	   2.49511	7.16995e+06	   77.7596	      15.3	       2.4	7.35806e+06	   77.6336	      15.3	       2.4	7.28414e+06	   77.6461	   15.3829	   2.48063	7.23353e+06	   77.7632	   15.3489	   2.44756	7.24016e+06	   77.6966	      15.3	       2.4	 7.3207e+06	   77.6399	   15.3414	   2.44032	7.24334e+06	   77.7065	   15.3903	   2.48787	7.19968e+06	
         R10	   1902	   77.9083	   15.4097	   2.50673	7.11919e+06	   77.9013	      15.3	       2.4	7.32376e+06	   77.7596	      15.3	       2.4	7.25426e+06	   77.7668	   15.3978	   2.49511	7.18043e+06	   77.9048	   15.3548	   2.45337	7.19217e+06	   77.8304	      15.3	       2.4	 7.2886e+06	   77.7632	   15.3489	   2.44756	7.19613e+06	   77.8376	   15.4037	   2.50092	 7.1469e+06	
         R10	   1903	   78.0655	   15.4217	   2.51837	7.03094e+06	   78.0586	      15.3	       2.4	7.31313e+06	   77.9013	      15.3	       2.4	7.18539e+06	   77.9083	   15.4097	   2.50673	7.14859e+06	   78.0621	   15.3608	   2.45918	7.13561e+06	     77.98	      15.3	       2.4	7.24874e+06	   77.9048	   15.3548	   2.45337	7.13919e+06	   77.9869	   15.4157	   2.51255	7.08406e+06	
         R10	   1904	   78.2392	    15.433	   2.52945	7.00569e+06	   78.2317	      15.3	       2.4	7.27768e+06	   78.0586	      15.3	       2.4	7.13399e+06	   78.0655	   15.4217	   2.51837	 7.0881e+06	   78.2355	   15.3665	   2.46473	7.10269e+06	   78.1452	      15.3	       2.4	7.20545e+06	   78.0621	   15.3608	   2.45918	7.07874e+06	   78.1524	   15.4274	   2.52391	7.04212e+06	
         R10	   1905	   78.4287	   15.4423	   2.53842	6.89398e+06	   78.4205	      15.3	       2.4	7.24828e+06	   78.2317	      15.3	       2.4	7.05391e+06	   78.2392	    15.433	   2.52945	7.04706e+06	   78.4246	   15.3711	   2.46921	7.02832e+06	   78.3261	      15.3	       2.4	7.15072e+06	   78.2355	   15.3665	   2.46473	7.01414e+06	    78.334	   15.4377	   2.53393	6.96453e+06	
         R10	   1906	    78.625	   15.4468	   2.54279	 6.7559e+06	    78.625	      15.3	       2.4	 7.2558e+06	   78.4205	      15.3	       2.4	6.95072e+06	   78.4287	   15.4423	   2.53842	7.04676e+06	    78.625	   15.3734	    2.4714	6.95681e+06	   78.5228	      15.3	       2.4	7.10171e+06	   78.4246	   15.3711	   2.46921	6.95273e+06	   78.5268	   15.4445	    2.5406	6.89103e+06	
         R10	   1907	    78.625	   15.5984	   2.69034	6.91075e+06	    78.625	   15.4468	   2.54279	6.74896e+06	   78.4287	   15.4423	   2.53842	 7.0327e+06	   78.4182	   15.5985	    2.6904	6.83965e+06	    78.625	   15.5226	   2.61657	6.81916e+06	   78.5268	   15.4445	    2.5406	6.88389e+06	   78.4234	   15.5204	   2.61441	6.92391e+06	   78.5216	   15.5984	   2.69037	6.86446e+06	
         R10	   1908	   78.4134	   15.7495	   2.83738	6.78839e+06	    78.625	    15.755	   2.84265	6.45597e+06	    78.625	   15.5984	   2.69034	6.90156e+06	   78.4182	   15.5985	    2.6904	 6.8188e+06	   78.5192	   15.7522	   2.84002	6.58748e+06	    78.625	   15.6767	    2.7665	6.67637e+06	   78.5216	   15.5984	   2.69037	6.85034e+06	   78.4158	    15.674	   2.76389	6.80133e+06	
         R10	   1909	   78.4076	   15.9164	   2.99973	6.23827e+06	    78.625	   15.9164	   2.99973	6.20294e+06	    78.625	    15.755	   2.84265	6.47872e+06	   78.4134	   15.7495	   2.83738	6.76265e+06	   78.5163	   15.9164	   2.99973	6.21742e+06	    78.625	   15.8357	   2.92119	6.30682e+06	   78.5192	   15.7522	   2.84002	6.58909e+06	   78.4105	    15.833	   2.91855	6.47389e+06	
         R10	   1910	   78.2069	   15.9164	   2.99973	6.28166e+06	   78.4076	   15.9164	   2.99973	6.24367e+06	   78.4134	   15.7495	   2.83738	6.54369e+06	   78.2173	   15.7536	   2.84131	6.74484e+06	   78.3073	   15.9164	   2.99973	6.26002e+06	   78.4105	    15.833	   2.91855	6.36667e+06	   78.3154	   15.7515	   2.83935	6.62279e+06	   78.2121	    15.835	   2.92052	 6.4902e+06	
         R10	   1911	   78.0389	   15.7778	   2.86486	6.68805e+06	   78.0226	   15.9164	   2.99973	6.33807e+06	   78.2069	   15.9164	   2.99973	6.29021e+06	   78.2173	   15.7536	   2.84131	6.58607e+06	   78.0308	   15.8471	   2.93229	6.49637e+06	   78.1147	   15.9164	   2.99973	6.31165e+06	   78.2121	    15.835	   2.92052	6.41436e+06	   78.1281	   15.7657	   2.85308	6.62225e+06	
         R10	   1912	   77.8625	   15.8044	   2.89073	6.65946e+06	    77.855	   15.9164	   2.99973	6.37735e+06	   78.0226	   15.9164	   2.99973	6.33378e+06	   78.0389	   15.7778	   2.86486	6.51293e+06	   77.8588	   15.8604	   2.94523	 6.5052e+06	   77.9388	   15.9164	   2.99973	6.35359e+06	   78.0308	   15.8471	   2.93229	6.40509e+06	   77.9507	   15.7911	    2.8778	6.57697e+06	
         R10	   1913	   77.7119	   15.8164	    2.9024	6.63268e+06	   77.7039	   15.9164	   2.99973	6.40215e+06	    77.855	   15.9164	   2.99973	6.37172e+06	   77.8625	   15.8044	   2.89073	6.49211e+06	   77.7079	   15.8664	   2.95106	6.50517e+06	   77.7794	   15.9164	   2.99973	6.38553e+06	   77.8588	   15.8604	   2.94523	6.41555e+06	   77.7872	   15.8104	   2.89657	6.55692e+06	
         R10	   1914	   77.5781	   15.8274	   2.91317	 6.5733e+06	   77.5694	   15.9164	   2.99973	6.41747e+06	   77.7039	   15.9164	   2.99973	6.40113e+06	   77.7119	   15.8164	    2.9024	6.50172e+06	   77.5737	   15.8719	   2.95645	6.48431e+06	   77.6366	   15.9164	   2.99973	6.40833e+06	   77.7079	   15.8664	   2.95106	6.43593e+06	    77.645	   15.8219	   2.90778	6.53423e+06	
         R10	   1915	   77.4595	   15.8359	   2.92146	6.51063e+06	   77.4514	   15.9164	   2.99973	6.43586e+06	   77.5694	   15.9164	   2.99973	6.42322e+06	   77.5781	   15.8274	   2.91317	6.49452e+06	   77.4555	   15.8762	   2.96059	6.46172e+06	   77.5104	   15.9164	   2.99973	6.42874e+06	   77.5737	   15.8719	   2.95645	6.44519e+06	   77.5188	   15.8317	   2.91731	6.50092e+06	
         R10	   1916	     77.35	   15.8382	   2.92363	6.48726e+06	     77.35	   15.9164	   2.99973	6.41669e+06	   77.4514	   15.9164	   2.99973	6.42699e+06	   77.4595	   15.8359	   2.92146	6.46979e+06	     77.35	   15.8773	   2.96168	6.43845e+06	   77.4007	   15.9164	   2.99973	6.42142e+06	   77.4555	   15.8762	   2.96059	6.43469e+06	   77.4048	   15.8371	   2.92254	6.47758e+06	
         R10	   1917	     77.35	   15.7624	   2.84989	6.78758e+06	     77.35	   15.8382	   2.92363	6.65465e+06	   77.4595	   15.8359	   2.92146	6.63603e+06	   77.4446	   15.7697	   2.85703	6.75654e+06	     77.35	   15.8003	   2.88676	 6.7153e+06	   77.4048	   15.8371	   2.92254	6.64459e+06	   77.4521	   15.8028	   2.88924	 6.6921e+06	   77.3973	   15.7661	   2.85346	6.77126e+06	
         R10	   1918	   77.4464	   15.6844	     2.774	7.03081e+06	     77.35	    15.689	   2.77853	7.00455e+06	     77.35	   15.7624	   2.84989	6.86537e+06	   77.4446	   15.7697	   2.85703	6.82657e+06	   77.3982	   15.6867	   2.77626	 7.0172e+06	     77.35	   15.7257	   2.81421	6.93428e+06	   77.3973	   15.7661	   2.85346	6.84508e+06	   77.4455	   15.7271	   2.81551	6.92691e+06	
         R10	   1919	   77.4567	   15.6263	   2.71744	 7.1454e+06	     77.35	   15.6181	   2.70953	7.17399e+06	     77.35	    15.689	   2.77853	7.08286e+06	   77.4464	   15.6844	     2.774	7.05901e+06	   77.4034	   15.6222	   2.71348	7.15904e+06	     77.35	   15.6536	   2.74403	7.12838e+06	   77.3982	   15.6867	   2.77626	7.06988e+06	   77.4516	   15.6553	   2.74572	 7.1021e+06	
         R10	   1920	   77.4621	    15.546	   2.63932	7.23022e+06	     77.35	   15.5496	   2.64289	7.25553e+06	     77.35	   15.6181	   2.70953	 7.1907e+06	   77.4567	   15.6263	   2.71744	7.14901e+06	    77.406	   15.5478	    2.6411	7.24181e+06	     77.35	   15.5839	   2.67621	7.22265e+06	   77.4034	   15.6222	   2.71348	 7.1691e+06	   77.4594	   15.5861	   2.67838	7.18858e+06	
         R10	   1921	   77.4647	   15.4849	   2.57988	7.27346e+06	     77.35	   15.4836	   2.57862	7.27851e+06	     77.35	   15.5496	   2.64289	7.27487e+06	   77.4621	    15.546	   2.63932	7.22107e+06	   77.4073	   15.4842	   2.57925	7.27491e+06	     77.35	   15.5166	   2.61075	7.27477e+06	    77.406	   15.5478	    2.6411	7.24651e+06	   77.4634	   15.5154	    2.6096	7.24545e+06	
         R10	   1922	    77.448	   15.4252	   2.52185	7.26384e+06	     77.35	     15.42	   2.51671	7.29501e+06	     77.35	   15.4836	   2.57862	7.28522e+06	   77.4647	   15.4849	   2.57988	7.26397e+06	    77.399	   15.4226	   2.51928	 7.2787e+06	     77.35	   15.4518	   2.54767	 7.2861e+06	   77.4073	   15.4842	   2.57925	7.27327e+06	   77.4564	   15.4551	   2.55086	7.26059e+06	
         R10	   1923	   77.4369	     15.36	   2.45841	7.28365e+06	   77.4288	      15.3	       2.4	7.38427e+06	     77.35	      15.3	       2.4	7.36224e+06	     77.35	   15.3588	   2.45717	7.31841e+06	   77.4329	     15.33	    2.4292	 7.3242e+06	   77.3894	      15.3	       2.4	7.37265e+06	     77.35	   15.3294	   2.42859	7.33144e+06	   77.3934	   15.3594	   2.45779	7.29975e+06	
         R10	   1924	   77.7441	   15.4988	   2.59345	7.16435e+06	   77.7668	   15.3978	   2.49511	7.16956e+06	   77.6461	   15.3829	   2.48063	7.23993e+06	   77.5903	    15.466	   2.56151	7.20739e+06	   77.7554	   15.4483	   2.54428	7.15598e+06	   77.7065	   15.3903	   2.48787	7.20238e+06	   77.6182	   15.4244	   2.52107	 7.2137e+06	   77.6672	   15.4824	   2.57748	7.18413e+06	
         R10	   1925	   77.9041	   15.5057	   2.60015	7.08132e+06	   77.9083	   15.4097	   2.50673	 7.1145e+06	   77.7668	   15.3978	   2.49511	7.18963e+06	   77.7441	   15.4988	   2.59345	7.16487e+06	   77.9062	   15.4577	   2.55344	7.08652e+06	   77.8376	   15.4037	   2.50092	7.14858e+06	   77.7554	   15.4483	   2.54428	7.16687e+06	   77.8241	   15.5023	    2.5968	7.12089e+06	
         R10	   1926	   78.0401	   15.5177	   2.61179	7.06964e+06	   78.0655	   15.4217	   2.51837	7.02021e+06	   77.9083	   15.4097	   2.50673	7.11818e+06	   77.9041	   15.5057	   2.60015	7.12252e+06	   78.0528	   15.4697	   2.56508	7.03857e+06	   77.9869	   15.4157	   2.51255	7.06496e+06	   77.9062	   15.4577	   2.55344	 7.1095e+06	   77.9721	   15.5117	   2.60597	7.09425e+06	
         R10	   1927	   78.2139	   15.6009	   2.69277	6.97712e+06	   78.2392	    15.433	   2.52945	7.03083e+06	   78.0655	   15.4217	   2.51837	7.11457e+06	   78.0401	   15.5177	   2.61179	6.97446e+06	   78.2266	    15.517	   2.61111	6.99193e+06	   78.1524	   15.4274	   2.52391	7.06739e+06	   78.0528	   15.4697	   2.56508	7.03727e+06	    78.127	   15.5593	   2.65228	 6.9676e+06	
         R10	   1928	   78.4182	   15.5985	    2.6904	6.91499e+06	   78.4287	   15.4423	   2.53842	6.89218e+06	   78.2392	    15.433	   2.52945	7.06281e+06	   78.2139	   15.6009	   2.69277	6.90628e+06	   78.4234	   15.5204	   2.61441	6.89201e+06	    78.334	   15.4377	   2.53393	6.96941e+06	   78.2266	    15.517	   2.61111	6.97246e+06	    78.316	   15.5997	   2.69159	6.90433e+06	
         R10	   1929	   78.2173	   15.7536	   2.84131	6.78287e+06	   78.4134	   15.7495	   2.83738	6.55132e+06	   78.4182	   15.5985	    2.6904	6.90826e+06	   78.2139	   15.6009	   2.69277	6.90676e+06	   78.3154	   15.7515	   2.83935	6.64342e+06	   78.4158	    15.674	   2.76389	 6.7288e+06	    78.316	   15.5997	   2.69159	 6.9002e+06	   78.2156	   15.6772	   2.76704	6.84264e+06	
         R10	   1930	   78.0074	   15.6669	   2.75699	6.75596e+06	   78.0389	   15.7778	   2.86486	6.81834e+06	   78.2173	   15.7536	   2.84131	 6.6691e+06	   78.2139	   15.6009	   2.69277	6.98838e+06	   78.0231	   15.7223	   2.81093	6.78315e+06	   78.1281	   15.7657	   2.85308	6.72654e+06	   78.2156	   15.6772	   2.76704	6.82762e+06	   78.1106	   15.6339	   2.72488	6.86846e+06	
         R10	   1931	   77.8352	   15.7036	   2.79265	6.81144e+06	   77.8625	   15.8044	   2.89073	6.80555e+06	   78.0389	   15.7778	   2.86486	6.67064e+06	   78.0074	   15.6669	   2.75699	6.87177e+06	   77.8489	    15.754	   2.84169	6.80092e+06	   77.9507	   15.7911	    2.8778	6.72783e+06	   78.0231	   15.7223	   2.81093	6.77039e+06	   77.9213	   15.6852	   2.77482	6.83928e+06	
         R10	   1932	   77.6965	   15.7162	   2.80499	6.86201e+06	   77.7119	   15.8164	    2.9024	6.77697e+06	   77.8625	   15.8044	   2.89073	6.61146e+06	   77.8352	   15.7036	   2.79265	6.85764e+06	   77.7042	   15.7663	   2.85369	6.81295e+06	   77.7872	   15.8104	   2.89657	 6.6885e+06	   77.8489	    15.754	   2.84169	6.73119e+06	   77.7658	   15.7099	   2.79882	6.85852e+06	
         R10	   1933	   77.5637	   15.7262	   2.81465	 6.8758e+06	   77.5781	   15.8274	   2.91317	6.72058e+06	   77.7119	   15.8164	    2.9024	6.64163e+06	   77.6965	   15.7162	   2.80499	6.86211e+06	   77.5709	   15.7768	   2.86391	6.79268e+06	    77.645	   15.8219	   2.90778	6.67818e+06	   77.7042	   15.7663	   2.85369	 6.7483e+06	   77.6301	   15.7212	   2.80982	6.86764e+06	
         R10	   1934	   77.4446	   15.7697	   2.85703	6.70093e+06	   77.4595	   15.8359	   2.92146	6.75256e+06	   77.5781	   15.8274	   2.91317	6.65608e+06	   77.5637	   15.7262	   2.81465	6.85002e+06	   77.4521	   15.8028	   2.88924	6.72124e+06	   77.5188	   15.8317	   2.91731	6.70145e+06	   77.5709	   15.7768	   2.86391	6.74891e+06	   77.5042	   15.7479	   2.83584	6.77542e+06	
         R10	   1935	   77.5613	   15.5448	   2.63821	 7.1929e+06	   77.4621	    15.546	   2.63932	7.24154e+06	   77.4567	   15.6263	   2.71744	7.17456e+06	   77.5587	   15.6379	    2.7288	7.08577e+06	   77.5117	   15.5454	   2.63876	7.21622e+06	   77.4594	   15.5861	   2.67838	7.20693e+06	   77.5077	   15.6321	   2.72312	7.12974e+06	     77.56	   15.5914	   2.68351	7.13855e+06	
         R10	   1936	   77.4369	     15.36	   2.45841	7.28575e+06	     77.35	   15.3588	   2.45717	7.31658e+06	     77.35	     15.42	   2.51671	7.30019e+06	    77.448	   15.4252	   2.52185	7.26141e+06	   77.3934	   15.3594	   2.45779	7.30001e+06	     77.35	   15.3894	   2.48694	7.30184e+06	    77.399	   15.4226	   2.51928	7.28003e+06	   77.4425	   15.3926	   2.49013	7.26663e+06	
         R10	   1937	   77.6801	   15.6275	   2.71864	7.04918e+06	   77.6965	   15.7162	   2.80499	6.96522e+06	   77.8352	   15.7036	   2.79265	 6.9511e+06	   77.7865	    15.608	   2.69972	7.01672e+06	   77.6883	   15.6719	   2.76181	7.00677e+06	   77.7658	   15.7099	   2.79882	6.95685e+06	   77.8109	   15.6558	   2.74619	6.98375e+06	   77.7333	   15.6178	   2.70918	7.03246e+06	
         R10	   1938	   77.5587	   15.6379	    2.7288	 7.0856e+06	   77.4567	   15.6263	   2.71744	7.15948e+06	   77.4464	   15.6844	     2.774	6.91872e+06	   77.5637	   15.7262	   2.81465	7.03036e+06	   77.5077	   15.6321	   2.72312	7.12179e+06	   77.4516	   15.6553	   2.74572	7.03898e+06	   77.5051	   15.7053	   2.79432	6.97206e+06	   77.5612	   15.6821	   2.77173	7.05762e+06	
         R10	   1939	   77.5587	   15.6379	    2.7288	7.10204e+06	   77.5637	   15.7262	   2.81465	6.94416e+06	   77.6965	   15.7162	   2.80499	6.96068e+06	   77.6801	   15.6275	   2.71864	7.03453e+06	   77.5612	   15.6821	   2.77173	7.02287e+06	   77.6301	   15.7212	   2.80982	6.95159e+06	   77.6883	   15.6719	   2.76181	6.99733e+06	   77.6194	   15.6327	   2.72372	7.06722e+06	
         R10	   1940	   77.5613	   15.5448	   2.63821	7.17336e+06	   77.5587	   15.6379	    2.7288	7.14082e+06	   77.6801	   15.6275	   2.71864	7.10116e+06	   77.6628	   15.5558	   2.64885	7.17836e+06	     77.56	   15.5914	   2.68351	 7.1564e+06	   77.6194	   15.6327	   2.72372	7.12023e+06	   77.6715	   15.5916	   2.68375	7.13948e+06	   77.6121	   15.5503	   2.64353	7.17493e+06	
         R10	   1941	   77.5903	    15.466	   2.56151	7.20772e+06	   77.6461	   15.3829	   2.48063	7.22579e+06	    77.535	   15.3659	   2.46416	7.26275e+06	   77.5228	   15.4215	   2.51824	7.25151e+06	   77.6182	   15.4244	   2.52107	7.20548e+06	   77.5906	   15.3744	   2.47239	7.24261e+06	   77.5289	   15.3937	    2.4912	7.25164e+06	   77.5565	   15.4438	   2.53988	7.22774e+06	
         R10	   1942	    77.448	   15.4252	   2.52185	7.25724e+06	   77.4647	   15.4849	   2.57988	7.22891e+06	   77.5903	    15.466	   2.56151	7.23801e+06	   77.5228	   15.4215	   2.51824	7.26466e+06	   77.4564	   15.4551	   2.55086	7.23995e+06	   77.5275	   15.4754	    2.5707	7.23031e+06	   77.5565	   15.4438	   2.53988	7.24975e+06	   77.4854	   15.4234	   2.52004	7.26035e+06	
         R10	   1943	    77.535	   15.3659	   2.46416	7.23827e+06	   77.4369	     15.36	   2.45841	 7.3011e+06	    77.448	   15.4252	   2.52185	7.25747e+06	   77.5228	   15.4215	   2.51824	7.25933e+06	   77.4859	    15.363	   2.46128	7.26814e+06	   77.4425	   15.3926	   2.49013	7.27188e+06	   77.4854	   15.4234	   2.52004	7.25784e+06	   77.5289	   15.3937	    2.4912	7.24337e+06	
         R10	   1944	   77.4647	   15.4849	   2.57988	7.22173e+06	   77.4621	    15.546	   2.63932	7.23025e+06	   77.5613	   15.5448	   2.63821	7.22535e+06	   77.5903	    15.466	   2.56151	7.24214e+06	   77.4634	   15.5154	    2.6096	7.22422e+06	   77.5117	   15.5454	   2.63876	7.22726e+06	   77.5758	   15.5054	   2.59986	7.22929e+06	   77.5275	   15.4754	    2.5707	7.22928e+06	
         R10	   1945	   77.5903	    15.466	   2.56151	7.20884e+06	   77.5613	   15.5448	   2.63821	7.19197e+06	   77.6628	   15.5558	   2.64885	7.17733e+06	   77.7441	   15.4988	   2.59345	7.17172e+06	   77.5758	   15.5054	   2.59986	7.19611e+06	   77.6121	   15.5503	   2.64353	7.18384e+06	   77.7035	   15.5273	   2.62115	7.17263e+06	   77.6672	   15.4824	   2.57748	 7.1879e+06	
         R10	   1946	   77.9041	   15.5057	   2.60015	7.07515e+06	   77.7441	   15.4988	   2.59345	7.16017e+06	   77.7865	    15.608	   2.69972	7.08271e+06	   77.8968	   15.5908	   2.68296	7.08717e+06	   77.8241	   15.5023	    2.5968	7.11605e+06	   77.7653	   15.5534	   2.64659	7.11948e+06	   77.8416	   15.5994	   2.69134	7.08398e+06	   77.9005	   15.5483	   2.64155	7.07913e+06	
         R10	   1947	   78.0074	   15.6669	   2.75699	6.92032e+06	   78.0401	   15.5177	   2.61179	7.10394e+06	   77.9041	   15.5057	   2.60015	7.10382e+06	   77.8968	   15.5908	   2.68296	6.96286e+06	   78.0237	   15.5923	   2.68439	7.01056e+06	   77.9721	   15.5117	   2.60597	7.09998e+06	   77.9005	   15.5483	   2.64155	7.03109e+06	   77.9521	   15.6289	   2.71997	6.94046e+06	
         R10	   1948	   77.7865	    15.608	   2.69972	7.01394e+06	   77.8352	   15.7036	   2.79265	6.94207e+06	   78.0074	   15.6669	   2.75699	6.96537e+06	   77.8968	   15.5908	   2.68296	7.05191e+06	   77.8109	   15.6558	   2.74619	6.97765e+06	   77.9213	   15.6852	   2.77482	6.95077e+06	   77.9521	   15.6289	   2.71997	7.00794e+06	   77.8416	   15.5994	   2.69134	7.03199e+06	
         R10	   1949	   77.7865	    15.608	   2.69972	7.10287e+06	   77.7441	   15.4988	   2.59345	7.15959e+06	   77.6628	   15.5558	   2.64885	7.05863e+06	   77.6801	   15.6275	   2.71864	7.14396e+06	   77.7653	   15.5534	   2.64659	 7.1294e+06	   77.7035	   15.5273	   2.62115	 7.1065e+06	   77.6715	   15.5916	   2.68375	7.10089e+06	   77.7333	   15.6178	   2.70918	7.12303e+06	
         R10	   1950	   77.4464	   15.6844	     2.774	6.95812e+06	   77.4446	   15.7697	   2.85703	6.89906e+06	   77.5637	   15.7262	   2.81465	7.00654e+06	   77.4455	   15.7271	   2.81551	6.92662e+06	   77.5042	   15.7479	   2.83584	6.95262e+06	   77.5051	   15.7053	   2.79432	6.98015e+06	       N/A	       N/A	       N/A	        N/A	       N/A	       N/A	       N/A	        N/A	
         R10	   1951	   78.2139	   15.6009	   2.69277	6.96537e+06	   78.0401	   15.5177	   2.61179	7.04704e+06	   78.0074	   15.6669	   2.75699	6.88174e+06	    78.127	   15.5593	   2.65228	7.00303e+06	   78.0237	   15.5923	   2.68439	6.96318e+06	   78.1106	   15.6339	   2.72488	6.91666e+06	       N/A	       N/A	       N/A	        N/A	       N/A	       N/A	       N/A	        N/A	
         R10	   1952	   76.1386	   13.7863	       2.4	8.28363e+06	   76.1433	      13.6	       2.4	8.70033e+06	   75.9137	      13.6	       2.4	8.39694e+06	   75.8912	   13.8107	       2.4	7.83376e+06	   76.1409	   13.6932	       2.4	8.45144e+06	   76.0285	      13.6	       2.4	8.54222e+06	   75.9025	   13.7054	       2.4	8.04964e+06	   76.0149	   13.7985	       2.4	8.05723e+06	
         R10	   1953	   76.3195	   13.7772	       2.4	8.88474e+06	   76.3387	      13.6	       2.4	 8.5109e+06	   76.1433	      13.6	       2.4	8.69353e+06	   76.1386	   13.7863	       2.4	8.28816e+06	   76.3291	   13.6886	       2.4	8.69616e+06	    76.241	      13.6	       2.4	8.58497e+06	   76.1409	   13.6932	       2.4	8.45052e+06	    76.229	   13.7818	       2.4	8.57485e+06	
         R10	   1954	      76.5	   13.7605	       2.4	8.96812e+06	      76.5	      13.6	       2.4	8.48239e+06	   76.3387	      13.6	       2.4	8.28367e+06	   76.3195	   13.7772	       2.4	9.15318e+06	      76.5	   13.6802	       2.4	8.54928e+06	   76.4194	      13.6	       2.4	8.32704e+06	   76.3291	   13.6886	       2.4	8.71809e+06	   76.4097	   13.7689	       2.4	9.00049e+06	
         R10	   1955	      76.5	    13.908	       2.4	8.90016e+06	      76.5	   13.7605	       2.4	8.35774e+06	   76.3195	   13.7772	       2.4	8.71048e+06	   76.3444	   13.9658	       2.4	8.75953e+06	      76.5	   13.8342	       2.4	 8.6155e+06	   76.4097	   13.7689	       2.4	8.49095e+06	   76.3319	   13.8715	       2.4	8.71532e+06	   76.4222	   13.9369	       2.4	8.79322e+06	
         R10	   1956	   76.3965	   14.2662	       2.4	9.17758e+06	      76.5	   14.2723	       2.4	8.71984e+06	      76.5	   14.1639	       2.4	 8.8641e+06	   76.3654	   14.1208	       2.4	8.52525e+06	   76.4483	   14.2692	       2.4	8.94603e+06	      76.5	   14.2181	       2.4	8.79072e+06	   76.4327	   14.1423	       2.4	8.67774e+06	    76.381	   14.1935	       2.4	8.84358e+06	
         R10	   1957	   76.4071	   14.3605	       2.4	9.55235e+06	      76.5	   14.3676	       2.4	8.43951e+06	      76.5	   14.2723	       2.4	8.81047e+06	   76.3965	   14.2662	       2.4	 8.4384e+06	   76.4536	   14.3641	       2.4	8.97264e+06	      76.5	   14.3199	       2.4	8.62117e+06	   76.4483	   14.2692	       2.4	 8.6138e+06	   76.4018	   14.3134	       2.4	8.99162e+06	
         R10	   1958	    76.419	     14.45	       2.4	9.40194e+06	      76.5	     14.45	       2.4	8.81196e+06	      76.5	   14.3676	       2.4	8.70683e+06	   76.4071	   14.3605	       2.4	8.57592e+06	   76.4595	     14.45	       2.4	 9.1065e+06	      76.5	   14.4088	       2.4	8.72039e+06	   76.4536	   14.3641	       2.4	8.57761e+06	    76.413	   14.4052	       2.4	8.92433e+06	
         R10	   1959	   76.3346	     14.45	       2.4	9.21456e+06	    76.419	     14.45	       2.4	9.59855e+06	   76.4071	   14.3605	       2.4	8.52732e+06	   76.3263	   14.3703	       2.4	8.49684e+06	   76.3768	     14.45	       2.4	9.40023e+06	    76.413	   14.4052	       2.4	9.01205e+06	   76.3667	   14.3654	       2.4	8.50416e+06	   76.3304	   14.4102	       2.4	8.83104e+06	
         R10	   1960	   76.1522	   14.3463	       2.4	7.98759e+06	   76.1557	     14.45	       2.4	8.52105e+06	   76.2468	     14.45	       2.4	8.64968e+06	   76.2245	    14.356	       2.4	8.23875e+06	    76.154	   14.3982	       2.4	8.24434e+06	   76.2013	     14.45	       2.4	 8.5836e+06	   76.2357	    14.403	       2.4	8.44155e+06	   76.1884	   14.3512	       2.4	8.10846e+06	
         R10	   1961	   76.0613	   14.3438	       2.4	7.67566e+06	   76.0613	     14.45	       2.4	8.30085e+06	   76.1557	     14.45	       2.4	8.53784e+06	   76.1522	   14.3463	       2.4	8.01647e+06	   76.0613	   14.3969	       2.4	7.97589e+06	   76.1085	     14.45	       2.4	8.41665e+06	    76.154	   14.3982	       2.4	 8.2669e+06	   76.1068	   14.3451	       2.4	7.84443e+06	
         R10	   1962	   75.9658	   14.3467	       2.4	7.49878e+06	   75.9635	     14.45	       2.4	8.05906e+06	   76.0613	     14.45	       2.4	 8.3065e+06	   76.0613	   14.3438	       2.4	7.70063e+06	   75.9646	   14.3983	       2.4	7.76519e+06	   76.0124	     14.45	       2.4	 8.1801e+06	   76.0613	   14.3969	       2.4	7.99054e+06	   76.0135	   14.3452	       2.4	7.59816e+06	
         R10	   1963	   75.8646	   14.3486	       2.4	7.20912e+06	   75.8624	     14.45	       2.4	 7.8421e+06	   75.9635	     14.45	       2.4	 8.0265e+06	   75.9658	   14.3467	       2.4	7.57519e+06	   75.8635	   14.3993	       2.4	 7.5096e+06	   75.9129	     14.45	       2.4	7.93253e+06	   75.9646	   14.3983	       2.4	7.78505e+06	   75.9152	   14.3476	       2.4	7.38966e+06	
         R10	   1964	   75.7564	   14.3355	       2.4	7.06625e+06	   75.7579	     14.45	       2.4	  7.671e+06	   75.8624	     14.45	       2.4	7.89205e+06	   75.8646	   14.3486	       2.4	7.18975e+06	   75.7571	   14.3927	       2.4	7.34985e+06	   75.8101	     14.45	       2.4	7.77848e+06	   75.8635	   14.3993	       2.4	7.52592e+06	   75.8105	    14.342	       2.4	7.12613e+06	
         R10	   1965	     75.65	   14.3498	       2.4	7.06846e+06	     75.65	     14.45	       2.4	7.47577e+06	   75.7579	     14.45	       2.4	7.61875e+06	   75.7564	   14.3355	       2.4	 7.1471e+06	     75.65	   14.3999	       2.4	7.25219e+06	   75.7039	     14.45	       2.4	7.54572e+06	   75.7571	   14.3927	       2.4	7.36216e+06	   75.7032	   14.3427	       2.4	7.10217e+06	
         R10	   1966	   75.7756	   14.2014	       2.4	7.31764e+06	     75.65	   14.2147	       2.4	6.92333e+06	     75.65	   14.3498	       2.4	7.27648e+06	   75.7564	   14.3355	       2.4	7.39447e+06	   75.7128	   14.2081	       2.4	7.11405e+06	     75.65	   14.2823	       2.4	7.08664e+06	   75.7032	   14.3427	       2.4	7.33323e+06	    75.766	   14.2685	       2.4	7.34708e+06	
         R10	   1967	   75.8356	   14.0511	       2.4	7.41014e+06	     75.65	   14.0447	       2.4	7.06408e+06	     75.65	   14.2147	       2.4	7.16216e+06	   75.7756	   14.2014	       2.4	7.53772e+06	   75.7428	   14.0479	       2.4	7.22631e+06	     75.65	   14.1297	       2.4	7.10862e+06	   75.7128	   14.2081	       2.4	7.34609e+06	   75.8056	   14.1262	       2.4	7.47296e+06	
         R10	   1968	   75.8912	   13.8107	       2.4	7.84249e+06	   75.9137	      13.6	       2.4	8.39624e+06	     75.65	      13.6	       2.4	 8.0036e+06	     75.65	   13.8398	       2.4	7.35568e+06	   75.9025	   13.7054	       2.4	8.05371e+06	   75.7819	      13.6	       2.4	8.19315e+06	     75.65	   13.7199	       2.4	 7.5731e+06	   75.7706	   13.8253	       2.4	7.59185e+06	
         R10	   1969	   76.3444	   13.9658	       2.4	8.84503e+06	   76.3195	   13.7772	       2.4	8.28655e+06	   76.1386	   13.7863	       2.4	8.12507e+06	   76.1953	   13.9878	       2.4	8.46162e+06	   76.3319	   13.8715	       2.4	8.54769e+06	    76.229	   13.7818	       2.4	8.20523e+06	   76.1669	    13.887	       2.4	8.28159e+06	   76.2699	   13.9768	       2.4	8.64179e+06	
         R10	   1970	   76.3654	   14.1208	       2.4	9.22625e+06	      76.5	   14.1639	       2.4	 8.6682e+06	      76.5	   14.0424	       2.4	8.66416e+06	   76.3444	   13.9658	       2.4	8.50639e+06	   76.4327	   14.1423	       2.4	8.93385e+06	      76.5	   14.1031	       2.4	8.66579e+06	   76.4222	   14.0041	       2.4	8.54736e+06	   76.3549	   14.0433	       2.4	8.85164e+06	
         R10	   1971	   76.2885	   14.2954	       2.4	8.88382e+06	   76.3965	   14.2662	       2.4	9.14988e+06	   76.3654	   14.1208	       2.4	8.68595e+06	   76.2727	   14.1281	       2.4	 8.7032e+06	   76.3425	   14.2808	       2.4	9.00937e+06	    76.381	   14.1935	       2.4	8.90628e+06	   76.3191	   14.1245	       2.4	8.69156e+06	   76.2806	   14.2117	       2.4	8.78832e+06	
         R10	   1972	   76.3263	   14.3703	       2.4	9.03014e+06	   76.4071	   14.3605	       2.4	9.22163e+06	   76.3965	   14.2662	       2.4	8.73486e+06	   76.2885	   14.2954	       2.4	8.86238e+06	   76.3667	   14.3654	       2.4	9.11755e+06	   76.4018	   14.3134	       2.4	 8.9652e+06	   76.3425	   14.2808	       2.4	8.79845e+06	   76.3074	   14.3328	       2.4	8.94521e+06	
         R10	   1973	   76.2245	    14.356	       2.4	8.70482e+06	   76.2468	     14.45	       2.4	8.85444e+06	   76.3263	   14.3703	       2.4	8.26099e+06	   76.2885	   14.2954	       2.4	8.80887e+06	   76.2357	    14.403	       2.4	8.77081e+06	   76.2866	   14.4102	       2.4	 8.5475e+06	   76.3074	   14.3328	       2.4	8.52487e+06	   76.2565	   14.3257	       2.4	8.74748e+06	
         R10	   1974	   76.1666	   14.2212	       2.4	8.32564e+06	   76.1522	   14.3463	       2.4	8.56544e+06	   76.2245	    14.356	       2.4	8.64135e+06	   76.2885	   14.2954	       2.4	8.68241e+06	   76.1594	   14.2837	       2.4	8.44534e+06	   76.1884	   14.3512	       2.4	8.60055e+06	   76.2565	   14.3257	       2.4	8.66154e+06	   76.2275	   14.2583	       2.4	8.50009e+06	
         R10	   1975	   76.0726	   14.2527	       2.4	8.06308e+06	   76.0613	   14.3438	       2.4	8.22255e+06	   76.1522	   14.3463	       2.4	8.45953e+06	   76.1666	   14.2212	       2.4	8.36053e+06	   76.0669	   14.2982	       2.4	8.12687e+06	   76.1068	   14.3451	       2.4	8.34088e+06	   76.1594	   14.2837	       2.4	8.40846e+06	   76.1196	   14.2369	       2.4	8.20191e+06	
         R10	   1976	   75.9534	    14.178	       2.4	7.75266e+06	   75.9658	   14.3467	       2.4	7.81553e+06	   76.0613	   14.3438	       2.4	8.39546e+06	   76.0726	   14.2527	       2.4	7.65088e+06	   75.9596	   14.2623	       2.4	7.78087e+06	   76.0135	   14.3452	       2.4	8.10063e+06	   76.0669	   14.2982	       2.4	8.02128e+06	    76.013	   14.2153	       2.4	7.69881e+06	
         R10	   1977	   75.8912	   13.8107	       2.4	7.60303e+06	     75.65	   13.8398	       2.4	7.14887e+06	     75.65	   14.0447	       2.4	7.33563e+06	   75.8356	   14.0511	       2.4	7.58758e+06	   75.7706	   13.8253	       2.4	7.36967e+06	     75.65	   13.9423	       2.4	7.22894e+06	   75.7428	   14.0479	       2.4	 7.4574e+06	   75.8634	   13.9309	       2.4	7.57568e+06	
         R10	   1978	    76.019	   14.0044	       2.4	8.08276e+06	   76.1953	   13.9878	       2.4	8.44384e+06	   76.1386	   13.7863	       2.4	8.13535e+06	   75.8912	   13.8107	       2.4	 7.4961e+06	   76.1071	   13.9961	       2.4	8.25959e+06	   76.1669	    13.887	       2.4	8.26974e+06	   76.0149	   13.7985	       2.4	7.80655e+06	   75.9551	   13.9075	       2.4	7.77228e+06	
         R10	   1979	   76.2727	   14.1281	       2.4	8.82704e+06	   76.3654	   14.1208	       2.4	9.02157e+06	   76.3444	   13.9658	       2.4	8.60149e+06	   76.1953	   13.9878	       2.4	8.33668e+06	   76.3191	   14.1245	       2.4	8.91835e+06	   76.3549	   14.0433	       2.4	8.79365e+06	   76.2699	   13.9768	       2.4	8.45984e+06	    76.234	   14.0579	       2.4	8.56833e+06	
         R10	   1980	   76.0317	    14.106	       2.4	7.86962e+06	   76.0726	   14.2527	       2.4	8.31475e+06	   76.1666	   14.2212	       2.4	8.43164e+06	   76.1397	   14.1185	       2.4	8.29749e+06	   76.0521	   14.1793	       2.4	8.08601e+06	   76.1196	   14.2369	       2.4	8.37208e+06	   76.1532	   14.1698	       2.4	 8.3622e+06	   76.0857	   14.1123	       2.4	8.07973e+06	
         R10	   1981	   76.1397	   14.1185	       2.4	8.69017e+06	   76.1666	   14.2212	       2.4	8.51802e+06	   76.2727	   14.1281	       2.4	8.66253e+06	   76.1953	   13.9878	       2.4	8.23103e+06	   76.1532	   14.1698	       2.4	8.59802e+06	   76.2197	   14.1746	       2.4	8.58655e+06	    76.234	   14.0579	       2.4	8.43232e+06	   76.1675	   14.0532	       2.4	8.45688e+06	
         R10	   1982	   76.0317	    14.106	       2.4	  8.283e+06	   76.1397	   14.1185	       2.4	8.48721e+06	   76.1953	   13.9878	       2.4	 8.2798e+06	    76.019	   14.0044	       2.4	7.74352e+06	   76.0857	   14.1123	       2.4	8.38336e+06	   76.1675	   14.0532	       2.4	 8.3791e+06	   76.1071	   13.9961	       2.4	8.00096e+06	   76.0253	   14.0552	       2.4	8.00149e+06	
         R10	   1983	   75.9534	    14.178	       2.4	7.92666e+06	   76.0317	    14.106	       2.4	7.85346e+06	    76.019	   14.0044	       2.4	7.81963e+06	   75.8356	   14.0511	       2.4	7.66032e+06	   75.9925	    14.142	       2.4	7.87964e+06	   76.0253	   14.0552	       2.4	7.81981e+06	   75.9273	   14.0277	       2.4	7.73732e+06	   75.8945	   14.1145	       2.4	7.78896e+06	
         R10	   1984	   75.7756	   14.2014	       2.4	7.00416e+06	   75.7564	   14.3355	       2.4	 7.4861e+06	   75.8646	   14.3486	       2.4	7.67808e+06	   75.8704	   14.2449	       2.4	7.49031e+06	    75.766	   14.2685	       2.4	7.23833e+06	   75.8105	    14.342	       2.4	7.57986e+06	   75.8675	   14.2967	       2.4	7.58156e+06	    75.823	   14.2231	       2.4	7.24256e+06	
         R10	   1985	   75.9534	    14.178	       2.4	7.63309e+06	   75.8356	   14.0511	       2.4	 7.3707e+06	   75.7756	   14.2014	       2.4	7.53775e+06	   75.8704	   14.2449	       2.4	7.81251e+06	   75.8945	   14.1145	       2.4	7.49507e+06	   75.8056	   14.1262	       2.4	7.45318e+06	    75.823	   14.2231	       2.4	7.66987e+06	   75.9119	   14.2114	       2.4	7.72008e+06	
         R10	   1986	   75.8646	   14.3486	       2.4	7.54272e+06	   75.9658	   14.3467	       2.4	7.86526e+06	   75.9534	    14.178	       2.4	7.65469e+06	   75.8704	   14.2449	       2.4	7.71772e+06	   75.9152	   14.3476	       2.4	7.70367e+06	   75.9596	   14.2623	       2.4	7.75739e+06	   75.9119	   14.2114	       2.4	7.67553e+06	   75.8675	   14.2967	       2.4	7.62037e+06	
         R10	   1987	      76.5	   14.0424	       2.4	8.56851e+06	      76.5	    13.908	       2.4	8.74406e+06	   76.3444	   13.9658	       2.4	8.87591e+06	      76.5	   13.9752	       2.4	8.65568e+06	   76.4222	   13.9369	       2.4	8.78225e+06	   76.4222	   14.0041	       2.4	8.68874e+06	       N/A	       N/A	       N/A	        N/A	       N/A	       N/A	       N/A	        N/A	
         R10	   1988	   76.2468	     14.45	       2.4	8.77949e+06	   76.3346	     14.45	       2.4	9.14295e+06	   76.3263	   14.3703	       2.4	8.54247e+06	   76.2907	     14.45	       2.4	8.95694e+06	   76.3304	   14.4102	       2.4	8.82534e+06	   76.2866	   14.4102	       2.4	 8.6558e+06	       N/A	       N/A	       N/A	        N/A	       N/A	       N/A	       N/A	        N/A	
         R10	   1989	   76.1666	   14.2212	       2.4	8.55528e+06	   76.2885	   14.2954	       2.4	8.87874e+06	   76.2727	   14.1281	       2.4	8.72618e+06	   76.2275	   14.2583	       2.4	8.71323e+06	   76.2806	   14.2117	       2.4	8.79997e+06	   76.2197	   14.1746	       2.4	8.63914e+06	       N/A	       N/A	       N/A	        N/A	       N/A	       N/A	       N/A	        N/A	
         R10	   1990	   75.9534	    14.178	       2.4	7.88137e+06	   76.0726	   14.2527	       2.4	8.42588e+06	   76.0317	    14.106	       2.4	7.85685e+06	    76.013	   14.2153	       2.4	8.14983e+06	   76.0521	   14.1793	       2.4	8.13771e+06	   75.9925	    14.142	       2.4	7.86911e+06	       N/A	       N/A	       N/A	        N/A	       N/A	       N/A	       N/A	        N/A	
         R10	   1991	    76.019	   14.0044	       2.4	7.89627e+06	   75.8912	   13.8107	       2.4	7.81193e+06	   75.8356	   14.0511	       2.4	7.64043e+06	   75.9551	   13.9075	       2.4	7.83002e+06	   75.8634	   13.9309	       2.4	7.70698e+06	   75.9273	   14.0277	       2.4	7.75527e+06	       N/A	       N/A	       N/A	        N/A	       N/A	       N/A	       N/A	        N/A	
         R10	   1992	    76.819	   13.7586	       2.4	8.23436e+06	   76.8158	      13.6	       2.4	8.47702e+06	   76.6538	      13.6	       2.4	8.09985e+06	   76.6574	   13.7542	       2.4	 8.7184e+06	   76.8174	   13.6793	       2.4	8.32618e+06	   76.7348	      13.6	       2.4	8.26967e+06	   76.6556	   13.6771	       2.4	8.40556e+06	   76.7382	   13.7564	       2.4	8.46655e+06	
         R10	   1993	   76.9902	   13.7646	       2.4	8.00412e+06	   76.9858	      13.6	       2.4	8.38153e+06	   76.8158	      13.6	       2.4	8.47672e+06	    76.819	   13.7586	       2.4	8.25117e+06	    76.988	   13.6823	       2.4	8.14448e+06	   76.9008	      13.6	       2.4	8.42388e+06	   76.8174	   13.6793	       2.4	8.33448e+06	   76.9046	   13.7616	       2.4	8.12744e+06	
         R10	   1994	    77.168	   13.7696	       2.4	 7.7226e+06	   77.1638	      13.6	       2.4	  8.174e+06	   76.9858	      13.6	       2.4	8.38237e+06	   76.9902	   13.7646	       2.4	 8.0069e+06	   77.1659	   13.6848	       2.4	7.88561e+06	   77.0748	      13.6	       2.4	8.27431e+06	    76.988	   13.6823	       2.4	8.14649e+06	   77.0791	   13.7671	       2.4	7.86277e+06	
         R10	   1995	     77.35	   13.7811	       2.4	7.37483e+06	     77.35	      13.6	       2.4	7.93816e+06	   77.1638	      13.6	       2.4	8.18304e+06	    77.168	   13.7696	       2.4	7.69493e+06	     77.35	   13.6906	       2.4	7.58424e+06	   77.2569	      13.6	       2.4	8.05713e+06	   77.1659	   13.6848	       2.4	7.87715e+06	    77.259	   13.7753	       2.4	7.53071e+06	
         R10	   1996	     77.35	   13.9464	       2.4	7.13896e+06	     77.35	   13.7811	       2.4	7.16015e+06	    77.168	   13.7696	       2.4	7.40827e+06	   77.1645	   13.9364	       2.4	7.48782e+06	     77.35	   13.8638	       2.4	7.12568e+06	    77.259	   13.7753	       2.4	7.28091e+06	   77.1662	    13.853	       2.4	7.42189e+06	   77.2572	   13.9414	       2.4	 7.3094e+06	
         R10	   1997	   77.1739	   14.0792	       2.4	7.44988e+06	     77.35	    14.096	       2.4	7.06993e+06	     77.35	   13.9464	       2.4	6.95878e+06	   77.1645	   13.9364	       2.4	7.26208e+06	   77.2619	   14.0876	       2.4	7.25285e+06	     77.35	   14.0212	       2.4	7.01111e+06	   77.2572	   13.9414	       2.4	7.10636e+06	   77.1692	   14.0078	       2.4	7.34817e+06	
         R10	   1998	   77.2064	   14.2116	       2.4	7.30499e+06	     77.35	   14.2298	       2.4	7.04373e+06	     77.35	    14.096	       2.4	6.92011e+06	   77.1739	   14.0792	       2.4	7.24626e+06	   77.2782	   14.2207	       2.4	7.16978e+06	     77.35	   14.1629	       2.4	6.97842e+06	   77.2619	   14.0876	       2.4	7.07637e+06	   77.1901	   14.1454	       2.4	7.27379e+06	
         R10	   1999	   77.2381	   14.3396	       2.4	7.25645e+06	     77.35	   14.3478	       2.4	7.04971e+06	     77.35	   14.2298	       2.4	6.91756e+06	   77.2064	   14.2116	       2.4	7.11202e+06	    77.294	   14.3437	       2.4	7.14952e+06	     77.35	   14.2888	       2.4	6.97647e+06	   77.2782	   14.2207	       2.4	7.01087e+06	   77.2222	   14.2756	       2.4	7.17595e+06	
         R10	   2000	   77.2421	     14.45	       2.4	7.47171e+06	     77.35	     14.45	       2.4	7.33298e+06	     77.35	   14.3478	       2.4	6.83245e+06	   77.2381	   14.3396	       2.4	6.95704e+06	   77.2961	     14.45	       2.4	7.39991e+06	     77.35	   14.3989	       2.4	7.06218e+06	    77.294	   14.3437	       2.4	6.89196e+06	   77.2401	   14.3948	       2.4	7.19288e+06	
         R10	   2001	   77.1376	     14.45	       2.4	7.68948e+06	   77.2421	     14.45	       2.4	7.49839e+06	   77.2381	   14.3396	       2.4	6.84063e+06	    77.147	   14.3542	       2.4	6.96783e+06	   77.1899	     14.45	       2.4	7.59089e+06	   77.2401	   14.3948	       2.4	 7.1503e+06	   77.1925	   14.3469	       2.4	6.90248e+06	   77.1423	   14.4021	       2.4	 7.3112e+06	
         R10	   2002	   77.0291	   14.3524	       2.4	 7.2841e+06	   77.0365	     14.45	       2.4	7.85251e+06	   77.1376	     14.45	       2.4	 7.6541e+06	    77.147	   14.3542	       2.4	7.06353e+06	   77.0328	   14.4012	       2.4	7.55171e+06	   77.0871	     14.45	       2.4	7.75086e+06	   77.1423	   14.4021	       2.4	7.33828e+06	   77.0881	   14.3533	       2.4	7.16893e+06	
         R10	   2003	   76.9498	   14.3426	       2.4	7.50941e+06	   76.9387	     14.45	       2.4	8.03318e+06	   77.0365	     14.45	       2.4	7.84414e+06	   77.0291	   14.3524	       2.4	7.25418e+06	   76.9442	   14.3963	       2.4	7.75292e+06	   76.9876	     14.45	       2.4	7.93625e+06	   77.0328	   14.4012	       2.4	7.53312e+06	   76.9894	   14.3475	       2.4	7.38058e+06	
         R10	   2004	   76.8456	   14.3489	       2.4	7.65532e+06	   76.8443	     14.45	       2.4	8.31168e+06	   76.9387	     14.45	       2.4	8.06633e+06	   76.9498	   14.3426	       2.4	7.40795e+06	   76.8449	   14.3995	       2.4	7.97159e+06	   76.8915	     14.45	       2.4	8.18588e+06	   76.9442	   14.3963	       2.4	7.72219e+06	   76.8977	   14.3458	       2.4	7.52911e+06	
         R10	   2005	    76.743	   14.3495	       2.4	 7.9853e+06	   76.7532	     14.45	       2.4	8.53127e+06	   76.8443	     14.45	       2.4	8.30062e+06	   76.8456	   14.3489	       2.4	7.70469e+06	   76.7481	   14.3997	       2.4	8.24944e+06	   76.7987	     14.45	       2.4	8.41299e+06	   76.8449	   14.3995	       2.4	7.98962e+06	   76.7943	   14.3492	       2.4	7.84159e+06	
         R10	   2006	   76.6702	    14.361	       2.4	8.12459e+06	   76.6654	     14.45	       2.4	8.85549e+06	   76.7532	     14.45	       2.4	8.55017e+06	    76.743	   14.3495	       2.4	  7.944e+06	   76.6678	   14.4055	       2.4	8.47904e+06	   76.7093	     14.45	       2.4	 8.6988e+06	   76.7481	   14.3997	       2.4	8.24131e+06	   76.7066	   14.3553	       2.4	8.03361e+06	
         R10	   2007	   76.5729	   14.3725	       2.4	8.25359e+06	    76.581	     14.45	       2.4	9.35073e+06	   76.6654	     14.45	       2.4	8.89872e+06	   76.6702	    14.361	       2.4	8.15845e+06	    76.577	   14.4112	       2.4	8.77062e+06	   76.6232	     14.45	       2.4	9.11599e+06	   76.6678	   14.4055	       2.4	8.51647e+06	   76.6215	   14.3667	       2.4	8.20107e+06	
         R10	   2008	      76.5	   14.3676	       2.4	8.92178e+06	      76.5	     14.45	       2.4	9.10652e+06	    76.581	     14.45	       2.4	9.08171e+06	   76.5729	   14.3725	       2.4	8.26491e+06	      76.5	   14.4088	       2.4	8.97503e+06	   76.5405	     14.45	       2.4	9.09037e+06	    76.577	   14.4112	       2.4	8.63744e+06	   76.5364	   14.3701	       2.4	8.57651e+06	
         R10	   2009	      76.5	   14.2723	       2.4	8.66928e+06	      76.5	   14.3676	       2.4	8.92332e+06	   76.5729	   14.3725	       2.4	9.09371e+06	   76.6258	   14.2614	       2.4	8.48243e+06	      76.5	   14.3199	       2.4	8.79426e+06	   76.5364	   14.3701	       2.4	9.00645e+06	   76.5993	   14.3169	       2.4	8.77496e+06	   76.5629	   14.2668	       2.4	8.56362e+06	
         R10	   2010	   76.6252	    14.154	       2.4	8.54999e+06	      76.5	   14.1639	       2.4	8.47478e+06	      76.5	   14.2723	       2.4	8.83588e+06	   76.6258	   14.2614	       2.4	9.09152e+06	   76.5626	   14.1589	       2.4	8.50116e+06	      76.5	   14.2181	       2.4	8.65206e+06	   76.5629	   14.2668	       2.4	8.95938e+06	   76.6255	   14.2077	       2.4	8.81672e+06	
         R10	   2011	    76.642	   14.0285	       2.4	8.40333e+06	      76.5	   14.0424	       2.4	8.35635e+06	      76.5	   14.1639	       2.4	8.63928e+06	   76.6252	    14.154	       2.4	8.98909e+06	    76.571	   14.0355	       2.4	8.35885e+06	      76.5	   14.1031	       2.4	8.49677e+06	   76.5626	   14.1589	       2.4	8.80552e+06	   76.6336	   14.0913	       2.4	8.68391e+06	
         R10	   2012	   76.6543	   13.9014	       2.4	8.23042e+06	      76.5	    13.908	       2.4	8.30955e+06	      76.5	   14.0424	       2.4	8.47547e+06	    76.642	   14.0285	       2.4	8.88392e+06	   76.5771	   13.9047	       2.4	8.23956e+06	      76.5	   13.9752	       2.4	8.39207e+06	    76.571	   14.0355	       2.4	8.66329e+06	   76.6481	   13.9649	       2.4	8.54017e+06	
         R10	   2013	   76.6574	   13.7542	       2.4	9.08027e+06	   76.6538	      13.6	       2.4	7.91556e+06	      76.5	      13.6	       2.4	7.70721e+06	      76.5	   13.7605	       2.4	8.83207e+06	   76.6556	   13.6771	       2.4	8.49718e+06	   76.5769	      13.6	       2.4	7.76716e+06	      76.5	   13.6802	       2.4	8.09429e+06	   76.5787	   13.7573	       2.4	8.89244e+06	
         R10	   2014	   76.9928	    13.929	       2.4	7.85674e+06	   76.9902	   13.7646	       2.4	7.64129e+06	    76.819	   13.7586	       2.4	 7.9797e+06	   76.8112	    13.911	       2.4	8.25657e+06	   76.9915	   13.8468	       2.4	7.72938e+06	   76.9046	   13.7616	       2.4	7.80917e+06	   76.8151	   13.8348	       2.4	8.10131e+06	    76.902	     13.92	       2.4	 8.0517e+06	
         R10	   2015	   77.1645	   13.9364	       2.4	 7.4646e+06	    77.168	   13.7696	       2.4	7.41702e+06	   76.9902	   13.7646	       2.4	7.64203e+06	   76.9928	    13.929	       2.4	7.87681e+06	   77.1662	    13.853	       2.4	7.41489e+06	   77.0791	   13.7671	       2.4	7.52787e+06	   76.9915	   13.8468	       2.4	7.73911e+06	   77.0787	   13.9327	       2.4	7.66683e+06	
         R10	   2016	   77.1739	   14.0792	       2.4	7.45339e+06	   77.1645	   13.9364	       2.4	7.22401e+06	   76.9928	    13.929	       2.4	7.57962e+06	   77.0045	   14.0867	       2.4	7.87769e+06	   77.1692	   14.0078	       2.4	7.33263e+06	   77.0787	   13.9327	       2.4	7.39865e+06	   76.9987	   14.0079	       2.4	7.71845e+06	   77.0892	    14.083	       2.4	7.65972e+06	
         R10	   2017	    77.147	   14.3542	       2.4	7.51122e+06	   77.2381	   14.3396	       2.4	7.32029e+06	   77.2064	   14.2116	       2.4	6.99567e+06	   77.0892	   14.2294	       2.4	7.25756e+06	   77.1925	   14.3469	       2.4	 7.4139e+06	   77.2222	   14.2756	       2.4	7.15179e+06	   77.1478	   14.2205	       2.4	7.12313e+06	   77.1181	   14.2918	       2.4	7.38092e+06	
         R10	   2018	   76.8465	   14.2107	       2.4	8.10124e+06	   76.8456	   14.3489	       2.4	8.26311e+06	   76.9498	   14.3426	       2.4	7.95896e+06	   76.9361	   14.2216	       2.4	7.70795e+06	   76.8461	   14.2798	       2.4	8.17769e+06	   76.8977	   14.3458	       2.4	 8.1087e+06	   76.9429	   14.2821	       2.4	7.82657e+06	   76.8913	   14.2161	       2.4	7.90058e+06	
         R10	   2019	    76.726	   14.2426	       2.4	8.43495e+06	    76.743	   14.3495	       2.4	8.65027e+06	   76.8456	   14.3489	       2.4	 8.2978e+06	   76.8465	   14.2107	       2.4	7.92735e+06	   76.7345	   14.2961	       2.4	8.54003e+06	   76.7943	   14.3492	       2.4	8.47078e+06	   76.8461	   14.2798	       2.4	8.10895e+06	   76.7863	   14.2266	       2.4	8.17658e+06	
         R10	   2020	   76.6574	   13.7542	       2.4	  8.434e+06	      76.5	   13.7605	       2.4	7.93187e+06	      76.5	    13.908	       2.4	 8.6731e+06	   76.6543	   13.9014	       2.4	8.67002e+06	   76.5787	   13.7573	       2.4	8.13756e+06	      76.5	   13.8342	       2.4	8.29038e+06	   76.5771	   13.9047	       2.4	8.63609e+06	   76.6558	   13.8278	       2.4	8.53375e+06	
         R10	   2021	   76.8112	    13.911	       2.4	8.24653e+06	    76.819	   13.7586	       2.4	7.98037e+06	   76.6574	   13.7542	       2.4	8.07483e+06	   76.6543	   13.9014	       2.4	8.66011e+06	   76.8151	   13.8348	       2.4	8.09996e+06	   76.7382	   13.7564	       2.4	8.02703e+06	   76.6558	   13.8278	       2.4	8.35284e+06	   76.7327	   13.9062	       2.4	8.44725e+06	
         R10	   2022	    76.805	   14.0681	       2.4	8.44444e+06	   76.8112	    13.911	       2.4	8.00194e+06	   76.6543	   13.9014	       2.4	8.33983e+06	    76.642	   14.0285	       2.4	 8.7001e+06	   76.8081	   13.9896	       2.4	 8.2144e+06	   76.7327	   13.9062	       2.4	8.16353e+06	   76.6481	   13.9649	       2.4	8.49396e+06	   76.7235	   14.0483	       2.4	 8.5549e+06	
         R10	   2023	   77.0045	   14.0867	       2.4	 7.8873e+06	   76.9928	    13.929	       2.4	7.60158e+06	   76.8112	    13.911	       2.4	8.01273e+06	    76.805	   14.0681	       2.4	8.35521e+06	   76.9987	   14.0079	       2.4	7.73452e+06	    76.902	     13.92	       2.4	7.80103e+06	   76.8081	   13.9896	       2.4	8.17281e+06	   76.9047	   14.0774	       2.4	  8.111e+06	
         R10	   2024	   77.0892	   14.2294	       2.4	7.69126e+06	   77.2064	   14.2116	       2.4	7.34723e+06	   77.1739	   14.0792	       2.4	7.17426e+06	   77.0045	   14.0867	       2.4	7.53861e+06	   77.1478	   14.2205	       2.4	7.51533e+06	   77.1901	   14.1454	       2.4	7.25919e+06	   77.0892	    14.083	       2.4	7.35035e+06	   77.0469	    14.158	       2.4	7.61402e+06	
         R10	   2025	   76.9361	   14.2216	       2.4	 7.7079e+06	   76.9498	   14.3426	       2.4	7.96809e+06	   77.0291	   14.3524	       2.4	7.59799e+06	   77.0892	   14.2294	       2.4	7.46215e+06	   76.9429	   14.2821	       2.4	 7.8332e+06	   76.9894	   14.3475	       2.4	7.78008e+06	   77.0592	   14.2909	       2.4	7.51858e+06	   77.0126	   14.2255	       2.4	7.57661e+06	
         R10	   2026	   76.6258	   14.2614	       2.4	8.43009e+06	   76.6702	    14.361	       2.4	8.96436e+06	    76.743	   14.3495	       2.4	8.72253e+06	    76.726	   14.2426	       2.4	8.33125e+06	    76.648	   14.3112	       2.4	8.69664e+06	   76.7066	   14.3553	       2.4	 8.8425e+06	   76.7345	   14.2961	       2.4	8.52446e+06	   76.6759	    14.252	       2.4	8.37643e+06	
         R10	   2027	   76.6252	    14.154	       2.4	8.50867e+06	   76.6258	   14.2614	       2.4	9.05956e+06	    76.726	   14.2426	       2.4	8.78292e+06	   76.7115	   14.1606	       2.4	8.39119e+06	   76.6255	   14.2077	       2.4	8.77735e+06	   76.6759	    14.252	       2.4	8.91619e+06	   76.7188	   14.2016	       2.4	8.58417e+06	   76.6684	   14.1573	       2.4	8.44517e+06	
         R10	   2028	    76.805	   14.0681	       2.4	8.36436e+06	    76.642	   14.0285	       2.4	8.40795e+06	   76.6252	    14.154	       2.4	8.87857e+06	   76.7115	   14.1606	       2.4	8.69352e+06	   76.7235	   14.0483	       2.4	8.37654e+06	   76.6336	   14.0913	       2.4	8.63119e+06	   76.6684	   14.1573	       2.4	8.78155e+06	   76.7583	   14.1144	       2.4	 8.5167e+06	
         R10	   2029	   76.8465	   14.2107	       2.4	8.39625e+06	   76.9361	   14.2216	       2.4	7.99898e+06	   77.0045	   14.0867	       2.4	7.67532e+06	    76.805	   14.0681	       2.4	8.14003e+06	   76.8913	   14.2161	       2.4	8.19436e+06	   76.9703	   14.1541	       2.4	7.82664e+06	   76.9047	   14.0774	       2.4	7.89589e+06	   76.8257	   14.1394	       2.4	8.26186e+06	
         R10	   2030	   76.7115	   14.1606	       2.4	8.22772e+06	    76.726	   14.2426	       2.4	8.91328e+06	   76.8465	   14.2107	       2.4	8.39416e+06	    76.805	   14.0681	       2.4	 8.2097e+06	   76.7188	   14.2016	       2.4	8.57044e+06	   76.7863	   14.2266	       2.4	8.64862e+06	   76.8257	   14.1394	       2.4	8.29657e+06	   76.7583	   14.1144	       2.4	 8.2061e+06	
         R10	   2031	   77.0291	   14.3524	       2.4	7.67045e+06	    77.147	   14.3542	       2.4	7.45542e+06	   77.0892	   14.2294	       2.4	7.24146e+06	   77.0881	   14.3533	       2.4	7.56012e+06	   77.1181	   14.2918	       2.4	7.34547e+06	   77.0592	   14.2909	       2.4	7.44874e+06	       N/A	       N/A	       N/A	        N/A	       N/A	       N/A	       N/A	        N/A	
         R10	   2032	   76.6258	   14.2614	       2.4	8.52043e+06	   76.5729	   14.3725	       2.4	9.14922e+06	   76.6702	    14.361	       2.4	 8.9037e+06	   76.5993	   14.3169	       2.4	8.82468e+06	   76.6215	   14.3667	       2.4	9.02241e+06	    76.648	   14.3112	       2.4	8.71029e+06	       N/A	       N/A	       N/A	        N/A	       N/A	       N/A	       N/A	        N/A	
         R10	   2033	   76.9361	   14.2216	       2.4	7.96461e+06	   77.0892	   14.2294	       2.4	7.64925e+06	   77.0045	   14.0867	       2.4	7.53984e+06	   77.0126	   14.2255	       2.4	 7.7983e+06	   77.0469	    14.158	       2.4	7.59386e+06	   76.9703	   14.1541	       2.4	7.74092e+06	       N/A	       N/A	       N/A	        N/A	       N/A	       N/A	       N/A	        N/A	
         R10	   2034	   77.7324	    13.795	       2.4	6.83447e+06	   77.7267	      13.6	       2.4	7.50301e+06	   77.5323	      13.6	       2.4	7.69868e+06	   77.5378	    13.781	       2.4	7.12295e+06	   77.7295	   13.6975	       2.4	7.09091e+06	   77.6295	      13.6	       2.4	7.59705e+06	   77.5351	   13.6905	       2.4	 7.3413e+06	   77.6351	    13.788	       2.4	6.97246e+06	
         R10	   2035	   77.9391	   13.8087	       2.4	6.65584e+06	   77.9332	      13.6	       2.4	7.33165e+06	   77.7267	      13.6	       2.4	7.49577e+06	   77.7324	    13.795	       2.4	6.87434e+06	   77.9362	   13.7044	       2.4	6.90933e+06	     77.83	      13.6	       2.4	7.40989e+06	   77.7295	   13.6975	       2.4	7.10608e+06	   77.8358	   13.8018	       2.4	6.75867e+06	
         R10	   2036	   78.1576	     13.82	       2.4	6.52941e+06	   78.1517	      13.6	       2.4	7.20929e+06	   77.9332	      13.6	       2.4	7.33513e+06	   77.9391	   13.8087	       2.4	6.68325e+06	   78.1546	     13.71	       2.4	6.78248e+06	   78.0424	      13.6	       2.4	7.26729e+06	   77.9362	   13.7044	       2.4	6.92419e+06	   78.0484	   13.8144	       2.4	6.59836e+06	
         R10	   2037	   78.3867	   13.8267	       2.4	6.48052e+06	   78.3823	      13.6	       2.4	7.13368e+06	   78.1517	      13.6	       2.4	7.19964e+06	   78.1576	     13.82	       2.4	6.54988e+06	   78.3845	   13.7134	       2.4	6.71375e+06	    78.267	      13.6	       2.4	7.16211e+06	   78.1546	     13.71	       2.4	6.78685e+06	   78.2722	   13.8234	       2.4	6.50664e+06	
         R10	   2038	    78.625	   13.8226	       2.4	6.51608e+06	    78.625	      13.6	       2.4	7.08511e+06	   78.3823	      13.6	       2.4	7.13581e+06	   78.3867	   13.8267	       2.4	6.47538e+06	    78.625	   13.7113	       2.4	6.71692e+06	   78.5037	      13.6	       2.4	7.10568e+06	   78.3845	   13.7134	       2.4	6.71219e+06	   78.5059	   13.8247	       2.4	6.48622e+06	
         R10	   2039	    78.625	   14.0385	       2.4	6.45222e+06	    78.625	   13.8226	       2.4	6.52049e+06	   78.3867	   13.8267	       2.4	6.46932e+06	   78.3908	   14.0419	       2.4	6.51616e+06	    78.625	   13.9306	       2.4	6.47524e+06	   78.5059	   13.8247	       2.4	 6.4887e+06	   78.3888	   13.9343	       2.4	6.47839e+06	   78.5079	   14.0402	       2.4	6.48194e+06	
         R10	   2040	   78.4121	   14.2448	       2.4	6.55783e+06	    78.625	   14.2476	       2.4	6.66446e+06	    78.625	   14.0385	       2.4	6.43968e+06	   78.3908	   14.0419	       2.4	6.49426e+06	   78.5185	   14.2462	       2.4	6.58278e+06	    78.625	   14.1431	       2.4	6.54024e+06	   78.5079	   14.0402	       2.4	6.46633e+06	   78.4014	   14.1434	       2.4	6.51777e+06	
         R10	   2041	   78.4076	     14.45	       2.4	7.00819e+06	    78.625	     14.45	       2.4	 7.0004e+06	    78.625	   14.2476	       2.4	6.66274e+06	   78.4121	   14.2448	       2.4	6.54347e+06	   78.5163	     14.45	       2.4	 7.0008e+06	    78.625	   14.3488	       2.4	6.77776e+06	   78.5185	   14.2462	       2.4	6.57607e+06	   78.4099	   14.3474	       2.4	6.72276e+06	
         R10	   2042	   78.2069	     14.45	       2.4	7.01144e+06	   78.4076	     14.45	       2.4	7.00992e+06	   78.4121	   14.2448	       2.4	 6.5599e+06	   78.2039	   14.2448	       2.4	6.58411e+06	   78.3073	     14.45	       2.4	7.00698e+06	   78.4099	   14.3474	       2.4	6.73211e+06	    78.308	   14.2448	       2.4	6.55526e+06	   78.2054	   14.3474	       2.4	6.74804e+06	
         R10	   2043	   78.0317	   14.2621	       2.4	6.60162e+06	   78.0226	     14.45	       2.4	6.98794e+06	   78.2069	     14.45	       2.4	 6.9949e+06	   78.2039	   14.2448	       2.4	6.48611e+06	   78.0272	    14.356	       2.4	6.75756e+06	   78.1147	     14.45	       2.4	6.98876e+06	   78.2054	   14.3474	       2.4	6.68918e+06	   78.1178	   14.2534	       2.4	6.53087e+06	
         R10	   2044	    77.842	   14.2515	       2.4	6.60899e+06	    77.855	     14.45	       2.4	6.98903e+06	   78.0226	     14.45	       2.4	6.98196e+06	   78.0317	   14.2621	       2.4	6.66432e+06	   77.8485	   14.3507	       2.4	6.76001e+06	   77.9388	     14.45	       2.4	6.98251e+06	   78.0272	    14.356	       2.4	6.78319e+06	   77.9369	   14.2568	       2.4	6.62091e+06	
         R10	   2045	   77.7065	   14.3232	       2.4	6.37281e+06	   77.7039	     14.45	       2.4	7.16519e+06	    77.855	     14.45	       2.4	7.03102e+06	    77.842	   14.2515	       2.4	6.51005e+06	   77.7052	   14.3866	       2.4	6.75511e+06	   77.7794	     14.45	       2.4	7.09293e+06	   77.8485	   14.3507	       2.4	6.73075e+06	   77.7742	   14.2873	       2.4	  6.434e+06	
         R10	   2046	   77.5719	   14.3037	       2.4	 6.7319e+06	   77.5694	     14.45	       2.4	7.04921e+06	   77.7039	     14.45	       2.4	7.00514e+06	   77.7065	   14.3232	       2.4	6.88018e+06	   77.5706	   14.3769	       2.4	6.86797e+06	   77.6366	     14.45	       2.4	7.02582e+06	   77.7052	   14.3866	       2.4	 6.9155e+06	   77.6392	   14.3134	       2.4	6.78838e+06	
         R10	   2047	   77.4506	   14.3462	       2.4	6.62281e+06	   77.4514	     14.45	       2.4	7.33493e+06	   77.5694	     14.45	       2.4	 7.1364e+06	   77.5719	   14.3037	       2.4	6.59882e+06	    77.451	   14.3981	       2.4	6.96462e+06	   77.5104	     14.45	       2.4	7.23055e+06	   77.5706	   14.3769	       2.4	6.84632e+06	   77.5112	   14.3249	       2.4	6.60851e+06	
         R10	   2048	     77.35	   14.3478	       2.4	6.81091e+06	     77.35	     14.45	       2.4	7.33313e+06	   77.4514	     14.45	       2.4	7.23327e+06	   77.4506	   14.3462	       2.4	6.73484e+06	     77.35	   14.3989	       2.4	7.05333e+06	   77.4007	     14.45	       2.4	7.28155e+06	    77.451	   14.3981	       2.4	 6.9622e+06	   77.4003	    14.347	       2.4	6.76949e+06	
         R10	   2049	   77.4742	   14.2171	       2.4	6.66846e+06	     77.35	   14.2298	       2.4	6.83742e+06	     77.35	   14.3478	       2.4	7.11437e+06	   77.4506	   14.3462	       2.4	 7.0379e+06	   77.4121	   14.2234	       2.4	6.74943e+06	     77.35	   14.2888	       2.4	6.96898e+06	   77.4003	    14.347	       2.4	7.07375e+06	   77.4624	   14.2816	       2.4	6.83981e+06	
         R10	   2050	   77.5014	   14.0957	       2.4	6.78952e+06	     77.35	    14.096	       2.4	6.93467e+06	     77.35	   14.2298	       2.4	7.12423e+06	   77.4742	   14.2171	       2.4	6.93218e+06	   77.4257	   14.0958	       2.4	6.85606e+06	     77.35	   14.1629	       2.4	7.02832e+06	   77.4121	   14.2234	       2.4	7.02486e+06	   77.4878	   14.1564	       2.4	6.85707e+06	
         R10	   2051	   77.5228	    13.943	       2.4	6.75232e+06	     77.35	   13.9464	       2.4	6.94457e+06	     77.35	    14.096	       2.4	7.13295e+06	   77.5014	   14.0957	       2.4	6.92055e+06	   77.4364	   13.9447	       2.4	6.84578e+06	     77.35	   14.0212	       2.4	7.03361e+06	   77.4257	   14.0958	       2.4	7.01946e+06	   77.5121	   14.0193	       2.4	6.83233e+06	
         R10	   2052	   77.5378	    13.781	       2.4	7.12199e+06	   77.5323	      13.6	       2.4	7.68816e+06	     77.35	      13.6	       2.4	7.92854e+06	     77.35	   13.7811	       2.4	 7.3677e+06	   77.5351	   13.6905	       2.4	 7.3355e+06	   77.4412	      13.6	       2.4	7.80454e+06	     77.35	   13.6906	       2.4	7.57589e+06	   77.4439	    13.781	       2.4	 7.2401e+06	
         R10	   2053	   77.9322	    14.026	       2.4	6.62077e+06	   77.9391	   13.8087	       2.4	6.60381e+06	   77.7324	    13.795	       2.4	6.78365e+06	   77.7216	   13.9815	       2.4	6.60752e+06	   77.9357	   13.9173	       2.4	6.59266e+06	   77.8358	   13.8018	       2.4	6.68831e+06	    77.727	   13.8882	       2.4	 6.6725e+06	   77.8269	   14.0037	       2.4	6.60603e+06	
         R10	   2054	   78.1608	   14.0342	       2.4	6.53297e+06	   78.1576	     13.82	       2.4	6.49016e+06	   77.9391	   13.8087	       2.4	6.61185e+06	   77.9322	    14.026	       2.4	6.52461e+06	   78.1592	   13.9271	       2.4	6.49608e+06	   78.0484	   13.8144	       2.4	6.54416e+06	   77.9357	   13.9173	       2.4	6.54891e+06	   78.0465	   14.0301	       2.4	6.52367e+06	
         R10	   2055	   78.3908	   14.0419	       2.4	6.47375e+06	   78.3867	   13.8267	       2.4	6.48102e+06	   78.1576	     13.82	       2.4	6.51845e+06	   78.1608	   14.0342	       2.4	6.50359e+06	   78.3888	   13.9343	       2.4	6.46298e+06	   78.2722	   13.8234	       2.4	 6.4935e+06	   78.1592	   13.9271	       2.4	6.49655e+06	   78.2758	   14.0381	       2.4	6.48533e+06	
         R10	   2056	   78.2039	   14.2448	       2.4	6.63056e+06	   78.4121	   14.2448	       2.4	6.56154e+06	   78.3908	   14.0419	       2.4	6.47215e+06	   78.1608	   14.0342	       2.4	  6.479e+06	    78.308	   14.2448	       2.4	6.57411e+06	   78.4014	   14.1434	       2.4	6.51181e+06	   78.2758	   14.0381	       2.4	6.47423e+06	   78.1823	   14.1395	       2.4	6.54811e+06	
         R10	   2057	   78.0317	   14.2621	       2.4	6.67837e+06	   78.2039	   14.2448	       2.4	6.53739e+06	   78.1608	   14.0342	       2.4	6.49883e+06	   77.9322	    14.026	       2.4	6.46543e+06	   78.1178	   14.2534	       2.4	6.59563e+06	   78.1823	   14.1395	       2.4	6.51611e+06	   78.0465	   14.0301	       2.4	6.47745e+06	    77.982	    14.144	       2.4	6.56942e+06	
         R10	   2058	   77.6666	   14.1227	       2.4	6.82151e+06	   77.5014	   14.0957	       2.4	6.77538e+06	   77.4742	   14.2171	       2.4	6.56639e+06	   77.5719	   14.3037	       2.4	6.87611e+06	    77.584	   14.1092	       2.4	6.78798e+06	   77.4878	   14.1564	       2.4	6.66611e+06	    77.523	   14.2604	       2.4	6.71457e+06	   77.6192	   14.2132	       2.4	6.84372e+06	
         R10	   2059	   77.5378	    13.781	       2.4	6.90703e+06	     77.35	   13.7811	       2.4	7.10791e+06	     77.35	   13.9464	       2.4	7.17355e+06	   77.5228	    13.943	       2.4	6.93091e+06	   77.4439	    13.781	       2.4	7.00299e+06	     77.35	   13.8638	       2.4	7.11649e+06	   77.4364	   13.9447	       2.4	7.04898e+06	   77.5303	    13.862	       2.4	6.89412e+06	
         R10	   2060	   77.7216	   13.9815	       2.4	6.66913e+06	   77.7324	    13.795	       2.4	 6.7472e+06	   77.5378	    13.781	       2.4	6.96691e+06	   77.5228	    13.943	       2.4	 6.9307e+06	    77.727	   13.8882	       2.4	6.68409e+06	   77.6351	    13.788	       2.4	6.85288e+06	   77.5303	    13.862	       2.4	6.92486e+06	   77.6222	   13.9622	       2.4	6.79311e+06	
         R10	   2061	   77.7216	   13.9815	       2.4	6.63661e+06	   77.5228	    13.943	       2.4	6.86423e+06	   77.5014	   14.0957	       2.4	6.80421e+06	   77.6666	   14.1227	       2.4	6.83041e+06	   77.6222	   13.9622	       2.4	6.74542e+06	   77.5121	   14.0193	       2.4	6.82631e+06	    77.584	   14.1092	       2.4	6.80658e+06	   77.6941	   14.0521	       2.4	6.73267e+06	
         R10	   2062	    77.842	   14.2515	       2.4	6.77525e+06	   77.9322	    14.026	       2.4	6.64263e+06	   77.7216	   13.9815	       2.4	6.62498e+06	   77.6666	   14.1227	       2.4	6.35002e+06	   77.8871	   14.1387	       2.4	6.70704e+06	   77.8269	   14.0037	       2.4	6.62805e+06	   77.6941	   14.0521	       2.4	6.48324e+06	   77.7543	   14.1871	       2.4	6.54861e+06	
         R10	   2063	    77.842	   14.2515	       2.4	6.63925e+06	   78.0317	   14.2621	       2.4	6.66275e+06	   77.9322	    14.026	       2.4	6.50393e+06	   77.9369	   14.2568	       2.4	6.63647e+06	    77.982	    14.144	       2.4	6.57996e+06	   77.8871	   14.1387	       2.4	6.56752e+06	       N/A	       N/A	       N/A	        N/A	       N/A	       N/A	       N/A	        N/A	
         R10	   2064	   77.4742	   14.2171	       2.4	 6.7294e+06	   77.4506	   14.3462	       2.4	7.16247e+06	   77.5719	   14.3037	       2.4	6.79162e+06	   77.4624	   14.2816	       2.4	6.93143e+06	   77.5112	   14.3249	       2.4	6.97074e+06	    77.523	   14.2604	       2.4	6.75853e+06	       N/A	       N/A	       N/A	        N/A	       N/A	       N/A	       N/A	        N/A	
         R10	   2065	   77.7065	   14.3232	       2.4	6.91097e+06	    77.842	   14.2515	       2.4	6.72041e+06	   77.6666	   14.1227	       2.4	6.51464e+06	   77.7742	   14.2873	       2.4	6.80808e+06	   77.7543	   14.1871	       2.4	 6.6141e+06	   77.6865	    14.223	       2.4	6.70664e+06	       N/A	       N/A	       N/A	        N/A	       N/A	       N/A	       N/A	        N/A	
         R10	   2066	   77.5719	   14.3037	       2.4	6.77483e+06	   77.7065	   14.3232	       2.4	6.92584e+06	   77.6666	   14.1227	       2.4	6.41916e+06	   77.6392	   14.3134	       2.4	6.84483e+06	   77.6865	    14.223	       2.4	6.66839e+06	   77.6192	   14.2132	       2.4	6.59255e+06	       N/A	       N/A	       N/A	        N/A	       N/A	       N/A	       N/A	        N/A	
         R10	   2067	   77.5823	   14.5733	       2.4	7.06572e+06	   77.5694	     14.45	       2.4	7.28318e+06	   77.4514	     14.45	       2.4	7.35167e+06	   77.4617	   14.5595	       2.4	7.16891e+06	   77.5758	   14.5117	       2.4	 7.1225e+06	   77.5104	     14.45	       2.4	7.31563e+06	   77.4566	   14.5048	       2.4	7.21484e+06	    77.522	   14.5664	       2.4	7.11503e+06	
         R10	   2068	   77.7159	   14.5925	       2.4	6.95357e+06	   77.7039	     14.45	       2.4	7.22388e+06	   77.5694	     14.45	       2.4	7.29455e+06	   77.5823	   14.5733	       2.4	7.01532e+06	   77.7099	   14.5213	       2.4	7.02914e+06	   77.6366	     14.45	       2.4	7.25715e+06	   77.5758	   14.5117	       2.4	7.10485e+06	   77.6491	   14.5829	       2.4	6.98283e+06	
         R10	   2069	   77.8637	   14.6072	       2.4	6.85844e+06	    77.855	     14.45	       2.4	7.17503e+06	   77.7039	     14.45	       2.4	7.22052e+06	   77.7159	   14.5925	       2.4	6.88871e+06	   77.8593	   14.5286	       2.4	6.94461e+06	   77.7794	     14.45	       2.4	7.19533e+06	   77.7099	   14.5213	       2.4	6.99702e+06	   77.7898	   14.5999	       2.4	6.87165e+06	
         R10	   2070	   78.0357	   14.6273	       2.4	6.77289e+06	   78.0226	     14.45	       2.4	7.13065e+06	    77.855	     14.45	       2.4	7.18457e+06	   77.8637	   14.6072	       2.4	6.79441e+06	   78.0292	   14.5387	       2.4	6.87623e+06	   77.9388	     14.45	       2.4	7.15481e+06	   77.8593	   14.5286	       2.4	6.91944e+06	   77.9497	   14.6173	       2.4	6.78278e+06	
         R10	   2071	   78.2183	   14.6491	       2.4	6.76876e+06	   78.2069	     14.45	       2.4	7.11076e+06	   78.0226	     14.45	       2.4	7.13541e+06	   78.0357	   14.6273	       2.4	6.74821e+06	   78.2126	   14.5496	       2.4	6.84303e+06	   78.1147	     14.45	       2.4	7.12026e+06	   78.0292	   14.5387	       2.4	6.86583e+06	    78.127	   14.6382	       2.4	6.75735e+06	
         R10	   2072	   78.4173	   14.6624	       2.4	6.75096e+06	   78.4076	     14.45	       2.4	7.08937e+06	   78.2069	     14.45	       2.4	7.11223e+06	   78.2183	   14.6491	       2.4	6.69042e+06	   78.4125	   14.5562	       2.4	6.81422e+06	   78.3073	     14.45	       2.4	7.09735e+06	   78.2126	   14.5496	       2.4	 6.8046e+06	   78.3178	   14.6557	       2.4	6.72045e+06	
         R10	   2073	    78.625	   14.6726	       2.4	6.70966e+06	    78.625	     14.45	       2.4	7.08566e+06	   78.4076	     14.45	       2.4	7.10065e+06	   78.4173	   14.6624	       2.4	6.71493e+06	    78.625	   14.5613	       2.4	6.78374e+06	   78.5163	     14.45	       2.4	7.08945e+06	   78.4125	   14.5562	       2.4	6.80088e+06	   78.5211	   14.6675	       2.4	6.71182e+06	
         R10	   2074	    78.625	   14.8885	       2.4	6.93483e+06	    78.625	   14.6726	       2.4	6.71265e+06	   78.4173	   14.6624	       2.4	6.72397e+06	   78.4138	   14.8738	       2.4	6.87171e+06	    78.625	   14.7806	       2.4	6.80245e+06	   78.5211	   14.6675	       2.4	6.71685e+06	   78.4155	   14.7681	       2.4	6.76994e+06	   78.5194	   14.8811	       2.4	6.89701e+06	
         R10	   2075	   78.4205	   15.0834	       2.4	7.00982e+06	    78.625	   15.0976	       2.4	6.90773e+06	    78.625	   14.8885	       2.4	6.94414e+06	   78.4138	   14.8738	       2.4	6.86153e+06	   78.5228	   15.0905	       2.4	6.95837e+06	    78.625	   14.9931	       2.4	6.92149e+06	   78.5194	   14.8811	       2.4	6.89845e+06	   78.4172	   14.9786	       2.4	6.93449e+06	
         R10	   2076	   78.4205	      15.3	       2.4	6.86691e+06	    78.625	      15.3	       2.4	7.25984e+06	    78.625	   15.0976	       2.4	 6.9118e+06	   78.4205	   15.0834	       2.4	7.03174e+06	   78.5228	      15.3	       2.4	 7.0595e+06	    78.625	   15.1988	       2.4	7.05159e+06	   78.5228	   15.0905	       2.4	 6.9702e+06	   78.4205	   15.1917	       2.4	6.90624e+06	
         R10	   2077	   78.2317	      15.3	       2.4	6.91657e+06	   78.4205	      15.3	       2.4	7.21257e+06	   78.4205	   15.0834	       2.4	6.93572e+06	   78.2398	   15.0914	       2.4	6.95367e+06	   78.3261	      15.3	       2.4	7.06093e+06	   78.4205	   15.1917	       2.4	7.03149e+06	   78.3301	   15.0874	       2.4	 6.9444e+06	   78.2357	   15.1957	       2.4	 6.8946e+06	
         R10	   2078	   78.0696	   15.1218	       2.4	7.01708e+06	   78.0586	      15.3	       2.4	6.93197e+06	   78.2317	      15.3	       2.4	7.15578e+06	   78.2398	   15.0914	       2.4	6.93988e+06	   78.0641	   15.2109	       2.4	6.94177e+06	   78.1452	      15.3	       2.4	7.04272e+06	   78.2357	   15.1957	       2.4	7.00868e+06	   78.1547	   15.1066	       2.4	6.97794e+06	
         R10	   2079	   77.9102	   15.1444	       2.4	6.94546e+06	   77.9013	      15.3	       2.4	6.96464e+06	   78.0586	      15.3	       2.4	7.10789e+06	   78.0696	   15.1218	       2.4	6.93172e+06	   77.9057	   15.2222	       2.4	6.93065e+06	     77.98	      15.3	       2.4	7.03617e+06	   78.0641	   15.2109	       2.4	6.98907e+06	   77.9899	   15.1331	       2.4	6.93816e+06	
         R10	   2080	   77.7716	   15.1587	       2.4	6.99758e+06	   77.7596	      15.3	       2.4	6.95733e+06	   77.9013	      15.3	       2.4	7.08786e+06	   77.9102	   15.1444	       2.4	6.95406e+06	   77.7656	   15.2294	       2.4	 6.9528e+06	   77.8304	      15.3	       2.4	7.02218e+06	   77.9057	   15.2222	       2.4	6.99731e+06	   77.8409	   15.1516	       2.4	6.97491e+06	
         R10	   2081	   77.6539	   15.1867	       2.4	6.95739e+06	   77.6336	      15.3	       2.4	6.94175e+06	   77.7596	      15.3	       2.4	7.06248e+06	   77.7716	   15.1587	       2.4	6.97225e+06	   77.6438	   15.2434	       2.4	6.93439e+06	   77.6966	      15.3	       2.4	7.00206e+06	   77.7656	   15.2294	       2.4	6.99405e+06	   77.7128	   15.1727	       2.4	6.96424e+06	
         R10	   2082	   77.5287	   15.1863	       2.4	6.97707e+06	   77.5234	      15.3	       2.4	 6.9683e+06	   77.6336	      15.3	       2.4	7.01905e+06	   77.6539	   15.1867	       2.4	6.98854e+06	    77.526	   15.2432	       2.4	6.95799e+06	   77.5785	      15.3	       2.4	6.99359e+06	   77.6438	   15.2434	       2.4	6.99021e+06	   77.5913	   15.1865	       2.4	6.98098e+06	
         R10	   2083	   77.4291	   15.2228	       2.4	7.02278e+06	   77.4288	      15.3	       2.4	6.94083e+06	   77.5234	      15.3	       2.4	7.02103e+06	   77.5287	   15.1863	       2.4	6.91942e+06	    77.429	   15.2614	       2.4	6.97384e+06	   77.4761	      15.3	       2.4	6.98051e+06	    77.526	   15.2432	       2.4	6.95623e+06	   77.4789	   15.2046	       2.4	6.97044e+06	
         R10	   2084	     77.35	    15.219	       2.4	6.98306e+06	     77.35	      15.3	       2.4	6.97792e+06	   77.4288	      15.3	       2.4	6.97709e+06	   77.4291	   15.2228	       2.4	6.98366e+06	     77.35	   15.2595	       2.4	6.97145e+06	   77.3894	      15.3	       2.4	6.97721e+06	    77.429	   15.2614	       2.4	6.97306e+06	   77.3895	   15.2209	       2.4	6.98208e+06	
         R10	   2085	     77.35	   15.1346	       2.4	7.04429e+06	     77.35	    15.219	       2.4	6.98929e+06	   77.4291	   15.2228	       2.4	6.99527e+06	   77.4489	   15.1257	       2.4	7.00601e+06	     77.35	   15.1768	       2.4	7.01284e+06	   77.3895	   15.2209	       2.4	6.99121e+06	    77.439	   15.1742	       2.4	6.99472e+06	   77.3994	   15.1301	       2.4	7.02402e+06	
         R10	   2086	   77.4697	    15.051	       2.4	7.06651e+06	     77.35	   15.0468	       2.4	7.10364e+06	     77.35	   15.1346	       2.4	7.07631e+06	   77.4489	   15.1257	       2.4	6.99521e+06	   77.4099	   15.0489	       2.4	 7.0825e+06	     77.35	   15.0907	       2.4	7.08846e+06	   77.3994	   15.1301	       2.4	 7.0338e+06	   77.4593	   15.0883	       2.4	7.02966e+06	
         R10	   2087	   77.4662	   14.9585	       2.4	 7.0306e+06	     77.35	   14.9557	       2.4	7.11158e+06	     77.35	   15.0468	       2.4	7.10613e+06	   77.4697	    15.051	       2.4	7.05531e+06	   77.4081	   14.9571	       2.4	7.06904e+06	     77.35	   15.0013	       2.4	7.10879e+06	   77.4099	   15.0489	       2.4	7.07781e+06	    77.468	   15.0047	       2.4	7.04261e+06	
         R10	   2088	   77.4524	   14.8633	       2.4	7.03428e+06	     77.35	   14.8613	       2.4	7.06021e+06	     77.35	   14.9557	       2.4	7.14095e+06	   77.4662	   14.9585	       2.4	7.05158e+06	   77.4012	   14.8623	       2.4	7.04577e+06	     77.35	   14.9085	       2.4	7.09999e+06	   77.4081	   14.9571	       2.4	7.09418e+06	   77.4593	   14.9109	       2.4	7.04236e+06	
         R10	   2089	   77.4446	   14.7637	       2.4	6.93253e+06	     77.35	   14.7635	       2.4	6.98772e+06	     77.35	   14.8613	       2.4	 7.1084e+06	   77.4524	   14.8633	       2.4	7.08034e+06	   77.3973	   14.7636	       2.4	6.95919e+06	     77.35	   14.8124	       2.4	7.04407e+06	   77.4012	   14.8623	       2.4	7.09296e+06	   77.4485	   14.8135	       2.4	7.00322e+06	
         R10	   2090	   77.4534	   14.6617	       2.4	6.87613e+06	     77.35	   14.6624	       2.4	 6.9477e+06	     77.35	   14.7635	       2.4	7.09583e+06	   77.4446	   14.7637	       2.4	7.01233e+06	   77.4017	    14.662	       2.4	6.91018e+06	     77.35	   14.7129	       2.4	7.01074e+06	   77.3973	   14.7636	       2.4	7.05285e+06	    77.449	   14.7127	       2.4	6.93309e+06	
         R10	   2091	   77.4617	   14.5595	       2.4	7.24496e+06	   77.4514	     14.45	       2.4	7.33699e+06	     77.35	     14.45	       2.4	7.42344e+06	     77.35	   14.5579	       2.4	7.34463e+06	   77.4566	   14.5048	       2.4	 7.2439e+06	   77.4007	     14.45	       2.4	7.37846e+06	     77.35	   14.5039	       2.4	7.33564e+06	   77.4059	   14.5587	       2.4	 7.2929e+06	
         R10	   2092	   77.6869	   14.7465	       2.4	6.84713e+06	   77.7159	   14.5925	       2.4	6.89772e+06	   77.5823	   14.5733	       2.4	6.95463e+06	   77.5664	   14.6825	       2.4	6.84103e+06	   77.7014	   14.6695	       2.4	6.84282e+06	   77.6491	   14.5829	       2.4	6.92444e+06	   77.5743	   14.6279	       2.4	6.86359e+06	   77.6266	   14.7145	       2.4	 6.8353e+06	
         R10	   2093	   77.8458	   14.7537	       2.4	6.86176e+06	   77.8637	   14.6072	       2.4	 6.7722e+06	   77.7159	   14.5925	       2.4	6.77475e+06	   77.6869	   14.7465	       2.4	6.83484e+06	   77.8548	   14.6805	       2.4	6.78757e+06	   77.7898	   14.5999	       2.4	 6.7722e+06	   77.7014	   14.6695	       2.4	6.77016e+06	   77.7664	   14.7501	       2.4	6.84567e+06	
         R10	   2094	   78.0041	   14.7897	       2.4	6.85325e+06	   78.0357	   14.6273	       2.4	6.73315e+06	   77.8637	   14.6072	       2.4	6.75884e+06	   77.8458	   14.7537	       2.4	6.80493e+06	   78.0199	   14.7085	       2.4	6.77149e+06	   77.9497	   14.6173	       2.4	 6.7431e+06	   77.8548	   14.6805	       2.4	6.74614e+06	    77.925	   14.7717	       2.4	6.82603e+06	
         R10	   2095	   78.1953	   14.8716	       2.4	 6.9069e+06	   78.2183	   14.6491	       2.4	6.78427e+06	   78.0357	   14.6273	       2.4	6.77478e+06	   78.0041	   14.7897	       2.4	6.75782e+06	   78.2068	   14.7603	       2.4	6.81722e+06	    78.127	   14.6382	       2.4	 6.7782e+06	   78.0199	   14.7085	       2.4	6.73415e+06	   78.0997	   14.8306	       2.4	6.82014e+06	
         R10	   2096	   78.4138	   14.8738	       2.4	6.91055e+06	   78.4173	   14.6624	       2.4	6.73296e+06	   78.2183	   14.6491	       2.4	6.67267e+06	   78.1953	   14.8716	       2.4	6.88584e+06	   78.4155	   14.7681	       2.4	6.79897e+06	   78.3178	   14.6557	       2.4	6.70242e+06	   78.2068	   14.7603	       2.4	6.74526e+06	   78.3046	   14.8727	       2.4	6.89358e+06	
         R10	   2097	   78.2398	   15.0914	       2.4	6.97713e+06	   78.4205	   15.0834	       2.4	 6.9459e+06	   78.4138	   14.8738	       2.4	6.89737e+06	   78.1953	   14.8716	       2.4	6.85257e+06	   78.3301	   15.0874	       2.4	6.96089e+06	   78.4172	   14.9786	       2.4	6.91842e+06	   78.3046	   14.8727	       2.4	6.86885e+06	   78.2176	   14.9815	       2.4	6.91239e+06	
         R10	   2098	   78.0552	   14.9869	       2.4	6.70757e+06	   78.0696	   15.1218	       2.4	7.10958e+06	   78.2398	   15.0914	       2.4	6.98873e+06	   78.1953	   14.8716	       2.4	7.03808e+06	   78.0624	   15.0543	       2.4	6.90556e+06	   78.1547	   15.1066	       2.4	7.04888e+06	   78.2176	   14.9815	       2.4	 7.0132e+06	   78.1253	   14.9292	       2.4	6.87196e+06	
         R10	   2099	    77.915	   14.9645	       2.4	6.89951e+06	   77.9102	   15.1444	       2.4	6.98291e+06	   78.0696	   15.1218	       2.4	6.91988e+06	   78.0552	   14.9869	       2.4	7.00145e+06	   77.9126	   15.0545	       2.4	6.93695e+06	   77.9899	   15.1331	       2.4	6.95139e+06	   78.0624	   15.0543	       2.4	6.95521e+06	   77.9851	   14.9757	       2.4	6.94666e+06	
         R10	   2100	    77.746	   15.0322	       2.4	 6.8573e+06	   77.7716	   15.1587	       2.4	 7.0203e+06	   77.9102	   15.1444	       2.4	7.04715e+06	    77.915	   14.9645	       2.4	7.01367e+06	   77.7588	   15.0955	       2.4	 6.9335e+06	   77.8409	   15.1516	       2.4	7.03356e+06	   77.9126	   15.0545	       2.4	7.02638e+06	   77.8305	   14.9984	       2.4	6.93393e+06	
         R10	   2101	   77.6009	   15.0587	       2.4	6.97817e+06	   77.6539	   15.1867	       2.4	6.96115e+06	   77.7716	   15.1587	       2.4	6.94616e+06	    77.746	   15.0322	       2.4	6.98334e+06	   77.6274	   15.1227	       2.4	6.96272e+06	   77.7128	   15.1727	       2.4	6.95357e+06	   77.7588	   15.0955	       2.4	6.95921e+06	   77.6734	   15.0454	       2.4	6.97712e+06	
         R10	   2102	   77.5666	   14.8371	       2.4	7.01826e+06	   77.4524	   14.8633	       2.4	6.95039e+06	   77.4662	   14.9585	       2.4	7.08693e+06	   77.5896	   14.9381	       2.4	6.94372e+06	   77.5095	   14.8502	       2.4	6.98252e+06	   77.4593	   14.9109	       2.4	7.01791e+06	   77.5279	   14.9483	       2.4	7.01368e+06	   77.5781	   14.8876	       2.4	6.97999e+06	
         R10	   2103	   77.4617	   14.5595	       2.4	 6.9693e+06	     77.35	   14.5579	       2.4	7.02122e+06	     77.35	   14.6624	       2.4	7.13256e+06	   77.4534	   14.6617	       2.4	7.03211e+06	   77.4059	   14.5587	       2.4	6.99368e+06	     77.35	   14.6101	       2.4	 7.0508e+06	   77.4017	    14.662	       2.4	 7.0804e+06	   77.4575	   14.6106	       2.4	6.97528e+06	
         R10	   2104	   77.5664	   14.6825	       2.4	6.92256e+06	   77.5823	   14.5733	       2.4	6.89112e+06	   77.4617	   14.5595	       2.4	6.96235e+06	   77.4534	   14.6617	       2.4	6.98621e+06	   77.5743	   14.6279	       2.4	 6.8761e+06	    77.522	   14.5664	       2.4	6.92425e+06	   77.4575	   14.6106	       2.4	6.94684e+06	   77.5099	   14.6721	       2.4	6.95205e+06	
         R10	   2105	    77.915	   14.9645	       2.4	 6.9147e+06	   78.0552	   14.9869	       2.4	6.97922e+06	   78.1953	   14.8716	       2.4	6.90011e+06	   78.0041	   14.7897	       2.4	6.81142e+06	   77.9851	   14.9757	       2.4	6.94522e+06	   78.1253	   14.9292	       2.4	6.93432e+06	   78.0997	   14.8306	       2.4	6.85016e+06	   77.9596	   14.8771	       2.4	 6.8575e+06	
         R10	   2106	    77.818	    14.869	       2.4	6.69182e+06	    77.915	   14.9645	       2.4	7.06847e+06	   78.0041	   14.7897	       2.4	6.89881e+06	   77.8458	   14.7537	       2.4	6.87789e+06	   77.8665	   14.9168	       2.4	6.87579e+06	   77.9596	   14.8771	       2.4	6.97917e+06	    77.925	   14.7717	       2.4	6.88617e+06	   77.8319	   14.8113	       2.4	6.77669e+06	
         R10	   2107	   77.7082	   14.9019	       2.4	6.89663e+06	    77.746	   15.0322	       2.4	6.93316e+06	    77.915	   14.9645	       2.4	7.05457e+06	    77.818	    14.869	       2.4	6.87591e+06	   77.7271	   14.9671	       2.4	6.91436e+06	   77.8305	   14.9984	       2.4	6.99185e+06	   77.8665	   14.9168	       2.4	6.96489e+06	   77.7631	   14.8854	       2.4	6.88387e+06	
         R10	   2108	   77.4697	    15.051	       2.4	7.02281e+06	   77.4489	   15.1257	       2.4	6.97047e+06	   77.5287	   15.1863	       2.4	7.01338e+06	   77.6009	   15.0587	       2.4	6.99989e+06	   77.4593	   15.0883	       2.4	6.99439e+06	   77.4888	    15.156	       2.4	6.99015e+06	   77.5648	   15.1225	       2.4	7.00492e+06	   77.5353	   15.0548	       2.4	  7.006e+06	
         R10	   2109	   77.5896	   14.9381	       2.4	6.97023e+06	   77.4662	   14.9585	       2.4	 7.0465e+06	   77.4697	    15.051	       2.4	7.03715e+06	   77.6009	   15.0587	       2.4	7.04293e+06	   77.5279	   14.9483	       2.4	7.00756e+06	    77.468	   15.0047	       2.4	7.04161e+06	   77.5353	   15.0548	       2.4	7.03561e+06	   77.5953	   14.9984	       2.4	7.00521e+06	
         R10	   2110	   77.7082	   14.9019	       2.4	6.94404e+06	    77.818	    14.869	       2.4	7.07672e+06	   77.8458	   14.7537	       2.4	6.75923e+06	   77.6869	   14.7465	       2.4	6.76849e+06	   77.7631	   14.8854	       2.4	7.00988e+06	   77.8319	   14.8113	       2.4	6.91028e+06	   77.7664	   14.7501	       2.4	6.75903e+06	   77.6976	   14.8242	       2.4	6.84914e+06	
         R10	   2111	   77.5896	   14.9381	       2.4	 7.0585e+06	   77.6009	   15.0587	       2.4	6.99156e+06	    77.746	   15.0322	       2.4	7.03492e+06	   77.7082	   14.9019	       2.4	6.90857e+06	   77.5953	   14.9984	       2.4	7.02468e+06	   77.6734	   15.0454	       2.4	7.01083e+06	   77.7271	   14.9671	       2.4	6.97085e+06	   77.6489	     14.92	       2.4	6.98232e+06	
         R10	   2112	   77.5666	   14.8371	       2.4	6.78472e+06	   77.5896	   14.9381	       2.4	7.03486e+06	   77.7082	   14.9019	       2.4	7.01353e+06	   77.6869	   14.7465	       2.4	6.97147e+06	   77.5781	   14.8876	       2.4	6.90753e+06	   77.6489	     14.92	       2.4	7.02394e+06	   77.6976	   14.8242	       2.4	6.98451e+06	   77.6267	   14.7918	       2.4	 6.8699e+06	
         R10	   2113	   77.5664	   14.6825	       2.4	6.83118e+06	   77.4534	   14.6617	       2.4	6.90674e+06	   77.4446	   14.7637	       2.4	 6.9569e+06	   77.5316	   14.7645	       2.4	7.05195e+06	   77.5099	   14.6721	       2.4	 6.8655e+06	    77.449	   14.7127	       2.4	6.92133e+06	   77.4881	   14.7641	       2.4	7.00373e+06	    77.549	   14.7235	       2.4	6.92282e+06	
         R10	   2114	   77.5666	   14.8371	       2.4	6.87147e+06	   77.6869	   14.7465	       2.4	6.93114e+06	   77.5664	   14.6825	       2.4	 7.0044e+06	   77.5316	   14.7645	       2.4	6.69878e+06	   77.6267	   14.7918	       2.4	6.89078e+06	   77.6266	   14.7145	       2.4	6.96076e+06	    77.549	   14.7235	       2.4	6.84048e+06	   77.5491	   14.8008	       2.4	6.78297e+06	
         R10	   2115	   77.4446	   14.7637	       2.4	6.92471e+06	   77.4524	   14.8633	       2.4	7.02017e+06	   77.5666	   14.8371	       2.4	7.00503e+06	   77.5316	   14.7645	       2.4	6.97313e+06	   77.4485	   14.8135	       2.4	6.96929e+06	   77.5095	   14.8502	       2.4	7.00944e+06	   77.5491	   14.8008	       2.4	6.98401e+06	   77.4881	   14.7641	       2.4	6.94762e+06	
         R10	   2116	   77.4489	   15.1257	       2.4	6.95818e+06	   77.4291	   15.2228	       2.4	7.04891e+06	   77.5287	   15.1863	       2.4	6.98225e+06	    77.439	   15.1742	       2.4	6.99794e+06	   77.4789	   15.2046	       2.4	7.01459e+06	   77.4888	    15.156	       2.4	6.96803e+06	       N/A	       N/A	       N/A	        N/A	       N/A	       N/A	       N/A	        N/A	
         R10	   2117	   77.5287	   15.1863	       2.4	6.98995e+06	   77.6539	   15.1867	       2.4	6.99922e+06	   77.6009	   15.0587	       2.4	7.01254e+06	   77.5913	   15.1865	       2.4	6.99274e+06	   77.6274	   15.1227	       2.4	6.99918e+06	   77.5648	   15.1225	       2.4	6.99873e+06	       N/A	       N/A	       N/A	        N/A	       N/A	       N/A	       N/A	        N/A	
         R10	   2118	   75.8605	   14.5518	       2.4	 7.9112e+06	   75.8624	     14.45	       2.4	7.80504e+06	   75.7579	     14.45	       2.4	7.65958e+06	   75.7569	   14.5556	       2.4	7.67546e+06	   75.8614	   14.5009	       2.4	7.81566e+06	   75.8101	     14.45	       2.4	7.73007e+06	   75.7574	   14.5028	       2.4	 7.6217e+06	   75.8087	   14.5537	       2.4	7.79091e+06	
         R10	   2119	   75.9624	    14.547	       2.4	 8.1346e+06	   75.9635	     14.45	       2.4	7.95523e+06	   75.8624	     14.45	       2.4	7.81191e+06	   75.8605	   14.5518	       2.4	7.87745e+06	    75.963	   14.4985	       2.4	8.00728e+06	   75.9129	     14.45	       2.4	7.88137e+06	   75.8614	   14.5009	       2.4	7.80309e+06	   75.9115	   14.5494	       2.4	8.00368e+06	
         R10	   2120	   76.0607	   14.5438	       2.4	8.36605e+06	   76.0613	     14.45	       2.4	8.09778e+06	   75.9635	     14.45	       2.4	7.94925e+06	   75.9624	    14.547	       2.4	8.12723e+06	    76.061	   14.4969	       2.4	8.20151e+06	   76.0124	     14.45	       2.4	 8.0207e+06	    75.963	   14.4985	       2.4	8.00121e+06	   76.0116	   14.5454	       2.4	8.24491e+06	
         R10	   2121	   76.1548	    14.541	       2.4	8.57988e+06	   76.1557	     14.45	       2.4	 8.2332e+06	   76.0613	     14.45	       2.4	 8.0954e+06	   76.0607	   14.5438	       2.4	 8.3583e+06	   76.1553	   14.4955	       2.4	8.38621e+06	   76.1085	     14.45	       2.4	8.16047e+06	    76.061	   14.4969	       2.4	8.19667e+06	   76.1077	   14.5424	       2.4	8.46779e+06	
         R10	   2122	   76.2458	   14.5373	       2.4	8.76369e+06	   76.2468	     14.45	       2.4	8.35664e+06	   76.1557	     14.45	       2.4	8.22833e+06	   76.1548	    14.541	       2.4	8.57177e+06	   76.2463	   14.4937	       2.4	8.55114e+06	   76.2013	     14.45	       2.4	8.28652e+06	   76.1553	   14.4955	       2.4	 8.3796e+06	   76.2003	   14.5392	       2.4	8.66668e+06	
         R10	   2123	   76.3339	   14.5342	       2.4	8.89409e+06	   76.3346	     14.45	       2.4	8.49123e+06	   76.2468	     14.45	       2.4	8.34876e+06	   76.2458	   14.5373	       2.4	8.75658e+06	   76.3343	   14.4921	       2.4	8.69176e+06	   76.2907	     14.45	       2.4	8.41089e+06	   76.2463	   14.4937	       2.4	  8.544e+06	   76.2899	   14.5358	       2.4	8.82416e+06	
         R10	   2124	    76.418	   14.5316	       2.4	9.49709e+06	    76.419	     14.45	       2.4	8.34364e+06	   76.3346	     14.45	       2.4	8.51508e+06	   76.3339	   14.5342	       2.4	8.89331e+06	   76.4185	   14.4908	       2.4	8.84191e+06	   76.3768	     14.45	       2.4	8.38948e+06	   76.3343	   14.4921	       2.4	8.70169e+06	    76.376	   14.5329	       2.4	9.18656e+06	
         R10	   2125	      76.5	   14.5298	       2.4	8.38949e+06	      76.5	     14.45	       2.4	9.89002e+06	    76.419	     14.45	       2.4	 7.7289e+06	    76.418	   14.5316	       2.4	1.00122e+07	      76.5	   14.4899	       2.4	8.13395e+06	   76.4595	     14.45	       2.4	8.66748e+06	   76.4185	   14.4908	       2.4	8.80633e+06	    76.459	   14.5307	       2.4	8.97494e+06	
         R10	   2126	      76.5	   14.6048	       2.4	8.94232e+06	      76.5	   14.5298	       2.4	8.12361e+06	    76.418	   14.5316	       2.4	9.47946e+06	   76.4202	   14.6093	       2.4	9.04431e+06	      76.5	   14.5673	       2.4	8.51834e+06	    76.459	   14.5307	       2.4	8.67755e+06	   76.4191	   14.5705	       2.4	9.22112e+06	   76.4601	   14.6071	       2.4	8.98236e+06	
         R10	   2127	   76.4282	   14.6747	       2.4	8.91756e+06	      76.5	   14.6749	       2.4	8.74692e+06	      76.5	   14.6048	       2.4	 8.8823e+06	   76.4202	   14.6093	       2.4	8.56145e+06	   76.4641	   14.6748	       2.4	8.82634e+06	      76.5	   14.6398	       2.4	8.81427e+06	   76.4601	   14.6071	       2.4	8.70958e+06	   76.4242	    14.642	       2.4	8.73472e+06	
         R10	   2128	    76.436	   14.7385	       2.4	8.79618e+06	      76.5	   14.7403	       2.4	8.79632e+06	      76.5	   14.6749	       2.4	8.82007e+06	   76.4282	   14.6747	       2.4	8.65393e+06	    76.468	   14.7394	       2.4	 8.7901e+06	      76.5	   14.7076	       2.4	8.80741e+06	   76.4641	   14.6748	       2.4	8.72621e+06	   76.4321	   14.7066	       2.4	 8.7222e+06	
         R10	   2129	   76.4423	   14.7999	       2.4	8.78219e+06	      76.5	   14.8009	       2.4	8.80886e+06	      76.5	   14.7403	       2.4	 8.8349e+06	    76.436	   14.7385	       2.4	8.68462e+06	   76.4712	   14.8004	       2.4	8.78915e+06	      76.5	   14.7706	       2.4	8.82101e+06	    76.468	   14.7394	       2.4	8.75191e+06	   76.4392	   14.7692	       2.4	8.73197e+06	
         R10	   2130	   76.4465	   14.8556	       2.4	8.82522e+06	      76.5	   14.8567	       2.4	8.83668e+06	      76.5	   14.8009	       2.4	8.82566e+06	   76.4423	   14.7999	       2.4	8.74233e+06	   76.4732	   14.8561	       2.4	 8.8252e+06	      76.5	   14.8288	       2.4	8.83052e+06	   76.4712	   14.8004	       2.4	8.77692e+06	   76.4444	   14.8277	       2.4	 8.7827e+06	
         R10	   2131	    76.451	   14.9065	       2.4	8.89309e+06	      76.5	   14.9076	       2.4	  8.882e+06	      76.5	   14.8567	       2.4	8.84262e+06	   76.4465	   14.8556	       2.4	8.81001e+06	   76.4755	   14.9071	       2.4	 8.8827e+06	      76.5	   14.8821	       2.4	8.86182e+06	   76.4732	   14.8561	       2.4	8.82032e+06	   76.4487	    14.881	       2.4	8.85072e+06	
         R10	   2132	   76.4561	   14.9524	       2.4	8.97162e+06	      76.5	   14.9538	       2.4	8.94796e+06	      76.5	   14.9076	       2.4	8.88479e+06	    76.451	   14.9065	       2.4	8.88812e+06	   76.4781	   14.9531	       2.4	8.95598e+06	      76.5	   14.9307	       2.4	8.91602e+06	   76.4755	   14.9071	       2.4	8.88152e+06	   76.4536	   14.9294	       2.4	8.92918e+06	
         R10	   2133	   76.4616	   14.9937	       2.4	9.05335e+06	      76.5	   14.9952	       2.4	  9.029e+06	      76.5	   14.9538	       2.4	8.94832e+06	   76.4561	   14.9524	       2.4	8.97061e+06	   76.4808	   14.9944	       2.4	9.03828e+06	      76.5	   14.9745	       2.4	8.98838e+06	   76.4781	   14.9531	       2.4	8.95563e+06	   76.4589	    14.973	       2.4	9.01143e+06	
         R10	   2134	   76.4668	   15.0305	       2.4	 9.1337e+06	      76.5	   15.0317	       2.4	9.11805e+06	      76.5	   14.9952	       2.4	9.02812e+06	   76.4616	   14.9937	       2.4	9.05358e+06	   76.4834	   15.0311	       2.4	9.12365e+06	      76.5	   15.0135	       2.4	9.07286e+06	   76.4808	   14.9944	       2.4	9.03796e+06	   76.4642	   15.0121	       2.4	9.09319e+06	
         R10	   2135	   76.4713	   15.0623	       2.4	9.21022e+06	      76.5	   15.0635	       2.4	9.20603e+06	      76.5	   15.0317	       2.4	9.11725e+06	   76.4668	   15.0305	       2.4	9.13311e+06	   76.4856	   15.0629	       2.4	9.20634e+06	      76.5	   15.0476	       2.4	9.16144e+06	   76.4834	   15.0311	       2.4	9.12297e+06	    76.469	   15.0464	       2.4	9.17129e+06	
         R10	   2136	   76.4753	   15.0894	       2.4	9.27841e+06	      76.5	   15.0905	       2.4	9.28995e+06	      76.5	   15.0635	       2.4	9.20573e+06	   76.4713	   15.0623	       2.4	9.21051e+06	   76.4877	   15.0899	       2.4	9.28266e+06	      76.5	    15.077	       2.4	9.24762e+06	   76.4856	   15.0629	       2.4	9.20636e+06	   76.4733	   15.0758	       2.4	9.24415e+06	
         R10	   2137	   76.4778	   15.1118	       2.4	9.33478e+06	      76.5	   15.1126	       2.4	9.36597e+06	      76.5	   15.0905	       2.4	9.28931e+06	   76.4753	   15.0894	       2.4	9.27925e+06	   76.4889	   15.1122	       2.4	9.34894e+06	      76.5	   15.1016	       2.4	9.32744e+06	   76.4877	   15.0899	       2.4	9.28279e+06	   76.4766	   15.1006	       2.4	9.30675e+06	
         R10	   2138	    76.483	     15.13	       2.4	9.38859e+06	      76.5	     15.13	       2.4	9.42403e+06	      76.5	   15.1126	       2.4	9.36582e+06	   76.4778	   15.1118	       2.4	9.33278e+06	   76.4915	     15.13	       2.4	9.40528e+06	      76.5	   15.1213	       2.4	9.39471e+06	   76.4889	   15.1122	       2.4	9.34789e+06	   76.4804	   15.1209	       2.4	9.36029e+06	
         R10	   2139	   76.4322	   15.1124	       2.4	9.35872e+06	    76.432	     15.13	       2.4	9.42038e+06	    76.449	     15.13	       2.4	9.40618e+06	   76.4519	   15.1123	       2.4	9.33836e+06	   76.4321	   15.1212	       2.4	9.38944e+06	   76.4405	     15.13	       2.4	9.41234e+06	   76.4504	   15.1211	       2.4	9.37215e+06	    76.442	   15.1124	       2.4	9.34746e+06	
         R10	   2140	   76.4152	   15.1121	       2.4	 9.3588e+06	    76.415	     15.13	       2.4	9.43923e+06	    76.432	     15.13	       2.4	9.42341e+06	   76.4322	   15.1124	       2.4	9.35946e+06	   76.4151	   15.1211	       2.4	9.39885e+06	   76.4235	     15.13	       2.4	9.43049e+06	   76.4321	   15.1212	       2.4	9.39132e+06	   76.4237	   15.1123	       2.4	9.35839e+06	
         R10	   2141	   76.3991	   15.1133	       2.4	 9.3615e+06	    76.398	     15.13	       2.4	9.43667e+06	    76.415	     15.13	       2.4	9.43935e+06	   76.4152	   15.1121	       2.4	 9.3634e+06	   76.3985	   15.1217	       2.4	9.39888e+06	   76.4065	     15.13	       2.4	9.43727e+06	   76.4151	   15.1211	       2.4	9.40122e+06	   76.4072	   15.1127	       2.4	9.36183e+06	
         R10	   2142	   76.3812	   15.1108	       2.4	9.33056e+06	    76.381	     15.13	       2.4	9.41533e+06	    76.398	     15.13	       2.4	9.43607e+06	   76.3991	   15.1133	       2.4	9.36425e+06	   76.3811	   15.1204	       2.4	9.37266e+06	   76.3895	     15.13	       2.4	9.42506e+06	   76.3985	   15.1217	       2.4	9.39995e+06	   76.3901	   15.1121	       2.4	9.34673e+06	
         R10	   2143	   76.3644	   15.1138	       2.4	9.30931e+06	    76.364	     15.13	       2.4	9.36736e+06	    76.381	     15.13	       2.4	9.41424e+06	   76.3812	   15.1108	       2.4	9.33173e+06	   76.3642	   15.1219	       2.4	9.33807e+06	   76.3725	     15.13	       2.4	 9.3902e+06	   76.3811	   15.1204	       2.4	9.37271e+06	   76.3728	   15.1123	       2.4	9.31996e+06	
         R10	   2144	   76.3467	   15.1123	       2.4	9.24517e+06	    76.347	     15.13	       2.4	9.30522e+06	    76.364	     15.13	       2.4	9.36643e+06	   76.3644	   15.1138	       2.4	9.30842e+06	   76.3469	   15.1211	       2.4	 9.2749e+06	   76.3555	     15.13	       2.4	 9.3353e+06	   76.3642	   15.1219	       2.4	9.33716e+06	   76.3556	    15.113	       2.4	9.27627e+06	
         R10	   2145	   76.3303	   15.1113	       2.4	9.18522e+06	     76.33	     15.13	       2.4	9.22478e+06	    76.347	     15.13	       2.4	9.30554e+06	   76.3467	   15.1123	       2.4	9.24398e+06	   76.3301	   15.1207	       2.4	9.20466e+06	   76.3385	     15.13	       2.4	9.26467e+06	   76.3469	   15.1211	       2.4	9.27447e+06	   76.3385	   15.1118	       2.4	9.21421e+06	
         R10	   2146	   76.3136	   15.1461	       2.4	9.16527e+06	     76.33	    15.147	       2.4	9.26272e+06	     76.33	     15.13	       2.4	9.22717e+06	   76.3134	   15.1309	       2.4	9.14301e+06	   76.3218	   15.1466	       2.4	9.21359e+06	     76.33	   15.1385	       2.4	9.24458e+06	   76.3217	   15.1304	       2.4	9.18466e+06	   76.3135	   15.1385	       2.4	9.15386e+06	
         R10	   2147	   76.3101	   15.1638	       2.4	9.15624e+06	     76.33	    15.164	       2.4	9.29861e+06	     76.33	    15.147	       2.4	9.26469e+06	   76.3136	   15.1461	       2.4	9.16712e+06	   76.3201	   15.1639	       2.4	9.22676e+06	     76.33	   15.1555	       2.4	9.28116e+06	   76.3218	   15.1466	       2.4	9.21549e+06	   76.3119	    15.155	       2.4	9.16116e+06	
         R10	   2148	   76.3128	   15.1815	       2.4	9.17974e+06	     76.33	    15.181	       2.4	9.32122e+06	     76.33	    15.164	       2.4	9.29796e+06	   76.3101	   15.1638	       2.4	9.15642e+06	   76.3214	   15.1812	       2.4	9.24992e+06	     76.33	   15.1725	       2.4	9.30899e+06	   76.3201	   15.1639	       2.4	9.22655e+06	   76.3115	   15.1727	       2.4	9.16745e+06	
         R10	   2149	   76.3124	   15.1981	       2.4	9.16029e+06	     76.33	    15.198	       2.4	 9.3292e+06	     76.33	    15.181	       2.4	9.32237e+06	   76.3128	   15.1815	       2.4	9.17767e+06	   76.3212	   15.1981	       2.4	9.24416e+06	     76.33	   15.1895	       2.4	9.32494e+06	   76.3214	   15.1812	       2.4	9.24949e+06	   76.3126	   15.1898	       2.4	9.16834e+06	
         R10	   2150	   76.3132	    15.214	       2.4	9.13413e+06	     76.33	    15.215	       2.4	9.31408e+06	     76.33	    15.198	       2.4	9.33005e+06	   76.3124	   15.1981	       2.4	 9.1606e+06	   76.3216	   15.2145	       2.4	9.22355e+06	     76.33	   15.2065	       2.4	9.32096e+06	   76.3212	   15.1981	       2.4	 9.2447e+06	   76.3128	   15.2061	       2.4	9.14665e+06	
         R10	   2151	   76.3111	   15.2321	       2.4	 9.0452e+06	     76.33	    15.232	       2.4	9.26434e+06	     76.33	    15.215	       2.4	9.31493e+06	   76.3132	    15.214	       2.4	9.13584e+06	   76.3206	    15.232	       2.4	9.15389e+06	     76.33	   15.2235	       2.4	9.28822e+06	   76.3216	   15.2145	       2.4	9.22483e+06	   76.3122	    15.223	       2.4	9.08927e+06	
         R10	   2152	   76.3153	   15.2492	       2.4	8.99338e+06	     76.33	    15.249	       2.4	9.18816e+06	     76.33	    15.232	       2.4	9.26536e+06	   76.3111	   15.2321	       2.4	 9.0498e+06	   76.3227	   15.2491	       2.4	9.09012e+06	     76.33	   15.2405	       2.4	 9.2251e+06	   76.3206	    15.232	       2.4	9.15673e+06	   76.3132	   15.2407	       2.4	 9.0204e+06	
         R10	   2153	   76.3131	   15.2662	       2.4	8.84208e+06	     76.33	    15.266	       2.4	9.06108e+06	     76.33	    15.249	       2.4	9.18565e+06	   76.3153	   15.2492	       2.4	8.99396e+06	   76.3216	   15.2661	       2.4	8.95058e+06	     76.33	   15.2575	       2.4	9.12136e+06	   76.3227	   15.2491	       2.4	9.08917e+06	   76.3142	   15.2577	       2.4	8.91655e+06	
         R10	   2154	   76.3115	   15.2822	       2.4	8.68069e+06	     76.33	    15.283	       2.4	 8.9041e+06	     76.33	    15.266	       2.4	9.06207e+06	   76.3131	   15.2662	       2.4	8.84016e+06	   76.3207	   15.2826	       2.4	8.79099e+06	     76.33	   15.2745	       2.4	8.98086e+06	   76.3216	   15.2661	       2.4	8.95012e+06	   76.3123	   15.2742	       2.4	8.75903e+06	
         R10	   2155	   76.3126	      15.3	       2.4	8.50726e+06	     76.33	      15.3	       2.4	 8.7058e+06	     76.33	    15.283	       2.4	 8.9096e+06	   76.3115	   15.2822	       2.4	8.68379e+06	   76.3213	      15.3	       2.4	8.60511e+06	     76.33	   15.2915	       2.4	  8.805e+06	   76.3207	   15.2826	       2.4	8.79525e+06	   76.3121	   15.2911	       2.4	 8.5935e+06	
         R10	   2156	   76.2889	    15.276	       2.4	8.50924e+06	   76.2905	      15.3	       2.4	8.28278e+06	   76.3126	      15.3	       2.4	8.49557e+06	   76.3115	   15.2822	       2.4	8.68792e+06	   76.2897	    15.288	       2.4	8.39356e+06	   76.3016	      15.3	       2.4	8.38714e+06	   76.3121	   15.2911	       2.4	8.58958e+06	   76.3002	   15.2791	       2.4	8.59675e+06	
         R10	   2157	   76.2623	   15.2713	       2.4	8.32178e+06	   76.2635	      15.3	       2.4	8.06711e+06	   76.2905	      15.3	       2.4	8.28241e+06	   76.2889	    15.276	       2.4	8.50882e+06	   76.2629	   15.2856	       2.4	8.19217e+06	    76.277	      15.3	       2.4	8.17228e+06	   76.2897	    15.288	       2.4	8.39319e+06	   76.2756	   15.2736	       2.4	8.41343e+06	
         R10	   2158	   76.2305	   15.2668	       2.4	8.13511e+06	   76.2317	      15.3	       2.4	7.86958e+06	   76.2635	      15.3	       2.4	8.06791e+06	   76.2623	   15.2713	       2.4	8.32012e+06	   76.2311	   15.2834	       2.4	 8.0004e+06	   76.2476	      15.3	       2.4	7.96599e+06	   76.2629	   15.2856	       2.4	8.19177e+06	   76.2464	    15.269	       2.4	8.22551e+06	
         R10	   2159	   76.1937	   15.2616	       2.4	7.96405e+06	   76.1952	      15.3	       2.4	7.69846e+06	   76.2317	      15.3	       2.4	7.86907e+06	   76.2305	   15.2668	       2.4	 8.1343e+06	   76.1944	   15.2808	       2.4	7.82952e+06	   76.2135	      15.3	       2.4	 7.7809e+06	   76.2311	   15.2834	       2.4	7.99972e+06	   76.2121	   15.2642	       2.4	8.04701e+06	
         R10	   2160	   76.1524	   15.2561	       2.4	7.81405e+06	   76.1538	      15.3	       2.4	7.55264e+06	   76.1952	      15.3	       2.4	7.69697e+06	   76.1937	   15.2616	       2.4	7.96381e+06	   76.1531	   15.2781	       2.4	7.68154e+06	   76.1745	      15.3	       2.4	7.62197e+06	   76.1944	   15.2808	       2.4	7.82861e+06	    76.173	   15.2589	       2.4	7.88685e+06	
         R10	   2161	   76.1065	    15.251	       2.4	7.67746e+06	   76.1076	      15.3	       2.4	7.43438e+06	   76.1538	      15.3	       2.4	7.55158e+06	   76.1524	   15.2561	       2.4	 7.8136e+06	   76.1071	   15.2755	       2.4	7.55378e+06	   76.1307	      15.3	       2.4	7.49029e+06	   76.1531	   15.2781	       2.4	7.68073e+06	   76.1294	   15.2536	       2.4	7.74351e+06	
         R10	   2162	   76.0556	   15.2465	       2.4	7.55447e+06	   76.0567	      15.3	       2.4	7.34163e+06	   76.1076	      15.3	       2.4	7.43288e+06	   76.1065	    15.251	       2.4	7.67789e+06	   76.0561	   15.2732	       2.4	7.44538e+06	   76.0821	      15.3	       2.4	7.38482e+06	   76.1071	   15.2755	       2.4	7.55319e+06	    76.081	   15.2487	       2.4	7.61421e+06	
         R10	   2163	   75.9999	   15.2423	       2.4	7.44951e+06	   76.0009	      15.3	       2.4	7.27015e+06	   76.0567	      15.3	       2.4	7.33978e+06	   76.0556	   15.2465	       2.4	7.55519e+06	   76.0004	   15.2712	       2.4	7.35643e+06	   76.0288	      15.3	       2.4	 7.3028e+06	   76.0561	   15.2732	       2.4	7.44476e+06	   76.0277	   15.2444	       2.4	7.50049e+06	
         R10	   2164	   75.9388	   15.2374	       2.4	7.36277e+06	   75.9403	      15.3	       2.4	7.21439e+06	   76.0009	      15.3	       2.4	7.26773e+06	   75.9999	   15.2423	       2.4	7.45085e+06	   75.9396	   15.2687	       2.4	7.28423e+06	   75.9706	      15.3	       2.4	7.23915e+06	   76.0004	   15.2712	       2.4	7.35586e+06	   75.9693	   15.2398	       2.4	7.40515e+06	
         R10	   2165	   75.8736	   15.2317	       2.4	7.29608e+06	   75.8749	      15.3	       2.4	7.17256e+06	   75.9403	      15.3	       2.4	7.21382e+06	   75.9388	   15.2374	       2.4	7.36336e+06	   75.8743	   15.2658	       2.4	7.22883e+06	   75.9076	      15.3	       2.4	7.19155e+06	   75.9396	   15.2687	       2.4	7.28422e+06	   75.9062	   15.2345	       2.4	 7.3283e+06	
         R10	   2166	   75.8037	   15.2268	       2.4	7.23887e+06	   75.8048	      15.3	       2.4	7.14201e+06	   75.8749	      15.3	       2.4	7.17327e+06	   75.8736	   15.2317	       2.4	7.29361e+06	   75.8042	   15.2634	       2.4	7.18371e+06	   75.8399	      15.3	       2.4	7.15622e+06	   75.8743	   15.2658	       2.4	7.22793e+06	   75.8386	   15.2293	       2.4	7.26498e+06	
         R10	   2167	   75.7283	   15.2221	       2.4	7.18274e+06	   75.7298	      15.3	       2.4	7.12909e+06	   75.8048	      15.3	       2.4	7.14552e+06	   75.8037	   15.2268	       2.4	 7.2357e+06	    75.729	   15.2611	       2.4	7.14849e+06	   75.7673	      15.3	       2.4	7.13623e+06	   75.8042	   15.2634	       2.4	7.18389e+06	    75.766	   15.2245	       2.4	7.20785e+06	
         R10	   2168	     75.65	    15.219	       2.4	7.14501e+06	     75.65	      15.3	       2.4	7.10498e+06	   75.7298	      15.3	       2.4	7.13568e+06	   75.7283	   15.2221	       2.4	7.17951e+06	     75.65	   15.2595	       2.4	7.11653e+06	   75.6899	      15.3	       2.4	7.11922e+06	    75.729	   15.2611	       2.4	7.15011e+06	   75.6891	   15.2206	       2.4	7.16129e+06	
         R10	   2169	     75.65	   15.1346	       2.4	7.22874e+06	     75.65	    15.219	       2.4	7.13339e+06	   75.7283	   15.2221	       2.4	7.18808e+06	   75.7318	   15.1407	       2.4	7.26141e+06	     75.65	   15.1768	       2.4	 7.1769e+06	   75.6891	   15.2206	       2.4	7.15946e+06	     75.73	   15.1814	       2.4	 7.2208e+06	   75.6909	   15.1376	       2.4	7.24413e+06	
         R10	   2170	   75.7377	   15.0479	       2.4	7.36348e+06	     75.65	   15.0468	       2.4	7.25759e+06	     75.65	   15.1346	       2.4	7.23515e+06	   75.7318	   15.1407	       2.4	 7.2748e+06	   75.6938	   15.0474	       2.4	7.30873e+06	     75.65	   15.0907	       2.4	7.24508e+06	   75.6909	   15.1376	       2.4	7.25394e+06	   75.7347	   15.0943	       2.4	7.31743e+06	
         R10	   2171	   75.7416	   14.9563	       2.4	7.36993e+06	     75.65	   14.9557	       2.4	7.31009e+06	     75.65	   15.0468	       2.4	7.26689e+06	   75.7377	   15.0479	       2.4	7.38391e+06	   75.6958	    14.956	       2.4	7.33917e+06	     75.65	   15.0013	       2.4	 7.2882e+06	   75.6938	   15.0474	       2.4	7.32342e+06	   75.7397	   15.0021	       2.4	7.37689e+06	
         R10	   2172	   75.7439	   14.8607	       2.4	7.37233e+06	     75.65	   14.8613	       2.4	 7.2239e+06	     75.65	   14.9557	       2.4	7.35061e+06	   75.7416	   14.9563	       2.4	7.39879e+06	   75.6969	    14.861	       2.4	7.29569e+06	     75.65	   14.9085	       2.4	7.28656e+06	   75.6958	    14.956	       2.4	7.37395e+06	   75.7428	   14.9085	       2.4	7.38466e+06	
         R10	   2173	   75.7483	   14.7612	       2.4	7.26672e+06	     75.65	   14.7635	       2.4	7.18433e+06	     75.65	   14.8613	       2.4	 7.2775e+06	   75.7439	   14.8607	       2.4	7.43511e+06	   75.6992	   14.7623	       2.4	7.22461e+06	     75.65	   14.8124	       2.4	7.22696e+06	   75.6969	    14.861	       2.4	7.35394e+06	   75.7461	   14.8109	       2.4	7.34724e+06	
         R10	   2174	   75.7534	   14.6603	       2.4	7.22996e+06	     75.65	   14.6624	       2.4	7.10363e+06	     75.65	   14.7635	       2.4	 7.2863e+06	   75.7483	   14.7612	       2.4	7.39112e+06	   75.7017	   14.6613	       2.4	7.16507e+06	     75.65	   14.7129	       2.4	7.18385e+06	   75.6992	   14.7623	       2.4	7.33747e+06	   75.7509	   14.7107	       2.4	7.30001e+06	
         R10	   2175	   75.7569	   14.5556	       2.4	7.72026e+06	   75.7579	     14.45	       2.4	7.65867e+06	     75.65	     14.45	       2.4	7.52435e+06	     75.65	   14.5579	       2.4	7.49744e+06	   75.7574	   14.5028	       2.4	7.64207e+06	   75.7039	     14.45	       2.4	7.58945e+06	     75.65	   14.5039	       2.4	7.46488e+06	   75.7034	   14.5567	       2.4	7.60558e+06	
         R10	   2176	   75.9682	   14.6323	       2.4	7.81284e+06	   75.9624	    14.547	       2.4	7.64142e+06	   75.8605	   14.5518	       2.4	7.49562e+06	   75.8613	   14.6542	       2.4	7.55665e+06	   75.9653	   14.5896	       2.4	7.70999e+06	   75.9115	   14.5494	       2.4	7.56738e+06	   75.8609	    14.603	       2.4	 7.5045e+06	   75.9148	   14.6433	       2.4	7.68175e+06	
         R10	   2177	   76.0641	   14.6318	       2.4	8.03212e+06	   76.0607	   14.5438	       2.4	7.78468e+06	   75.9624	    14.547	       2.4	7.58829e+06	   75.9682	   14.6323	       2.4	7.86674e+06	   76.0624	   14.5878	       2.4	7.89576e+06	   76.0116	   14.5454	       2.4	7.68466e+06	   75.9653	   14.5896	       2.4	7.71006e+06	   76.0161	   14.6321	       2.4	7.94877e+06	
         R10	   2178	   76.1574	   14.6279	       2.4	8.22177e+06	   76.1548	    14.541	       2.4	7.95519e+06	   76.0607	   14.5438	       2.4	7.78618e+06	   76.0641	   14.6318	       2.4	 8.0196e+06	   76.1561	   14.5844	       2.4	8.07997e+06	   76.1077	   14.5424	       2.4	7.86946e+06	   76.0624	   14.5878	       2.4	7.88989e+06	   76.1108	   14.6299	       2.4	8.11986e+06	
         R10	   2179	   76.2482	   14.6172	       2.4	8.45319e+06	   76.2458	   14.5373	       2.4	8.09034e+06	   76.1548	    14.541	       2.4	7.97254e+06	   76.1574	   14.6279	       2.4	8.20331e+06	    76.247	   14.5773	       2.4	8.26693e+06	   76.2003	   14.5392	       2.4	8.03063e+06	   76.1561	   14.5844	       2.4	8.07905e+06	   76.2029	   14.6226	       2.4	8.32685e+06	
         R10	   2180	   76.3372	   14.6114	       2.4	8.72318e+06	   76.3339	   14.5342	       2.4	8.32261e+06	   76.2458	   14.5373	       2.4	8.06874e+06	   76.2482	   14.6172	       2.4	8.46553e+06	   76.3356	   14.5728	       2.4	8.51636e+06	   76.2899	   14.5358	       2.4	 8.1952e+06	    76.247	   14.5773	       2.4	8.26219e+06	   76.2927	   14.6143	       2.4	8.59072e+06	
         R10	   2181	   76.4202	   14.6093	       2.4	9.12981e+06	    76.418	   14.5316	       2.4	8.40603e+06	   76.3339	   14.5342	       2.4	8.30924e+06	   76.3372	   14.6114	       2.4	8.73783e+06	   76.4191	   14.5705	       2.4	 8.7531e+06	    76.376	   14.5329	       2.4	8.35631e+06	   76.3356	   14.5728	       2.4	 8.5215e+06	   76.3787	   14.6104	       2.4	8.92628e+06	
         R10	   2182	   76.4282	   14.6747	       2.4	8.88888e+06	   76.4202	   14.6093	       2.4	8.69563e+06	   76.3372	   14.6114	       2.4	8.36587e+06	   76.3411	   14.6834	       2.4	8.65613e+06	   76.4242	    14.642	       2.4	8.78515e+06	   76.3787	   14.6104	       2.4	8.52178e+06	   76.3391	   14.6474	       2.4	8.50669e+06	   76.3846	   14.6791	       2.4	8.76247e+06	
         R10	   2183	   76.3828	   14.7456	       2.4	8.65547e+06	    76.436	   14.7385	       2.4	8.81745e+06	   76.4282	   14.6747	       2.4	8.61659e+06	   76.3411	   14.6834	       2.4	8.53418e+06	   76.4094	    14.742	       2.4	8.73151e+06	   76.4321	   14.7066	       2.4	8.71381e+06	   76.3846	   14.6791	       2.4	 8.5678e+06	   76.3619	   14.7145	       2.4	 8.5902e+06	
         R10	   2184	   76.3868	   14.8052	       2.4	8.70447e+06	   76.4423	   14.7999	       2.4	8.77393e+06	    76.436	   14.7385	       2.4	8.70387e+06	   76.3828	   14.7456	       2.4	8.59798e+06	   76.4145	   14.8025	       2.4	8.73457e+06	   76.4392	   14.7692	       2.4	 8.7374e+06	   76.4094	    14.742	       2.4	8.64707e+06	   76.3848	   14.7754	       2.4	8.64973e+06	
         R10	   2185	   76.3929	   14.8603	       2.4	8.76765e+06	   76.4465	   14.8556	       2.4	8.82305e+06	   76.4423	   14.7999	       2.4	 8.7333e+06	   76.3868	   14.8052	       2.4	8.68497e+06	   76.4197	   14.8579	       2.4	8.79088e+06	   76.4444	   14.8277	       2.4	8.77714e+06	   76.4145	   14.8025	       2.4	8.70487e+06	   76.3898	   14.8328	       2.4	8.72527e+06	
         R10	   2186	   76.4018	   14.9116	       2.4	8.85964e+06	    76.451	   14.9065	       2.4	 8.8882e+06	   76.4465	   14.8556	       2.4	8.80757e+06	   76.3929	   14.8603	       2.4	8.75949e+06	   76.4264	    14.909	       2.4	8.87003e+06	   76.4487	    14.881	       2.4	8.84708e+06	   76.4197	   14.8579	       2.4	8.77913e+06	   76.3974	    14.886	       2.4	8.80849e+06	
         R10	   2187	   76.4113	   14.9577	       2.4	8.95568e+06	   76.4561	   14.9524	       2.4	8.96551e+06	    76.451	   14.9065	       2.4	8.88259e+06	   76.4018	   14.9116	       2.4	8.85741e+06	   76.4337	    14.955	       2.4	8.95724e+06	   76.4536	   14.9294	       2.4	8.92339e+06	   76.4264	    14.909	       2.4	8.86615e+06	   76.4065	   14.9346	       2.4	8.90565e+06	
         R10	   2188	   76.4252	   14.9983	       2.4	 9.0482e+06	   76.4616	   14.9937	       2.4	9.04887e+06	   76.4561	   14.9524	       2.4	8.96415e+06	   76.4113	   14.9577	       2.4	8.95557e+06	   76.4434	    14.996	       2.4	9.04616e+06	   76.4589	    14.973	       2.4	9.00595e+06	   76.4337	    14.955	       2.4	8.95651e+06	   76.4182	    14.978	       2.4	9.00091e+06	
         R10	   2189	   76.4352	   15.0348	       2.4	9.13721e+06	   76.4668	   15.0305	       2.4	9.13146e+06	   76.4616	   14.9937	       2.4	9.04948e+06	   76.4252	   14.9983	       2.4	9.05022e+06	    76.451	   15.0326	       2.4	9.13246e+06	   76.4642	   15.0121	       2.4	9.09002e+06	   76.4434	    14.996	       2.4	9.04749e+06	   76.4302	   15.0165	       2.4	9.09305e+06	
         R10	   2190	   76.4441	   15.0661	       2.4	9.21827e+06	   76.4713	   15.0623	       2.4	9.20701e+06	   76.4668	   15.0305	       2.4	9.13139e+06	   76.4352	   15.0348	       2.4	9.13979e+06	   76.4577	   15.0642	       2.4	9.21107e+06	    76.469	   15.0464	       2.4	9.16882e+06	    76.451	   15.0326	       2.4	9.13371e+06	   76.4397	   15.0505	       2.4	9.17853e+06	
         R10	   2191	   76.4554	   15.0933	       2.4	 9.2847e+06	   76.4753	   15.0894	       2.4	9.28043e+06	   76.4713	   15.0623	       2.4	9.20658e+06	   76.4441	   15.0661	       2.4	9.21929e+06	   76.4653	   15.0913	       2.4	9.28161e+06	   76.4733	   15.0758	       2.4	9.24319e+06	   76.4577	   15.0642	       2.4	9.21135e+06	   76.4497	   15.0797	       2.4	9.25132e+06	
         R10	   2192	   76.4519	   15.1123	       2.4	9.33258e+06	    76.449	     15.13	       2.4	9.40561e+06	    76.466	     15.13	       2.4	9.37326e+06	   76.4778	   15.1118	       2.4	9.34169e+06	   76.4504	   15.1211	       2.4	9.36898e+06	   76.4575	     15.13	       2.4	9.38841e+06	   76.4719	   15.1209	       2.4	9.35718e+06	   76.4648	    15.112	       2.4	9.33512e+06	
         R10	   2193	    76.398	   15.0946	       2.4	9.29183e+06	   76.3991	   15.1133	       2.4	9.35982e+06	   76.4152	   15.1121	       2.4	9.36333e+06	    76.416	   15.0913	       2.4	9.28361e+06	   76.3985	    15.104	       2.4	9.32569e+06	   76.4072	   15.1127	       2.4	9.36094e+06	   76.4156	   15.1017	       2.4	9.32323e+06	    76.407	    15.093	       2.4	9.28712e+06	
         R10	   2194	   76.3589	   15.0907	       2.4	9.21499e+06	   76.3644	   15.1138	       2.4	9.30777e+06	   76.3812	   15.1108	       2.4	9.33544e+06	   76.3747	   15.0937	       2.4	9.26115e+06	   76.3617	   15.1022	       2.4	9.26105e+06	   76.3728	   15.1123	       2.4	9.32098e+06	    76.378	   15.1023	       2.4	9.29807e+06	   76.3668	   15.0922	       2.4	9.23774e+06	
         R10	   2195	   76.3328	    15.092	       2.4	9.14525e+06	   76.3303	   15.1113	       2.4	9.18276e+06	   76.3467	   15.1123	       2.4	 9.2467e+06	   76.3589	   15.0907	       2.4	9.22209e+06	   76.3315	   15.1016	       2.4	9.16368e+06	   76.3385	   15.1118	       2.4	 9.2143e+06	   76.3528	   15.1015	       2.4	9.23365e+06	   76.3459	   15.0913	       2.4	9.18258e+06	
         R10	   2196	   76.3134	   15.1309	       2.4	9.14231e+06	     76.33	     15.13	       2.4	9.22497e+06	   76.3303	   15.1113	       2.4	9.18647e+06	   76.3068	   15.1131	       2.4	9.07802e+06	   76.3217	   15.1304	       2.4	9.18319e+06	   76.3301	   15.1207	       2.4	9.20538e+06	   76.3185	   15.1122	       2.4	9.13143e+06	   76.3101	    15.122	       2.4	9.10987e+06	
         R10	   2197	   76.2936	   15.1476	       2.4	9.04106e+06	   76.3136	   15.1461	       2.4	9.16478e+06	   76.3134	   15.1309	       2.4	9.14214e+06	   76.2915	   15.1308	       2.4	9.01645e+06	   76.3036	   15.1468	       2.4	9.10233e+06	   76.3135	   15.1385	       2.4	9.15318e+06	   76.3024	   15.1309	       2.4	9.07863e+06	   76.2925	   15.1392	       2.4	9.02851e+06	
         R10	   2198	    76.286	   15.1842	       2.4	8.96011e+06	   76.3128	   15.1815	       2.4	9.17324e+06	   76.3101	   15.1638	       2.4	9.16451e+06	   76.2945	   15.1691	       2.4	9.04096e+06	   76.2994	   15.1828	       2.4	9.06539e+06	   76.3115	   15.1727	       2.4	9.16835e+06	   76.3023	   15.1665	       2.4	 9.1022e+06	   76.2902	   15.1766	       2.4	8.99996e+06	
         R10	   2199	    76.291	      15.2	       2.4	8.95316e+06	   76.3124	   15.1981	       2.4	9.16946e+06	   76.3128	   15.1815	       2.4	9.17139e+06	    76.286	   15.1842	       2.4	8.97314e+06	   76.3017	    15.199	       2.4	 9.0603e+06	   76.3126	   15.1898	       2.4	9.16981e+06	   76.2994	   15.1828	       2.4	9.07123e+06	   76.2885	   15.1921	       2.4	8.96266e+06	
         R10	   2200	   76.2942	   15.2179	       2.4	8.93509e+06	   76.3132	    15.214	       2.4	9.12954e+06	   76.3124	   15.1981	       2.4	9.16623e+06	    76.291	      15.2	       2.4	8.95526e+06	   76.3037	    15.216	       2.4	9.03151e+06	   76.3128	   15.2061	       2.4	9.14717e+06	   76.3017	    15.199	       2.4	9.05982e+06	   76.2926	    15.209	       2.4	 8.9444e+06	
         R10	   2201	   76.2932	   15.2523	       2.4	8.73969e+06	   76.2889	    15.276	       2.4	8.50004e+06	   76.3115	   15.2822	       2.4	8.68087e+06	   76.3131	   15.2662	       2.4	8.84627e+06	   76.2911	   15.2642	       2.4	8.61769e+06	   76.3002	   15.2791	       2.4	8.58871e+06	   76.3123	   15.2742	       2.4	8.76214e+06	   76.3032	   15.2593	       2.4	8.79116e+06	
         R10	   2202	   76.2654	   15.2448	       2.4	8.53166e+06	   76.2623	   15.2713	       2.4	8.31406e+06	   76.2889	    15.276	       2.4	8.50089e+06	   76.2932	   15.2523	       2.4	8.73224e+06	   76.2639	    15.258	       2.4	8.42131e+06	   76.2756	   15.2736	       2.4	8.40558e+06	   76.2911	   15.2642	       2.4	8.61452e+06	   76.2793	   15.2485	       2.4	 8.6302e+06	
         R10	   2203	   76.2348	   15.2352	       2.4	8.35856e+06	   76.2305	   15.2668	       2.4	 8.1252e+06	   76.2623	   15.2713	       2.4	8.31209e+06	   76.2654	   15.2448	       2.4	8.53124e+06	   76.2326	    15.251	       2.4	8.24054e+06	   76.2464	    15.269	       2.4	8.21653e+06	   76.2639	    15.258	       2.4	 8.4201e+06	   76.2501	     15.24	       2.4	8.44325e+06	
         R10	   2204	   76.1983	   15.2252	       2.4	8.18988e+06	   76.1937	   15.2616	       2.4	7.95531e+06	   76.2305	   15.2668	       2.4	8.12509e+06	   76.2348	   15.2352	       2.4	8.35941e+06	    76.196	   15.2434	       2.4	8.07147e+06	   76.2121	   15.2642	       2.4	8.03804e+06	   76.2326	    15.251	       2.4	 8.2409e+06	   76.2165	   15.2302	       2.4	8.27286e+06	
         R10	   2205	   76.1577	   15.2113	       2.4	8.05042e+06	   76.1524	   15.2561	       2.4	7.80518e+06	   76.1937	   15.2616	       2.4	7.95471e+06	   76.1983	   15.2252	       2.4	8.18966e+06	    76.155	   15.2337	       2.4	7.92666e+06	    76.173	   15.2589	       2.4	7.87787e+06	    76.196	   15.2434	       2.4	8.07106e+06	    76.178	   15.2182	       2.4	8.11845e+06	
         R10	   2206	   76.1116	   15.2018	       2.4	7.89632e+06	   76.1065	    15.251	       2.4	7.66929e+06	   76.1524	   15.2561	       2.4	7.80581e+06	   76.1577	   15.2113	       2.4	 8.0491e+06	    76.109	   15.2264	       2.4	7.78171e+06	   76.1294	   15.2536	       2.4	7.73551e+06	    76.155	   15.2337	       2.4	7.92634e+06	   76.1346	   15.2065	       2.4	7.97094e+06	
         R10	   2207	   76.0603	   15.1929	       2.4	7.75411e+06	   76.0556	   15.2465	       2.4	7.54831e+06	   76.1065	    15.251	       2.4	7.67026e+06	   76.1116	   15.2018	       2.4	7.89434e+06	   76.0579	   15.2197	       2.4	7.64996e+06	    76.081	   15.2487	       2.4	7.60731e+06	    76.109	   15.2264	       2.4	7.78121e+06	    76.086	   15.1974	       2.4	7.82244e+06	
         R10	   2208	   76.0047	   15.1864	       2.4	7.61954e+06	   75.9999	   15.2423	       2.4	7.44404e+06	   76.0556	   15.2465	       2.4	7.54931e+06	   76.0603	   15.1929	       2.4	7.74896e+06	   76.0023	   15.2144	       2.4	7.53023e+06	   76.0277	   15.2444	       2.4	7.49482e+06	   76.0579	   15.2197	       2.4	7.64789e+06	   76.0325	   15.1896	       2.4	7.68253e+06	
         R10	   2209	   75.9432	   15.1789	       2.4	 7.5005e+06	   75.9388	   15.2374	       2.4	7.35863e+06	   75.9999	   15.2423	       2.4	7.44369e+06	   76.0047	   15.1864	       2.4	7.61806e+06	    75.941	   15.2081	       2.4	7.42777e+06	   75.9693	   15.2398	       2.4	7.39954e+06	   76.0023	   15.2144	       2.4	7.52934e+06	    75.974	   15.1826	       2.4	7.55755e+06	
         R10	   2210	   75.8782	   15.1616	       2.4	7.43271e+06	   75.8736	   15.2317	       2.4	7.28464e+06	   75.9388	   15.2374	       2.4	7.36122e+06	   75.9432	   15.1789	       2.4	 7.4968e+06	   75.8759	   15.1967	       2.4	7.35587e+06	   75.9062	   15.2345	       2.4	7.32141e+06	    75.941	   15.2081	       2.4	7.42718e+06	   75.9107	   15.1702	       2.4	7.46366e+06	
         R10	   2211	   75.8076	   15.1515	       2.4	7.34048e+06	   75.8037	   15.2268	       2.4	7.22573e+06	   75.8736	   15.2317	       2.4	 7.2807e+06	   75.8782	   15.1616	       2.4	7.42687e+06	   75.8057	   15.1892	       2.4	7.27983e+06	   75.8386	   15.2293	       2.4	7.25194e+06	   75.8759	   15.1967	       2.4	7.35104e+06	   75.8429	   15.1566	       2.4	7.38231e+06	
         R10	   2212	   75.7318	   15.1407	       2.4	7.26789e+06	   75.7283	   15.2221	       2.4	 7.1915e+06	   75.8037	   15.2268	       2.4	7.22441e+06	   75.8076	   15.1515	       2.4	7.33775e+06	     75.73	   15.1814	       2.4	7.22567e+06	    75.766	   15.2245	       2.4	7.20684e+06	   75.8057	   15.1892	       2.4	7.27783e+06	   75.7697	   15.1461	       2.4	7.30162e+06	
         R10	   2213	   75.7377	   15.0479	       2.4	7.34436e+06	   75.7318	   15.1407	       2.4	7.28811e+06	   75.8076	   15.1515	       2.4	7.34129e+06	    75.814	   15.0694	       2.4	7.44512e+06	   75.7347	   15.0943	       2.4	7.31463e+06	   75.7697	   15.1461	       2.4	7.31368e+06	   75.8108	   15.1104	       2.4	7.39199e+06	   75.7758	   15.0586	       2.4	 7.3932e+06	
         R10	   2214	   75.8273	   14.9579	       2.4	7.50651e+06	   75.7416	   14.9563	       2.4	7.39859e+06	   75.7377	   15.0479	       2.4	7.37691e+06	    75.814	   15.0694	       2.4	 7.4799e+06	   75.7845	   14.9571	       2.4	7.45131e+06	   75.7397	   15.0021	       2.4	7.38752e+06	   75.7758	   15.0586	       2.4	7.42696e+06	   75.8206	   15.0136	       2.4	7.49306e+06	
         R10	   2215	    75.832	   14.8637	       2.4	7.49521e+06	   75.7439	   14.8607	       2.4	 7.3398e+06	   75.7416	   14.9563	       2.4	7.43623e+06	   75.8273	   14.9579	       2.4	7.53318e+06	   75.7879	   14.8622	       2.4	7.41557e+06	   75.7428	   14.9085	       2.4	7.38734e+06	   75.7845	   14.9571	       2.4	7.48354e+06	   75.8296	   14.9108	       2.4	7.51331e+06	
         R10	   2216	   75.8333	   14.7656	       2.4	7.40448e+06	   75.7483	   14.7612	       2.4	7.29119e+06	   75.7439	   14.8607	       2.4	7.40096e+06	    75.832	   14.8637	       2.4	7.55578e+06	   75.7908	   14.7634	       2.4	7.34677e+06	   75.7461	   14.8109	       2.4	7.34234e+06	   75.7879	   14.8622	       2.4	7.47662e+06	   75.8326	   14.8146	       2.4	7.47658e+06	
         R10	   2217	   75.7569	   14.5556	       2.4	7.33263e+06	     75.65	   14.5579	       2.4	7.16826e+06	     75.65	   14.6624	       2.4	7.27879e+06	   75.7534	   14.6603	       2.4	7.45177e+06	   75.7034	   14.5567	       2.4	 7.2474e+06	     75.65	   14.6101	       2.4	7.19866e+06	   75.7017	   14.6613	       2.4	7.36309e+06	   75.7551	   14.6079	       2.4	7.36827e+06	
         R10	   2218	   75.8613	   14.6542	       2.4	7.58926e+06	   75.8605	   14.5518	       2.4	7.49257e+06	   75.7569	   14.5556	       2.4	7.29804e+06	   75.7534	   14.6603	       2.4	7.44193e+06	   75.8609	    14.603	       2.4	7.51997e+06	   75.8087	   14.5537	       2.4	7.39267e+06	   75.7551	   14.6079	       2.4	7.34537e+06	   75.8074	   14.6572	       2.4	7.51411e+06	
         R10	   2219	   76.0677	   14.7135	       2.4	7.94768e+06	   76.0641	   14.6318	       2.4	 7.7335e+06	   75.9682	   14.6323	       2.4	7.54699e+06	   75.9804	   14.7134	       2.4	7.80186e+06	   76.0659	   14.6726	       2.4	7.83535e+06	   76.0161	   14.6321	       2.4	7.63919e+06	   75.9743	   14.6729	       2.4	 7.6651e+06	   76.0241	   14.7134	       2.4	7.87362e+06	
         R10	   2220	   76.1629	   14.7089	       2.4	8.16312e+06	   76.1574	   14.6279	       2.4	7.93571e+06	   76.0641	   14.6318	       2.4	7.74394e+06	   76.0677	   14.7135	       2.4	 7.9448e+06	   76.1602	   14.6684	       2.4	8.04472e+06	   76.1108	   14.6299	       2.4	7.83881e+06	   76.0659	   14.6726	       2.4	7.83913e+06	   76.1153	   14.7112	       2.4	8.05209e+06	
         R10	   2221	   76.2531	   14.6882	       2.4	8.36327e+06	   76.2482	   14.6172	       2.4	8.17223e+06	   76.1574	   14.6279	       2.4	7.95487e+06	   76.1629	   14.7089	       2.4	8.14693e+06	   76.2507	   14.6527	       2.4	8.26354e+06	   76.2029	   14.6226	       2.4	8.06225e+06	   76.1602	   14.6684	       2.4	8.04613e+06	    76.208	   14.6985	       2.4	8.25206e+06	
         R10	   2222	   76.3411	   14.6834	       2.4	8.63694e+06	   76.3372	   14.6114	       2.4	8.37911e+06	   76.2482	   14.6172	       2.4	8.16154e+06	   76.2531	   14.6882	       2.4	8.38301e+06	   76.3391	   14.6474	       2.4	8.50525e+06	   76.2927	   14.6143	       2.4	8.26771e+06	   76.2507	   14.6527	       2.4	8.26834e+06	   76.2971	   14.6858	       2.4	8.50527e+06	
         R10	   2223	   76.3312	   14.8117	       2.4	8.61724e+06	   76.3868	   14.8052	       2.4	8.69581e+06	   76.3828	   14.7456	       2.4	8.61746e+06	   76.3218	   14.7583	       2.4	8.49885e+06	    76.359	   14.8085	       2.4	8.65338e+06	   76.3848	   14.7754	       2.4	8.65526e+06	   76.3523	   14.7519	       2.4	8.55407e+06	   76.3265	    14.785	       2.4	8.55656e+06	
         R10	   2224	   76.3408	    14.868	       2.4	8.69759e+06	   76.3929	   14.8603	       2.4	 8.7682e+06	   76.3868	   14.8052	       2.4	8.67817e+06	   76.3312	   14.8117	       2.4	8.59287e+06	   76.3668	   14.8642	       2.4	 8.7296e+06	   76.3898	   14.8328	       2.4	8.72202e+06	    76.359	   14.8085	       2.4	8.63214e+06	    76.336	   14.8399	       2.4	8.64396e+06	
         R10	   2225	   76.3537	   14.9212	       2.4	8.81086e+06	   76.4018	   14.9116	       2.4	8.85939e+06	   76.3929	   14.8603	       2.4	8.76186e+06	   76.3408	    14.868	       2.4	 8.6934e+06	   76.3778	   14.9164	       2.4	8.83209e+06	   76.3974	    14.886	       2.4	8.80957e+06	   76.3668	   14.8642	       2.4	8.72437e+06	   76.3472	   14.8946	       2.4	8.75086e+06	
         R10	   2226	   76.3682	   14.9697	       2.4	 8.9299e+06	   76.4113	   14.9577	       2.4	8.95669e+06	   76.4018	   14.9116	       2.4	8.85757e+06	   76.3537	   14.9212	       2.4	8.81069e+06	   76.3898	   14.9637	       2.4	8.94066e+06	   76.4065	   14.9346	       2.4	8.90623e+06	   76.3778	   14.9164	       2.4	8.83111e+06	    76.361	   14.9455	       2.4	8.86912e+06	
         R10	   2227	   76.3884	   15.0075	       2.4	9.04452e+06	   76.4252	   14.9983	       2.4	9.04952e+06	   76.4113	   14.9577	       2.4	8.95756e+06	   76.3682	   14.9697	       2.4	8.93219e+06	   76.4068	   15.0029	       2.4	9.04486e+06	   76.4182	    14.978	       2.4	9.00258e+06	   76.3898	   14.9637	       2.4	8.94224e+06	   76.3783	   14.9886	       2.4	8.98723e+06	
         R10	   2228	   76.4014	    15.044	       2.4	9.14529e+06	   76.4352	   15.0348	       2.4	9.14209e+06	   76.4252	   14.9983	       2.4	9.04836e+06	   76.3884	   15.0075	       2.4	  9.038e+06	   76.4183	   15.0394	       2.4	 9.1417e+06	   76.4302	   15.0165	       2.4	 9.0946e+06	   76.4068	   15.0029	       2.4	9.04092e+06	   76.3949	   15.0257	       2.4	9.09075e+06	
         R10	   2229	   76.4207	   15.0714	       2.4	9.22475e+06	   76.4441	   15.0661	       2.4	9.21497e+06	   76.4352	   15.0348	       2.4	9.14321e+06	   76.4014	    15.044	       2.4	9.14005e+06	   76.4324	   15.0688	       2.4	9.21863e+06	   76.4397	   15.0505	       2.4	9.17855e+06	   76.4183	   15.0394	       2.4	9.13972e+06	   76.4111	   15.0577	       2.4	9.18142e+06	
         R10	   2230	   76.4519	   15.1123	       2.4	9.33827e+06	   76.4778	   15.1118	       2.4	9.34204e+06	   76.4753	   15.0894	       2.4	9.27901e+06	   76.4554	   15.0933	       2.4	9.28644e+06	   76.4648	    15.112	       2.4	9.33815e+06	   76.4766	   15.1006	       2.4	9.31025e+06	   76.4653	   15.0913	       2.4	9.28178e+06	   76.4536	   15.1028	       2.4	9.31226e+06	
         R10	   2231	   76.4343	   15.0948	       2.4	9.29267e+06	    76.416	   15.0913	       2.4	9.29548e+06	   76.4152	   15.1121	       2.4	9.36089e+06	   76.4322	   15.1124	       2.4	9.35896e+06	   76.4251	   15.0931	       2.4	9.29334e+06	   76.4156	   15.1017	       2.4	9.32798e+06	   76.4237	   15.1123	       2.4	9.35918e+06	   76.4332	   15.1036	       2.4	 9.3257e+06	
         R10	   2232	   76.3747	   15.0937	       2.4	9.25154e+06	   76.3812	   15.1108	       2.4	9.33994e+06	    76.398	   15.0946	       2.4	9.28667e+06	   76.3856	   15.0731	       2.4	9.22161e+06	    76.378	   15.1023	       2.4	9.29552e+06	   76.3896	   15.1027	       2.4	 9.3126e+06	   76.3918	   15.0838	       2.4	9.25365e+06	   76.3802	   15.0834	       2.4	9.23595e+06	
         R10	   2233	   76.3068	   15.1131	       2.4	9.08302e+06	   76.3303	   15.1113	       2.4	9.18476e+06	   76.3328	    15.092	       2.4	9.14183e+06	   76.3017	   15.0857	       2.4	9.00994e+06	   76.3185	   15.1122	       2.4	9.13309e+06	   76.3315	   15.1016	       2.4	9.16297e+06	   76.3173	   15.0888	       2.4	9.07465e+06	   76.3042	   15.0994	       2.4	9.04596e+06	
         R10	   2234	   76.2945	   15.1691	       2.4	9.03744e+06	   76.3101	   15.1638	       2.4	 9.1583e+06	   76.2936	   15.1476	       2.4	9.03605e+06	   76.2711	   15.1597	       2.4	8.88774e+06	   76.3023	   15.1665	       2.4	9.09735e+06	   76.3019	   15.1557	       2.4	9.09661e+06	   76.2824	   15.1537	       2.4	8.96092e+06	   76.2828	   15.1644	       2.4	8.96186e+06	
         R10	   2235	   76.2467	   15.2013	       2.4	8.62263e+06	   76.2348	   15.2352	       2.4	8.35584e+06	   76.2654	   15.2448	       2.4	8.53337e+06	   76.2726	   15.2202	       2.4	  8.727e+06	   76.2408	   15.2183	       2.4	8.48744e+06	   76.2501	     15.24	       2.4	  8.443e+06	    76.269	   15.2325	       2.4	8.62891e+06	   76.2597	   15.2108	       2.4	8.67349e+06	
         R10	   2236	   76.2089	   15.1879	       2.4	8.41259e+06	   76.1983	   15.2252	       2.4	8.19242e+06	   76.2348	   15.2352	       2.4	 8.3567e+06	   76.2467	   15.2013	       2.4	8.60765e+06	   76.2036	   15.2066	       2.4	8.30148e+06	   76.2165	   15.2302	       2.4	8.27276e+06	   76.2408	   15.2183	       2.4	8.48051e+06	   76.2278	   15.1946	       2.4	8.50835e+06	
         R10	   2237	   76.1697	   15.1683	       2.4	8.26798e+06	   76.1577	   15.2113	       2.4	8.05063e+06	   76.1983	   15.2252	       2.4	8.19225e+06	   76.2089	   15.1879	       2.4	8.41133e+06	   76.1637	   15.1898	       2.4	8.15846e+06	    76.178	   15.2182	       2.4	8.11985e+06	   76.2036	   15.2066	       2.4	8.30072e+06	   76.1893	   15.1781	       2.4	8.33817e+06	
         R10	   2238	   76.1212	   15.1537	       2.4	 8.0891e+06	   76.1116	   15.2018	       2.4	7.89579e+06	   76.1577	   15.2113	       2.4	8.04926e+06	   76.1697	   15.1683	       2.4	8.26535e+06	   76.1164	   15.1778	       2.4	7.99187e+06	   76.1346	   15.2065	       2.4	7.97076e+06	   76.1637	   15.1898	       2.4	8.15645e+06	   76.1455	    15.161	       2.4	8.17533e+06	
         R10	   2239	   76.0681	   15.1408	       2.4	7.91708e+06	   76.0603	   15.1929	       2.4	7.75618e+06	   76.1116	   15.2018	       2.4	7.89314e+06	   76.1212	   15.1537	       2.4	8.09071e+06	   76.0642	   15.1668	       2.4	7.83615e+06	    76.086	   15.1974	       2.4	7.82289e+06	   76.1164	   15.1778	       2.4	7.99135e+06	   76.0946	   15.1472	       2.4	8.00206e+06	
         R10	   2240	    76.012	   15.1319	       2.4	7.76103e+06	   76.0047	   15.1864	       2.4	 7.6166e+06	   76.0603	   15.1929	       2.4	7.75127e+06	   76.0681	   15.1408	       2.4	7.93048e+06	   76.0084	   15.1591	       2.4	7.68829e+06	   76.0325	   15.1896	       2.4	7.68217e+06	   76.0642	   15.1668	       2.4	7.84041e+06	   76.0401	   15.1364	       2.4	7.84396e+06	
         R10	   2241	   75.9538	    15.122	       2.4	7.63925e+06	   75.9432	   15.1789	       2.4	7.51044e+06	   76.0047	   15.1864	       2.4	7.61661e+06	    76.012	   15.1319	       2.4	7.75881e+06	   75.9485	   15.1504	       2.4	7.57397e+06	    75.974	   15.1826	       2.4	7.56189e+06	   76.0084	   15.1591	       2.4	7.68717e+06	   75.9829	    15.127	       2.4	7.69761e+06	
         R10	   2242	   75.8902	   15.1012	       2.4	7.52564e+06	   75.8782	   15.1616	       2.4	7.43093e+06	   75.9432	   15.1789	       2.4	7.50328e+06	   75.9538	    15.122	       2.4	 7.6401e+06	   75.8842	   15.1314	       2.4	 7.4774e+06	   75.9107	   15.1702	       2.4	7.46597e+06	   75.9485	   15.1504	       2.4	7.57083e+06	    75.922	   15.1116	       2.4	7.58148e+06	
         R10	   2243	    75.814	   15.0694	       2.4	7.44251e+06	   75.8076	   15.1515	       2.4	7.34355e+06	   75.8782	   15.1616	       2.4	7.42937e+06	   75.8902	   15.1012	       2.4	7.54141e+06	   75.8108	   15.1104	       2.4	7.39186e+06	   75.8429	   15.1566	       2.4	7.38511e+06	   75.8842	   15.1314	       2.4	 7.4845e+06	   75.8521	   15.0853	       2.4	7.49066e+06	
         R10	   2244	   75.9112	    14.868	       2.4	7.65449e+06	    75.832	   14.8637	       2.4	 7.4883e+06	   75.8273	   14.9579	       2.4	7.54982e+06	   75.9126	   14.9584	       2.4	7.67354e+06	   75.8716	   14.8658	       2.4	7.56954e+06	   75.8296	   14.9108	       2.4	7.51827e+06	   75.8699	   14.9581	       2.4	7.60989e+06	   75.9119	   14.9132	       2.4	7.66313e+06	
         R10	   2245	   75.9115	   14.7756	       2.4	7.64975e+06	   75.8333	   14.7656	       2.4	7.37622e+06	    75.832	   14.8637	       2.4	7.53627e+06	   75.9112	    14.868	       2.4	7.63463e+06	   75.8724	   14.7706	       2.4	7.51179e+06	   75.8326	   14.8146	       2.4	7.45272e+06	   75.8716	   14.8658	       2.4	7.58447e+06	   75.9113	   14.8218	       2.4	7.63945e+06	
         R10	   2246	   75.8613	   14.6542	       2.4	7.40951e+06	   75.7534	   14.6603	       2.4	7.22432e+06	   75.7483	   14.7612	       2.4	7.41368e+06	   75.8333	   14.7656	       2.4	7.48448e+06	   75.8074	   14.6572	       2.4	7.31432e+06	   75.7509	   14.7107	       2.4	7.30847e+06	   75.7908	   14.7634	       2.4	7.44855e+06	   75.8473	   14.7099	       2.4	7.43497e+06	
         R10	   2247	   76.0699	   14.7893	       2.4	7.98993e+06	   76.0677	   14.7135	       2.4	7.81182e+06	   75.9804	   14.7134	       2.4	7.63452e+06	   75.9829	   14.7932	       2.4	7.78518e+06	   76.0688	   14.7514	       2.4	  7.898e+06	   76.0241	   14.7134	       2.4	7.72195e+06	   75.9816	   14.7533	       2.4	7.70588e+06	   76.0264	   14.7913	       2.4	7.88567e+06	
         R10	   2248	   76.1709	   14.7841	       2.4	8.20596e+06	   76.1629	   14.7089	       2.4	8.02604e+06	   76.0677	   14.7135	       2.4	7.81067e+06	   76.0699	   14.7893	       2.4	7.97987e+06	   76.1669	   14.7465	       2.4	 8.1133e+06	   76.1153	   14.7112	       2.4	7.91607e+06	   76.0688	   14.7514	       2.4	7.89243e+06	   76.1204	   14.7867	       2.4	8.08974e+06	
         R10	   2249	    76.261	   14.7508	       2.4	8.38938e+06	   76.2531	   14.6882	       2.4	8.26071e+06	   76.1629	   14.7089	       2.4	8.06152e+06	   76.1709	   14.7841	       2.4	8.20102e+06	   76.2571	   14.7195	       2.4	8.32203e+06	    76.208	   14.6985	       2.4	  8.158e+06	   76.1669	   14.7465	       2.4	8.12845e+06	    76.216	   14.7674	       2.4	8.28989e+06	
         R10	   2250	   76.2905	    14.878	       2.4	8.61667e+06	   76.3408	    14.868	       2.4	8.69602e+06	   76.3312	   14.8117	       2.4	8.59104e+06	   76.2747	   14.8181	       2.4	8.46784e+06	   76.3156	    14.873	       2.4	8.65389e+06	    76.336	   14.8399	       2.4	8.64228e+06	   76.3029	   14.8149	       2.4	8.52656e+06	   76.2826	   14.8481	       2.4	8.54044e+06	
         R10	   2251	    76.308	   14.9337	       2.4	8.74779e+06	   76.3537	   14.9212	       2.4	8.81133e+06	   76.3408	    14.868	       2.4	8.69255e+06	   76.2905	    14.878	       2.4	8.60562e+06	   76.3308	   14.9275	       2.4	8.77723e+06	   76.3472	   14.8946	       2.4	8.75065e+06	   76.3156	    14.873	       2.4	8.64658e+06	   76.2992	   14.9059	       2.4	8.67515e+06	
         R10	   2252	   76.3276	   14.9848	       2.4	8.88931e+06	   76.3682	   14.9697	       2.4	8.93257e+06	   76.3537	   14.9212	       2.4	8.81151e+06	    76.308	   14.9337	       2.4	 8.7439e+06	   76.3479	   14.9772	       2.4	 8.9088e+06	    76.361	   14.9455	       2.4	8.87084e+06	   76.3308	   14.9275	       2.4	8.77536e+06	   76.3178	   14.9592	       2.4	8.81512e+06	
         R10	   2253	   76.3519	   15.0276	       2.4	9.03334e+06	   76.3884	   15.0075	       2.4	9.04788e+06	   76.3682	   14.9697	       2.4	8.93287e+06	   76.3276	   14.9848	       2.4	8.88653e+06	   76.3701	   15.0175	       2.4	 9.0386e+06	   76.3783	   14.9886	       2.4	8.98926e+06	   76.3479	   14.9772	       2.4	8.90755e+06	   76.3398	   15.0062	       2.4	 8.9583e+06	
         R10	   2254	   76.4343	   15.0948	       2.4	9.29785e+06	   76.4322	   15.1124	       2.4	9.35678e+06	   76.4519	   15.1123	       2.4	9.33731e+06	   76.4554	   15.0933	       2.4	9.29068e+06	   76.4332	   15.1036	       2.4	 9.3272e+06	    76.442	   15.1124	       2.4	  9.346e+06	   76.4536	   15.1028	       2.4	9.31389e+06	   76.4448	   15.0941	       2.4	9.29313e+06	
         R10	   2255	   76.3275	   15.0663	       2.4	9.06172e+06	   76.3328	    15.092	       2.4	9.14742e+06	   76.3589	   15.0907	       2.4	9.21742e+06	   76.3568	   15.0636	       2.4	9.14249e+06	   76.3301	   15.0791	       2.4	9.10417e+06	   76.3459	   15.0913	       2.4	9.18142e+06	   76.3579	   15.0771	       2.4	9.17954e+06	   76.3421	    15.065	       2.4	9.10073e+06	
         R10	   2256	   76.2711	   15.1597	       2.4	8.89208e+06	   76.2936	   15.1476	       2.4	9.03931e+06	   76.2915	   15.1308	       2.4	9.01919e+06	   76.2676	   15.1294	       2.4	8.88427e+06	   76.2824	   15.1537	       2.4	8.96472e+06	   76.2925	   15.1392	       2.4	9.02895e+06	   76.2795	   15.1301	       2.4	8.95106e+06	   76.2694	   15.1446	       2.4	8.88732e+06	
         R10	   2257	   76.1848	   15.1276	       2.4	8.43736e+06	   76.1697	   15.1683	       2.4	8.26954e+06	   76.2089	   15.1879	       2.4	8.41538e+06	   76.2276	   15.1492	       2.4	8.63009e+06	   76.1772	   15.1479	       2.4	 8.3527e+06	   76.1893	   15.1781	       2.4	8.34097e+06	   76.2183	   15.1686	       2.4	 8.5214e+06	   76.2062	   15.1384	       2.4	8.53187e+06	
         R10	   2258	   76.1337	    15.108	       2.4	8.24075e+06	   76.1212	   15.1537	       2.4	8.08784e+06	   76.1697	   15.1683	       2.4	8.26815e+06	   76.1848	   15.1276	       2.4	8.43382e+06	   76.1275	   15.1308	       2.4	8.16385e+06	   76.1455	    15.161	       2.4	8.17609e+06	   76.1772	   15.1479	       2.4	8.35027e+06	   76.1592	   15.1178	       2.4	8.33522e+06	
         R10	   2259	   76.0782	   15.0905	       2.4	8.05373e+06	   76.0681	   15.1408	       2.4	7.92087e+06	   76.1212	   15.1537	       2.4	8.09098e+06	   76.1337	    15.108	       2.4	 8.2336e+06	   76.0731	   15.1157	       2.4	7.98711e+06	   76.0946	   15.1472	       2.4	 8.0041e+06	   76.1275	   15.1308	       2.4	8.16185e+06	    76.106	   15.0993	       2.4	8.14149e+06	
         R10	   2260	   76.0206	   15.0747	       2.4	7.90662e+06	    76.012	   15.1319	       2.4	7.76824e+06	   76.0681	   15.1408	       2.4	7.93603e+06	   76.0782	   15.0905	       2.4	8.03434e+06	   76.0163	   15.1033	       2.4	7.83722e+06	   76.0401	   15.1364	       2.4	7.85034e+06	   76.0731	   15.1157	       2.4	  7.985e+06	   76.0494	   15.0826	       2.4	7.96875e+06	
         R10	   2261	   75.9668	   15.0584	       2.4	7.71766e+06	   75.9538	    15.122	       2.4	7.65072e+06	    76.012	   15.1319	       2.4	7.75604e+06	   76.0206	   15.0747	       2.4	7.89879e+06	   75.9603	   15.0902	       2.4	7.68394e+06	   75.9829	    15.127	       2.4	7.70204e+06	   76.0163	   15.1033	       2.4	7.82712e+06	   75.9937	   15.0666	       2.4	7.80639e+06	
         R10	   2262	   75.9105	   15.0379	       2.4	7.65161e+06	   75.8902	   15.1012	       2.4	7.53652e+06	   75.9538	    15.122	       2.4	7.66591e+06	   75.9668	   15.0584	       2.4	7.74165e+06	   75.9003	   15.0696	       2.4	 7.5935e+06	    75.922	   15.1116	       2.4	7.59973e+06	   75.9603	   15.0902	       2.4	7.70348e+06	   75.9386	   15.0481	       2.4	7.69574e+06	
         R10	   2263	   75.9889	   14.8719	       2.4	7.81039e+06	   75.9112	    14.868	       2.4	7.65124e+06	   75.9126	   14.9584	       2.4	7.68689e+06	   75.9864	   14.9649	       2.4	7.87739e+06	     75.95	   14.8699	       2.4	7.72928e+06	   75.9119	   14.9132	       2.4	7.66818e+06	   75.9495	   14.9616	       2.4	7.77994e+06	   75.9876	   14.9184	       2.4	7.84216e+06	
         R10	   2264	   76.3218	   14.7583	       2.4	8.54681e+06	   76.3411	   14.6834	       2.4	8.48377e+06	   76.2531	   14.6882	       2.4	 8.2148e+06	    76.261	   14.7508	       2.4	8.43531e+06	   76.3314	   14.7208	       2.4	8.51384e+06	   76.2971	   14.6858	       2.4	8.34502e+06	   76.2571	   14.7195	       2.4	8.32256e+06	   76.2914	   14.7545	       2.4	8.48848e+06	
         R10	   2265	   76.2747	   14.8181	       2.4	8.49414e+06	   76.3312	   14.8117	       2.4	8.61963e+06	   76.3218	   14.7583	       2.4	8.48292e+06	    76.261	   14.7508	       2.4	8.36495e+06	   76.3029	   14.8149	       2.4	 8.5539e+06	   76.3265	    14.785	       2.4	8.54985e+06	   76.2914	   14.7545	       2.4	8.42166e+06	   76.2679	   14.7845	       2.4	8.42782e+06	
         R10	   2266	    76.224	   14.8322	       2.4	8.36862e+06	   76.2747	   14.8181	       2.4	8.49069e+06	    76.261	   14.7508	       2.4	 8.3546e+06	   76.1709	   14.7841	       2.4	8.17744e+06	   76.2493	   14.8252	       2.4	8.42787e+06	   76.2679	   14.7845	       2.4	8.42095e+06	    76.216	   14.7674	       2.4	8.26126e+06	   76.1975	   14.8082	       2.4	8.27022e+06	
         R10	   2267	    76.241	   14.8924	       2.4	8.51646e+06	   76.2905	    14.878	       2.4	8.61515e+06	   76.2747	   14.8181	       2.4	8.47879e+06	    76.224	   14.8322	       2.4	8.36393e+06	   76.2657	   14.8852	       2.4	8.56366e+06	   76.2826	   14.8481	       2.4	8.54502e+06	   76.2493	   14.8252	       2.4	8.41959e+06	   76.2325	   14.8623	       2.4	8.43888e+06	
         R10	   2268	   76.2635	    14.949	       2.4	8.66182e+06	    76.308	   14.9337	       2.4	8.74854e+06	   76.2905	    14.878	       2.4	8.60498e+06	    76.241	   14.8924	       2.4	 8.5134e+06	   76.2858	   14.9414	       2.4	8.70324e+06	   76.2992	   14.9059	       2.4	 8.6752e+06	   76.2657	   14.8852	       2.4	8.55711e+06	   76.2523	   14.9207	       2.4	 8.5861e+06	
         R10	   2269	   76.2893	   15.0011	       2.4	8.82421e+06	   76.3276	   14.9848	       2.4	8.89063e+06	    76.308	   14.9337	       2.4	8.74481e+06	   76.2635	    14.949	       2.4	8.66075e+06	   76.3085	   14.9929	       2.4	8.85568e+06	   76.3178	   14.9592	       2.4	8.81618e+06	   76.2858	   14.9414	       2.4	8.70076e+06	   76.2764	   14.9751	       2.4	8.74086e+06	
         R10	   2270	    76.416	   15.0913	       2.4	9.28893e+06	   76.4343	   15.0948	       2.4	9.29445e+06	   76.4441	   15.0661	       2.4	9.21732e+06	   76.4207	   15.0714	       2.4	9.23589e+06	   76.4251	   15.0931	       2.4	9.29092e+06	   76.4392	   15.0805	       2.4	9.25548e+06	   76.4324	   15.0688	       2.4	9.22548e+06	   76.4184	   15.0813	       2.4	9.26223e+06	
         R10	   2271	   76.3856	   15.0731	       2.4	9.21052e+06	    76.398	   15.0946	       2.4	9.29147e+06	    76.416	   15.0913	       2.4	9.27993e+06	   76.4207	   15.0714	       2.4	9.23734e+06	   76.3918	   15.0838	       2.4	9.25047e+06	    76.407	    15.093	       2.4	9.28501e+06	   76.4184	   15.0813	       2.4	9.25851e+06	   76.4032	   15.0722	       2.4	9.22167e+06	
         R10	   2272	    76.274	   15.1015	       2.4	8.90137e+06	   76.2676	   15.1294	       2.4	8.88398e+06	   76.2915	   15.1308	       2.4	9.02102e+06	   76.3068	   15.1131	       2.4	9.08392e+06	   76.2708	   15.1154	       2.4	8.89199e+06	   76.2795	   15.1301	       2.4	8.95174e+06	   76.2991	    15.122	       2.4	9.05177e+06	   76.2904	   15.1073	       2.4	8.99135e+06	
         R10	   2273	    76.149	   15.0635	       2.4	8.33343e+06	   76.1337	    15.108	       2.4	8.24589e+06	   76.1848	   15.1276	       2.4	 8.4326e+06	   76.2033	   15.0893	       2.4	8.56858e+06	   76.1414	   15.0857	       2.4	8.28924e+06	   76.1592	   15.1178	       2.4	8.33719e+06	    76.194	   15.1085	       2.4	8.49974e+06	   76.1761	   15.0764	       2.4	8.44853e+06	
         R10	   2274	   76.0876	    15.038	       2.4	 8.1271e+06	   76.0782	   15.0905	       2.4	8.06185e+06	   76.1337	    15.108	       2.4	8.23713e+06	    76.149	   15.0635	       2.4	8.34507e+06	   76.0829	   15.0643	       2.4	8.09414e+06	    76.106	   15.0993	       2.4	8.14735e+06	   76.1414	   15.0857	       2.4	8.29067e+06	   76.1183	   15.0508	       2.4	8.23396e+06	
         R10	   2275	   76.0301	   15.0268	       2.4	7.91746e+06	   76.0206	   15.0747	       2.4	7.90678e+06	   76.0782	   15.0905	       2.4	8.03314e+06	   76.0876	    15.038	       2.4	8.17592e+06	   76.0253	   15.0508	       2.4	7.91194e+06	   76.0494	   15.0826	       2.4	7.96818e+06	   76.0829	   15.0643	       2.4	8.10418e+06	   76.0588	   15.0324	       2.4	  8.045e+06	
         R10	   2276	    75.814	   15.0694	       2.4	7.47051e+06	   75.8902	   15.1012	       2.4	7.53947e+06	   75.9105	   15.0379	       2.4	7.65887e+06	   75.8616	   15.0241	       2.4	7.54116e+06	   75.8521	   15.0853	       2.4	7.50381e+06	   75.9003	   15.0696	       2.4	7.59854e+06	    75.886	    15.031	       2.4	7.59907e+06	   75.8378	   15.0467	       2.4	7.50497e+06	
         R10	   2277	   76.0654	   14.8702	       2.4	7.98798e+06	   75.9889	   14.8719	       2.4	7.80125e+06	   75.9864	   14.9649	       2.4	7.89339e+06	   76.0543	   14.9571	       2.4	8.01141e+06	   76.0271	   14.8711	       2.4	7.89255e+06	   75.9876	   14.9184	       2.4	7.84566e+06	   76.0203	    14.961	       2.4	7.94978e+06	   76.0599	   14.9137	       2.4	7.99832e+06	
         R10	   2278	   76.1698	   14.8669	       2.4	8.29996e+06	    76.224	   14.8322	       2.4	8.36715e+06	   76.1709	   14.7841	       2.4	8.16274e+06	    76.143	   14.8439	       2.4	 8.2284e+06	   76.1969	   14.8496	       2.4	8.33129e+06	   76.1975	   14.8082	       2.4	8.26193e+06	   76.1569	    14.814	       2.4	8.19328e+06	   76.1564	   14.8554	       2.4	8.26382e+06	
         R10	   2279	    76.191	   14.9116	       2.4	8.40674e+06	    76.241	   14.8924	       2.4	8.50953e+06	    76.224	   14.8322	       2.4	 8.3697e+06	   76.1698	   14.8669	       2.4	8.28375e+06	    76.216	    14.902	       2.4	8.45603e+06	   76.2325	   14.8623	       2.4	 8.4384e+06	   76.1969	   14.8496	       2.4	8.32467e+06	   76.1804	   14.8893	       2.4	8.34445e+06	
         R10	   2280	   76.2182	   14.9669	       2.4	8.55636e+06	   76.2635	    14.949	       2.4	8.66234e+06	    76.241	   14.8924	       2.4	8.50402e+06	    76.191	   14.9116	       2.4	8.40614e+06	   76.2409	    14.958	       2.4	8.60738e+06	   76.2523	   14.9207	       2.4	8.58148e+06	    76.216	    14.902	       2.4	8.45339e+06	   76.2046	   14.9393	       2.4	8.48003e+06	
         R10	   2281	   76.2467	   15.0165	       2.4	8.70884e+06	   76.2893	   15.0011	       2.4	8.82605e+06	   76.2635	    14.949	       2.4	8.66029e+06	   76.2182	   14.9669	       2.4	 8.5574e+06	    76.268	   15.0088	       2.4	8.76532e+06	   76.2764	   14.9751	       2.4	8.74159e+06	   76.2409	    14.958	       2.4	8.60718e+06	   76.2325	   14.9917	       2.4	8.63154e+06	
         R10	   2282	   76.3519	   15.0276	       2.4	9.04072e+06	   76.3276	   14.9848	       2.4	8.88707e+06	   76.2893	   15.0011	       2.4	8.82563e+06	   76.3097	   15.0406	       2.4	8.95965e+06	   76.3398	   15.0062	       2.4	8.96236e+06	   76.3085	   14.9929	       2.4	8.85463e+06	   76.2995	   15.0208	       2.4	8.89153e+06	   76.3308	   15.0341	       2.4	8.99775e+06	
         R10	   2283	   76.2384	   15.1119	       2.4	8.73051e+06	   76.2033	   15.0893	       2.4	8.56782e+06	   76.1848	   15.1276	       2.4	8.43882e+06	   76.2276	   15.1492	       2.4	8.62815e+06	   76.2209	   15.1006	       2.4	8.64783e+06	    76.194	   15.1085	       2.4	8.50252e+06	   76.2062	   15.1384	       2.4	8.53166e+06	    76.233	   15.1306	       2.4	8.67836e+06	
         R10	   2284	   76.1729	    15.019	       2.4	8.44739e+06	    76.149	   15.0635	       2.4	8.33876e+06	   76.2033	   15.0893	       2.4	8.57169e+06	   76.2177	   15.0544	       2.4	8.62726e+06	    76.161	   15.0413	       2.4	8.39212e+06	   76.1761	   15.0764	       2.4	8.45276e+06	   76.2105	   15.0718	       2.4	8.59888e+06	   76.1953	   15.0367	       2.4	8.53537e+06	
         R10	   2285	   76.1181	    14.993	       2.4	8.21964e+06	   76.0876	    15.038	       2.4	 8.1189e+06	    76.149	   15.0635	       2.4	8.34736e+06	   76.1729	    15.019	       2.4	8.44274e+06	   76.1028	   15.0155	       2.4	8.16866e+06	   76.1183	   15.0508	       2.4	8.23096e+06	    76.161	   15.0413	       2.4	8.39418e+06	   76.1455	    15.006	       2.4	8.32905e+06	
         R10	   2286	   76.1342	   14.9362	       2.4	8.27372e+06	    76.191	   14.9116	       2.4	8.39073e+06	   76.1698	   14.8669	       2.4	 8.3261e+06	   76.1185	   14.9012	       2.4	 8.1152e+06	   76.1626	   14.9239	       2.4	8.33109e+06	   76.1804	   14.8893	       2.4	8.35801e+06	   76.1442	   14.8841	       2.4	8.21809e+06	   76.1264	   14.9187	       2.4	8.19313e+06	
         R10	   2287	   76.3097	   15.0406	       2.4	8.95866e+06	   76.2893	   15.0011	       2.4	8.82797e+06	   76.2467	   15.0165	       2.4	8.70972e+06	    76.268	   15.0572	       2.4	8.84279e+06	   76.2995	   15.0208	       2.4	 8.8923e+06	    76.268	   15.0088	       2.4	8.76691e+06	   76.2573	   15.0369	       2.4	8.77512e+06	   76.2889	   15.0489	       2.4	8.89864e+06	
         R10	   2288	   76.3568	   15.0636	       2.4	9.14925e+06	   76.3856	   15.0731	       2.4	 9.1916e+06	   76.4014	    15.044	       2.4	9.15927e+06	   76.3519	   15.0276	       2.4	9.01387e+06	   76.3712	   15.0683	       2.4	9.16924e+06	   76.3935	   15.0585	       2.4	 9.1747e+06	   76.3766	   15.0358	       2.4	9.08254e+06	   76.3543	   15.0456	       2.4	9.08097e+06	
         R10	   2289	   76.3275	   15.0663	       2.4	9.06272e+06	   76.3568	   15.0636	       2.4	 9.1468e+06	   76.3519	   15.0276	       2.4	9.02692e+06	   76.3097	   15.0406	       2.4	8.96401e+06	   76.3421	    15.065	       2.4	9.10341e+06	   76.3543	   15.0456	       2.4	9.08615e+06	   76.3308	   15.0341	       2.4	8.99323e+06	   76.3186	   15.0535	       2.4	9.01283e+06	
         R10	   2290	   76.3017	   15.0857	       2.4	 9.0173e+06	   76.3275	   15.0663	       2.4	9.06826e+06	   76.3097	   15.0406	       2.4	8.96218e+06	    76.268	   15.0572	       2.4	8.83849e+06	   76.3146	    15.076	       2.4	9.04157e+06	   76.3186	   15.0535	       2.4	9.01461e+06	   76.2889	   15.0489	       2.4	8.89809e+06	   76.2849	   15.0714	       2.4	8.92633e+06	
         R10	   2291	    76.274	   15.1015	       2.4	8.90974e+06	   76.3017	   15.0857	       2.4	9.01464e+06	    76.268	   15.0572	       2.4	8.83983e+06	   76.2488	   15.0817	       2.4	8.77518e+06	   76.2878	   15.0936	       2.4	8.96098e+06	   76.2849	   15.0714	       2.4	8.92565e+06	   76.2584	   15.0695	       2.4	 8.8068e+06	   76.2614	   15.0916	       2.4	8.84166e+06	
         R10	   2292	   75.9126	   14.9584	       2.4	7.67692e+06	   75.8273	   14.9579	       2.4	7.52638e+06	   75.8616	   15.0241	       2.4	7.56733e+06	   75.9105	   15.0379	       2.4	7.66622e+06	   75.8699	   14.9581	       2.4	 7.5996e+06	   75.8445	    14.991	       2.4	7.54667e+06	    75.886	    15.031	       2.4	7.61587e+06	   75.9115	   14.9981	       2.4	7.67151e+06	
         R10	   2293	   75.9864	   14.9649	       2.4	 7.8377e+06	   75.9126	   14.9584	       2.4	7.66925e+06	   75.9105	   15.0379	       2.4	7.64481e+06	   75.9668	   15.0584	       2.4	7.77765e+06	   75.9495	   14.9616	       2.4	7.75129e+06	   75.9115	   14.9981	       2.4	7.65694e+06	   75.9386	   15.0481	       2.4	7.71017e+06	   75.9766	   15.0116	       2.4	7.80684e+06	
         R10	   2294	   75.9668	   15.0584	       2.4	7.76184e+06	   76.0206	   15.0747	       2.4	7.92223e+06	   76.0301	   15.0268	       2.4	  7.971e+06	   75.9864	   14.9649	       2.4	7.87623e+06	   75.9937	   15.0666	       2.4	7.84045e+06	   76.0253	   15.0508	       2.4	7.94656e+06	   76.0082	   14.9958	       2.4	7.92245e+06	   75.9766	   15.0116	       2.4	7.81775e+06	
         R10	   2295	   76.0543	   14.9571	       2.4	8.00459e+06	   75.9864	   14.9649	       2.4	7.87736e+06	   76.0301	   15.0268	       2.4	7.90388e+06	   76.0876	    15.038	       2.4	8.18248e+06	   76.0203	    14.961	       2.4	7.93897e+06	   76.0082	   14.9958	       2.4	7.88923e+06	   76.0588	   15.0324	       2.4	8.04142e+06	    76.071	   14.9976	       2.4	 8.0927e+06	
         R10	   2296	   75.9804	   14.7134	       2.4	7.75382e+06	   75.9682	   14.6323	       2.4	7.60328e+06	   75.8613	   14.6542	       2.4	7.39893e+06	   75.9173	   14.7128	       2.4	7.61898e+06	   75.9743	   14.6729	       2.4	7.66941e+06	   75.9148	   14.6433	       2.4	7.49847e+06	   75.8893	   14.6835	       2.4	7.50245e+06	   75.9489	   14.7131	       2.4	7.68582e+06	
         R10	   2297	   75.9115	   14.7756	       2.4	7.53918e+06	   75.9829	   14.7932	       2.4	7.82505e+06	   75.9804	   14.7134	       2.4	7.59815e+06	   75.9173	   14.7128	       2.4	7.61787e+06	   75.9472	   14.7844	       2.4	7.68019e+06	   75.9816	   14.7533	       2.4	7.70754e+06	   75.9489	   14.7131	       2.4	7.60788e+06	   75.9144	   14.7442	       2.4	7.57656e+06	
         R10	   2298	   75.8613	   14.6542	       2.4	7.51755e+06	   75.8333	   14.7656	       2.4	7.52111e+06	   75.9115	   14.7756	       2.4	7.58506e+06	   75.9173	   14.7128	       2.4	7.47196e+06	   75.8473	   14.7099	       2.4	7.50655e+06	   75.8724	   14.7706	       2.4	7.55289e+06	   75.9144	   14.7442	       2.4	 7.5256e+06	   75.8893	   14.6835	       2.4	7.48851e+06	
         R10	   2299	   75.9829	   14.7932	       2.4	7.68918e+06	   75.9115	   14.7756	       2.4	7.60053e+06	   75.9112	    14.868	       2.4	7.64936e+06	   75.9889	   14.8719	       2.4	 7.8633e+06	   75.9472	   14.7844	       2.4	7.64433e+06	   75.9113	   14.8218	       2.4	7.62222e+06	     75.95	   14.8699	       2.4	7.75435e+06	   75.9859	   14.8326	       2.4	7.77459e+06	
         R10	   2300	   76.0699	   14.7893	       2.4	7.93258e+06	   75.9829	   14.7932	       2.4	7.70686e+06	   75.9889	   14.8719	       2.4	7.84128e+06	   76.0654	   14.8702	       2.4	8.01193e+06	   76.0264	   14.7913	       2.4	7.81734e+06	   75.9859	   14.8326	       2.4	7.77231e+06	   76.0271	   14.8711	       2.4	7.92482e+06	   76.0677	   14.8298	       2.4	7.96973e+06	
         R10	   2301	    76.143	   14.8439	       2.4	8.18826e+06	   76.1709	   14.7841	       2.4	8.15242e+06	   76.0699	   14.7893	       2.4	7.92593e+06	   76.0654	   14.8702	       2.4	8.04196e+06	   76.1569	    14.814	       2.4	8.16818e+06	   76.1204	   14.7867	       2.4	8.03573e+06	   76.0677	   14.8298	       2.4	7.98158e+06	   76.1042	   14.8571	       2.4	8.11056e+06	
         R10	   2302	   76.1185	   14.9012	       2.4	8.11571e+06	   76.1698	   14.8669	       2.4	8.32122e+06	    76.143	   14.8439	       2.4	8.15344e+06	   76.0654	   14.8702	       2.4	 8.0386e+06	   76.1442	   14.8841	       2.4	8.21614e+06	   76.1564	   14.8554	       2.4	8.23709e+06	   76.1042	   14.8571	       2.4	8.09406e+06	    76.092	   14.8857	       2.4	8.07591e+06	
         R10	   2303	   76.1185	   14.9012	       2.4	8.17328e+06	   76.0654	   14.8702	       2.4	8.06684e+06	   76.0543	   14.9571	       2.4	8.00086e+06	   76.1342	   14.9362	       2.4	8.32653e+06	    76.092	   14.8857	       2.4	8.11951e+06	   76.0599	   14.9137	       2.4	 8.0321e+06	   76.0943	   14.9467	       2.4	8.15897e+06	   76.1264	   14.9187	       2.4	8.24879e+06	
         R10	   2304	   76.2182	   14.9669	       2.4	8.54863e+06	    76.191	   14.9116	       2.4	8.40346e+06	   76.1342	   14.9362	       2.4	8.26177e+06	   76.1763	   14.9747	       2.4	8.43344e+06	   76.2046	   14.9393	       2.4	8.47425e+06	   76.1626	   14.9239	       2.4	8.32973e+06	   76.1552	   14.9555	       2.4	8.34594e+06	   76.1973	   14.9708	       2.4	8.48989e+06	
         R10	   2305	   76.1729	    15.019	       2.4	8.44546e+06	   76.2467	   15.0165	       2.4	8.71967e+06	   76.2182	   14.9669	       2.4	8.56152e+06	   76.1763	   14.9747	       2.4	8.42339e+06	   76.2098	   15.0178	       2.4	 8.5782e+06	   76.2325	   14.9917	       2.4	8.63925e+06	   76.1973	   14.9708	       2.4	8.49079e+06	   76.1746	   14.9969	       2.4	8.43397e+06	
         R10	   2306	   76.1342	   14.9362	       2.4	8.29859e+06	   76.1181	    14.993	       2.4	8.20676e+06	   76.1729	    15.019	       2.4	8.45836e+06	   76.1763	   14.9747	       2.4	8.43112e+06	   76.1261	   14.9646	       2.4	8.25181e+06	   76.1455	    15.006	       2.4	8.33041e+06	   76.1746	   14.9969	       2.4	8.44418e+06	   76.1552	   14.9555	       2.4	8.36284e+06	
         R10	   2307	   76.2467	   15.0165	       2.4	8.71057e+06	   76.1729	    15.019	       2.4	8.43884e+06	   76.2177	   15.0544	       2.4	8.63312e+06	    76.268	   15.0572	       2.4	8.84071e+06	   76.2098	   15.0178	       2.4	8.57031e+06	   76.1953	   15.0367	       2.4	8.53408e+06	   76.2428	   15.0558	       2.4	 8.7343e+06	   76.2573	   15.0369	       2.4	8.77444e+06	
         R10	   2308	   76.2488	   15.0817	       2.4	8.78054e+06	    76.268	   15.0572	       2.4	8.84383e+06	   76.2177	   15.0544	       2.4	8.63228e+06	   76.2033	   15.0893	       2.4	8.56926e+06	   76.2584	   15.0695	       2.4	8.81138e+06	   76.2428	   15.0558	       2.4	8.73534e+06	   76.2105	   15.0718	       2.4	 8.6002e+06	    76.226	   15.0855	       2.4	8.67294e+06	
         R10	   2309	   76.2488	   15.0817	       2.4	8.78198e+06	   76.2033	   15.0893	       2.4	  8.562e+06	   76.2384	   15.1119	       2.4	8.73457e+06	    76.274	   15.1015	       2.4	8.90189e+06	    76.226	   15.0855	       2.4	8.66984e+06	   76.2209	   15.1006	       2.4	8.64693e+06	   76.2562	   15.1067	       2.4	8.81671e+06	   76.2614	   15.0916	       2.4	8.84114e+06	
         R10	   2310	   76.2676	   15.1294	       2.4	8.89668e+06	    76.274	   15.1015	       2.4	8.90897e+06	   76.2384	   15.1119	       2.4	8.73945e+06	   76.2276	   15.1492	       2.4	8.63032e+06	   76.2708	   15.1154	       2.4	8.90216e+06	   76.2562	   15.1067	       2.4	8.82268e+06	    76.233	   15.1306	       2.4	 8.6839e+06	   76.2476	   15.1393	       2.4	8.76114e+06	
         R10	   2311	   76.2467	   15.2013	       2.4	8.60915e+06	    76.286	   15.1842	       2.4	8.96115e+06	   76.2711	   15.1597	       2.4	8.88858e+06	   76.2501	   15.1708	       2.4	8.72942e+06	   76.2663	   15.1927	       2.4	 8.7821e+06	   76.2785	   15.1719	       2.4	8.92402e+06	   76.2606	   15.1653	       2.4	8.80825e+06	   76.2484	   15.1861	       2.4	8.66831e+06	
         R10	   2312	   76.2276	   15.1492	       2.4	8.63593e+06	   76.2089	   15.1879	       2.4	8.41285e+06	   76.2467	   15.2013	       2.4	8.60937e+06	   76.2501	   15.1708	       2.4	8.72876e+06	   76.2183	   15.1686	       2.4	8.52296e+06	   76.2278	   15.1946	       2.4	8.50922e+06	   76.2484	   15.1861	       2.4	8.66804e+06	   76.2388	     15.16	       2.4	8.68173e+06	
         R10	   2313	   76.2711	   15.1597	       2.4	8.88182e+06	   76.2676	   15.1294	       2.4	8.89564e+06	   76.2276	   15.1492	       2.4	8.62336e+06	   76.2501	   15.1708	       2.4	  8.728e+06	   76.2694	   15.1446	       2.4	8.88809e+06	   76.2476	   15.1393	       2.4	8.75715e+06	   76.2388	     15.16	       2.4	 8.6749e+06	   76.2606	   15.1653	       2.4	8.80408e+06	
         R10	   2314	    76.291	      15.2	       2.4	8.97077e+06	    76.286	   15.1842	       2.4	8.95581e+06	   76.2467	   15.2013	       2.4	8.60762e+06	   76.2726	   15.2202	       2.4	8.72222e+06	   76.2885	   15.1921	       2.4	8.96295e+06	   76.2663	   15.1927	       2.4	8.77864e+06	   76.2597	   15.2108	       2.4	8.66363e+06	   76.2818	   15.2101	       2.4	8.84484e+06	
         R10	   2315	   76.2726	   15.2202	       2.4	8.72659e+06	   76.2654	   15.2448	       2.4	8.52831e+06	   76.2932	   15.2523	       2.4	8.72794e+06	   76.2879	    15.231	       2.4	8.81688e+06	    76.269	   15.2325	       2.4	 8.6262e+06	   76.2793	   15.2485	       2.4	8.62625e+06	   76.2906	   15.2416	       2.4	8.77094e+06	   76.2802	   15.2256	       2.4	8.77122e+06	
         R10	   2316	   76.2942	   15.2179	       2.4	8.92692e+06	    76.291	      15.2	       2.4	8.97308e+06	   76.2726	   15.2202	       2.4	8.72269e+06	   76.2879	    15.231	       2.4	8.82504e+06	   76.2926	    15.209	       2.4	8.94939e+06	   76.2818	   15.2101	       2.4	8.84626e+06	   76.2802	   15.2256	       2.4	8.77331e+06	    76.291	   15.2244	       2.4	8.87541e+06	
         R10	   2317	   76.2932	   15.2523	       2.4	8.73023e+06	   76.3111	   15.2321	       2.4	9.05601e+06	   76.2942	   15.2179	       2.4	8.92754e+06	   76.2879	    15.231	       2.4	8.81549e+06	   76.3022	   15.2422	       2.4	 8.8905e+06	   76.3027	    15.225	       2.4	8.99065e+06	    76.291	   15.2244	       2.4	8.87103e+06	   76.2906	   15.2416	       2.4	8.77144e+06	
         R10	   2318	   76.3856	   15.0731	       2.4	9.19458e+06	   76.3568	   15.0636	       2.4	9.14598e+06	   76.3589	   15.0907	       2.4	9.21252e+06	   76.3747	   15.0937	       2.4	9.25956e+06	   76.3712	   15.0683	       2.4	9.16921e+06	   76.3579	   15.0771	       2.4	9.17888e+06	   76.3668	   15.0922	       2.4	9.23559e+06	   76.3802	   15.0834	       2.4	9.22668e+06	
         R10	   2319	    76.466	     15.13	       2.4	9.38037e+06	    76.483	     15.13	       2.4	9.39509e+06	   76.4778	   15.1118	       2.4	9.34874e+06	   76.4745	     15.13	       2.4	9.38672e+06	   76.4804	   15.1209	       2.4	 9.3715e+06	   76.4719	   15.1209	       2.4	9.36426e+06	       N/A	       N/A	       N/A	        N/A	       N/A	       N/A	       N/A	        N/A	
         R10	   2320	   76.3812	   15.1108	       2.4	9.33643e+06	   76.3991	   15.1133	       2.4	9.36336e+06	    76.398	   15.0946	       2.4	9.29074e+06	   76.3901	   15.1121	       2.4	9.34927e+06	   76.3985	    15.104	       2.4	 9.3269e+06	   76.3896	   15.1027	       2.4	9.31277e+06	       N/A	       N/A	       N/A	        N/A	       N/A	       N/A	       N/A	        N/A	
         R10	   2321	   76.3467	   15.1123	       2.4	9.24635e+06	   76.3644	   15.1138	       2.4	9.30709e+06	   76.3589	   15.0907	       2.4	9.21866e+06	   76.3556	    15.113	       2.4	9.27622e+06	   76.3617	   15.1022	       2.4	9.26254e+06	   76.3528	   15.1015	       2.4	9.23177e+06	       N/A	       N/A	       N/A	        N/A	       N/A	       N/A	       N/A	        N/A	
         R10	   2322	   76.3101	   15.1638	       2.4	 9.1549e+06	   76.3136	   15.1461	       2.4	9.16545e+06	   76.2936	   15.1476	       2.4	9.03761e+06	   76.3119	    15.155	       2.4	9.15964e+06	   76.3036	   15.1468	       2.4	9.10089e+06	   76.3019	   15.1557	       2.4	9.09568e+06	       N/A	       N/A	       N/A	        N/A	       N/A	       N/A	       N/A	        N/A	
         R10	   2323	   76.3111	   15.2321	       2.4	9.04093e+06	   76.3132	    15.214	       2.4	9.13084e+06	   76.2942	   15.2179	       2.4	8.93085e+06	   76.3122	    15.223	       2.4	9.08465e+06	   76.3037	    15.216	       2.4	9.03005e+06	   76.3027	    15.225	       2.4	8.98478e+06	       N/A	       N/A	       N/A	        N/A	       N/A	       N/A	       N/A	        N/A	
         R10	   2324	   76.2915	   15.1308	       2.4	9.01792e+06	   76.3134	   15.1309	       2.4	9.14326e+06	   76.3068	   15.1131	       2.4	9.08469e+06	   76.3024	   15.1309	       2.4	9.07993e+06	   76.3101	    15.122	       2.4	9.11367e+06	   76.2991	    15.122	       2.4	9.05052e+06	       N/A	       N/A	       N/A	        N/A	       N/A	       N/A	       N/A	        N/A	
         R10	   2325	    76.286	   15.1842	       2.4	8.95706e+06	   76.2945	   15.1691	       2.4	9.03953e+06	   76.2711	   15.1597	       2.4	8.88529e+06	   76.2902	   15.1766	       2.4	8.99764e+06	   76.2828	   15.1644	       2.4	8.96164e+06	   76.2785	   15.1719	       2.4	   8.92e+06	       N/A	       N/A	       N/A	        N/A	       N/A	       N/A	       N/A	        N/A	
         R10	   2326	   76.3218	   14.7583	       2.4	8.55586e+06	   76.3828	   14.7456	       2.4	8.64928e+06	   76.3411	   14.6834	       2.4	8.50062e+06	   76.3523	   14.7519	       2.4	8.59958e+06	   76.3619	   14.7145	       2.4	8.57095e+06	   76.3314	   14.7208	       2.4	8.52676e+06	       N/A	       N/A	       N/A	        N/A	       N/A	       N/A	       N/A	        N/A	
         R10	   2327	   76.4343	   15.0948	       2.4	9.30076e+06	   76.4554	   15.0933	       2.4	9.28766e+06	   76.4441	   15.0661	       2.4	9.21754e+06	   76.4448	   15.0941	       2.4	9.29315e+06	   76.4497	   15.0797	       2.4	9.25196e+06	   76.4392	   15.0805	       2.4	9.25877e+06	       N/A	       N/A	       N/A	        N/A	       N/A	       N/A	       N/A	        N/A	
         R10	   2328	   76.3017	   15.0857	       2.4	 9.0221e+06	   76.3328	    15.092	       2.4	9.14515e+06	   76.3275	   15.0663	       2.4	 9.0677e+06	   76.3173	   15.0888	       2.4	9.08243e+06	   76.3301	   15.0791	       2.4	9.10608e+06	   76.3146	    15.076	       2.4	9.04371e+06	       N/A	       N/A	       N/A	        N/A	       N/A	       N/A	       N/A	        N/A	
         R10	   2329	   76.3856	   15.0731	       2.4	9.20762e+06	   76.4207	   15.0714	       2.4	9.23913e+06	   76.4014	    15.044	       2.4	9.16682e+06	   76.4032	   15.0722	       2.4	9.22118e+06	   76.4111	   15.0577	       2.4	9.20195e+06	   76.3935	   15.0585	       2.4	9.18641e+06	       N/A	       N/A	       N/A	        N/A	       N/A	       N/A	       N/A	        N/A	
         R10	   2330	    76.274	   15.1015	       2.4	8.90992e+06	   76.3068	   15.1131	       2.4	9.08424e+06	   76.3017	   15.0857	       2.4	9.01394e+06	   76.2904	   15.1073	       2.4	 8.9958e+06	   76.3042	   15.0994	       2.4	9.04858e+06	   76.2878	   15.0936	       2.4	8.96066e+06	       N/A	       N/A	       N/A	        N/A	       N/A	       N/A	       N/A	        N/A	
         R10	   2331	   76.4014	    15.044	       2.4	9.16872e+06	   76.3884	   15.0075	       2.4	9.04679e+06	   76.3519	   15.0276	       2.4	9.03305e+06	   76.3949	   15.0257	       2.4	9.10696e+06	   76.3701	   15.0175	       2.4	9.03798e+06	   76.3766	   15.0358	       2.4	9.09713e+06	       N/A	       N/A	       N/A	        N/A	       N/A	       N/A	       N/A	        N/A	
         R10	   2332	   76.2932	   15.2523	       2.4	8.73123e+06	   76.3131	   15.2662	       2.4	8.84634e+06	   76.3153	   15.2492	       2.4	8.98901e+06	   76.3032	   15.2593	       2.4	8.78697e+06	   76.3142	   15.2577	       2.4	8.91631e+06	   76.3043	   15.2508	       2.4	8.85882e+06	       N/A	       N/A	       N/A	        N/A	       N/A	       N/A	       N/A	        N/A	
         R10	   2333	   76.1342	   14.9362	       2.4	8.29704e+06	   76.0543	   14.9571	       2.4	7.97708e+06	   76.1181	    14.993	       2.4	8.18521e+06	   76.0943	   14.9467	       2.4	8.13249e+06	   76.0862	   14.9751	       2.4	 8.0777e+06	   76.1261	   14.9646	       2.4	8.24002e+06	       N/A	       N/A	       N/A	        N/A	       N/A	       N/A	       N/A	        N/A	
         R10	   2334	   76.0543	   14.9571	       2.4	 8.0995e+06	   76.0876	    15.038	       2.4	8.13643e+06	   76.1181	    14.993	       2.4	8.20768e+06	    76.071	   14.9976	       2.4	8.11664e+06	   76.1028	   15.0155	       2.4	8.17133e+06	   76.0862	   14.9751	       2.4	8.15074e+06	       N/A	       N/A	       N/A	        N/A	       N/A	       N/A	       N/A	        N/A	
         R10	   2335	   76.3111	   15.2321	       2.4	9.04544e+06	   76.2932	   15.2523	       2.4	8.73555e+06	   76.3153	   15.2492	       2.4	8.98609e+06	   76.3022	   15.2422	       2.4	8.88781e+06	   76.3043	   15.2508	       2.4	8.85952e+06	   76.3132	   15.2407	       2.4	9.01456e+06	       N/A	       N/A	       N/A	        N/A	       N/A	       N/A	       N/A	        N/A	
         R10	   2336	    75.814	   15.0694	       2.4	7.47962e+06	   75.8616	   15.0241	       2.4	7.53364e+06	   75.8273	   14.9579	       2.4	 7.5214e+06	   75.8378	   15.0467	       2.4	7.50534e+06	   75.8445	    14.991	       2.4	7.52738e+06	   75.8206	   15.0136	       2.4	 7.4998e+06	       N/A	       N/A	       N/A	        N/A	       N/A	       N/A	       N/A	        N/A	
         R10	   2337	   76.6688	   14.5306	       2.4	8.55114e+06	   76.6654	     14.45	       2.4	 8.1391e+06	    76.581	     14.45	       2.4	7.85727e+06	    76.583	   14.5278	       2.4	9.15033e+06	   76.6671	   14.4903	       2.4	8.34268e+06	   76.6232	     14.45	       2.4	7.94743e+06	    76.582	   14.4889	       2.4	8.40747e+06	   76.6259	   14.5292	       2.4	8.84171e+06	
         R10	   2338	    76.756	   14.5333	       2.4	8.50568e+06	   76.7532	     14.45	       2.4	8.01033e+06	   76.6654	     14.45	       2.4	8.10097e+06	   76.6688	   14.5306	       2.4	8.58192e+06	   76.7546	   14.4916	       2.4	8.24825e+06	   76.7093	     14.45	       2.4	8.04534e+06	   76.6671	   14.4903	       2.4	8.34068e+06	   76.7124	   14.5319	       2.4	8.54224e+06	
         R10	   2339	    76.848	   14.5367	       2.4	8.34462e+06	   76.8443	     14.45	       2.4	7.95819e+06	   76.7532	     14.45	       2.4	8.02337e+06	    76.756	   14.5333	       2.4	8.51288e+06	   76.8461	   14.4934	       2.4	8.12982e+06	   76.7987	     14.45	       2.4	7.98428e+06	   76.7546	   14.4916	       2.4	8.25803e+06	    76.802	    14.535	       2.4	8.42747e+06	
         R10	   2340	   76.9416	   14.5403	       2.4	8.14438e+06	   76.9387	     14.45	       2.4	7.86268e+06	   76.8443	     14.45	       2.4	7.96007e+06	    76.848	   14.5367	       2.4	8.33493e+06	   76.9402	   14.4951	       2.4	7.97176e+06	   76.8915	     14.45	       2.4	7.90718e+06	   76.8461	   14.4934	       2.4	8.12619e+06	   76.8948	   14.5385	       2.4	8.23828e+06	
         R10	   2341	     77.04	   14.5438	       2.4	7.93376e+06	   77.0365	     14.45	       2.4	7.75065e+06	   76.9387	     14.45	       2.4	7.86444e+06	   76.9416	   14.5403	       2.4	8.13827e+06	   77.0383	   14.4969	       2.4	7.80365e+06	   76.9876	     14.45	       2.4	 7.8045e+06	   76.9402	   14.4951	       2.4	7.96989e+06	   76.9908	    14.542	       2.4	8.03427e+06	
         R10	   2342	   77.1416	   14.5484	       2.4	7.71979e+06	   77.1376	     14.45	       2.4	7.63727e+06	   77.0365	     14.45	       2.4	7.75462e+06	     77.04	   14.5438	       2.4	7.91954e+06	   77.1396	   14.4992	       2.4	7.63506e+06	   77.0871	     14.45	       2.4	7.69341e+06	   77.0383	   14.4969	       2.4	7.79888e+06	   77.0908	   14.5461	       2.4	7.81764e+06	
         R10	   2343	   77.2456	   14.5528	       2.4	7.52666e+06	   77.2421	     14.45	       2.4	7.52286e+06	   77.1376	     14.45	       2.4	7.63742e+06	   77.1416	   14.5484	       2.4	 7.7073e+06	   77.2439	   14.5014	       2.4	7.47808e+06	   77.1899	     14.45	       2.4	7.57783e+06	   77.1396	   14.4992	       2.4	7.62932e+06	   77.1936	   14.5506	       2.4	7.61483e+06	
         R10	   2344	     77.35	   14.5579	       2.4	7.36501e+06	     77.35	     14.45	       2.4	  7.425e+06	   77.2421	     14.45	       2.4	7.52517e+06	   77.2456	   14.5528	       2.4	7.51152e+06	     77.35	   14.5039	       2.4	7.34533e+06	   77.2961	     14.45	       2.4	7.47296e+06	   77.2439	   14.5014	       2.4	7.47238e+06	   77.2978	   14.5553	       2.4	7.43623e+06	
         R10	   2345	     77.35	   14.6624	       2.4	7.10772e+06	     77.35	   14.5579	       2.4	 7.0661e+06	   77.2456	   14.5528	       2.4	7.15915e+06	   77.2452	   14.6541	       2.4	7.23936e+06	     77.35	   14.6101	       2.4	7.06165e+06	   77.2978	   14.5553	       2.4	7.11091e+06	   77.2454	   14.6034	       2.4	7.17435e+06	   77.2976	   14.6582	       2.4	7.17154e+06	
         R10	   2346	   77.2398	   14.7588	       2.4	7.17934e+06	     77.35	   14.7635	       2.4	7.10227e+06	     77.35	   14.6624	       2.4	 6.9531e+06	   77.2452	   14.6541	       2.4	7.07655e+06	   77.2949	   14.7612	       2.4	7.13926e+06	     77.35	   14.7129	       2.4	 7.0164e+06	   77.2976	   14.6582	       2.4	7.01239e+06	   77.2425	   14.7064	       2.4	 7.1152e+06	
         R10	   2347	   77.2648	   14.8626	       2.4	7.18665e+06	     77.35	   14.8613	       2.4	   7.13e+06	     77.35	   14.7635	       2.4	7.00779e+06	   77.2398	   14.7588	       2.4	7.10489e+06	   77.3074	    14.862	       2.4	7.15753e+06	     77.35	   14.8124	       2.4	7.06498e+06	   77.2949	   14.7612	       2.4	7.05398e+06	   77.2523	   14.8107	       2.4	 7.1409e+06	
         R10	   2348	   77.2651	   14.9563	       2.4	 7.2112e+06	     77.35	   14.9557	       2.4	7.14716e+06	     77.35	   14.8613	       2.4	7.08427e+06	   77.2648	   14.8626	       2.4	 7.1554e+06	   77.3075	    14.956	       2.4	7.17788e+06	     77.35	   14.9085	       2.4	7.11508e+06	   77.3074	    14.862	       2.4	7.11874e+06	   77.2649	   14.9094	       2.4	7.18264e+06	
         R10	   2349	   77.2667	   15.0442	       2.4	7.19333e+06	     77.35	   15.0468	       2.4	7.10453e+06	     77.35	   14.9557	       2.4	7.12253e+06	   77.2651	   14.9563	       2.4	7.18725e+06	   77.3083	   15.0455	       2.4	7.14706e+06	     77.35	   15.0013	       2.4	7.11329e+06	   77.3075	    14.956	       2.4	7.15361e+06	   77.2659	   15.0002	       2.4	7.19023e+06	
         R10	   2350	   77.2696	   15.1314	       2.4	7.10179e+06	     77.35	   15.1346	       2.4	7.06506e+06	     77.35	   15.0468	       2.4	 7.0854e+06	   77.2667	   15.0442	       2.4	7.17761e+06	   77.3098	    15.133	       2.4	 7.0822e+06	     77.35	   15.0907	       2.4	7.07392e+06	   77.3083	   15.0455	       2.4	7.12944e+06	   77.2682	   15.0878	       2.4	7.13844e+06	
         R10	   2351	   77.2718	   15.2169	       2.4	7.01529e+06	     77.35	    15.219	       2.4	6.99136e+06	     77.35	   15.1346	       2.4	7.05069e+06	   77.2696	   15.1314	       2.4	7.10288e+06	   77.3109	    15.218	       2.4	7.00214e+06	     77.35	   15.1768	       2.4	7.01718e+06	   77.3098	    15.133	       2.4	 7.0752e+06	   77.2707	   15.1741	       2.4	7.05487e+06	
         R10	   2352	   77.2702	      15.3	       2.4	6.97022e+06	     77.35	      15.3	       2.4	6.98337e+06	     77.35	    15.219	       2.4	6.99615e+06	   77.2718	   15.2169	       2.4	7.01915e+06	   77.3101	      15.3	       2.4	6.97581e+06	     77.35	   15.2595	       2.4	6.98095e+06	   77.3109	    15.218	       2.4	7.00647e+06	    77.271	   15.2585	       2.4	6.98598e+06	
         R10	   2353	   77.1952	      15.3	       2.4	6.97465e+06	   77.2702	      15.3	       2.4	6.98165e+06	   77.2718	   15.2169	       2.4	7.01723e+06	   77.1965	   15.2182	       2.4	7.05376e+06	   77.2327	      15.3	       2.4	6.97707e+06	    77.271	   15.2585	       2.4	6.99084e+06	   77.2341	   15.2176	       2.4	7.03404e+06	   77.1959	   15.2591	       2.4	7.00587e+06	
         R10	   2354	   77.1288	   15.2245	       2.4	7.10389e+06	   77.1251	      15.3	       2.4	6.98298e+06	   77.1952	      15.3	       2.4	6.97713e+06	   77.1965	   15.2182	       2.4	7.05735e+06	    77.127	   15.2622	       2.4	7.03685e+06	   77.1601	      15.3	       2.4	6.97871e+06	   77.1959	   15.2591	       2.4	7.00897e+06	   77.1627	   15.2213	       2.4	7.07933e+06	
         R10	   2355	   77.0643	   15.2363	       2.4	7.14442e+06	   77.0597	      15.3	       2.4	7.00024e+06	   77.1251	      15.3	       2.4	 6.9822e+06	   77.1288	   15.2245	       2.4	7.10432e+06	    77.062	   15.2682	       2.4	7.06793e+06	   77.0924	      15.3	       2.4	6.98957e+06	    77.127	   15.2622	       2.4	7.03681e+06	   77.0966	   15.2304	       2.4	7.12308e+06	
         R10	   2356	   77.0023	    15.244	       2.4	7.20322e+06	   76.9991	      15.3	       2.4	7.04344e+06	   77.0597	      15.3	       2.4	 7.0071e+06	   77.0643	   15.2363	       2.4	7.15008e+06	   77.0007	    15.272	       2.4	7.12016e+06	   77.0294	      15.3	       2.4	 7.0232e+06	    77.062	   15.2682	       2.4	7.07425e+06	   77.0333	   15.2402	       2.4	7.17516e+06	
         R10	   2357	   76.9467	   15.2467	       2.4	7.29453e+06	   76.9433	      15.3	       2.4	 7.1043e+06	   76.9991	      15.3	       2.4	7.05066e+06	   77.0023	    15.244	       2.4	7.20534e+06	    76.945	   15.2733	       2.4	7.19673e+06	   76.9712	      15.3	       2.4	7.07521e+06	   77.0007	    15.272	       2.4	7.12478e+06	   76.9745	   15.2454	       2.4	7.24789e+06	
         R10	   2358	   76.8962	   15.2505	       2.4	7.40393e+06	   76.8924	      15.3	       2.4	7.18204e+06	   76.9433	      15.3	       2.4	7.10329e+06	   76.9467	   15.2467	       2.4	7.29776e+06	   76.8943	   15.2752	       2.4	 7.2908e+06	   76.9179	      15.3	       2.4	7.14008e+06	    76.945	   15.2733	       2.4	7.19784e+06	   76.9214	   15.2486	       2.4	7.34875e+06	
         R10	   2359	   76.8503	   15.2554	       2.4	7.52474e+06	   76.8462	      15.3	       2.4	7.28443e+06	   76.8924	      15.3	       2.4	7.18369e+06	   76.8962	   15.2505	       2.4	7.40407e+06	   76.8483	   15.2777	       2.4	7.40273e+06	   76.8693	      15.3	       2.4	7.23125e+06	   76.8943	   15.2752	       2.4	7.29175e+06	   76.8733	   15.2529	       2.4	7.46227e+06	
         R10	   2360	   76.8092	   15.2609	       2.4	7.66002e+06	   76.8048	      15.3	       2.4	7.41746e+06	   76.8462	      15.3	       2.4	7.28593e+06	   76.8503	   15.2554	       2.4	7.52496e+06	    76.807	   15.2804	       2.4	7.53698e+06	   76.8255	      15.3	       2.4	7.34868e+06	   76.8483	   15.2777	       2.4	7.40362e+06	   76.8297	   15.2581	       2.4	7.59034e+06	
         R10	   2361	   76.7727	   15.2663	       2.4	7.81122e+06	   76.7683	      15.3	       2.4	7.57685e+06	   76.8048	      15.3	       2.4	7.41862e+06	   76.8092	   15.2609	       2.4	7.65996e+06	   76.7705	   15.2831	       2.4	 7.6921e+06	   76.7865	      15.3	       2.4	7.49469e+06	    76.807	   15.2804	       2.4	7.53753e+06	   76.7909	   15.2636	       2.4	 7.7334e+06	
         R10	   2362	   76.7408	   15.2715	       2.4	 7.9773e+06	   76.7365	      15.3	       2.4	7.76397e+06	   76.7683	      15.3	       2.4	7.57871e+06	   76.7727	   15.2663	       2.4	7.81143e+06	   76.7387	   15.2857	       2.4	7.86845e+06	   76.7524	      15.3	       2.4	7.66845e+06	   76.7705	   15.2831	       2.4	7.69316e+06	   76.7567	   15.2689	       2.4	7.89222e+06	
         R10	   2363	   76.7136	    15.276	       2.4	8.16059e+06	   76.7095	      15.3	       2.4	7.96523e+06	   76.7365	      15.3	       2.4	 7.7638e+06	   76.7408	   15.2715	       2.4	7.97829e+06	   76.7115	    15.288	       2.4	8.06041e+06	    76.723	      15.3	       2.4	7.86193e+06	   76.7387	   15.2857	       2.4	7.86886e+06	   76.7272	   15.2737	       2.4	8.06739e+06	
         R10	   2364	   76.6897	   15.2769	       2.4	 8.3882e+06	   76.6874	      15.3	       2.4	8.17651e+06	   76.7095	      15.3	       2.4	7.97347e+06	   76.7136	    15.276	       2.4	8.15778e+06	   76.6885	   15.2884	       2.4	8.27889e+06	   76.6984	      15.3	       2.4	8.07282e+06	   76.7115	    15.288	       2.4	8.06318e+06	   76.7016	   15.2765	       2.4	8.27095e+06	
         R10	   2365	     76.67	    15.283	       2.4	8.57158e+06	     76.67	      15.3	       2.4	8.37781e+06	   76.6874	      15.3	       2.4	8.18086e+06	   76.6897	   15.2769	       2.4	8.38644e+06	     76.67	   15.2915	       2.4	8.47189e+06	   76.6787	      15.3	       2.4	8.27774e+06	   76.6885	   15.2884	       2.4	8.28016e+06	   76.6798	   15.2799	       2.4	8.47718e+06	
         R10	   2366	   76.6889	   15.2345	       2.4	8.68634e+06	     76.67	    15.232	       2.4	8.91499e+06	     76.67	    15.249	       2.4	8.82838e+06	   76.6896	   15.2534	       2.4	8.56745e+06	   76.6794	   15.2333	       2.4	8.79964e+06	     76.67	   15.2405	       2.4	8.86994e+06	   76.6798	   15.2512	       2.4	8.69652e+06	   76.6892	    15.244	       2.4	8.62531e+06	
         R10	   2367	   76.6886	   15.2158	       2.4	8.76603e+06	     76.67	    15.215	       2.4	8.96234e+06	     76.67	    15.232	       2.4	 8.9141e+06	   76.6889	   15.2345	       2.4	8.68519e+06	   76.6793	   15.2154	       2.4	8.86338e+06	     76.67	   15.2235	       2.4	 8.9368e+06	   76.6794	   15.2333	       2.4	8.79862e+06	   76.6888	   15.2252	       2.4	8.72433e+06	
         R10	   2368	   76.6865	   15.2003	       2.4	8.82537e+06	     76.67	    15.198	       2.4	8.98163e+06	     76.67	    15.215	       2.4	 8.9611e+06	   76.6886	   15.2158	       2.4	8.76314e+06	   76.6782	   15.1991	       2.4	8.90287e+06	     76.67	   15.2065	       2.4	8.97025e+06	   76.6793	   15.2154	       2.4	 8.8613e+06	   76.6875	    15.208	       2.4	8.79345e+06	
         R10	   2369	   76.6932	   15.1804	       2.4	8.78856e+06	     76.67	    15.181	       2.4	8.97631e+06	     76.67	    15.198	       2.4	 8.9813e+06	   76.6865	   15.2003	       2.4	8.82249e+06	   76.6816	   15.1807	       2.4	8.88145e+06	     76.67	   15.1895	       2.4	8.97796e+06	   76.6782	   15.1991	       2.4	8.90126e+06	   76.6898	   15.1904	       2.4	8.80467e+06	
         R10	   2370	   76.6876	   15.1648	       2.4	8.83538e+06	     76.67	    15.164	       2.4	8.95901e+06	     76.67	    15.181	       2.4	8.97591e+06	   76.6932	   15.1804	       2.4	8.78914e+06	   76.6788	   15.1644	       2.4	8.89661e+06	     76.67	   15.1725	       2.4	8.96682e+06	   76.6816	   15.1807	       2.4	8.88153e+06	   76.6904	   15.1726	       2.4	8.81164e+06	
         R10	   2371	   76.6876	   15.1464	       2.4	8.82665e+06	     76.67	    15.147	       2.4	8.92738e+06	     76.67	    15.164	       2.4	8.95764e+06	   76.6876	   15.1648	       2.4	8.83656e+06	   76.6788	   15.1467	       2.4	8.87652e+06	     76.67	   15.1555	       2.4	8.94201e+06	   76.6788	   15.1644	       2.4	8.89653e+06	   76.6876	   15.1556	       2.4	8.83111e+06	
         R10	   2372	   76.6921	   15.1262	       2.4	8.77053e+06	     76.67	     15.13	       2.4	8.89507e+06	     76.67	    15.147	       2.4	8.92512e+06	   76.6876	   15.1464	       2.4	8.82556e+06	   76.6811	   15.1281	       2.4	8.83205e+06	     76.67	   15.1385	       2.4	8.90973e+06	   76.6788	   15.1467	       2.4	8.87486e+06	   76.6898	   15.1363	       2.4	8.79759e+06	
         R10	   2373	   76.6545	    15.113	       2.4	8.91482e+06	    76.653	     15.13	       2.4	8.97109e+06	     76.67	     15.13	       2.4	8.89322e+06	   76.6693	   15.1129	       2.4	8.85876e+06	   76.6537	   15.1215	       2.4	8.94269e+06	   76.6615	     15.13	       2.4	8.93166e+06	   76.6697	   15.1214	       2.4	8.87568e+06	   76.6619	   15.1129	       2.4	8.88642e+06	
         R10	   2374	    76.635	   15.1034	       2.4	8.94458e+06	    76.636	     15.13	       2.4	9.03144e+06	    76.653	     15.13	       2.4	8.97122e+06	   76.6545	    15.113	       2.4	8.91719e+06	   76.6355	   15.1167	       2.4	8.98738e+06	   76.6445	     15.13	       2.4	9.00077e+06	   76.6537	   15.1215	       2.4	 8.9439e+06	   76.6447	   15.1082	       2.4	8.93005e+06	
         R10	   2375	   76.6175	   15.1082	       2.4	8.99113e+06	    76.619	     15.13	       2.4	 9.0792e+06	    76.636	     15.13	       2.4	9.03536e+06	    76.635	   15.1034	       2.4	8.94244e+06	   76.6182	   15.1191	       2.4	9.03473e+06	   76.6275	     15.13	       2.4	9.05671e+06	   76.6355	   15.1167	       2.4	8.98829e+06	   76.6262	   15.1058	       2.4	8.96619e+06	
         R10	   2376	    76.601	   15.1096	       2.4	9.01768e+06	    76.602	     15.13	       2.4	9.10099e+06	    76.619	     15.13	       2.4	9.07809e+06	   76.6175	   15.1082	       2.4	8.99285e+06	   76.6015	   15.1198	       2.4	9.05905e+06	   76.6105	     15.13	       2.4	9.08887e+06	   76.6182	   15.1191	       2.4	9.03503e+06	   76.6092	   15.1089	       2.4	9.00473e+06	
         R10	   2377	   76.5864	   15.1134	       2.4	9.02979e+06	    76.585	     15.13	       2.4	9.10588e+06	    76.602	     15.13	       2.4	9.10157e+06	    76.601	   15.1096	       2.4	9.01923e+06	   76.5857	   15.1217	       2.4	9.06768e+06	   76.5935	     15.13	       2.4	9.10299e+06	   76.6015	   15.1198	       2.4	9.06011e+06	   76.5937	   15.1115	       2.4	9.02404e+06	
         R10	   2378	   76.5671	   15.1111	       2.4	  9.015e+06	    76.568	     15.13	       2.4	9.08909e+06	    76.585	     15.13	       2.4	9.10481e+06	   76.5864	   15.1134	       2.4	9.03326e+06	   76.5676	   15.1206	       2.4	9.05191e+06	   76.5765	     15.13	       2.4	9.09612e+06	   76.5857	   15.1217	       2.4	9.06888e+06	   76.5768	   15.1123	       2.4	9.02317e+06	
         R10	   2379	   76.5509	   15.1161	       2.4	9.01752e+06	    76.551	     15.13	       2.4	9.05781e+06	    76.568	     15.13	       2.4	9.09059e+06	   76.5671	   15.1111	       2.4	9.00362e+06	    76.551	   15.1231	       2.4	9.03758e+06	   76.5595	     15.13	       2.4	 9.0733e+06	   76.5676	   15.1206	       2.4	9.04696e+06	   76.5591	   15.1136	       2.4	9.00982e+06	
         R10	   2380	    76.534	   15.1112	       2.4	8.99113e+06	    76.534	     15.13	       2.4	 9.0398e+06	    76.551	     15.13	       2.4	9.05803e+06	   76.5509	   15.1161	       2.4	9.02023e+06	    76.534	   15.1206	       2.4	9.01535e+06	   76.5425	     15.13	       2.4	 9.0479e+06	    76.551	   15.1231	       2.4	9.03905e+06	   76.5425	   15.1137	       2.4	9.00486e+06	
         R10	   2381	   76.5194	   15.1085	       2.4	8.98053e+06	    76.517	     15.13	       2.4	9.03914e+06	    76.534	     15.13	       2.4	9.03819e+06	    76.534	   15.1112	       2.4	8.98997e+06	   76.5182	   15.1193	       2.4	9.00948e+06	   76.5255	     15.13	       2.4	 9.0376e+06	    76.534	   15.1206	       2.4	9.01396e+06	   76.5267	   15.1098	       2.4	8.98469e+06	
         R10	   2382	      76.5	   15.1126	       2.4	9.00594e+06	      76.5	     15.13	       2.4	9.06555e+06	    76.517	     15.13	       2.4	9.03579e+06	   76.5194	   15.1085	       2.4	8.98212e+06	      76.5	   15.1213	       2.4	9.03554e+06	   76.5085	     15.13	       2.4	9.04967e+06	   76.5182	   15.1193	       2.4	9.00863e+06	   76.5097	   15.1106	       2.4	8.99286e+06	
         R10	   2383	   76.5242	   15.0858	       2.4	8.92555e+06	      76.5	   15.0905	       2.4	8.93583e+06	      76.5	   15.1126	       2.4	9.00629e+06	   76.5194	   15.1085	       2.4	8.97975e+06	   76.5121	   15.0881	       2.4	8.92921e+06	      76.5	   15.1016	       2.4	8.97084e+06	   76.5097	   15.1106	       2.4	8.99181e+06	   76.5218	   15.0972	       2.4	8.95231e+06	
         R10	   2384	   76.5286	   15.0591	       2.4	8.86134e+06	      76.5	   15.0635	       2.4	 8.8566e+06	      76.5	   15.0905	       2.4	8.93655e+06	   76.5242	   15.0858	       2.4	8.92444e+06	   76.5143	   15.0613	       2.4	8.85714e+06	      76.5	    15.077	       2.4	8.89638e+06	   76.5121	   15.0881	       2.4	  8.929e+06	   76.5264	   15.0725	       2.4	8.89256e+06	
         R10	   2385	   76.5336	   15.0271	       2.4	8.79068e+06	      76.5	   15.0317	       2.4	8.77136e+06	      76.5	   15.0635	       2.4	8.85718e+06	   76.5286	   15.0591	       2.4	8.86088e+06	   76.5168	   15.0294	       2.4	8.77872e+06	      76.5	   15.0476	       2.4	8.81405e+06	   76.5143	   15.0613	       2.4	8.85717e+06	   76.5311	   15.0431	       2.4	8.82539e+06	
         R10	   2386	   76.5391	   14.9908	       2.4	8.71485e+06	      76.5	   14.9952	       2.4	 8.6888e+06	      76.5	   15.0317	       2.4	8.77211e+06	   76.5336	   15.0271	       2.4	8.79011e+06	   76.5196	    14.993	       2.4	8.69873e+06	      76.5	   15.0135	       2.4	8.73022e+06	   76.5168	   15.0294	       2.4	8.77879e+06	   76.5363	    15.009	       2.4	  8.752e+06	
         R10	   2387	   76.5446	   14.9497	       2.4	8.63957e+06	      76.5	   14.9538	       2.4	8.61294e+06	      76.5	   14.9952	       2.4	8.68924e+06	   76.5391	   14.9908	       2.4	8.71557e+06	   76.5223	   14.9517	       2.4	 8.6222e+06	      76.5	   14.9745	       2.4	8.65079e+06	   76.5196	    14.993	       2.4	8.69932e+06	   76.5419	   14.9703	       2.4	  8.677e+06	
         R10	   2388	   76.5495	   14.9038	       2.4	8.56391e+06	      76.5	   14.9076	       2.4	8.55311e+06	      76.5	   14.9538	       2.4	 8.6136e+06	   76.5446	   14.9497	       2.4	8.64062e+06	   76.5247	   14.9057	       2.4	 8.5534e+06	      76.5	   14.9307	       2.4	8.58297e+06	   76.5223	   14.9517	       2.4	8.62308e+06	   76.5471	   14.9267	       2.4	8.60158e+06	
         R10	   2389	   76.5535	   14.8532	       2.4	8.49393e+06	      76.5	   14.8567	       2.4	8.51084e+06	      76.5	   14.9076	       2.4	8.55406e+06	   76.5495	   14.9038	       2.4	8.56848e+06	   76.5267	   14.8549	       2.4	8.49642e+06	      76.5	   14.8821	       2.4	8.53192e+06	   76.5247	   14.9057	       2.4	8.55622e+06	   76.5515	   14.8785	       2.4	 8.5304e+06	
         R10	   2390	   76.5569	   14.7973	       2.4	8.43051e+06	      76.5	   14.8009	       2.4	8.49124e+06	      76.5	   14.8567	       2.4	8.51322e+06	   76.5535	   14.8532	       2.4	8.50947e+06	   76.5285	   14.7991	       2.4	8.45417e+06	      76.5	   14.8288	       2.4	8.50153e+06	   76.5267	   14.8549	       2.4	8.50555e+06	   76.5552	   14.8253	       2.4	8.46897e+06	
         R10	   2391	   76.5606	   14.7368	       2.4	8.36629e+06	      76.5	   14.7403	       2.4	 8.4844e+06	      76.5	   14.8009	       2.4	8.49848e+06	   76.5569	   14.7973	       2.4	8.47517e+06	   76.5303	   14.7386	       2.4	8.41831e+06	      76.5	   14.7706	       2.4	8.49047e+06	   76.5285	   14.7991	       2.4	8.48059e+06	   76.5588	   14.7671	       2.4	8.41947e+06	
         R10	   2392	   76.5687	   14.6702	       2.4	8.35013e+06	      76.5	   14.6749	       2.4	8.43484e+06	      76.5	   14.7403	       2.4	8.50686e+06	   76.5606	   14.7368	       2.4	 8.4815e+06	   76.5344	   14.6726	       2.4	8.38449e+06	      76.5	   14.7076	       2.4	8.46968e+06	   76.5303	   14.7386	       2.4	 8.4883e+06	   76.5647	   14.7035	       2.4	8.41364e+06	
         R10	   2393	   76.5786	   14.6007	       2.4	8.21212e+06	      76.5	   14.6048	       2.4	8.42999e+06	      76.5	   14.6749	       2.4	 8.4493e+06	   76.5687	   14.6702	       2.4	 8.6503e+06	   76.5393	   14.6027	       2.4	 8.3088e+06	      76.5	   14.6398	       2.4	8.43929e+06	   76.5344	   14.6726	       2.4	 8.5449e+06	   76.5737	   14.6355	       2.4	8.42539e+06	
         R10	   2394	    76.583	   14.5278	       2.4	9.78093e+06	    76.581	     14.45	       2.4	7.27818e+06	      76.5	     14.45	       2.4	9.10707e+06	      76.5	   14.5298	       2.4	8.19527e+06	    76.582	   14.4889	       2.4	8.44482e+06	   76.5405	     14.45	       2.4	8.05428e+06	      76.5	   14.4899	       2.4	7.56795e+06	   76.5415	   14.5288	       2.4	8.74349e+06	
         R10	   2395	   76.7597	    14.611	       2.4	8.20481e+06	    76.756	   14.5333	       2.4	7.76846e+06	   76.6688	   14.5306	       2.4	8.01548e+06	   76.6677	   14.6112	       2.4	8.40386e+06	   76.7578	   14.5721	       2.4	7.98195e+06	   76.7124	   14.5319	       2.4	7.89141e+06	   76.6683	   14.5709	       2.4	8.20459e+06	   76.7137	   14.6111	       2.4	8.30126e+06	
         R10	   2396	   76.8478	   14.6216	       2.4	7.92877e+06	    76.848	   14.5367	       2.4	7.72721e+06	    76.756	   14.5333	       2.4	7.80324e+06	   76.7597	    14.611	       2.4	8.17147e+06	   76.8479	   14.5792	       2.4	7.81873e+06	    76.802	    14.535	       2.4	7.76429e+06	   76.7578	   14.5721	       2.4	7.98226e+06	   76.8037	   14.6163	       2.4	8.04875e+06	
         R10	   2397	    76.939	   14.6275	       2.4	 7.7644e+06	   76.9416	   14.5403	       2.4	7.57098e+06	    76.848	   14.5367	       2.4	7.70295e+06	   76.8478	   14.6216	       2.4	7.95333e+06	   76.9403	   14.5839	       2.4	 7.6538e+06	   76.8948	   14.5385	       2.4	7.63574e+06	   76.8479	   14.5792	       2.4	7.81888e+06	   76.8934	   14.6246	       2.4	7.85791e+06	
         R10	   2398	   77.0371	   14.6324	       2.4	7.58603e+06	     77.04	   14.5438	       2.4	7.42488e+06	   76.9416	   14.5403	       2.4	7.56053e+06	    76.939	   14.6275	       2.4	7.77479e+06	   77.0386	   14.5881	       2.4	7.48747e+06	   76.9908	    14.542	       2.4	7.49125e+06	   76.9403	   14.5839	       2.4	7.65351e+06	   76.9881	   14.6299	       2.4	7.67907e+06	
         R10	   2399	   77.1408	   14.6425	       2.4	7.38972e+06	   77.1416	   14.5484	       2.4	7.29545e+06	     77.04	   14.5438	       2.4	7.42402e+06	   77.0371	   14.6324	       2.4	7.58044e+06	   77.1412	   14.5954	       2.4	 7.3213e+06	   77.0908	   14.5461	       2.4	7.35814e+06	   77.0386	   14.5881	       2.4	7.48391e+06	    77.089	   14.6374	       2.4	7.48316e+06	
         R10	   2400	   77.2452	   14.6541	       2.4	7.23427e+06	   77.2456	   14.5528	       2.4	7.17587e+06	   77.1416	   14.5484	       2.4	7.28461e+06	   77.1408	   14.6425	       2.4	7.38959e+06	   77.2454	   14.6034	       2.4	7.18044e+06	   77.1936	   14.5506	       2.4	7.22868e+06	   77.1412	   14.5954	       2.4	7.31554e+06	    77.193	   14.6483	       2.4	7.30969e+06	
         R10	   2401	   77.2398	   14.7588	       2.4	 7.1692e+06	   77.2452	   14.6541	       2.4	7.10562e+06	   77.1408	   14.6425	       2.4	7.21225e+06	   77.1292	   14.7239	       2.4	7.32139e+06	   77.2425	   14.7064	       2.4	7.12456e+06	    77.193	   14.6483	       2.4	7.15755e+06	    77.135	   14.6832	       2.4	7.25656e+06	   77.1845	   14.7413	       2.4	7.24064e+06	
         R10	   2402	   77.1789	   14.9612	       2.4	7.29375e+06	   77.2651	   14.9563	       2.4	7.22334e+06	   77.2648	   14.8626	       2.4	7.13007e+06	    77.177	   14.8792	       2.4	7.32139e+06	    77.222	   14.9587	       2.4	7.25715e+06	   77.2649	   14.9094	       2.4	7.17604e+06	   77.2209	   14.8709	       2.4	 7.2241e+06	    77.178	   14.9202	       2.4	7.30699e+06	
         R10	   2403	   77.1855	   15.0468	       2.4	 7.2694e+06	   77.2667	   15.0442	       2.4	 7.1759e+06	   77.2651	   14.9563	       2.4	7.19884e+06	   77.1789	   14.9612	       2.4	 7.2969e+06	   77.2261	   15.0455	       2.4	7.22096e+06	   77.2659	   15.0002	       2.4	7.18725e+06	    77.222	   14.9587	       2.4	7.24602e+06	   77.1822	    15.004	       2.4	7.28298e+06	
         R10	   2404	    77.192	   15.1331	       2.4	7.16998e+06	   77.2696	   15.1314	       2.4	7.10315e+06	   77.2667	   15.0442	       2.4	7.16688e+06	   77.1855	   15.0468	       2.4	7.27007e+06	   77.2308	   15.1322	       2.4	  7.135e+06	   77.2682	   15.0878	       2.4	7.13384e+06	   77.2261	   15.0455	       2.4	7.21659e+06	   77.1887	     15.09	       2.4	7.21893e+06	
         R10	   2405	   77.1965	   15.2182	       2.4	7.05578e+06	   77.2718	   15.2169	       2.4	7.02024e+06	   77.2696	   15.1314	       2.4	7.10237e+06	    77.192	   15.1331	       2.4	7.16936e+06	   77.2341	   15.2176	       2.4	7.03657e+06	   77.2707	   15.1741	       2.4	7.05709e+06	   77.2308	   15.1322	       2.4	7.13429e+06	   77.1942	   15.1757	       2.4	7.10886e+06	
         R10	   2406	   77.1288	   15.2245	       2.4	7.09497e+06	   77.1965	   15.2182	       2.4	7.05619e+06	    77.192	   15.1331	       2.4	7.16567e+06	   77.1201	   15.1387	       2.4	7.25077e+06	   77.1627	   15.2213	       2.4	7.07437e+06	   77.1942	   15.1757	       2.4	7.10723e+06	   77.1561	   15.1359	       2.4	7.20643e+06	   77.1245	   15.1816	       2.4	7.16926e+06	
         R10	   2407	   77.0529	   15.1829	       2.4	7.26847e+06	   77.0643	   15.2363	       2.4	 7.1553e+06	   77.1288	   15.2245	       2.4	7.09034e+06	   77.1201	   15.1387	       2.4	7.25399e+06	   77.0586	   15.2096	       2.4	7.20984e+06	   77.0966	   15.2304	       2.4	7.12139e+06	   77.1245	   15.1816	       2.4	 7.1683e+06	   77.0865	   15.1608	       2.4	7.26063e+06	
         R10	   2408	   76.9976	    15.186	       2.4	7.37505e+06	   77.0023	    15.244	       2.4	7.18772e+06	   77.0643	   15.2363	       2.4	7.14812e+06	   77.0529	   15.1829	       2.4	7.24535e+06	   76.9999	    15.215	       2.4	7.27941e+06	   77.0333	   15.2402	       2.4	7.16659e+06	   77.0586	   15.2096	       2.4	7.19485e+06	   77.0252	   15.1845	       2.4	7.30821e+06	
         R10	   2409	   76.9421	   15.1936	       2.4	7.48222e+06	   76.9467	   15.2467	       2.4	7.29039e+06	   77.0023	    15.244	       2.4	7.20008e+06	   76.9976	    15.186	       2.4	7.37086e+06	   76.9444	   15.2201	       2.4	7.38489e+06	   76.9745	   15.2454	       2.4	7.24316e+06	   76.9999	    15.215	       2.4	7.28353e+06	   76.9699	   15.1898	       2.4	7.42477e+06	
         R10	   2410	   76.8917	   15.2015	       2.4	7.60657e+06	   76.8962	   15.2505	       2.4	7.39629e+06	   76.9467	   15.2467	       2.4	 7.2915e+06	   76.9421	   15.1936	       2.4	7.47955e+06	   76.8939	    15.226	       2.4	7.50024e+06	   76.9214	   15.2486	       2.4	7.34182e+06	   76.9444	   15.2201	       2.4	7.38415e+06	   76.9169	   15.1976	       2.4	7.54118e+06	
         R10	   2411	   76.8462	   15.2119	       2.4	7.73676e+06	   76.8503	   15.2554	       2.4	7.51721e+06	   76.8962	   15.2505	       2.4	 7.3962e+06	   76.8917	   15.2015	       2.4	7.60721e+06	   76.8483	   15.2336	       2.4	7.62588e+06	   76.8733	   15.2529	       2.4	7.45456e+06	   76.8939	    15.226	       2.4	7.50051e+06	    76.869	   15.2067	       2.4	7.67021e+06	
         R10	   2412	   76.8046	   15.2233	       2.4	7.87817e+06	   76.8092	   15.2609	       2.4	7.65067e+06	   76.8503	   15.2554	       2.4	 7.5167e+06	   76.8462	   15.2119	       2.4	 7.7377e+06	   76.8069	   15.2421	       2.4	7.76314e+06	   76.8297	   15.2581	       2.4	7.58153e+06	   76.8483	   15.2336	       2.4	7.62609e+06	   76.8254	   15.2176	       2.4	7.80606e+06	
         R10	   2413	   76.7697	   15.2334	       2.4	8.02343e+06	   76.7727	   15.2663	       2.4	7.80379e+06	   76.8092	   15.2609	       2.4	7.65091e+06	   76.8046	   15.2233	       2.4	7.87907e+06	   76.7712	   15.2498	       2.4	 7.9122e+06	   76.7909	   15.2636	       2.4	7.72515e+06	   76.8069	   15.2421	       2.4	7.76371e+06	   76.7872	   15.2283	       2.4	7.94957e+06	
         R10	   2414	   76.7375	   15.2429	       2.4	8.19194e+06	   76.7408	   15.2715	       2.4	7.97042e+06	   76.7727	   15.2663	       2.4	7.80379e+06	   76.7697	   15.2334	       2.4	8.02371e+06	   76.7392	   15.2572	       2.4	8.07936e+06	   76.7567	   15.2689	       2.4	7.88492e+06	   76.7712	   15.2498	       2.4	7.91233e+06	   76.7536	   15.2381	       2.4	8.10598e+06	
         R10	   2415	   76.7103	    15.256	       2.4	8.33771e+06	   76.7136	    15.276	       2.4	8.14834e+06	   76.7408	   15.2715	       2.4	7.97076e+06	   76.7375	   15.2429	       2.4	8.19384e+06	   76.7119	    15.266	       2.4	8.24149e+06	   76.7272	   15.2737	       2.4	8.05759e+06	   76.7392	   15.2572	       2.4	8.08047e+06	   76.7239	   15.2495	       2.4	8.26381e+06	
         R10	   2416	   76.6896	   15.2534	       2.4	8.57114e+06	     76.67	    15.249	       2.4	 8.8321e+06	     76.67	    15.266	       2.4	8.71682e+06	   76.6897	   15.2769	       2.4	8.37768e+06	   76.6798	   15.2512	       2.4	8.70027e+06	     76.67	   15.2575	       2.4	8.77241e+06	   76.6798	   15.2714	       2.4	 8.5448e+06	   76.6896	   15.2651	       2.4	8.47155e+06	
         R10	   2417	   76.7091	   15.1987	       2.4	8.62331e+06	   76.6865	   15.2003	       2.4	8.82312e+06	   76.6886	   15.2158	       2.4	8.76016e+06	   76.7114	   15.2154	       2.4	  8.556e+06	   76.6978	   15.1995	       2.4	8.72227e+06	   76.6875	    15.208	       2.4	8.79083e+06	      76.7	   15.2156	       2.4	8.65701e+06	   76.7103	    15.207	       2.4	8.58906e+06	
         R10	   2418	   76.7123	   15.1552	       2.4	8.67111e+06	   76.6876	   15.1648	       2.4	 8.8305e+06	   76.6932	   15.1804	       2.4	8.79147e+06	   76.7113	   15.1734	       2.4	8.65615e+06	      76.7	     15.16	       2.4	 8.7499e+06	   76.6904	   15.1726	       2.4	8.81039e+06	   76.7023	   15.1769	       2.4	8.72323e+06	   76.7118	   15.1643	       2.4	8.66322e+06	
         R10	   2419	   76.7107	   15.1303	       2.4	8.68772e+06	   76.6921	   15.1262	       2.4	8.77315e+06	   76.6876	   15.1464	       2.4	8.83118e+06	   76.7123	   15.1552	       2.4	8.66748e+06	   76.7014	   15.1282	       2.4	8.72994e+06	   76.6898	   15.1363	       2.4	 8.8017e+06	      76.7	   15.1508	       2.4	8.74809e+06	   76.7115	   15.1427	       2.4	 8.6769e+06	
         R10	   2420	   76.6693	   15.1129	       2.4	8.85527e+06	     76.67	     15.13	       2.4	8.89556e+06	   76.6921	   15.1262	       2.4	8.77497e+06	   76.6904	   15.1041	       2.4	8.75514e+06	   76.6697	   15.1214	       2.4	 8.8751e+06	   76.6811	   15.1281	       2.4	8.83452e+06	   76.6913	   15.1151	       2.4	8.76456e+06	   76.6799	   15.1085	       2.4	8.80461e+06	
         R10	   2421	   76.6523	   15.0878	       2.4	 8.8519e+06	   76.6545	    15.113	       2.4	8.91596e+06	   76.6693	   15.1129	       2.4	8.85965e+06	   76.6693	   15.0868	       2.4	8.79976e+06	   76.6534	   15.1004	       2.4	8.88341e+06	   76.6619	   15.1129	       2.4	8.88743e+06	   76.6693	   15.0998	       2.4	8.82922e+06	   76.6608	   15.0873	       2.4	8.82546e+06	
         R10	   2422	   76.6127	   15.0814	       2.4	 8.9039e+06	   76.6175	   15.1082	       2.4	8.99705e+06	    76.635	   15.1034	       2.4	8.94447e+06	    76.627	   15.0821	       2.4	8.89541e+06	   76.6151	   15.0948	       2.4	8.94992e+06	   76.6262	   15.1058	       2.4	8.97021e+06	    76.631	   15.0928	       2.4	8.91957e+06	   76.6199	   15.0817	       2.4	8.89937e+06	
         R10	   2423	   76.5956	   15.0879	       2.4	8.94331e+06	    76.601	   15.1096	       2.4	9.01569e+06	   76.6175	   15.1082	       2.4	8.99664e+06	   76.6127	   15.0814	       2.4	8.90614e+06	   76.5983	   15.0988	       2.4	8.97917e+06	   76.6092	   15.1089	       2.4	 9.0056e+06	   76.6151	   15.0948	       2.4	8.95083e+06	   76.6042	   15.0846	       2.4	8.92417e+06	
         R10	   2424	   76.5803	    15.096	       2.4	8.97653e+06	   76.5864	   15.1134	       2.4	9.03087e+06	    76.601	   15.1096	       2.4	9.01669e+06	   76.5956	   15.0879	       2.4	8.93957e+06	   76.5833	   15.1047	       2.4	9.00343e+06	   76.5937	   15.1115	       2.4	9.02333e+06	   76.5983	   15.0988	       2.4	8.97781e+06	   76.5879	   15.0919	       2.4	8.95753e+06	
         R10	   2425	   76.5482	   15.0886	       2.4	8.93456e+06	   76.5242	   15.0858	       2.4	8.92652e+06	   76.5194	   15.1085	       2.4	8.98052e+06	    76.534	   15.1112	       2.4	8.98801e+06	   76.5362	   15.0872	       2.4	8.92913e+06	   76.5218	   15.0972	       2.4	8.95318e+06	   76.5267	   15.1098	       2.4	8.98367e+06	   76.5411	   15.0999	       2.4	8.96033e+06	
         R10	   2426	   76.5564	   15.0612	       2.4	8.87319e+06	   76.5286	   15.0591	       2.4	8.85816e+06	   76.5242	   15.0858	       2.4	8.92608e+06	   76.5482	   15.0886	       2.4	8.93655e+06	   76.5425	   15.0602	       2.4	8.86404e+06	   76.5264	   15.0725	       2.4	8.89178e+06	   76.5362	   15.0872	       2.4	8.92996e+06	   76.5523	   15.0749	       2.4	8.90441e+06	
         R10	   2427	   76.5679	   15.0314	       2.4	8.80095e+06	   76.5336	   15.0271	       2.4	8.78812e+06	   76.5286	   15.0591	       2.4	8.85726e+06	   76.5564	   15.0612	       2.4	8.87363e+06	   76.5507	   15.0293	       2.4	8.79232e+06	   76.5311	   15.0431	       2.4	8.82229e+06	   76.5425	   15.0602	       2.4	8.86383e+06	   76.5621	   15.0463	       2.4	8.83666e+06	
         R10	   2428	   76.5782	   14.9966	       2.4	8.72245e+06	   76.5391	   14.9908	       2.4	8.71309e+06	   76.5336	   15.0271	       2.4	8.78803e+06	   76.5679	   15.0314	       2.4	8.80032e+06	   76.5587	   14.9937	       2.4	8.71507e+06	   76.5363	    15.009	       2.4	 8.7501e+06	   76.5507	   15.0293	       2.4	8.79198e+06	    76.573	    15.014	       2.4	8.76073e+06	
         R10	   2429	   76.5886	   14.9548	       2.4	8.63216e+06	   76.5446	   14.9497	       2.4	8.63419e+06	   76.5391	   14.9908	       2.4	8.71282e+06	   76.5782	   14.9966	       2.4	 8.7208e+06	   76.5666	   14.9523	       2.4	8.62997e+06	   76.5419	   14.9703	       2.4	8.67292e+06	   76.5587	   14.9937	       2.4	8.71411e+06	   76.5834	   14.9757	       2.4	8.67566e+06	
         R10	   2430	   76.5985	   14.9083	       2.4	8.54116e+06	   76.5495	   14.9038	       2.4	 8.5573e+06	   76.5446	   14.9497	       2.4	8.63524e+06	   76.5886	   14.9548	       2.4	8.63208e+06	    76.574	   14.9061	       2.4	8.54542e+06	   76.5471	   14.9267	       2.4	 8.5956e+06	   76.5666	   14.9523	       2.4	8.63044e+06	   76.5935	   14.9316	       2.4	8.58566e+06	
         R10	   2431	   76.6062	   14.8578	       2.4	8.45671e+06	   76.5535	   14.8532	       2.4	8.48534e+06	   76.5495	   14.9038	       2.4	8.56188e+06	   76.5985	   14.9083	       2.4	8.54369e+06	   76.5798	   14.8555	       2.4	8.46688e+06	   76.5515	   14.8785	       2.4	 8.5228e+06	    76.574	   14.9061	       2.4	8.54895e+06	   76.6023	    14.883	       2.4	8.49922e+06	
         R10	   2432	   76.6114	    14.803	       2.4	8.38005e+06	   76.5569	   14.7973	       2.4	8.42711e+06	   76.5535	   14.8532	       2.4	8.50057e+06	   76.6062	   14.8578	       2.4	8.46412e+06	   76.5842	   14.8002	       2.4	8.39943e+06	   76.5552	   14.8253	       2.4	8.46284e+06	   76.5798	   14.8555	       2.4	 8.4781e+06	   76.6088	   14.8304	       2.4	8.42101e+06	
         R10	   2433	   76.6176	    14.744	       2.4	8.32865e+06	   76.5606	   14.7368	       2.4	8.38188e+06	   76.5569	   14.7973	       2.4	8.46862e+06	   76.6114	    14.803	       2.4	8.39938e+06	   76.5891	   14.7404	       2.4	8.35143e+06	   76.5588	   14.7671	       2.4	8.42396e+06	   76.5842	   14.8002	       2.4	8.42949e+06	   76.6145	   14.7735	       2.4	8.36271e+06	
         R10	   2434	   76.6286	   14.6811	       2.4	8.30904e+06	   76.5687	   14.6702	       2.4	8.32431e+06	   76.5606	   14.7368	       2.4	8.48529e+06	   76.6176	    14.744	       2.4	8.37367e+06	   76.5986	   14.6756	       2.4	8.31196e+06	   76.5647	   14.7035	       2.4	8.40234e+06	   76.5891	   14.7404	       2.4	8.42446e+06	   76.6231	   14.7126	       2.4	8.33868e+06	
         R10	   2435	    76.583	   14.5278	       2.4	9.16295e+06	      76.5	   14.5298	       2.4	7.64123e+06	      76.5	   14.6048	       2.4	8.62412e+06	   76.5786	   14.6007	       2.4	8.82329e+06	   76.5415	   14.5288	       2.4	8.26465e+06	      76.5	   14.5673	       2.4	 8.1172e+06	   76.5393	   14.6027	       2.4	8.71191e+06	   76.5808	   14.5643	       2.4	8.94994e+06	
         R10	   2436	   76.6677	   14.6112	       2.4	8.42073e+06	   76.6688	   14.5306	       2.4	8.00251e+06	    76.583	   14.5278	       2.4	8.08359e+06	   76.5786	   14.6007	       2.4	 8.8154e+06	   76.6683	   14.5709	       2.4	8.20991e+06	   76.6259	   14.5292	       2.4	 8.0418e+06	   76.5808	   14.5643	       2.4	8.43052e+06	   76.6232	   14.6059	       2.4	8.60892e+06	
         R10	   2437	   76.8447	   14.7012	       2.4	7.86466e+06	   76.8478	   14.6216	       2.4	7.68002e+06	   76.7597	    14.611	       2.4	 7.8853e+06	   76.7659	    14.686	       2.4	8.04981e+06	   76.8462	   14.6614	       2.4	7.76717e+06	   76.8037	   14.6163	       2.4	7.78152e+06	   76.7628	   14.6485	       2.4	7.96329e+06	   76.8053	   14.6936	       2.4	7.95494e+06	
         R10	   2438	   76.9338	   14.7093	       2.4	 7.6932e+06	    76.939	   14.6275	       2.4	7.50407e+06	   76.8478	   14.6216	       2.4	7.67981e+06	   76.8447	   14.7012	       2.4	7.88013e+06	   76.9364	   14.6684	       2.4	7.59217e+06	   76.8934	   14.6246	       2.4	7.59085e+06	   76.8462	   14.6614	       2.4	 7.7749e+06	   76.8893	   14.7053	       2.4	7.78491e+06	
         R10	   2439	   77.0285	   14.7151	       2.4	7.50848e+06	   77.0371	   14.6324	       2.4	 7.3441e+06	    76.939	   14.6275	       2.4	7.50443e+06	   76.9338	   14.7093	       2.4	7.69352e+06	   77.0328	   14.6738	       2.4	7.41788e+06	   76.9881	   14.6299	       2.4	  7.423e+06	   76.9364	   14.6684	       2.4	7.59263e+06	   76.9811	   14.7122	       2.4	7.59933e+06	
         R10	   2440	   77.1292	   14.7239	       2.4	7.36199e+06	   77.1408	   14.6425	       2.4	7.17706e+06	   77.0371	   14.6324	       2.4	7.35337e+06	   77.0285	   14.7151	       2.4	 7.4998e+06	    77.135	   14.6832	       2.4	7.25941e+06	    77.089	   14.6374	       2.4	  7.263e+06	   77.0328	   14.6738	       2.4	7.41827e+06	   77.0788	   14.7195	       2.4	7.42942e+06	
         R10	   2441	   77.1057	   14.8022	       2.4	7.39505e+06	   77.1292	   14.7239	       2.4	7.24108e+06	   77.0285	   14.7151	       2.4	7.39637e+06	   77.0172	    14.793	       2.4	7.53797e+06	   77.1175	   14.7631	       2.4	7.31294e+06	   77.0788	   14.7195	       2.4	7.31691e+06	   77.0228	   14.7541	       2.4	7.46349e+06	   77.0615	   14.7976	       2.4	7.46458e+06	
         R10	   2442	   77.1158	   15.0527	       2.4	7.37315e+06	   77.1855	   15.0468	       2.4	7.26014e+06	   77.1789	   14.9612	       2.4	7.30607e+06	   77.0921	   14.9639	       2.4	7.44142e+06	   77.1507	   15.0498	       2.4	7.31499e+06	   77.1822	    15.004	       2.4	7.28288e+06	   77.1355	   14.9625	       2.4	 7.3716e+06	    77.104	   15.0083	       2.4	7.40682e+06	
         R10	   2443	   77.1201	   15.1387	       2.4	7.25478e+06	    77.192	   15.1331	       2.4	7.17174e+06	   77.1855	   15.0468	       2.4	7.25879e+06	   77.1158	   15.0527	       2.4	7.36246e+06	   77.1561	   15.1359	       2.4	7.21151e+06	   77.1887	     15.09	       2.4	7.21418e+06	   77.1507	   15.0498	       2.4	7.30907e+06	    77.118	   15.0957	       2.4	7.30795e+06	
         R10	   2444	   76.9916	   15.1303	       2.4	7.50869e+06	   76.9976	    15.186	       2.4	7.38092e+06	   77.0529	   15.1829	       2.4	7.26172e+06	   77.0471	   15.1168	       2.4	 7.4228e+06	   76.9946	   15.1582	       2.4	7.44423e+06	   77.0252	   15.1845	       2.4	7.31946e+06	     77.05	   15.1498	       2.4	7.34117e+06	   77.0194	   15.1236	       2.4	7.46445e+06	
         R10	   2445	   76.9343	   15.1412	       2.4	 7.6443e+06	   76.9421	   15.1936	       2.4	7.48151e+06	   76.9976	    15.186	       2.4	7.36527e+06	   76.9916	   15.1303	       2.4	7.50496e+06	   76.9382	   15.1674	       2.4	7.56234e+06	   76.9699	   15.1898	       2.4	7.42157e+06	   76.9946	   15.1582	       2.4	7.43454e+06	    76.963	   15.1358	       2.4	7.57269e+06	
         R10	   2446	   76.8825	   15.1537	       2.4	 7.7889e+06	   76.8917	   15.2015	       2.4	 7.6073e+06	   76.9421	   15.1936	       2.4	7.48016e+06	   76.9343	   15.1412	       2.4	7.64394e+06	   76.8871	   15.1776	       2.4	7.69746e+06	   76.9169	   15.1976	       2.4	7.54184e+06	   76.9382	   15.1674	       2.4	7.56147e+06	   76.9084	   15.1475	       2.4	7.71454e+06	
         R10	   2447	   76.8353	    15.168	       2.4	7.94323e+06	   76.8462	   15.2119	       2.4	7.73727e+06	   76.8917	   15.2015	       2.4	7.60726e+06	   76.8825	   15.1537	       2.4	7.78838e+06	   76.8408	   15.1899	       2.4	7.83935e+06	    76.869	   15.2067	       2.4	7.67048e+06	   76.8871	   15.1776	       2.4	7.69719e+06	   76.8589	   15.1608	       2.4	 7.8639e+06	
         R10	   2448	   76.7991	   15.1855	       2.4	8.06903e+06	   76.8046	   15.2233	       2.4	7.87695e+06	   76.8462	   15.2119	       2.4	7.73783e+06	   76.8353	    15.168	       2.4	7.94412e+06	   76.8018	   15.2044	       2.4	7.97211e+06	   76.8254	   15.2176	       2.4	7.80553e+06	   76.8408	   15.1899	       2.4	7.84005e+06	   76.8172	   15.1767	       2.4	 8.0053e+06	
         R10	   2449	   76.7613	   15.1982	       2.4	8.24007e+06	   76.7697	   15.2334	       2.4	8.02719e+06	   76.8046	   15.2233	       2.4	7.87873e+06	   76.7991	   15.1855	       2.4	8.06756e+06	   76.7655	   15.2158	       2.4	8.13214e+06	   76.7872	   15.2283	       2.4	7.95126e+06	   76.8018	   15.2044	       2.4	7.97227e+06	   76.7802	   15.1918	       2.4	8.15193e+06	
         R10	   2450	   76.7326	   15.2166	       2.4	8.37318e+06	   76.7375	   15.2429	       2.4	8.19077e+06	   76.7697	   15.2334	       2.4	8.02573e+06	   76.7613	   15.1982	       2.4	8.24213e+06	    76.735	   15.2298	       2.4	8.28052e+06	   76.7536	   15.2381	       2.4	8.10639e+06	   76.7655	   15.2158	       2.4	8.13249e+06	   76.7469	   15.2074	       2.4	8.30625e+06	
         R10	   2451	   76.6896	   15.2534	       2.4	 8.5679e+06	   76.6897	   15.2769	       2.4	8.38264e+06	   76.7136	    15.276	       2.4	8.15073e+06	   76.7103	    15.256	       2.4	8.33447e+06	   76.6896	   15.2651	       2.4	8.47238e+06	   76.7016	   15.2765	       2.4	8.26466e+06	   76.7119	    15.266	       2.4	8.24113e+06	   76.6999	   15.2547	       2.4	8.44982e+06	
         R10	   2452	   76.7084	   15.2345	       2.4	8.48878e+06	   76.7114	   15.2154	       2.4	 8.5494e+06	   76.6886	   15.2158	       2.4	8.76394e+06	   76.6889	   15.2345	       2.4	8.68483e+06	   76.7099	   15.2249	       2.4	8.51809e+06	      76.7	   15.2156	       2.4	8.65555e+06	   76.6888	   15.2252	       2.4	8.72312e+06	   76.6986	   15.2345	       2.4	8.58589e+06	
         R10	   2453	   76.7113	   15.1734	       2.4	8.66027e+06	   76.6932	   15.1804	       2.4	8.79081e+06	   76.7091	   15.1987	       2.4	8.62817e+06	   76.7315	   15.1828	       2.4	8.49272e+06	   76.7023	   15.1769	       2.4	8.72502e+06	   76.7012	   15.1896	       2.4	8.70814e+06	   76.7203	   15.1907	       2.4	8.55934e+06	   76.7214	   15.1781	       2.4	8.57559e+06	
         R10	   2454	   76.6904	   15.1041	       2.4	8.75286e+06	   76.6921	   15.1262	       2.4	8.77202e+06	   76.7107	   15.1303	       2.4	8.68413e+06	   76.7203	   15.0992	       2.4	8.60839e+06	   76.6913	   15.1151	       2.4	  8.762e+06	   76.7014	   15.1282	       2.4	8.72753e+06	   76.7155	   15.1147	       2.4	 8.6455e+06	   76.7053	   15.1017	       2.4	8.67947e+06	
         R10	   2455	    76.627	   15.0821	       2.4	8.88944e+06	    76.635	   15.1034	       2.4	8.94388e+06	   76.6523	   15.0878	       2.4	8.85177e+06	   76.6412	   15.0571	       2.4	8.81384e+06	    76.631	   15.0928	       2.4	 8.9163e+06	   76.6436	   15.0956	       2.4	 8.8973e+06	   76.6468	   15.0724	       2.4	8.83192e+06	   76.6341	   15.0696	       2.4	8.85098e+06	
         R10	   2456	   76.6033	   15.0451	       2.4	8.81841e+06	   76.5679	   15.0314	       2.4	8.80372e+06	   76.5564	   15.0612	       2.4	8.87161e+06	   76.5799	   15.0691	       2.4	8.89449e+06	   76.5856	   15.0382	       2.4	8.80896e+06	   76.5621	   15.0463	       2.4	  8.837e+06	   76.5681	   15.0652	       2.4	8.88186e+06	   76.5916	   15.0571	       2.4	8.85524e+06	
         R10	   2457	   76.6164	    15.008	       2.4	8.71694e+06	   76.5782	   14.9966	       2.4	8.72268e+06	   76.5679	   15.0314	       2.4	8.80346e+06	   76.6033	   15.0451	       2.4	8.81895e+06	   76.5973	   15.0023	       2.4	8.71745e+06	    76.573	    15.014	       2.4	8.76246e+06	   76.5856	   15.0382	       2.4	8.80906e+06	   76.6098	   15.0265	       2.4	8.76703e+06	
         R10	   2458	   76.6316	   14.9656	       2.4	8.61129e+06	   76.5886	   14.9548	       2.4	8.63274e+06	   76.5782	   14.9966	       2.4	8.72273e+06	   76.6164	    15.008	       2.4	8.71936e+06	   76.6101	   14.9602	       2.4	8.61937e+06	   76.5834	   14.9757	       2.4	8.67689e+06	   76.5973	   15.0023	       2.4	8.71872e+06	    76.624	   14.9868	       2.4	8.66428e+06	
         R10	   2459	   76.6473	   14.9172	       2.4	8.50005e+06	   76.5985	   14.9083	       2.4	8.54027e+06	   76.5886	   14.9548	       2.4	8.63345e+06	   76.6316	   14.9656	       2.4	8.61017e+06	   76.6229	   14.9128	       2.4	8.51708e+06	   76.5935	   14.9316	       2.4	 8.5859e+06	   76.6101	   14.9602	       2.4	8.61915e+06	   76.6395	   14.9414	       2.4	8.55388e+06	
         R10	   2460	   76.6615	   14.8663	       2.4	8.39752e+06	   76.6062	   14.8578	       2.4	8.45282e+06	   76.5985	   14.9083	       2.4	8.54245e+06	   76.6473	   14.9172	       2.4	 8.4973e+06	   76.6338	    14.862	       2.4	8.42161e+06	   76.6023	    14.883	       2.4	8.49661e+06	   76.6229	   14.9128	       2.4	8.51673e+06	   76.6544	   14.8918	       2.4	8.44619e+06	
         R10	   2461	   76.6748	    14.812	       2.4	8.30596e+06	   76.6114	    14.803	       2.4	8.37404e+06	   76.6062	   14.8578	       2.4	8.45999e+06	   76.6615	   14.8663	       2.4	8.39626e+06	   76.6431	   14.8075	       2.4	8.33594e+06	   76.6088	   14.8304	       2.4	8.41592e+06	   76.6338	    14.862	       2.4	8.42442e+06	   76.6681	   14.8392	       2.4	8.34993e+06	
         R10	   2462	   76.6757	   14.7637	       2.4	8.24914e+06	   76.6176	    14.744	       2.4	 8.3418e+06	   76.6114	    14.803	       2.4	8.39299e+06	   76.6748	    14.812	       2.4	8.30134e+06	   76.6467	   14.7539	       2.4	8.29176e+06	   76.6145	   14.7735	       2.4	8.36616e+06	   76.6431	   14.8075	       2.4	8.34274e+06	   76.6752	   14.7878	       2.4	8.27445e+06	
         R10	   2463	   76.6863	   14.7056	       2.4	8.15007e+06	   76.6286	   14.6811	       2.4	8.34153e+06	   76.6176	    14.744	       2.4	8.36353e+06	   76.6757	   14.7637	       2.4	8.25435e+06	   76.6574	   14.6933	       2.4	8.24389e+06	   76.6231	   14.7126	       2.4	8.34941e+06	   76.6467	   14.7539	       2.4	8.30484e+06	    76.681	   14.7346	       2.4	8.20139e+06	
         R10	   2464	   76.6677	   14.6112	       2.4	8.16756e+06	   76.5786	   14.6007	       2.4	8.43483e+06	   76.5687	   14.6702	       2.4	8.59793e+06	   76.6286	   14.6811	       2.4	8.40167e+06	   76.6232	   14.6059	       2.4	 8.2934e+06	   76.5737	   14.6355	       2.4	8.50596e+06	   76.5986	   14.6756	       2.4	8.49132e+06	   76.6481	   14.6461	       2.4	8.27778e+06	
         R10	   2465	   76.9275	   14.7863	       2.4	7.72647e+06	   76.9338	   14.7093	       2.4	7.57107e+06	   76.8447	   14.7012	       2.4	7.75366e+06	   76.8382	   14.7779	       2.4	7.92435e+06	   76.9307	   14.7478	       2.4	7.64534e+06	   76.8893	   14.7053	       2.4	7.66038e+06	   76.8414	   14.7395	       2.4	7.83574e+06	   76.8828	   14.7821	       2.4	7.82268e+06	
         R10	   2466	   77.0172	    14.793	       2.4	7.54475e+06	   77.0285	   14.7151	       2.4	7.39515e+06	   76.9338	   14.7093	       2.4	7.56395e+06	   76.9275	   14.7863	       2.4	7.72462e+06	   77.0228	   14.7541	       2.4	7.46636e+06	   76.9811	   14.7122	       2.4	7.47795e+06	   76.9307	   14.7478	       2.4	7.64087e+06	   76.9724	   14.7897	       2.4	7.63253e+06	
         R10	   2467	   77.0111	   14.8643	       2.4	7.58383e+06	   77.0172	    14.793	       2.4	7.49457e+06	   76.9275	   14.7863	       2.4	7.66218e+06	   76.9239	   14.8531	       2.4	7.79027e+06	   77.0141	   14.8286	       2.4	7.53753e+06	   76.9724	   14.7897	       2.4	7.57622e+06	   76.9257	   14.8197	       2.4	7.72444e+06	   76.9675	   14.8587	       2.4	7.68412e+06	
         R10	   2468	   77.0952	   14.8803	       2.4	7.44983e+06	   77.1057	   14.8022	       2.4	7.33548e+06	   77.0172	    14.793	       2.4	7.49141e+06	   77.0111	   14.8643	       2.4	7.58106e+06	   77.1005	   14.8413	       2.4	7.39035e+06	   77.0615	   14.7976	       2.4	7.41147e+06	   77.0141	   14.8286	       2.4	7.53458e+06	   77.0531	   14.8723	       2.4	7.51346e+06	
         R10	   2469	   77.0485	   15.0634	       2.4	 7.5045e+06	   77.1158	   15.0527	       2.4	7.36078e+06	   77.0921	   14.9639	       2.4	 7.4661e+06	   77.0268	   15.0065	       2.4	 7.5511e+06	   77.0822	    15.058	       2.4	7.43114e+06	    77.104	   15.0083	       2.4	7.41282e+06	   77.0595	   14.9852	       2.4	7.50738e+06	   77.0376	   15.0349	       2.4	7.52748e+06	
         R10	   2470	   76.9231	   15.0918	       2.4	 7.7684e+06	   76.9343	   15.1412	       2.4	7.64648e+06	   76.9916	   15.1303	       2.4	7.50936e+06	    76.983	   15.0773	       2.4	7.62083e+06	   76.9287	   15.1165	       2.4	7.70715e+06	    76.963	   15.1358	       2.4	  7.576e+06	   76.9873	   15.1038	       2.4	7.56488e+06	    76.953	   15.0846	       2.4	7.69256e+06	
         R10	   2471	   76.8701	   15.1075	       2.4	7.93391e+06	   76.8825	   15.1537	       2.4	7.79088e+06	   76.9343	   15.1412	       2.4	7.64544e+06	   76.9231	   15.0918	       2.4	 7.7734e+06	   76.8763	   15.1306	       2.4	7.86194e+06	   76.9084	   15.1475	       2.4	7.71627e+06	   76.9287	   15.1165	       2.4	7.70912e+06	   76.8966	   15.0996	       2.4	7.85166e+06	
         R10	   2472	   76.8208	   15.1271	       2.4	8.10613e+06	   76.8353	    15.168	       2.4	7.94646e+06	   76.8825	   15.1537	       2.4	7.79095e+06	   76.8701	   15.1075	       2.4	7.93773e+06	   76.8281	   15.1475	       2.4	8.02554e+06	   76.8589	   15.1608	       2.4	7.86679e+06	   76.8763	   15.1306	       2.4	7.86387e+06	   76.8454	   15.1173	       2.4	8.01986e+06	
         R10	   2473	   76.7787	   15.1479	       2.4	8.28204e+06	   76.7991	   15.1855	       2.4	8.06551e+06	   76.8353	    15.168	       2.4	7.94699e+06	   76.8208	   15.1271	       2.4	8.11122e+06	   76.7889	   15.1667	       2.4	8.17236e+06	   76.8172	   15.1767	       2.4	8.00497e+06	   76.8281	   15.1475	       2.4	8.02834e+06	   76.7997	   15.1375	       2.4	8.19471e+06	
         R10	   2474	   76.7084	   15.2345	       2.4	8.48924e+06	   76.6889	   15.2345	       2.4	8.68733e+06	   76.6896	   15.2534	       2.4	 8.5672e+06	   76.7103	    15.256	       2.4	8.33379e+06	   76.6986	   15.2345	       2.4	8.58735e+06	   76.6892	    15.244	       2.4	8.62569e+06	   76.6999	   15.2547	       2.4	8.44912e+06	   76.7093	   15.2453	       2.4	8.41008e+06	
         R10	   2475	   76.7384	   15.1254	       2.4	  8.523e+06	   76.7107	   15.1303	       2.4	8.68263e+06	   76.7123	   15.1552	       2.4	8.66252e+06	   76.7404	   15.1548	       2.4	8.50016e+06	   76.7245	   15.1278	       2.4	8.60179e+06	   76.7115	   15.1427	       2.4	8.67186e+06	   76.7264	    15.155	       2.4	8.58032e+06	   76.7394	   15.1401	       2.4	 8.5109e+06	
         R10	   2476	   76.6412	   15.0571	       2.4	8.80168e+06	   76.6523	   15.0878	       2.4	8.85051e+06	   76.6693	   15.0868	       2.4	 8.7994e+06	    76.675	   15.0633	       2.4	8.73192e+06	   76.6468	   15.0724	       2.4	8.82529e+06	   76.6608	   15.0873	       2.4	8.82453e+06	   76.6722	   15.0751	       2.4	8.76529e+06	   76.6581	   15.0602	       2.4	8.76499e+06	
         R10	   2477	   76.6721	   14.9788	       2.4	8.57072e+06	   76.6316	   14.9656	       2.4	8.61353e+06	   76.6164	    15.008	       2.4	8.72019e+06	   76.6535	   15.0194	       2.4	8.69103e+06	   76.6519	   14.9722	       2.4	8.59002e+06	    76.624	   14.9868	       2.4	8.66581e+06	   76.6349	   15.0137	       2.4	 8.7036e+06	   76.6628	   14.9991	       2.4	8.62974e+06	
         R10	   2478	   76.6936	   14.9292	       2.4	8.43613e+06	   76.6473	   14.9172	       2.4	8.50232e+06	   76.6316	   14.9656	       2.4	8.61125e+06	   76.6721	   14.9788	       2.4	8.56924e+06	   76.6705	   14.9232	       2.4	8.46676e+06	   76.6395	   14.9414	       2.4	8.55556e+06	   76.6519	   14.9722	       2.4	8.58815e+06	   76.6829	    14.954	       2.4	 8.5011e+06	
         R10	   2479	   76.7189	   14.8781	       2.4	8.30274e+06	   76.6615	   14.8663	       2.4	8.39319e+06	   76.6473	   14.9172	       2.4	8.49968e+06	   76.6936	   14.9292	       2.4	8.43787e+06	   76.6902	   14.8722	       2.4	8.34473e+06	   76.6544	   14.8918	       2.4	8.44514e+06	   76.6705	   14.9232	       2.4	8.46637e+06	   76.7063	   14.9036	       2.4	8.36865e+06	
         R10	   2480	   76.7437	   14.8233	       2.4	8.15531e+06	   76.6748	    14.812	       2.4	8.31591e+06	   76.6615	   14.8663	       2.4	8.38813e+06	   76.7189	   14.8781	       2.4	 8.3056e+06	   76.7092	   14.8177	       2.4	8.23149e+06	   76.6681	   14.8392	       2.4	8.35078e+06	   76.6902	   14.8722	       2.4	8.34371e+06	   76.7313	   14.8507	       2.4	8.22847e+06	
         R10	   2481	   76.7552	    14.762	       2.4	8.07231e+06	   76.6757	   14.7637	       2.4	8.23232e+06	   76.6748	    14.812	       2.4	8.30187e+06	   76.7437	   14.8233	       2.4	8.18585e+06	   76.7155	   14.7628	       2.4	8.14686e+06	   76.6752	   14.7878	       2.4	8.26644e+06	   76.7092	   14.8177	       2.4	8.24026e+06	   76.7495	   14.7926	       2.4	8.12695e+06	
         R10	   2482	   76.9239	   14.8531	       2.4	 7.7803e+06	   76.9275	   14.7863	       2.4	7.66346e+06	   76.8382	   14.7779	       2.4	7.86564e+06	   76.8295	   14.8509	       2.4	8.02148e+06	   76.9257	   14.8197	       2.4	7.72014e+06	   76.8828	   14.7821	       2.4	7.76147e+06	   76.8338	   14.8144	       2.4	7.94132e+06	   76.8767	    14.852	       2.4	7.89697e+06	
         R10	   2483	   77.0061	   14.9266	       2.4	7.63735e+06	   77.0111	   14.8643	       2.4	7.55622e+06	   76.9239	   14.8531	       2.4	7.75803e+06	   76.9271	   14.9155	       2.4	7.80842e+06	   77.0086	   14.8954	       2.4	7.59595e+06	   76.9675	   14.8587	       2.4	7.65428e+06	   76.9255	   14.8843	       2.4	7.78219e+06	   76.9666	   14.9211	       2.4	7.72017e+06	
         R10	   2484	   77.0471	   15.1168	       2.4	7.38823e+06	   77.1201	   15.1387	       2.4	7.26352e+06	   77.1158	   15.0527	       2.4	7.34349e+06	   77.0485	   15.0634	       2.4	 7.4956e+06	   77.0836	   15.1278	       2.4	7.32223e+06	    77.118	   15.0957	       2.4	7.30262e+06	   77.0822	    15.058	       2.4	 7.4179e+06	   77.0478	   15.0901	       2.4	7.44189e+06	
         R10	   2485	    76.983	   15.0773	       2.4	7.61003e+06	   76.9916	   15.1303	       2.4	7.50776e+06	   77.0471	   15.1168	       2.4	7.42028e+06	   77.0485	   15.0634	       2.4	7.48168e+06	   76.9873	   15.1038	       2.4	7.55866e+06	   77.0194	   15.1236	       2.4	 7.4627e+06	   77.0478	   15.0901	       2.4	7.45092e+06	   77.0157	   15.0704	       2.4	 7.5439e+06	
         R10	   2486	   76.9642	    15.027	       2.4	7.71923e+06	    76.983	   15.0773	       2.4	7.60585e+06	   77.0485	   15.0634	       2.4	7.48797e+06	   77.0268	   15.0065	       2.4	7.55694e+06	   76.9736	   15.0522	       2.4	7.66219e+06	   77.0157	   15.0704	       2.4	7.54503e+06	   77.0376	   15.0349	       2.4	7.52217e+06	   76.9955	   15.0167	       2.4	7.63619e+06	
         R10	   2487	   76.9048	   15.0406	       2.4	 7.8858e+06	   76.9231	   15.0918	       2.4	7.77337e+06	    76.983	   15.0773	       2.4	7.61831e+06	   76.9642	    15.027	       2.4	 7.7183e+06	   76.9139	   15.0662	       2.4	7.82912e+06	    76.953	   15.0846	       2.4	7.69374e+06	   76.9736	   15.0522	       2.4	7.66793e+06	   76.9345	   15.0338	       2.4	7.80006e+06	
         R10	   2488	   76.8531	   15.0589	       2.4	8.05981e+06	   76.8701	   15.1075	       2.4	7.93692e+06	   76.9231	   15.0918	       2.4	7.77758e+06	   76.9048	   15.0406	       2.4	7.87894e+06	   76.8616	   15.0832	       2.4	7.99775e+06	   76.8966	   15.0996	       2.4	7.85527e+06	   76.9139	   15.0662	       2.4	7.82783e+06	   76.8789	   15.0498	       2.4	7.96741e+06	
         R10	   2489	   76.8054	    15.084	       2.4	8.23072e+06	   76.8208	   15.1271	       2.4	8.10938e+06	   76.8701	   15.1075	       2.4	7.94088e+06	   76.8531	   15.0589	       2.4	8.04986e+06	   76.8131	   15.1056	       2.4	8.16923e+06	   76.8454	   15.1173	       2.4	8.02305e+06	   76.8616	   15.0832	       2.4	 7.9948e+06	   76.8292	   15.0715	       2.4	8.13827e+06	
         R10	   2490	   76.7114	   15.2154	       2.4	8.55149e+06	   76.7084	   15.2345	       2.4	8.49035e+06	   76.7375	   15.2429	       2.4	8.18739e+06	   76.7326	   15.2166	       2.4	8.37198e+06	   76.7099	   15.2249	       2.4	8.52002e+06	   76.7229	   15.2387	       2.4	8.33657e+06	    76.735	   15.2298	       2.4	8.27831e+06	    76.722	    15.216	       2.4	8.46081e+06	
         R10	   2491	   76.7315	   15.1828	       2.4	8.49966e+06	   76.7091	   15.1987	       2.4	8.62944e+06	   76.7114	   15.2154	       2.4	 8.5482e+06	   76.7326	   15.2166	       2.4	8.37109e+06	   76.7203	   15.1907	       2.4	8.56358e+06	   76.7103	    15.207	       2.4	 8.5881e+06	    76.722	    15.216	       2.4	8.45884e+06	   76.7321	   15.1997	       2.4	8.43374e+06	
         R10	   2492	    76.702	   15.0739	       2.4	8.65924e+06	    76.675	   15.0633	       2.4	8.73333e+06	   76.6693	   15.0868	       2.4	8.80263e+06	   76.6904	   15.1041	       2.4	8.75616e+06	   76.6885	   15.0686	       2.4	8.69518e+06	   76.6722	   15.0751	       2.4	8.76763e+06	   76.6799	   15.0954	       2.4	8.77842e+06	   76.6962	    15.089	       2.4	8.70702e+06	
         R10	   2493	   76.7388	   14.9473	       2.4	8.35949e+06	   76.6936	   14.9292	       2.4	8.43766e+06	   76.6721	   14.9788	       2.4	8.57227e+06	   76.7118	   14.9952	       2.4	8.50756e+06	   76.7162	   14.9382	       2.4	8.39648e+06	   76.6829	    14.954	       2.4	8.50342e+06	    76.692	    14.987	       2.4	8.53802e+06	   76.7253	   14.9713	       2.4	8.43188e+06	
         R10	   2494	   76.7723	   14.9025	       2.4	8.20893e+06	   76.7189	   14.8781	       2.4	8.30517e+06	   76.6936	   14.9292	       2.4	8.43942e+06	   76.7388	   14.9473	       2.4	8.36022e+06	   76.7456	   14.8903	       2.4	8.25453e+06	   76.7063	   14.9036	       2.4	8.37048e+06	   76.7162	   14.9382	       2.4	8.39774e+06	   76.7555	   14.9249	       2.4	8.28295e+06	
         R10	   2495	   76.8631	   14.9233	       2.4	7.99781e+06	   76.9271	   14.9155	       2.4	7.81174e+06	   76.9239	   14.8531	       2.4	7.74616e+06	   76.8295	   14.8509	       2.4	7.99215e+06	   76.8951	   14.9194	       2.4	7.90246e+06	   76.9255	   14.8843	       2.4	7.77802e+06	   76.8767	    14.852	       2.4	7.86501e+06	   76.8463	   14.8871	       2.4	7.99276e+06	
         R10	   2496	   76.8306	   15.0076	       2.4	8.12328e+06	   76.8531	   15.0589	       2.4	8.06451e+06	   76.9048	   15.0406	       2.4	7.88823e+06	   76.8843	    14.987	       2.4	7.96784e+06	   76.8418	   15.0332	       2.4	8.09308e+06	   76.8789	   15.0498	       2.4	7.97442e+06	   76.8945	   15.0138	       2.4	7.92735e+06	   76.8574	   14.9973	       2.4	8.04353e+06	
         R10	   2497	   76.7846	   15.0466	       2.4	8.31015e+06	   76.8054	    15.084	       2.4	8.23403e+06	   76.8531	   15.0589	       2.4	8.05516e+06	   76.8306	   15.0076	       2.4	8.14571e+06	    76.795	   15.0653	       2.4	8.27128e+06	   76.8292	   15.0715	       2.4	8.14258e+06	   76.8418	   15.0332	       2.4	 8.0994e+06	   76.8076	   15.0271	       2.4	8.22569e+06	
         R10	   2498	   76.7787	   15.1479	       2.4	  8.277e+06	   76.8208	   15.1271	       2.4	 8.1162e+06	   76.8054	    15.084	       2.4	8.22876e+06	   76.7681	   15.1072	       2.4	8.38695e+06	   76.7997	   15.1375	       2.4	8.19474e+06	   76.8131	   15.1056	       2.4	8.17172e+06	   76.7868	   15.0956	       2.4	8.30633e+06	   76.7734	   15.1275	       2.4	8.33091e+06	
         R10	   2499	   76.6919	   15.0303	       2.4	8.62228e+06	   76.7118	   14.9952	       2.4	8.50624e+06	   76.6721	   14.9788	       2.4	8.57084e+06	   76.6535	   15.0194	       2.4	8.68997e+06	   76.7019	   15.0128	       2.4	8.56327e+06	    76.692	    14.987	       2.4	8.53665e+06	   76.6628	   14.9991	       2.4	 8.6293e+06	   76.6727	   15.0249	       2.4	8.65417e+06	
         R10	   2500	   76.7735	   14.9755	       2.4	8.29723e+06	   76.7388	   14.9473	       2.4	8.36076e+06	   76.7118	   14.9952	       2.4	 8.5051e+06	    76.751	   15.0168	       2.4	8.41787e+06	   76.7561	   14.9614	       2.4	8.32772e+06	   76.7253	   14.9713	       2.4	8.43128e+06	   76.7314	    15.006	       2.4	8.45968e+06	   76.7622	   14.9962	       2.4	8.35646e+06	
         R10	   2501	   76.8126	   14.9392	       2.4	8.15109e+06	   76.7723	   14.9025	       2.4	8.19971e+06	   76.7388	   14.9473	       2.4	8.36047e+06	   76.7735	   14.9755	       2.4	8.29089e+06	   76.7924	   14.9209	       2.4	8.17391e+06	   76.7555	   14.9249	       2.4	8.27851e+06	   76.7561	   14.9614	       2.4	8.32422e+06	    76.793	   14.9574	       2.4	8.21913e+06	
         R10	   2502	   76.9409	   14.9756	       2.4	7.79595e+06	   76.8843	    14.987	       2.4	7.95797e+06	   76.9048	   15.0406	       2.4	7.89156e+06	   76.9642	    15.027	       2.4	7.71255e+06	   76.9126	   14.9813	       2.4	7.87523e+06	   76.8945	   15.0138	       2.4	7.92414e+06	   76.9345	   15.0338	       2.4	7.79997e+06	   76.9525	   15.0013	       2.4	7.75371e+06	
         R10	   2503	   76.7681	   15.1072	       2.4	8.38622e+06	   76.8054	    15.084	       2.4	8.22879e+06	   76.7846	   15.0466	       2.4	8.31981e+06	   76.7508	   15.0732	       2.4	8.46251e+06	   76.7868	   15.0956	       2.4	8.30595e+06	    76.795	   15.0653	       2.4	8.27339e+06	   76.7677	   15.0599	       2.4	 8.3898e+06	   76.7595	   15.0902	       2.4	8.42342e+06	
         R10	   2504	   76.7404	   15.1548	       2.4	8.48664e+06	   76.7315	   15.1828	       2.4	8.50199e+06	   76.7613	   15.1982	       2.4	8.24407e+06	   76.7787	   15.1479	       2.4	 8.2824e+06	    76.736	   15.1688	       2.4	8.49337e+06	   76.7464	   15.1905	       2.4	8.37123e+06	     76.77	    15.173	       2.4	8.26151e+06	   76.7595	   15.1513	       2.4	8.38284e+06	
         R10	   2505	   76.7384	   15.1254	       2.4	8.52631e+06	   76.7404	   15.1548	       2.4	8.49303e+06	   76.7787	   15.1479	       2.4	8.28022e+06	   76.7681	   15.1072	       2.4	8.39221e+06	   76.7394	   15.1401	       2.4	8.50899e+06	   76.7595	   15.1513	       2.4	8.38483e+06	   76.7734	   15.1275	       2.4	8.33514e+06	   76.7533	   15.1163	       2.4	8.45822e+06	
         R10	   2506	   76.7203	   15.0992	       2.4	8.61434e+06	   76.7384	   15.1254	       2.4	8.52694e+06	   76.7681	   15.1072	       2.4	8.38734e+06	   76.7508	   15.0732	       2.4	8.46367e+06	   76.7293	   15.1123	       2.4	8.56957e+06	   76.7533	   15.1163	       2.4	8.45608e+06	   76.7595	   15.0902	       2.4	8.42458e+06	   76.7355	   15.0862	       2.4	8.53769e+06	
         R10	   2507	    76.702	   15.0739	       2.4	8.66249e+06	   76.7203	   15.0992	       2.4	8.61452e+06	   76.7508	   15.0732	       2.4	8.46375e+06	   76.7254	   15.0464	       2.4	8.54113e+06	   76.7111	   15.0865	       2.4	8.63754e+06	   76.7355	   15.0862	       2.4	8.53778e+06	   76.7381	   15.0598	       2.4	8.50133e+06	   76.7137	   15.0602	       2.4	8.60092e+06	
         R10	   2508	   76.6677	   14.6112	       2.4	8.06327e+06	   76.6286	   14.6811	       2.4	8.37783e+06	   76.6863	   14.7056	       2.4	8.17708e+06	   76.7076	   14.6719	       2.4	8.27412e+06	   76.6481	   14.6461	       2.4	8.21529e+06	   76.6574	   14.6933	       2.4	8.27361e+06	    76.697	   14.6887	       2.4	8.22465e+06	   76.6877	   14.6415	       2.4	8.16771e+06	
         R10	   2509	   76.7659	    14.686	       2.4	8.04566e+06	   76.7597	    14.611	       2.4	7.87297e+06	   76.6677	   14.6112	       2.4	8.06591e+06	   76.7076	   14.6719	       2.4	8.21674e+06	   76.7628	   14.6485	       2.4	7.95527e+06	   76.7137	   14.6111	       2.4	7.96684e+06	   76.6877	   14.6415	       2.4	8.14053e+06	   76.7368	   14.6789	       2.4	8.12925e+06	
         R10	   2510	   76.6863	   14.7056	       2.4	8.15988e+06	   76.7552	    14.762	       2.4	8.06816e+06	   76.7659	    14.686	       2.4	7.94881e+06	   76.7076	   14.6719	       2.4	 8.1328e+06	   76.7208	   14.7338	       2.4	8.11095e+06	   76.7606	    14.724	       2.4	8.00486e+06	   76.7368	   14.6789	       2.4	8.03814e+06	    76.697	   14.6887	       2.4	 8.1458e+06	
         R10	   2511	   76.8447	   14.7012	       2.4	7.76774e+06	   76.7659	    14.686	       2.4	7.93797e+06	   76.7552	    14.762	       2.4	8.09783e+06	   76.8382	   14.7779	       2.4	7.92158e+06	   76.8053	   14.6936	       2.4	7.85061e+06	   76.7606	    14.724	       2.4	8.01466e+06	   76.7967	   14.7699	       2.4	8.00602e+06	   76.8414	   14.7395	       2.4	7.84125e+06	
         R10	   2512	   76.8382	   14.7779	       2.4	7.87901e+06	   76.7552	    14.762	       2.4	8.04344e+06	   76.7437	   14.8233	       2.4	8.18668e+06	   76.8295	   14.8509	       2.4	8.00768e+06	   76.7967	   14.7699	       2.4	7.95778e+06	   76.7495	   14.7926	       2.4	8.11286e+06	   76.7866	   14.8371	       2.4	 8.0919e+06	   76.8338	   14.8144	       2.4	7.94116e+06	
         R10	   2513	   76.7437	   14.8233	       2.4	8.16965e+06	   76.7189	   14.8781	       2.4	8.31129e+06	   76.7723	   14.9025	       2.4	8.20545e+06	   76.8295	   14.8509	       2.4	7.99125e+06	   76.7313	   14.8507	       2.4	8.23872e+06	   76.7456	   14.8903	       2.4	 8.2557e+06	   76.8009	   14.8767	       2.4	8.09494e+06	   76.7866	   14.8371	       2.4	 8.0756e+06	
         R10	   2514	   76.8295	   14.8509	       2.4	8.00659e+06	   76.7723	   14.9025	       2.4	8.19363e+06	   76.8126	   14.9392	       2.4	8.17265e+06	   76.8631	   14.9233	       2.4	7.99306e+06	   76.8009	   14.8767	       2.4	8.09684e+06	   76.7924	   14.9209	       2.4	8.18179e+06	   76.8378	   14.9313	       2.4	8.08124e+06	   76.8463	   14.8871	       2.4	7.99706e+06	
         R10	   2515	    77.177	   14.8792	       2.4	7.31128e+06	   77.2648	   14.8626	       2.4	7.20419e+06	   77.2398	   14.7588	       2.4	7.20628e+06	   77.1725	   14.8151	       2.4	7.19169e+06	   77.2209	   14.8709	       2.4	7.25688e+06	   77.2523	   14.8107	       2.4	7.19979e+06	   77.2062	    14.787	       2.4	7.19566e+06	   77.1748	   14.8472	       2.4	7.25055e+06	
         R10	   2516	   77.1057	   14.8022	       2.4	7.34665e+06	   77.0952	   14.8803	       2.4	7.44975e+06	    77.177	   14.8792	       2.4	7.27726e+06	   77.1725	   14.8151	       2.4	7.26529e+06	   77.1005	   14.8413	       2.4	7.39587e+06	   77.1361	   14.8797	       2.4	7.36147e+06	   77.1748	   14.8472	       2.4	7.27053e+06	   77.1391	   14.8087	       2.4	7.30526e+06	
         R10	   2517	   77.2398	   14.7588	       2.4	 7.1342e+06	   77.1292	   14.7239	       2.4	7.26318e+06	   77.1057	   14.8022	       2.4	7.37669e+06	   77.1725	   14.8151	       2.4	7.25925e+06	   77.1845	   14.7413	       2.4	7.19511e+06	   77.1175	   14.7631	       2.4	7.31515e+06	   77.1391	   14.8087	       2.4	7.31681e+06	   77.2062	    14.787	       2.4	7.19216e+06	
         R10	   2518	   77.1789	   14.9612	       2.4	7.31452e+06	    77.177	   14.8792	       2.4	 7.2858e+06	   77.0952	   14.8803	       2.4	7.39948e+06	   77.0921	   14.9639	       2.4	7.45506e+06	    77.178	   14.9202	       2.4	7.29961e+06	   77.1361	   14.8797	       2.4	7.34129e+06	   77.0937	   14.9221	       2.4	7.42641e+06	   77.1355	   14.9625	       2.4	7.38258e+06	
         R10	   2519	   77.0952	   14.8803	       2.4	 7.4326e+06	   77.0111	   14.8643	       2.4	7.57194e+06	   77.0061	   14.9266	       2.4	7.62321e+06	   77.0921	   14.9639	       2.4	7.45366e+06	   77.0531	   14.8723	       2.4	7.50031e+06	   77.0086	   14.8954	       2.4	 7.5966e+06	   77.0491	   14.9452	       2.4	7.53477e+06	   77.0937	   14.9221	       2.4	7.44225e+06	
         R10	   2520	   77.0268	   15.0065	       2.4	7.56073e+06	   77.0921	   14.9639	       2.4	 7.4406e+06	   77.0061	   14.9266	       2.4	7.61811e+06	   76.9946	   14.9699	       2.4	7.65252e+06	   77.0595	   14.9852	       2.4	7.49896e+06	   77.0491	   14.9452	       2.4	7.52609e+06	   77.0003	   14.9483	       2.4	 7.6352e+06	   77.0107	   14.9882	       2.4	7.60589e+06	
         R10	   2521	   76.9409	   14.9756	       2.4	7.80217e+06	   76.9642	    15.027	       2.4	7.71249e+06	   77.0268	   15.0065	       2.4	7.57445e+06	   76.9946	   14.9699	       2.4	7.64251e+06	   76.9525	   15.0013	       2.4	7.75675e+06	   76.9955	   15.0167	       2.4	7.64172e+06	   77.0107	   14.9882	       2.4	7.60785e+06	   76.9678	   14.9728	       2.4	7.72078e+06	
         R10	   2522	   77.0061	   14.9266	       2.4	7.62782e+06	   76.9271	   14.9155	       2.4	7.80228e+06	   76.9409	   14.9756	       2.4	7.80638e+06	   76.9946	   14.9699	       2.4	7.65078e+06	   76.9666	   14.9211	       2.4	7.71246e+06	    76.934	   14.9456	       2.4	7.80365e+06	   76.9678	   14.9728	       2.4	7.72695e+06	   77.0003	   14.9483	       2.4	7.63901e+06	
         R10	   2523	   76.8843	    14.987	       2.4	7.97077e+06	   76.9409	   14.9756	       2.4	7.79332e+06	   76.9271	   14.9155	       2.4	7.80128e+06	   76.8631	   14.9233	       2.4	7.97772e+06	   76.9126	   14.9813	       2.4	7.88015e+06	    76.934	   14.9456	       2.4	7.79659e+06	   76.8951	   14.9194	       2.4	 7.8873e+06	   76.8737	   14.9552	       2.4	7.97328e+06	
         R10	   2524	   76.8306	   15.0076	       2.4	8.12701e+06	   76.8843	    14.987	       2.4	7.97464e+06	   76.8631	   14.9233	       2.4	7.94739e+06	   76.8126	   14.9392	       2.4	 8.1671e+06	   76.8574	   14.9973	       2.4	8.04883e+06	   76.8737	   14.9552	       2.4	7.96016e+06	   76.8378	   14.9313	       2.4	8.05548e+06	   76.8216	   14.9734	       2.4	8.14521e+06	
         R10	   2525	   76.8306	   15.0076	       2.4	8.13816e+06	   76.7735	   14.9755	       2.4	8.30924e+06	    76.751	   15.0168	       2.4	8.42015e+06	   76.7846	   15.0466	       2.4	8.31389e+06	    76.802	   14.9916	       2.4	8.22083e+06	   76.7622	   14.9962	       2.4	8.36361e+06	   76.7678	   15.0317	       2.4	 8.3655e+06	   76.8076	   15.0271	       2.4	8.22367e+06	
         R10	   2526	   76.7508	   15.0732	       2.4	8.46213e+06	   76.7846	   15.0466	       2.4	  8.321e+06	    76.751	   15.0168	       2.4	8.41843e+06	   76.7254	   15.0464	       2.4	8.54128e+06	   76.7677	   15.0599	       2.4	8.39022e+06	   76.7678	   15.0317	       2.4	8.36826e+06	   76.7382	   15.0316	       2.4	 8.4788e+06	   76.7381	   15.0598	       2.4	8.50057e+06	
         R10	   2527	   76.7254	   15.0464	       2.4	8.54042e+06	    76.751	   15.0168	       2.4	8.41946e+06	   76.7118	   14.9952	       2.4	8.50642e+06	   76.6919	   15.0303	       2.4	8.62126e+06	   76.7382	   15.0316	       2.4	8.47895e+06	   76.7314	    15.006	       2.4	8.46115e+06	   76.7019	   15.0128	       2.4	8.56285e+06	   76.7087	   15.0384	       2.4	8.57938e+06	
         R10	   2528	    76.702	   15.0739	       2.4	8.65959e+06	   76.7254	   15.0464	       2.4	8.54031e+06	   76.6919	   15.0303	       2.4	8.62082e+06	    76.675	   15.0633	       2.4	8.73509e+06	   76.7137	   15.0602	       2.4	8.59902e+06	   76.7087	   15.0384	       2.4	8.57908e+06	   76.6835	   15.0468	       2.4	 8.6771e+06	   76.6885	   15.0686	       2.4	8.69621e+06	
         R10	   2529	    76.675	   15.0633	       2.4	8.73327e+06	   76.6919	   15.0303	       2.4	8.62083e+06	   76.6535	   15.0194	       2.4	8.69071e+06	   76.6412	   15.0571	       2.4	 8.8004e+06	   76.6835	   15.0468	       2.4	8.67621e+06	   76.6727	   15.0249	       2.4	8.65379e+06	   76.6473	   15.0383	       2.4	8.74474e+06	   76.6581	   15.0602	       2.4	8.76515e+06	
         R10	   2530	   76.6535	   15.0194	       2.4	8.69272e+06	   76.6164	    15.008	       2.4	8.71847e+06	   76.6033	   15.0451	       2.4	8.82892e+06	   76.6412	   15.0571	       2.4	8.80116e+06	   76.6349	   15.0137	       2.4	8.70364e+06	   76.6098	   15.0265	       2.4	8.77282e+06	   76.6222	   15.0511	       2.4	8.81264e+06	   76.6473	   15.0383	       2.4	8.74614e+06	
         R10	   2531	   76.6127	   15.0814	       2.4	8.89587e+06	    76.627	   15.0821	       2.4	 8.8948e+06	   76.6412	   15.0571	       2.4	8.79621e+06	   76.6033	   15.0451	       2.4	8.82151e+06	   76.6199	   15.0817	       2.4	8.89496e+06	   76.6341	   15.0696	       2.4	8.84481e+06	   76.6222	   15.0511	       2.4	 8.8065e+06	    76.608	   15.0632	       2.4	8.85809e+06	
         R10	   2532	   76.5956	   15.0879	       2.4	8.94867e+06	   76.6127	   15.0814	       2.4	  8.908e+06	   76.6033	   15.0451	       2.4	8.83439e+06	   76.5799	   15.0691	       2.4	8.88594e+06	   76.6042	   15.0846	       2.4	8.92777e+06	    76.608	   15.0632	       2.4	8.87056e+06	   76.5916	   15.0571	       2.4	8.85894e+06	   76.5877	   15.0785	       2.4	8.91673e+06	
         R10	   2533	   76.5799	   15.0691	       2.4	8.89535e+06	   76.5564	   15.0612	       2.4	8.87107e+06	   76.5482	   15.0886	       2.4	8.94886e+06	     76.57	   15.0857	       2.4	8.93128e+06	   76.5681	   15.0652	       2.4	8.88213e+06	   76.5523	   15.0749	       2.4	 8.9095e+06	   76.5591	   15.0872	       2.4	8.93894e+06	   76.5749	   15.0774	       2.4	8.91299e+06	
         R10	   2534	   76.5803	    15.096	       2.4	8.98114e+06	   76.5956	   15.0879	       2.4	8.94471e+06	   76.5799	   15.0691	       2.4	8.89269e+06	     76.57	   15.0857	       2.4	8.92882e+06	   76.5879	   15.0919	       2.4	8.96243e+06	   76.5877	   15.0785	       2.4	  8.918e+06	   76.5749	   15.0774	       2.4	8.91041e+06	   76.5751	   15.0908	       2.4	8.95474e+06	
         R10	   2535	   76.5482	   15.0886	       2.4	8.94086e+06	   76.5671	   15.1111	       2.4	9.00906e+06	   76.5803	    15.096	       2.4	8.98182e+06	     76.57	   15.0857	       2.4	8.92627e+06	   76.5577	   15.0999	       2.4	8.97396e+06	   76.5737	   15.1036	       2.4	8.99491e+06	   76.5751	   15.0908	       2.4	8.95381e+06	   76.5591	   15.0872	       2.4	8.93242e+06	
         R10	   2536	   76.7315	   15.1828	       2.4	8.49573e+06	   76.7404	   15.1548	       2.4	8.49378e+06	   76.7123	   15.1552	       2.4	8.66447e+06	   76.7113	   15.1734	       2.4	8.66292e+06	    76.736	   15.1688	       2.4	8.49396e+06	   76.7264	    15.155	       2.4	8.57805e+06	   76.7118	   15.1643	       2.4	8.66325e+06	   76.7214	   15.1781	       2.4	8.57842e+06	
         R10	   2537	     76.67	    15.266	       2.4	8.71139e+06	     76.67	    15.283	       2.4	8.56497e+06	   76.6897	   15.2769	       2.4	8.37427e+06	     76.67	   15.2745	       2.4	8.63596e+06	   76.6798	   15.2799	       2.4	 8.4678e+06	   76.6798	   15.2714	       2.4	8.54031e+06	       N/A	       N/A	       N/A	        N/A	       N/A	       N/A	       N/A	        N/A	
         R10	   2538	   76.6932	   15.1804	       2.4	8.79548e+06	   76.6865	   15.2003	       2.4	 8.8207e+06	   76.7091	   15.1987	       2.4	8.62585e+06	   76.6898	   15.1904	       2.4	8.80725e+06	   76.6978	   15.1995	       2.4	8.72233e+06	   76.7012	   15.1896	       2.4	8.70917e+06	       N/A	       N/A	       N/A	        N/A	       N/A	       N/A	       N/A	        N/A	
         R10	   2539	   76.6876	   15.1464	       2.4	8.82746e+06	   76.6876	   15.1648	       2.4	8.82735e+06	   76.7123	   15.1552	       2.4	8.66706e+06	   76.6876	   15.1556	       2.4	 8.8269e+06	      76.7	     15.16	       2.4	8.74631e+06	      76.7	   15.1508	       2.4	8.74603e+06	       N/A	       N/A	       N/A	        N/A	       N/A	       N/A	       N/A	        N/A	
         R10	   2540	    76.635	   15.1034	       2.4	 8.9478e+06	   76.6545	    15.113	       2.4	8.91675e+06	   76.6523	   15.0878	       2.4	8.85023e+06	   76.6447	   15.1082	       2.4	8.93144e+06	   76.6534	   15.1004	       2.4	8.88298e+06	   76.6436	   15.0956	       2.4	8.89843e+06	       N/A	       N/A	       N/A	        N/A	       N/A	       N/A	       N/A	        N/A	
         R10	   2541	   76.5671	   15.1111	       2.4	9.02104e+06	   76.5864	   15.1134	       2.4	9.03248e+06	   76.5803	    15.096	       2.4	8.97194e+06	   76.5768	   15.1123	       2.4	9.02577e+06	   76.5833	   15.1047	       2.4	9.00195e+06	   76.5737	   15.1036	       2.4	8.99593e+06	       N/A	       N/A	       N/A	        N/A	       N/A	       N/A	       N/A	        N/A	
         R10	   2542	   76.6693	   15.0868	       2.4	8.80414e+06	   76.6693	   15.1129	       2.4	8.85375e+06	   76.6904	   15.1041	       2.4	8.75691e+06	   76.6693	   15.0998	       2.4	8.82845e+06	   76.6799	   15.1085	       2.4	8.80473e+06	   76.6799	   15.0954	       2.4	8.77951e+06	       N/A	       N/A	       N/A	        N/A	       N/A	       N/A	       N/A	        N/A	
         R10	   2543	   77.0471	   15.1168	       2.4	7.38692e+06	   77.0529	   15.1829	       2.4	 7.2749e+06	   77.1201	   15.1387	       2.4	7.26254e+06	     77.05	   15.1498	       2.4	7.32966e+06	   77.0865	   15.1608	       2.4	7.26805e+06	   77.0836	   15.1278	       2.4	7.32135e+06	       N/A	       N/A	       N/A	        N/A	       N/A	       N/A	       N/A	        N/A	
         R10	   2544	   76.7084	   15.2345	       2.4	8.48632e+06	   76.7103	    15.256	       2.4	8.33793e+06	   76.7375	   15.2429	       2.4	8.18536e+06	   76.7093	   15.2453	       2.4	8.41078e+06	   76.7239	   15.2495	       2.4	8.25973e+06	   76.7229	   15.2387	       2.4	8.33355e+06	       N/A	       N/A	       N/A	        N/A	       N/A	       N/A	       N/A	        N/A	
         R10	   2545	   76.7203	   15.0992	       2.4	8.61833e+06	   76.7107	   15.1303	       2.4	8.68008e+06	   76.7384	   15.1254	       2.4	8.52729e+06	   76.7155	   15.1147	       2.4	8.64845e+06	   76.7245	   15.1278	       2.4	8.60267e+06	   76.7293	   15.1123	       2.4	8.57169e+06	       N/A	       N/A	       N/A	        N/A	       N/A	       N/A	       N/A	        N/A	
         R10	   2546	   76.6863	   14.7056	       2.4	8.19461e+06	   76.6757	   14.7637	       2.4	8.24164e+06	   76.7552	    14.762	       2.4	8.10599e+06	    76.681	   14.7346	       2.4	8.21713e+06	   76.7155	   14.7628	       2.4	8.16908e+06	   76.7208	   14.7338	       2.4	8.14632e+06	       N/A	       N/A	       N/A	        N/A	       N/A	       N/A	       N/A	        N/A	
         R10	   2547	   76.7315	   15.1828	       2.4	8.49807e+06	   76.7326	   15.2166	       2.4	8.37475e+06	   76.7613	   15.1982	       2.4	8.23946e+06	   76.7321	   15.1997	       2.4	8.43479e+06	   76.7469	   15.2074	       2.4	8.30559e+06	   76.7464	   15.1905	       2.4	8.36673e+06	       N/A	       N/A	       N/A	        N/A	       N/A	       N/A	       N/A	        N/A	
         R10	   2548	    76.702	   15.0739	       2.4	8.66291e+06	   76.6904	   15.1041	       2.4	8.75508e+06	   76.7203	   15.0992	       2.4	8.61425e+06	   76.6962	    15.089	       2.4	8.70832e+06	   76.7053	   15.1017	       2.4	8.68352e+06	   76.7111	   15.0865	       2.4	8.63759e+06	       N/A	       N/A	       N/A	        N/A	       N/A	       N/A	       N/A	        N/A	
         R10	   2549	   76.7613	   15.1982	       2.4	8.24266e+06	   76.7991	   15.1855	       2.4	8.06548e+06	   76.7787	   15.1479	       2.4	8.29262e+06	   76.7802	   15.1918	       2.4	8.15229e+06	   76.7889	   15.1667	       2.4	8.17737e+06	     76.77	    15.173	       2.4	8.26611e+06	       N/A	       N/A	       N/A	        N/A	       N/A	       N/A	       N/A	        N/A	
         R10	   2550	   76.5482	   15.0886	       2.4	8.93847e+06	    76.534	   15.1112	       2.4	8.98675e+06	   76.5509	   15.1161	       2.4	9.02205e+06	   76.5411	   15.0999	       2.4	 8.9617e+06	   76.5425	   15.1137	       2.4	9.00362e+06	   76.5496	   15.1024	       2.4	8.98004e+06	       N/A	       N/A	       N/A	        N/A	       N/A	       N/A	       N/A	        N/A	
         R10	   2551	   76.8126	   14.9392	       2.4	8.15837e+06	   76.7735	   14.9755	       2.4	8.30725e+06	   76.8306	   15.0076	       2.4	8.13996e+06	    76.793	   14.9574	       2.4	8.23103e+06	    76.802	   14.9916	       2.4	8.22071e+06	   76.8216	   14.9734	       2.4	8.14743e+06	       N/A	       N/A	       N/A	        N/A	       N/A	       N/A	       N/A	        N/A	
         R10	   2552	   76.5671	   15.1111	       2.4	9.00953e+06	   76.5482	   15.0886	       2.4	8.93843e+06	   76.5509	   15.1161	       2.4	9.02413e+06	   76.5577	   15.0999	       2.4	8.97308e+06	   76.5496	   15.1024	       2.4	8.98106e+06	   76.5591	   15.1136	       2.4	9.01612e+06	       N/A	       N/A	       N/A	        N/A	       N/A	       N/A	       N/A	        N/A	
         R10	   2553	      76.5	   14.5579	       1.6	1.77393e+07	      76.5	     14.45	       1.6	1.79857e+07	      76.5	     14.45	   1.70151	1.78826e+07	      76.5	   14.5531	   1.70068	1.76041e+07	      76.5	   14.5039	       1.6	1.78625e+07	      76.5	     14.45	   1.65076	 1.7934e+07	      76.5	   14.5015	    1.7011	1.77433e+07	      76.5	   14.5555	   1.65034	1.76716e+07	
         R10	   2554	      76.5	   14.5531	   1.70068	1.76042e+07	      76.5	     14.45	   1.70151	1.78824e+07	      76.5	     14.45	   1.79987	1.77552e+07	      76.5	   14.5501	   1.79864	1.74549e+07	      76.5	   14.5015	    1.7011	1.77433e+07	      76.5	     14.45	   1.75069	1.78187e+07	      76.5	   14.5001	   1.79925	 1.7605e+07	      76.5	   14.5516	   1.74966	1.75295e+07	
         R10	   2555	      76.5	   14.5501	   1.79864	1.74554e+07	      76.5	     14.45	   1.79987	1.77559e+07	      76.5	     14.45	   1.89507	1.76221e+07	      76.5	   14.5449	   1.89329	1.72672e+07	      76.5	   14.5001	   1.79925	1.76057e+07	      76.5	     14.45	   1.84747	1.76889e+07	      76.5	   14.4975	   1.89418	1.74446e+07	      76.5	   14.5475	   1.84597	1.73612e+07	
         R10	   2556	      76.5	   14.5449	   1.89329	1.72684e+07	      76.5	     14.45	   1.89507	1.76227e+07	      76.5	     14.45	   1.98711	1.74841e+07	      76.5	   14.5399	   1.98623	1.70276e+07	      76.5	   14.4975	   1.89418	1.74455e+07	      76.5	     14.45	   1.94109	1.75532e+07	      76.5	   14.4949	   1.98667	1.72558e+07	      76.5	   14.5424	   1.93976	1.71478e+07	
         R10	   2557	      76.5	   14.5399	   1.98623	1.70287e+07	      76.5	     14.45	   1.98711	1.74821e+07	      76.5	     14.45	     2.076	1.73399e+07	      76.5	   14.5363	   2.07504	1.67223e+07	      76.5	   14.4949	   1.98667	1.72554e+07	      76.5	     14.45	   2.03156	1.74107e+07	      76.5	   14.4932	   2.07552	 1.7031e+07	      76.5	   14.5381	   2.03063	1.68752e+07	
         R10	   2558	      76.5	   14.5363	   2.07504	1.67221e+07	      76.5	     14.45	     2.076	1.73355e+07	      76.5	     14.45	   2.16173	1.72085e+07	      76.5	    14.533	   2.16098	1.62521e+07	      76.5	   14.4932	   2.07552	1.70287e+07	      76.5	     14.45	   2.11887	1.72706e+07	      76.5	   14.4915	   2.16136	1.67297e+07	      76.5	   14.5347	   2.11801	1.64866e+07	
         R10	   2559	      76.5	    14.533	   2.16098	1.62586e+07	      76.5	     14.45	   2.16173	1.72073e+07	      76.5	     14.45	   2.24431	1.69938e+07	      76.5	   14.5303	   2.24354	1.55597e+07	      76.5	   14.4915	   2.16136	1.67325e+07	      76.5	     14.45	   2.20302	 1.7097e+07	      76.5	   14.4902	   2.24393	1.62739e+07	      76.5	   14.5317	   2.20226	1.59075e+07	
         R10	   2560	      76.5	   14.5303	   2.24354	1.54932e+07	      76.5	     14.45	   2.24431	1.68602e+07	      76.5	     14.45	   2.32373	1.63093e+07	      76.5	   14.5279	   2.32291	1.44427e+07	      76.5	   14.4902	   2.24393	1.61749e+07	      76.5	     14.45	   2.28402	1.65486e+07	      76.5	   14.4889	   2.32332	1.52548e+07	      76.5	   14.5291	   2.28323	1.49514e+07	
         R10	   2561	      76.5	   14.5279	   2.32291	1.40755e+07	      76.5	     14.45	   2.32373	1.72466e+07	      76.5	     14.45	       2.4	1.25129e+07	      76.5	   14.5298	       2.4	1.43646e+07	      76.5	   14.4889	   2.32332	1.55578e+07	      76.5	     14.45	   2.36187	 1.4719e+07	      76.5	   14.4899	       2.4	1.32642e+07	      76.5	   14.5288	   2.36146	 1.4217e+07	
         R10	   2562	      76.5	   14.6033	   2.32376	1.59742e+07	      76.5	   14.5279	   2.32291	1.43165e+07	      76.5	   14.5298	       2.4	 1.6217e+07	      76.5	   14.6048	       2.4	1.57503e+07	      76.5	   14.5656	   2.32334	1.51385e+07	      76.5	   14.5288	   2.36146	1.52627e+07	      76.5	   14.5673	       2.4	1.59834e+07	      76.5	    14.604	   2.36188	1.58606e+07	
         R10	   2563	      76.5	   14.6033	   2.32376	1.61589e+07	      76.5	   14.6048	       2.4	1.58554e+07	      76.5	   14.6749	       2.4	1.61841e+07	      76.5	   14.6738	   2.32961	1.63638e+07	      76.5	    14.604	   2.36188	1.60063e+07	      76.5	   14.6398	       2.4	1.60192e+07	      76.5	   14.6744	   2.36481	1.62734e+07	      76.5	   14.6386	   2.32669	1.62613e+07	
         R10	   2564	      76.5	   14.6738	   2.32961	1.63965e+07	      76.5	   14.6749	       2.4	1.62767e+07	      76.5	   14.7403	       2.4	1.64459e+07	      76.5	    14.739	   2.33508	1.66795e+07	      76.5	   14.6744	   2.36481	1.63362e+07	      76.5	   14.7076	       2.4	1.63611e+07	      76.5	   14.7397	   2.36754	1.65625e+07	      76.5	   14.7064	   2.33235	1.65379e+07	
         R10	   2565	      76.5	    14.739	   2.33508	1.67178e+07	      76.5	   14.7403	       2.4	1.64751e+07	      76.5	   14.8009	       2.4	1.67031e+07	      76.5	   14.7996	   2.34071	1.69139e+07	      76.5	   14.7397	   2.36754	1.65963e+07	      76.5	   14.7706	       2.4	1.65889e+07	      76.5	   14.8003	   2.37036	1.68084e+07	      76.5	   14.7693	    2.3379	1.68158e+07	
         R10	   2566	      76.5	   14.7996	   2.34071	1.69341e+07	      76.5	   14.8009	       2.4	1.67048e+07	      76.5	   14.8567	       2.4	1.69425e+07	      76.5	   14.8554	   2.34606	1.71447e+07	      76.5	   14.8003	   2.37036	1.68193e+07	      76.5	   14.8288	       2.4	1.68234e+07	      76.5	    14.856	   2.37303	1.70435e+07	      76.5	   14.8275	   2.34339	1.70393e+07	
         R10	   2567	      76.5	   14.8554	   2.34606	1.71556e+07	      76.5	   14.8567	       2.4	1.69375e+07	      76.5	   14.9076	       2.4	1.71838e+07	      76.5	   14.9065	    2.3511	1.73764e+07	      76.5	    14.856	   2.37303	1.70465e+07	      76.5	   14.8821	       2.4	1.70605e+07	      76.5	   14.9071	   2.37555	  1.728e+07	      76.5	   14.8809	   2.34858	 1.7266e+07	
         R10	   2568	      76.5	   14.9065	    2.3511	1.73807e+07	      76.5	   14.9076	       2.4	1.71825e+07	      76.5	   14.9538	       2.4	1.74359e+07	      76.5	   14.9524	    2.3561	1.76141e+07	      76.5	   14.9071	   2.37555	1.72814e+07	      76.5	   14.9307	       2.4	1.73091e+07	      76.5	   14.9531	   2.37805	1.75249e+07	      76.5	   14.9295	    2.3536	1.74973e+07	
         R10	   2569	      76.5	   14.9524	    2.3561	1.76148e+07	      76.5	   14.9538	       2.4	1.74394e+07	      76.5	   14.9952	       2.4	   1.77e+07	      76.5	   14.9937	   2.36165	1.78602e+07	      76.5	   14.9531	   2.37805	1.75269e+07	      76.5	   14.9745	       2.4	1.75696e+07	      76.5	   14.9944	   2.38083	  1.778e+07	      76.5	    14.973	   2.35888	1.77374e+07	
         R10	   2570	      76.5	   14.9937	   2.36165	 1.7859e+07	      76.5	   14.9952	       2.4	1.77082e+07	      76.5	   15.0317	       2.4	1.79766e+07	      76.5	   15.0305	   2.36678	1.81193e+07	      76.5	   14.9944	   2.38083	1.77834e+07	      76.5	   15.0135	       2.4	1.78423e+07	      76.5	   15.0311	   2.38339	1.80478e+07	      76.5	   15.0121	   2.36421	1.79891e+07	
         R10	   2571	      76.5	   15.0305	   2.36678	1.81179e+07	      76.5	   15.0317	       2.4	1.79864e+07	      76.5	   15.0635	       2.4	1.82605e+07	      76.5	   15.0623	    2.3713	 1.8385e+07	      76.5	   15.0311	   2.38339	 1.8052e+07	      76.5	   15.0476	       2.4	1.81234e+07	      76.5	   15.0629	   2.38565	1.83226e+07	      76.5	   15.0464	   2.36904	1.82514e+07	
         R10	   2572	      76.5	   15.0623	    2.3713	1.83839e+07	      76.5	   15.0635	       2.4	1.82694e+07	      76.5	   15.0905	       2.4	1.85441e+07	      76.5	   15.0894	   2.37531	1.86517e+07	      76.5	   15.0629	   2.38565	1.83265e+07	      76.5	    15.077	       2.4	1.84067e+07	      76.5	   15.0899	   2.38766	1.85977e+07	      76.5	   15.0758	    2.3733	1.85178e+07	
         R10	   2573	      76.5	   15.0894	   2.37531	1.86501e+07	      76.5	   15.0905	       2.4	1.85507e+07	      76.5	   15.1126	       2.4	1.88118e+07	      76.5	   15.1118	   2.37781	1.89159e+07	      76.5	   15.0899	   2.38766	1.86002e+07	      76.5	   15.1016	       2.4	1.86812e+07	      76.5	   15.1122	    2.3889	1.88637e+07	      76.5	   15.1006	   2.37656	 1.8783e+07	
         R10	   2574	      76.5	   15.1118	   2.37781	1.89134e+07	      76.5	   15.1126	       2.4	1.88224e+07	      76.5	     15.13	       2.4	1.90499e+07	      76.5	     15.13	     2.383	1.91433e+07	      76.5	   15.1122	    2.3889	1.88677e+07	      76.5	   15.1213	       2.4	1.89362e+07	      76.5	     15.13	    2.3915	1.90965e+07	      76.5	   15.1209	    2.3804	1.90283e+07	
         R10	   2575	      76.5	   15.1123	   2.35187	1.90498e+07	      76.5	     15.13	     2.349	1.93211e+07	      76.5	     15.13	     2.332	1.93922e+07	      76.5	   15.1124	   2.33216	1.91343e+07	      76.5	   15.1211	   2.35044	1.91854e+07	      76.5	     15.13	    2.3405	1.93565e+07	      76.5	   15.1212	   2.33208	1.92633e+07	      76.5	   15.1123	   2.34201	1.90918e+07	
         R10	   2576	      76.5	   15.1124	   2.33216	1.91346e+07	      76.5	     15.13	     2.332	1.93923e+07	      76.5	     15.13	     2.315	1.94379e+07	      76.5	   15.1121	    2.3152	1.91837e+07	      76.5	   15.1212	   2.33208	1.92634e+07	      76.5	     15.13	    2.3235	1.94149e+07	      76.5	   15.1211	    2.3151	1.93107e+07	      76.5	   15.1123	   2.32368	 1.9159e+07	
         R10	   2577	      76.5	   15.1121	    2.3152	1.91825e+07	      76.5	     15.13	     2.315	1.94383e+07	      76.5	     15.13	     2.298	 1.9458e+07	      76.5	   15.1133	   2.29909	1.92322e+07	      76.5	   15.1211	    2.3151	1.93104e+07	      76.5	     15.13	    2.3065	1.94479e+07	      76.5	   15.1217	   2.29855	 1.9345e+07	      76.5	   15.1127	   2.30715	1.92072e+07	
         R10	   2578	      76.5	   15.1133	   2.29909	1.92309e+07	      76.5	     15.13	     2.298	1.94579e+07	      76.5	     15.13	     2.281	1.94522e+07	      76.5	   15.1108	   2.28118	1.92127e+07	      76.5	   15.1217	   2.29855	1.93443e+07	      76.5	     15.13	    2.2895	1.94548e+07	      76.5	   15.1204	   2.28109	1.93324e+07	      76.5	   15.1121	   2.29014	1.92217e+07	
         R10	   2579	      76.5	   15.1108	   2.28118	1.92127e+07	      76.5	     15.13	     2.281	1.94523e+07	      76.5	     15.13	     2.264	1.94263e+07	      76.5	   15.1138	   2.26445	1.92425e+07	      76.5	   15.1204	   2.28109	1.93324e+07	      76.5	     15.13	    2.2725	1.94391e+07	      76.5	   15.1219	   2.26422	1.93343e+07	      76.5	   15.1123	   2.27282	1.92274e+07	
         R10	   2580	      76.5	   15.1138	   2.26445	1.92436e+07	      76.5	     15.13	     2.264	1.94248e+07	      76.5	     15.13	     2.247	1.93842e+07	      76.5	   15.1123	   2.24672	1.91999e+07	      76.5	   15.1219	   2.26422	1.93341e+07	      76.5	     15.13	    2.2555	1.94043e+07	      76.5	   15.1211	   2.24686	1.92919e+07	      76.5	    15.113	   2.25558	1.92216e+07	
         R10	   2581	      76.5	   15.1123	   2.24672	1.92041e+07	      76.5	     15.13	     2.247	1.93829e+07	      76.5	     15.13	      2.23	1.93298e+07	      76.5	   15.1113	   2.23027	1.91589e+07	      76.5	   15.1211	   2.24686	1.92934e+07	      76.5	     15.13	    2.2385	1.93562e+07	      76.5	   15.1206	   2.23013	1.92442e+07	      76.5	   15.1118	   2.23849	1.91814e+07	
         R10	   2582	      76.5	   15.1309	   2.21336	1.92756e+07	      76.5	     15.13	      2.23	1.93291e+07	      76.5	    15.147	      2.23	1.94811e+07	      76.5	   15.1461	   2.21359	1.93918e+07	      76.5	   15.1304	   2.22168	1.93022e+07	      76.5	   15.1385	      2.23	1.94049e+07	      76.5	   15.1465	   2.22179	1.94364e+07	      76.5	   15.1385	   2.21348	1.93336e+07	
         R10	   2583	      76.5	   15.1461	   2.21359	1.93958e+07	      76.5	    15.147	      2.23	 1.9481e+07	      76.5	    15.164	      2.23	1.96293e+07	      76.5	   15.1633	   2.21037	1.94984e+07	      76.5	   15.1465	   2.22179	1.94384e+07	      76.5	   15.1555	      2.23	 1.9555e+07	      76.5	   15.1636	   2.22018	1.95638e+07	      76.5	   15.1547	   2.21198	1.94469e+07	
         R10	   2584	      76.5	   15.1633	   2.21037	1.95001e+07	      76.5	    15.164	      2.23	1.96294e+07	      76.5	    15.181	      2.23	1.97665e+07	      76.5	   15.1818	   2.21267	1.96338e+07	      76.5	   15.1636	   2.22018	1.95646e+07	      76.5	   15.1725	      2.23	1.96976e+07	      76.5	   15.1814	   2.22133	1.97001e+07	      76.5	   15.1725	   2.21152	1.95667e+07	
         R10	   2585	      76.5	   15.1818	   2.21267	 1.9634e+07	      76.5	    15.181	      2.23	1.97674e+07	      76.5	    15.198	      2.23	1.98846e+07	      76.5	   15.1974	   2.21173	1.97095e+07	      76.5	   15.1814	   2.22133	1.97006e+07	      76.5	   15.1895	      2.23	1.98256e+07	      76.5	   15.1977	   2.22086	 1.9797e+07	      76.5	   15.1896	    2.2122	1.96715e+07	
         R10	   2586	      76.5	   15.1974	   2.21173	1.97091e+07	      76.5	    15.198	      2.23	1.98855e+07	      76.5	    15.215	      2.23	1.99761e+07	      76.5	   15.2149	   2.21232	1.97831e+07	      76.5	   15.1977	   2.22086	1.97972e+07	      76.5	   15.2065	      2.23	1.99303e+07	      76.5	   15.2149	   2.22116	1.98796e+07	      76.5	   15.2061	   2.21202	1.97456e+07	
         R10	   2587	      76.5	   15.2149	   2.21232	1.97836e+07	      76.5	    15.215	      2.23	1.99769e+07	      76.5	    15.232	      2.23	 2.0032e+07	      76.5	   15.2321	   2.21232	1.98169e+07	      76.5	   15.2149	   2.22116	1.98802e+07	      76.5	   15.2235	      2.23	2.00039e+07	      76.5	   15.2321	   2.22116	1.99244e+07	      76.5	   15.2235	   2.21232	1.97997e+07	
         R10	   2588	      76.5	   15.2321	   2.21232	1.98185e+07	      76.5	    15.232	      2.23	 2.0032e+07	      76.5	    15.249	      2.23	2.00433e+07	      76.5	   15.2487	    2.2124	1.98162e+07	      76.5	   15.2321	   2.22116	1.99253e+07	      76.5	   15.2405	      2.23	 2.0037e+07	      76.5	   15.2489	    2.2212	1.99298e+07	      76.5	   15.2404	   2.21236	1.98169e+07	
         R10	   2589	      76.5	   15.2487	    2.2124	1.98167e+07	      76.5	    15.249	      2.23	2.00434e+07	      76.5	    15.266	      2.23	2.00095e+07	      76.5	   15.2656	   2.21273	1.97826e+07	      76.5	   15.2489	    2.2212	1.99301e+07	      76.5	   15.2575	      2.23	2.00258e+07	      76.5	   15.2658	   2.22137	 1.9896e+07	      76.5	   15.2571	   2.21257	1.97991e+07	
         R10	   2590	      76.5	   15.2656	   2.21273	1.97835e+07	      76.5	    15.266	      2.23	2.00087e+07	      76.5	    15.283	      2.23	1.99284e+07	      76.5	   15.2829	   2.21176	1.96931e+07	      76.5	   15.2658	   2.22137	1.98961e+07	      76.5	   15.2745	      2.23	1.99679e+07	      76.5	    15.283	   2.22088	1.98107e+07	      76.5	   15.2743	   2.21224	1.97378e+07	
         R10	   2591	      76.5	   15.2829	   2.21176	 1.9694e+07	      76.5	    15.283	      2.23	1.99271e+07	      76.5	      15.3	      2.23	1.98071e+07	      76.5	      15.3	   2.21268	 1.9598e+07	      76.5	    15.283	   2.22088	1.98105e+07	      76.5	   15.2915	      2.23	1.98665e+07	      76.5	      15.3	   2.22134	1.97025e+07	      76.5	   15.2915	   2.21222	1.96455e+07	
         R10	   2592	      76.5	   15.2829	   2.21176	1.96932e+07	      76.5	      15.3	   2.21268	1.95987e+07	      76.5	      15.3	   2.19016	1.93601e+07	      76.5	   15.2774	   2.18927	1.94786e+07	      76.5	   15.2915	   2.21222	1.96454e+07	      76.5	      15.3	   2.20142	1.94793e+07	      76.5	   15.2887	   2.18971	1.94187e+07	      76.5	   15.2801	   2.20051	1.95857e+07	
         R10	   2593	      76.5	   15.2774	   2.18927	1.94765e+07	      76.5	      15.3	   2.19016	1.93591e+07	      76.5	      15.3	   2.16246	1.91301e+07	      76.5	   15.2691	   2.16218	1.92664e+07	      76.5	   15.2887	   2.18971	1.94171e+07	      76.5	      15.3	   2.17631	1.92445e+07	      76.5	   15.2846	   2.16232	1.91973e+07	      76.5	   15.2732	   2.17572	1.93712e+07	
         R10	   2594	      76.5	   15.2691	   2.16218	1.92642e+07	      76.5	      15.3	   2.16246	1.91252e+07	      76.5	      15.3	   2.12957	 1.8894e+07	      76.5	   15.2647	   2.12826	1.90284e+07	      76.5	   15.2846	   2.16232	1.91939e+07	      76.5	      15.3	   2.14601	1.90095e+07	      76.5	   15.2824	   2.12892	1.89604e+07	      76.5	   15.2669	   2.14522	1.91462e+07	
         R10	   2595	      76.5	   15.2647	   2.12826	1.90275e+07	      76.5	      15.3	   2.12957	1.88976e+07	      76.5	      15.3	   2.09149	1.86817e+07	      76.5	    15.259	   2.09001	1.88204e+07	      76.5	   15.2824	   2.12892	1.89618e+07	      76.5	      15.3	   2.11053	1.87895e+07	      76.5	   15.2795	   2.09075	1.87502e+07	      76.5	   15.2619	   2.10914	1.89238e+07	
         R10	   2596	      76.5	    15.259	   2.09001	 1.8819e+07	      76.5	      15.3	   2.09149	1.86858e+07	      76.5	      15.3	   2.04821	1.84925e+07	      76.5	   15.2536	     2.047	1.86343e+07	      76.5	   15.2795	   2.09075	1.87516e+07	      76.5	      15.3	   2.06985	 1.8589e+07	      76.5	   15.2768	   2.04761	1.85627e+07	      76.5	   15.2563	   2.06851	1.87265e+07	
         R10	   2597	      76.5	   15.2536	     2.047	 1.8633e+07	      76.5	      15.3	   2.04821	1.84963e+07	      76.5	      15.3	   1.99975	1.83285e+07	      76.5	   15.2487	   1.99859	1.84689e+07	      76.5	   15.2768	   2.04761	 1.8564e+07	      76.5	      15.3	   2.02398	1.84122e+07	      76.5	   15.2744	   1.99917	1.83981e+07	      76.5	   15.2512	    2.0228	1.85509e+07	
         R10	   2598	      76.5	   15.2487	   1.99859	1.84681e+07	      76.5	      15.3	   1.99975	1.83314e+07	      76.5	      15.3	    1.9461	 1.8188e+07	      76.5	   15.2443	     1.945	1.83285e+07	      76.5	   15.2744	   1.99917	1.83992e+07	      76.5	      15.3	   1.97293	1.82595e+07	      76.5	   15.2721	   1.94555	1.82578e+07	      76.5	   15.2465	   1.97179	1.83982e+07	
         R10	   2599	      76.5	   15.2443	     1.945	1.83266e+07	      76.5	      15.3	    1.9461	1.81916e+07	      76.5	      15.3	   1.88726	 1.8073e+07	      76.5	   15.2389	   1.88567	1.82081e+07	      76.5	   15.2721	   1.94555	1.82587e+07	      76.5	      15.3	   1.91668	1.81322e+07	      76.5	   15.2695	   1.88647	1.81402e+07	      76.5	   15.2416	   1.91533	1.82673e+07	
         R10	   2600	      76.5	   15.2389	   1.88567	1.82062e+07	      76.5	      15.3	   1.88726	1.80771e+07	      76.5	      15.3	   1.82323	1.79568e+07	      76.5	   15.2328	   1.82175	1.81279e+07	      76.5	   15.2695	   1.88647	1.81413e+07	      76.5	      15.3	   1.85525	1.80168e+07	      76.5	   15.2664	   1.82249	1.80421e+07	      76.5	   15.2359	   1.85371	1.81669e+07	
         R10	   2601	      76.5	   15.2328	   1.82175	1.81122e+07	      76.5	      15.3	   1.82323	1.79811e+07	      76.5	      15.3	   1.75401	 1.7916e+07	      76.5	   15.2276	   1.75287	 1.8006e+07	      76.5	   15.2664	   1.82249	1.80464e+07	      76.5	      15.3	   1.78862	1.79483e+07	      76.5	   15.2638	   1.75344	1.79609e+07	      76.5	   15.2302	   1.78731	1.80591e+07	
         R10	   2602	      76.5	   15.2276	   1.75287	1.79478e+07	      76.5	      15.3	   1.75401	1.80274e+07	      76.5	      15.3	    1.6796	1.75221e+07	      76.5	   15.2225	   1.67799	1.80247e+07	      76.5	   15.2638	   1.75344	1.79875e+07	      76.5	      15.3	    1.7168	1.77747e+07	      76.5	   15.2612	    1.6788	1.77719e+07	      76.5	    15.225	   1.71543	1.79854e+07	
         R10	   2603	      76.5	   15.2225	   1.67799	1.78334e+07	      76.5	      15.3	    1.6796	1.84215e+07	      76.5	      15.3	       1.6	 1.6538e+07	      76.5	    15.219	       1.6	1.78395e+07	      76.5	   15.2612	    1.6788	1.81254e+07	      76.5	      15.3	    1.6398	1.74713e+07	      76.5	   15.2595	       1.6	 1.7186e+07	      76.5	   15.2207	     1.639	1.78349e+07	
         R10	   2604	      76.5	   15.1413	    1.6818	1.80166e+07	      76.5	   15.2225	   1.67799	1.76714e+07	      76.5	    15.219	       1.6	1.78693e+07	      76.5	   15.1346	       1.6	1.80231e+07	      76.5	   15.1819	    1.6799	 1.7843e+07	      76.5	   15.2207	     1.639	1.77678e+07	      76.5	   15.1768	       1.6	1.79461e+07	      76.5	   15.1379	    1.6409	1.80197e+07	
         R10	   2605	      76.5	   15.1413	    1.6818	1.80054e+07	      76.5	   15.1346	       1.6	1.79897e+07	      76.5	   15.0468	       1.6	  1.813e+07	      76.5	   15.0481	   1.68773	1.81193e+07	      76.5	   15.1379	    1.6409	1.79974e+07	      76.5	   15.0907	       1.6	1.80598e+07	      76.5	   15.0475	   1.64387	1.81246e+07	      76.5	   15.0947	   1.68477	1.80622e+07	
         R10	   2606	      76.5	   15.0481	   1.68773	1.80875e+07	      76.5	   15.0468	       1.6	1.80934e+07	      76.5	   14.9557	       1.6	1.81774e+07	      76.5	   14.9566	   1.69136	1.81365e+07	      76.5	   15.0475	   1.64387	1.80904e+07	      76.5	   15.0013	       1.6	1.81354e+07	      76.5	   14.9562	   1.64568	1.81569e+07	      76.5	   15.0024	   1.68955	1.81119e+07	
         R10	   2607	      76.5	   14.9566	   1.69136	1.80977e+07	      76.5	   14.9557	       1.6	1.81277e+07	      76.5	   14.8613	       1.6	1.81786e+07	      76.5	   14.8605	   1.69349	1.81049e+07	      76.5	   14.9562	   1.64568	1.81127e+07	      76.5	   14.9085	       1.6	1.81532e+07	      76.5	   14.8609	   1.64674	1.81418e+07	      76.5	   14.9086	   1.69243	1.81013e+07	
         R10	   2608	      76.5	   14.8605	   1.69349	 1.8041e+07	      76.5	   14.8613	       1.6	1.81032e+07	      76.5	   14.7635	       1.6	1.81443e+07	      76.5	   14.7622	   1.69713	1.80462e+07	      76.5	   14.8609	   1.64674	1.80721e+07	      76.5	   14.8124	       1.6	1.81238e+07	      76.5	   14.7629	   1.64856	1.80952e+07	      76.5	   14.8114	   1.69531	1.80436e+07	
         R10	   2609	      76.5	   14.7622	   1.69713	1.79369e+07	      76.5	   14.7635	       1.6	1.80288e+07	      76.5	   14.6624	       1.6	1.80983e+07	      76.5	   14.6597	   1.70105	1.79643e+07	      76.5	   14.7629	   1.64856	1.79828e+07	      76.5	   14.7129	       1.6	1.80635e+07	      76.5	    14.661	   1.65053	1.80313e+07	      76.5	    14.711	   1.69909	1.79506e+07	
         R10	   2610	      76.5	   14.6597	   1.70105	1.77895e+07	      76.5	   14.6624	       1.6	1.79125e+07	      76.5	   14.5579	       1.6	1.80419e+07	      76.5	   14.5531	   1.70068	1.79047e+07	      76.5	    14.661	   1.65053	1.78509e+07	      76.5	   14.6101	       1.6	1.79772e+07	      76.5	   14.5555	   1.65034	1.79732e+07	      76.5	   14.6064	   1.70087	 1.7847e+07	
         R10	   2611	      76.5	   14.6597	   1.79821	1.76467e+07	      76.5	   14.6597	   1.70105	1.77966e+07	      76.5	   14.5531	   1.70068	 1.7905e+07	      76.5	   14.5501	   1.79864	1.77494e+07	      76.5	   14.6597	   1.74963	1.77216e+07	      76.5	   14.6064	   1.70087	1.78507e+07	      76.5	   14.5516	   1.74966	1.78271e+07	      76.5	   14.6049	   1.79842	1.76979e+07	
         R10	   2612	      76.5	   14.6597	   1.79821	1.76519e+07	      76.5	   14.5501	   1.79864	  1.775e+07	      76.5	   14.5449	   1.89329	 1.7564e+07	      76.5	   14.6441	   1.89462	1.74357e+07	      76.5	   14.6049	   1.79842	1.77008e+07	      76.5	   14.5475	   1.84597	1.76569e+07	      76.5	   14.5945	   1.89396	1.74997e+07	      76.5	   14.6519	   1.84641	1.75437e+07	
         R10	   2613	      76.5	   14.6441	   1.89462	 1.7438e+07	      76.5	   14.5449	   1.89329	1.75647e+07	      76.5	   14.5399	   1.98623	1.73358e+07	      76.5	   14.6317	   1.98615	1.71637e+07	      76.5	   14.5945	   1.89396	1.75012e+07	      76.5	   14.5424	   1.93976	1.74501e+07	      76.5	   14.5858	   1.98619	1.72495e+07	      76.5	   14.6379	   1.94038	1.73008e+07	
         R10	   2614	      76.5	   14.6317	   1.98615	1.71681e+07	      76.5	   14.5399	   1.98623	1.73375e+07	      76.5	   14.5363	   2.07504	 1.7025e+07	      76.5	   14.6211	   2.07811	1.68009e+07	      76.5	   14.5858	   1.98619	1.72525e+07	      76.5	   14.5381	   2.03063	 1.7181e+07	      76.5	   14.5787	   2.07657	1.69121e+07	      76.5	   14.6264	   2.03213	1.69844e+07	
         R10	   2615	      76.5	   14.6211	   2.07811	1.68046e+07	      76.5	   14.5363	   2.07504	 1.7025e+07	      76.5	    14.533	   2.16098	1.65919e+07	      76.5	   14.6115	   2.16357	1.63551e+07	      76.5	   14.5787	   2.07657	1.69141e+07	      76.5	   14.5347	   2.11801	 1.6808e+07	      76.5	   14.5723	   2.16228	1.64712e+07	      76.5	   14.6163	   2.12084	1.65797e+07	
         R10	   2616	      76.5	   14.6115	   2.16357	 1.6344e+07	      76.5	    14.533	   2.16098	1.65875e+07	      76.5	   14.5303	   2.24354	1.58648e+07	      76.5	   14.6092	   2.24623	1.59613e+07	      76.5	   14.5723	   2.16228	1.64635e+07	      76.5	   14.5317	   2.20226	 1.6226e+07	      76.5	   14.5698	   2.24488	1.59078e+07	      76.5	   14.6104	    2.2049	1.61521e+07	
         R10	   2617	      76.5	   14.6092	   2.24623	 1.5953e+07	      76.5	   14.5303	   2.24354	 1.5902e+07	      76.5	   14.5279	   2.32291	1.52238e+07	      76.5	   14.6033	   2.32376	1.56687e+07	      76.5	   14.5698	   2.24488	1.59209e+07	      76.5	   14.5291	   2.28323	1.55616e+07	      76.5	   14.5656	   2.32334	1.54413e+07	      76.5	   14.6063	     2.285	1.58102e+07	
         R10	   2618	      76.5	   14.6806	   2.24987	1.64444e+07	      76.5	   14.6092	   2.24623	1.61403e+07	      76.5	   14.6033	   2.32376	1.58195e+07	      76.5	   14.6738	   2.32961	1.63885e+07	      76.5	   14.6449	   2.24805	1.62912e+07	      76.5	   14.6063	     2.285	1.59789e+07	      76.5	   14.6386	   2.32669	1.61039e+07	      76.5	   14.6772	   2.28974	1.64162e+07	
         R10	   2619	      76.5	   14.6806	   2.24987	1.65227e+07	      76.5	   14.6738	   2.32961	1.64364e+07	      76.5	    14.739	   2.33508	1.66575e+07	      76.5	   14.7448	    2.2646	 1.6833e+07	      76.5	   14.6772	   2.28974	1.64792e+07	      76.5	   14.7064	   2.33235	1.65469e+07	      76.5	   14.7419	   2.29984	1.67451e+07	      76.5	   14.7127	   2.25723	1.66776e+07	
         R10	   2620	      76.5	   14.7448	    2.2646	1.68663e+07	      76.5	    14.739	   2.33508	1.66895e+07	      76.5	   14.7996	   2.34071	 1.6914e+07	      76.5	    14.805	   2.27666	1.71089e+07	      76.5	   14.7419	   2.29984	1.67777e+07	      76.5	   14.7693	    2.3379	1.68017e+07	      76.5	   14.8023	   2.30869	1.70113e+07	      76.5	   14.7749	   2.27063	1.69875e+07	
         R10	   2621	      76.5	    14.805	   2.27666	1.71191e+07	      76.5	   14.7996	   2.34071	1.69338e+07	      76.5	   14.8554	   2.34606	 1.7142e+07	      76.5	     14.86	   2.29241	1.73362e+07	      76.5	   14.8023	   2.30869	1.70263e+07	      76.5	   14.8275	   2.34339	1.70378e+07	      76.5	   14.8577	   2.31923	 1.7239e+07	      76.5	   14.8325	   2.28453	1.72276e+07	
         R10	   2622	      76.5	     14.86	   2.29241	1.73399e+07	      76.5	   14.8554	   2.34606	1.71522e+07	      76.5	   14.9065	    2.3511	1.73762e+07	      76.5	   14.9118	   2.30242	1.75708e+07	      76.5	   14.8577	   2.31923	 1.7246e+07	      76.5	   14.8809	   2.34858	1.72641e+07	      76.5	   14.9091	   2.32676	1.74734e+07	      76.5	   14.8859	   2.29741	1.74553e+07	
         R10	   2623	      76.5	   14.9118	   2.30242	1.75725e+07	      76.5	   14.9065	    2.3511	1.73802e+07	      76.5	   14.9524	    2.3561	1.76141e+07	      76.5	   14.9576	   2.31146	1.78079e+07	      76.5	   14.9091	   2.32676	1.74762e+07	      76.5	   14.9295	    2.3536	1.74971e+07	      76.5	    14.955	   2.33378	1.77108e+07	      76.5	   14.9347	   2.30694	1.76902e+07	
         R10	   2624	      76.5	   14.9576	   2.31146	1.78094e+07	      76.5	   14.9524	    2.3561	1.76145e+07	      76.5	   14.9937	   2.36165	1.78598e+07	      76.5	   14.9983	   2.32526	1.80326e+07	      76.5	    14.955	   2.33378	1.77118e+07	      76.5	    14.973	   2.35888	1.77371e+07	      76.5	    14.996	   2.34346	 1.7946e+07	      76.5	    14.978	   2.31836	1.79209e+07	
         R10	   2625	      76.5	   14.9983	   2.32526	1.80331e+07	      76.5	   14.9937	   2.36165	1.78589e+07	      76.5	   15.0305	   2.36678	1.81192e+07	      76.5	   15.0348	   2.33522	1.82831e+07	      76.5	    14.996	   2.34346	1.79458e+07	      76.5	   15.0121	   2.36421	 1.7989e+07	      76.5	   15.0326	     2.351	 1.8201e+07	      76.5	   15.0165	   2.33024	 1.8158e+07	
         R10	   2626	      76.5	   15.0348	   2.33522	1.82833e+07	      76.5	   15.0305	   2.36678	1.81178e+07	      76.5	   15.0623	    2.3713	1.83847e+07	      76.5	   15.0661	   2.34409	1.85407e+07	      76.5	   15.0326	     2.351	1.82004e+07	      76.5	   15.0464	   2.36904	1.82512e+07	      76.5	   15.0642	   2.35769	1.84625e+07	      76.5	   15.0505	   2.33965	1.84119e+07	
         R10	   2627	      76.5	   15.0661	   2.34409	1.85417e+07	      76.5	   15.0623	    2.3713	1.83833e+07	      76.5	   15.0894	   2.37531	1.86513e+07	      76.5	   15.0933	   2.35536	1.87896e+07	      76.5	   15.0642	   2.35769	1.84623e+07	      76.5	   15.0758	    2.3733	1.85173e+07	      76.5	   15.0913	   2.36534	1.87203e+07	      76.5	   15.0797	   2.34973	1.86656e+07	
         R10	   2628	      76.5	   15.1118	   2.37781	1.89129e+07	      76.5	     15.13	     2.366	1.92347e+07	      76.5	     15.13	     2.349	1.93207e+07	      76.5	   15.1123	   2.35187	1.90503e+07	      76.5	   15.1209	    2.3719	1.90737e+07	      76.5	     15.13	    2.3575	1.92775e+07	      76.5	   15.1211	   2.35044	1.91855e+07	      76.5	    15.112	   2.36484	1.89813e+07	
         R10	   2629	      76.5	   15.0913	   2.31601	1.89226e+07	      76.5	   15.1121	    2.3152	1.91825e+07	      76.5	   15.1133	   2.29909	1.92301e+07	      76.5	   15.0946	   2.29801	1.90017e+07	      76.5	   15.1017	   2.31561	1.90525e+07	      76.5	   15.1127	   2.30715	1.92061e+07	      76.5	    15.104	   2.29855	1.91159e+07	      76.5	    15.093	   2.30701	 1.8962e+07	
         R10	   2630	      76.5	   15.0937	   2.27473	1.90213e+07	      76.5	   15.1108	   2.28118	1.92127e+07	      76.5	   15.1138	   2.26445	  1.924e+07	      76.5	   15.0906	   2.25894	1.89944e+07	      76.5	   15.1023	   2.27796	 1.9117e+07	      76.5	   15.1123	   2.27282	1.92262e+07	      76.5	   15.1022	    2.2617	1.91171e+07	      76.5	   15.0922	   2.26684	1.90078e+07	
         R10	   2631	      76.5	   15.0906	   2.25894	1.89987e+07	      76.5	   15.1123	   2.24672	1.92051e+07	      76.5	   15.1113	   2.23027	1.91606e+07	      76.5	   15.0919	   2.23276	1.89975e+07	      76.5	   15.1015	   2.25283	1.91016e+07	      76.5	   15.1118	   2.23849	1.91828e+07	      76.5	   15.1016	   2.23152	1.90789e+07	      76.5	   15.0913	   2.24585	1.89978e+07	
         R10	   2632	      76.5	   15.1131	   2.20651	1.91163e+07	      76.5	   15.1113	   2.23027	1.91624e+07	      76.5	     15.13	      2.23	1.93282e+07	      76.5	   15.1309	   2.21336	 1.9272e+07	      76.5	   15.1122	   2.21839	1.91391e+07	      76.5	   15.1206	   2.23013	1.92451e+07	      76.5	   15.1304	   2.22168	   1.93e+07	      76.5	    15.122	   2.20994	 1.9194e+07	
         R10	   2633	      76.5	   15.1308	   2.19114	1.91829e+07	      76.5	   15.1309	   2.21336	1.92759e+07	      76.5	   15.1461	   2.21359	1.93924e+07	      76.5	   15.1476	   2.19343	1.93066e+07	      76.5	   15.1309	   2.20225	1.92293e+07	      76.5	   15.1385	   2.21348	 1.9334e+07	      76.5	   15.1469	   2.20351	1.93494e+07	      76.5	   15.1392	   2.19229	1.92446e+07	
         R10	   2634	      76.5	   15.1954	   2.19232	 1.9536e+07	      76.5	   15.1974	   2.21173	 1.9709e+07	      76.5	   15.2149	   2.21232	1.97827e+07	      76.5	   15.2153	   2.19317	1.95968e+07	      76.5	   15.1964	   2.20202	1.96225e+07	      76.5	   15.2061	   2.21202	1.97454e+07	      76.5	   15.2151	   2.20274	1.96897e+07	      76.5	   15.2054	   2.19274	1.95659e+07	
         R10	   2635	      76.5	   15.2153	   2.19317	1.95964e+07	      76.5	   15.2149	   2.21232	1.97835e+07	      76.5	   15.2321	   2.21232	1.98169e+07	      76.5	   15.2333	   2.19208	1.96058e+07	      76.5	   15.2151	   2.20274	1.96899e+07	      76.5	   15.2235	   2.21232	1.97997e+07	      76.5	   15.2327	    2.2022	1.97113e+07	      76.5	   15.2243	   2.19262	1.96007e+07	
         R10	   2636	      76.5	   15.2333	   2.19208	1.96013e+07	      76.5	   15.2321	   2.21232	1.98179e+07	      76.5	   15.2487	    2.2124	1.98157e+07	      76.5	   15.2507	   2.19032	1.95717e+07	      76.5	   15.2327	    2.2022	1.97096e+07	      76.5	   15.2404	   2.21236	1.98163e+07	      76.5	   15.2497	   2.20136	1.96937e+07	      76.5	    15.242	    2.1912	1.95861e+07	
         R10	   2637	      76.5	   15.2319	    2.1331	1.91242e+07	      76.5	   15.2647	   2.12826	1.90265e+07	      76.5	    15.259	   2.09001	1.88207e+07	      76.5	   15.2171	   2.09553	1.89163e+07	      76.5	   15.2483	   2.13068	1.90746e+07	      76.5	   15.2619	   2.10914	1.89235e+07	      76.5	   15.2381	   2.09277	1.88677e+07	      76.5	   15.2245	   2.11431	1.90201e+07	
         R10	   2638	      76.5	   15.2171	   2.09553	1.89159e+07	      76.5	    15.259	   2.09001	1.88192e+07	      76.5	   15.2536	     2.047	1.86342e+07	      76.5	    15.207	   2.05248	1.87218e+07	      76.5	   15.2381	   2.09277	1.88667e+07	      76.5	   15.2563	   2.06851	1.87266e+07	      76.5	   15.2303	   2.04974	1.86773e+07	      76.5	   15.2121	     2.074	1.88188e+07	
         R10	   2639	      76.5	    15.207	   2.05248	1.87223e+07	      76.5	   15.2536	     2.047	1.86329e+07	      76.5	   15.2487	   1.99859	 1.8469e+07	      76.5	   15.1974	   2.00372	1.85524e+07	      76.5	   15.2303	   2.04974	1.86769e+07	      76.5	   15.2512	    2.0228	1.85508e+07	      76.5	   15.2231	   2.00115	1.85102e+07	      76.5	   15.2022	    2.0281	1.86373e+07	
         R10	   2640	      76.5	   15.1974	   2.00372	1.85529e+07	      76.5	   15.2487	   1.99859	1.84678e+07	      76.5	   15.2443	     1.945	1.83264e+07	      76.5	   15.1905	   1.95018	1.84085e+07	      76.5	   15.2231	   2.00115	1.85098e+07	      76.5	   15.2465	   1.97179	 1.8397e+07	      76.5	   15.2174	   1.94759	 1.8367e+07	      76.5	    15.194	   1.97695	1.84807e+07	
         R10	   2641	      76.5	   15.1905	   1.95018	1.84094e+07	      76.5	   15.2443	     1.945	1.83244e+07	      76.5	   15.2389	   1.88567	1.82122e+07	      76.5	   15.1824	   1.89035	1.82827e+07	      76.5	   15.2174	   1.94759	1.83665e+07	      76.5	   15.2416	   1.91533	1.82682e+07	      76.5	   15.2107	   1.88801	1.82472e+07	      76.5	   15.1864	   1.92026	 1.8346e+07	
         R10	   2642	      76.5	   15.1824	   1.89035	1.82841e+07	      76.5	   15.2389	   1.88567	1.82099e+07	      76.5	   15.2328	   1.82175	1.81111e+07	      76.5	    15.164	    1.8267	1.81916e+07	      76.5	   15.2107	   1.88801	1.82468e+07	      76.5	   15.2359	   1.85371	1.81604e+07	      76.5	   15.1984	   1.82422	1.81511e+07	      76.5	   15.1732	   1.85853	1.82378e+07	
         R10	   2643	      76.5	    15.164	    1.8267	1.82015e+07	      76.5	   15.2328	   1.82175	1.80972e+07	      76.5	   15.2276	   1.75287	1.80346e+07	      76.5	    15.153	   1.75706	1.80926e+07	      76.5	   15.1984	   1.82422	1.81491e+07	      76.5	   15.2302	   1.78731	1.80658e+07	      76.5	   15.1903	   1.75496	1.80635e+07	      76.5	   15.1585	   1.79188	 1.8147e+07	
         R10	   2644	      76.5	    15.153	   1.75706	1.81061e+07	      76.5	   15.2276	   1.75287	 1.7976e+07	      76.5	   15.2225	   1.67799	1.79874e+07	      76.5	   15.1413	    1.6818	1.79801e+07	      76.5	   15.1903	   1.75496	1.80408e+07	      76.5	    15.225	   1.71543	1.79815e+07	      76.5	   15.1819	    1.6799	1.79835e+07	      76.5	   15.1471	   1.71943	 1.8043e+07	
         R10	   2645	      76.5	   15.0711	   1.76391	1.81401e+07	      76.5	    15.153	   1.75706	1.81121e+07	      76.5	   15.1413	    1.6818	1.79769e+07	      76.5	   15.0481	   1.68773	1.81219e+07	      76.5	   15.1121	   1.76049	1.81259e+07	      76.5	   15.1471	   1.71943	1.80444e+07	      76.5	   15.0947	   1.68477	1.80492e+07	      76.5	   15.0596	   1.72582	1.81309e+07	
         R10	   2646	      76.5	   15.0711	   1.76391	1.81338e+07	      76.5	   15.0481	   1.68773	1.80931e+07	      76.5	   14.9566	   1.69136	1.81375e+07	      76.5	   14.9593	    1.7763	1.81275e+07	      76.5	   15.0596	   1.72582	1.81133e+07	      76.5	   15.0024	   1.68955	1.81152e+07	      76.5	    14.958	   1.73383	1.81325e+07	      76.5	   15.0152	   1.77011	1.81304e+07	
         R10	   2647	      76.5	   14.9593	    1.7763	1.80914e+07	      76.5	   14.9566	   1.69136	1.80994e+07	      76.5	   14.8605	   1.69349	1.81048e+07	      76.5	   14.8634	   1.77819	1.80512e+07	      76.5	    14.958	   1.73383	1.80954e+07	      76.5	   14.9086	   1.69243	1.81021e+07	      76.5	   14.8619	   1.73584	 1.8078e+07	      76.5	   14.9113	   1.77725	1.80712e+07	
         R10	   2648	      76.5	   14.8634	   1.77819	1.79815e+07	      76.5	   14.8605	   1.69349	1.80403e+07	      76.5	   14.7622	   1.69713	1.80425e+07	      76.5	   14.7621	    1.7898	1.79362e+07	      76.5	   14.8619	   1.73584	1.80109e+07	      76.5	   14.8114	   1.69531	1.80414e+07	      76.5	   14.7622	   1.74346	1.79893e+07	      76.5	   14.8128	     1.784	1.79589e+07	
         R10	   2649	      76.5	   14.7621	    1.7898	1.78178e+07	      76.5	   14.7622	   1.69713	1.79337e+07	      76.5	   14.6597	   1.70105	1.79708e+07	      76.5	   14.6597	   1.79821	1.78215e+07	      76.5	   14.7622	   1.74346	1.78757e+07	      76.5	    14.711	   1.69909	1.79522e+07	      76.5	   14.6597	   1.74963	1.78961e+07	      76.5	   14.7109	     1.794	1.78196e+07	
         R10	   2650	      76.5	   14.7634	   1.88522	1.77083e+07	      76.5	   14.7621	    1.7898	1.78148e+07	      76.5	   14.6597	   1.79821	1.78267e+07	      76.5	   14.6441	   1.89462	1.75775e+07	      76.5	   14.7628	   1.83751	1.77614e+07	      76.5	   14.7109	     1.794	1.78207e+07	      76.5	   14.6519	   1.84641	 1.7702e+07	      76.5	   14.7038	   1.88992	1.76427e+07	
         R10	   2651	      76.5	   14.7634	   1.88522	1.77125e+07	      76.5	   14.6441	   1.89462	1.75811e+07	      76.5	   14.6317	   1.98615	1.73363e+07	      76.5	   14.7145	   1.99244	1.73567e+07	      76.5	   14.7038	   1.88992	1.76466e+07	      76.5	   14.6379	   1.94038	1.74586e+07	      76.5	   14.6731	    1.9893	1.73461e+07	      76.5	   14.7389	   1.93883	1.75344e+07	
         R10	   2652	      76.5	   14.7145	   1.99244	 1.7345e+07	      76.5	   14.6317	   1.98615	1.73412e+07	      76.5	   14.6211	   2.07811	1.69744e+07	      76.5	   14.7024	   2.08626	1.70413e+07	      76.5	   14.6731	    1.9893	1.73428e+07	      76.5	   14.6264	   2.03213	1.71577e+07	      76.5	   14.6617	   2.08218	1.70072e+07	      76.5	   14.7084	   2.03935	1.71929e+07	
         R10	   2653	      76.5	   14.7024	   2.08626	1.70356e+07	      76.5	   14.6211	   2.07811	1.69788e+07	      76.5	   14.6115	   2.16357	1.65502e+07	      76.5	   14.6902	   2.16923	1.67169e+07	      76.5	   14.6617	   2.08218	1.70065e+07	      76.5	   14.6163	   2.12084	1.67643e+07	      76.5	   14.6509	    2.1664	1.66324e+07	      76.5	   14.6963	   2.12774	 1.6876e+07	
         R10	   2654	      76.5	   14.6902	   2.16923	1.67078e+07	      76.5	   14.6115	   2.16357	 1.6537e+07	      76.5	   14.6092	   2.24623	1.61327e+07	      76.5	   14.6806	   2.24987	1.64535e+07	      76.5	   14.6509	    2.1664	1.66212e+07	      76.5	   14.6104	    2.2049	1.63343e+07	      76.5	   14.6449	   2.24805	1.62918e+07	      76.5	   14.6854	   2.20955	1.65802e+07	
         R10	   2655	      76.5	   14.7616	   2.18263	1.70633e+07	      76.5	   14.6902	   2.16923	1.68012e+07	      76.5	   14.6806	   2.24987	1.65468e+07	      76.5	   14.7448	    2.2646	1.68177e+07	      76.5	   14.7259	   2.17593	1.69319e+07	      76.5	   14.6854	   2.20955	1.66736e+07	      76.5	   14.7127	   2.25723	1.66821e+07	      76.5	   14.7532	   2.22361	1.69402e+07	
         R10	   2656	      76.5	   14.7616	   2.18263	1.71076e+07	      76.5	   14.7448	    2.2646	1.68498e+07	      76.5	    14.805	   2.27666	1.71082e+07	      76.5	   14.8179	   2.21186	 1.7294e+07	      76.5	   14.7532	   2.22361	1.69784e+07	      76.5	   14.7749	   2.27063	1.69789e+07	      76.5	   14.8114	   2.24426	1.72009e+07	      76.5	   14.7897	   2.19725	1.72006e+07	
         R10	   2657	      76.5	   14.8179	   2.21186	1.73188e+07	      76.5	    14.805	   2.27666	1.71191e+07	      76.5	     14.86	   2.29241	 1.7334e+07	      76.5	   14.8708	   2.24242	1.75064e+07	      76.5	   14.8114	   2.24426	1.72188e+07	      76.5	   14.8325	   2.28453	1.72265e+07	      76.5	   14.8654	   2.26741	1.74201e+07	      76.5	   14.8443	   2.22714	1.74125e+07	
         R10	   2658	      76.5	   14.8708	   2.24242	 1.7516e+07	      76.5	     14.86	   2.29241	1.73361e+07	      76.5	   14.9118	   2.30242	1.75709e+07	      76.5	   14.9218	    2.2558	1.77498e+07	      76.5	   14.8654	   2.26741	1.74259e+07	      76.5	   14.8859	   2.29741	1.74534e+07	      76.5	   14.9168	   2.27911	1.76602e+07	      76.5	   14.8963	   2.24911	1.76329e+07	
         R10	   2659	      76.5	   14.9218	    2.2558	1.77529e+07	      76.5	   14.9118	   2.30242	1.75721e+07	      76.5	   14.9576	   2.31146	1.78081e+07	      76.5	   14.9694	   2.26912	1.80022e+07	      76.5	   14.9168	   2.27911	1.76624e+07	      76.5	   14.9347	   2.30694	1.76901e+07	      76.5	   14.9635	   2.29029	 1.7905e+07	      76.5	   14.9456	   2.26246	1.78776e+07	
         R10	   2660	      76.5	   14.9694	   2.26912	1.80041e+07	      76.5	   14.9576	   2.31146	1.78091e+07	      76.5	   14.9983	   2.32526	1.80329e+07	      76.5	   15.0074	   2.28863	1.82175e+07	      76.5	   14.9635	   2.29029	1.79064e+07	      76.5	    14.978	   2.31836	 1.7921e+07	      76.5	   15.0029	   2.30694	 1.8125e+07	      76.5	   14.9884	   2.27887	1.81108e+07	
         R10	   2661	      76.5	   15.0074	   2.28863	1.82179e+07	      76.5	   14.9983	   2.32526	 1.8033e+07	      76.5	   15.0348	   2.33522	1.82842e+07	      76.5	    15.044	    2.3014	1.84765e+07	      76.5	   15.0029	   2.30694	1.81253e+07	      76.5	   15.0165	   2.33024	1.81586e+07	      76.5	   15.0394	   2.31831	1.83801e+07	      76.5	   15.0257	   2.29501	1.83472e+07	
         R10	   2662	      76.5	    15.044	    2.3014	1.84805e+07	      76.5	   15.0348	   2.33522	 1.8285e+07	      76.5	   15.0661	   2.34409	1.85397e+07	      76.5	   15.0714	   2.32072	1.86847e+07	      76.5	   15.0394	   2.31831	1.83824e+07	      76.5	   15.0505	   2.33965	1.84123e+07	      76.5	   15.0688	    2.3324	 1.8612e+07	      76.5	   15.0577	   2.31106	1.85825e+07	
         R10	   2663	      76.5	   15.0933	   2.35536	1.87906e+07	      76.5	   15.0894	   2.37531	1.86507e+07	      76.5	   15.1118	   2.37781	1.89146e+07	      76.5	   15.1123	   2.35187	1.90489e+07	      76.5	   15.0913	   2.36534	1.87205e+07	      76.5	   15.1006	   2.37656	1.87826e+07	      76.5	    15.112	   2.36484	1.89815e+07	      76.5	   15.1028	   2.35362	1.89197e+07	
         R10	   2664	      76.5	   15.1124	   2.33216	1.91349e+07	      76.5	   15.1121	    2.3152	1.91831e+07	      76.5	   15.0913	   2.31601	 1.8919e+07	      76.5	   15.0948	   2.33426	1.88988e+07	      76.5	   15.1123	   2.32368	1.91589e+07	      76.5	   15.1017	   2.31561	 1.9051e+07	      76.5	   15.0931	   2.32514	1.89088e+07	      76.5	   15.1036	   2.33321	1.90168e+07	
         R10	   2665	      76.5	    15.073	   2.28565	1.87892e+07	      76.5	   15.0946	   2.29801	1.90032e+07	      76.5	   15.1108	   2.28118	1.92142e+07	      76.5	   15.0937	   2.27473	1.90201e+07	      76.5	   15.0838	   2.29183	1.88961e+07	      76.5	   15.1027	    2.2896	1.91084e+07	      76.5	   15.1023	   2.27796	1.91172e+07	      76.5	   15.0834	   2.28019	1.89045e+07	
         R10	   2666	      76.5	   15.0869	   2.20514	1.89147e+07	      76.5	   15.0919	   2.23276	1.89913e+07	      76.5	   15.1113	   2.23027	1.91634e+07	      76.5	   15.1131	   2.20651	1.91136e+07	      76.5	   15.0894	   2.21895	1.89529e+07	      76.5	   15.1016	   2.23152	1.90772e+07	      76.5	   15.1122	   2.21839	1.91383e+07	      76.5	      15.1	   2.20582	 1.9014e+07	
         R10	   2667	      76.5	   15.1244	    2.1682	1.90631e+07	      76.5	   15.1308	   2.19114	1.91805e+07	      76.5	   15.1476	   2.19343	1.93039e+07	      76.5	   15.1611	   2.16594	1.92299e+07	      76.5	   15.1276	   2.17967	1.91218e+07	      76.5	   15.1392	   2.19229	 1.9242e+07	      76.5	   15.1544	   2.17968	1.92665e+07	      76.5	   15.1428	   2.16707	1.91457e+07	
         R10	   2668	      76.5	   15.1611	   2.16594	1.92235e+07	      76.5	   15.1476	   2.19343	1.93025e+07	      76.5	   15.1633	   2.21037	1.95002e+07	      76.5	   15.1738	   2.19361	1.94459e+07	      76.5	   15.1544	   2.17968	1.92626e+07	      76.5	   15.1555	    2.2019	1.94013e+07	      76.5	   15.1685	   2.20199	1.94727e+07	      76.5	   15.1675	   2.17977	1.93346e+07	
         R10	   2669	      76.5	   15.1738	   2.19361	1.94542e+07	      76.5	   15.1818	   2.21267	1.96314e+07	      76.5	   15.1974	   2.21173	 1.9708e+07	      76.5	   15.1954	   2.19232	1.95348e+07	      76.5	   15.1778	   2.20314	1.95428e+07	      76.5	   15.1896	    2.2122	1.96694e+07	      76.5	   15.1964	   2.20202	1.96214e+07	      76.5	   15.1846	   2.19296	 1.9494e+07	
         R10	   2670	      76.5	   15.2691	   2.16218	1.92648e+07	      76.5	   15.2647	   2.12826	1.90271e+07	      76.5	   15.2319	    2.1331	1.91259e+07	      76.5	   15.2384	   2.16571	1.93615e+07	      76.5	   15.2669	   2.14522	1.91459e+07	      76.5	   15.2483	   2.13068	1.90758e+07	      76.5	   15.2352	    2.1494	1.92437e+07	      76.5	   15.2537	   2.16395	1.93123e+07	
         R10	   2671	      76.5	   15.1969	   2.14345	1.91903e+07	      76.5	   15.2319	    2.1331	 1.9126e+07	      76.5	   15.2171	   2.09553	 1.8917e+07	      76.5	   15.1773	   2.10902	1.89666e+07	      76.5	   15.2144	   2.13827	1.91573e+07	      76.5	   15.2245	   2.11431	1.90213e+07	      76.5	   15.1972	   2.10227	 1.8941e+07	      76.5	   15.1871	   2.12623	1.90783e+07	
         R10	   2672	      76.5	   15.1773	   2.10902	1.89661e+07	      76.5	   15.2171	   2.09553	1.89156e+07	      76.5	    15.207	   2.05248	1.87222e+07	      76.5	   15.1616	   2.06269	1.87499e+07	      76.5	   15.1972	   2.10227	1.89401e+07	      76.5	   15.2121	     2.074	1.88188e+07	      76.5	   15.1843	   2.05758	1.87354e+07	      76.5	   15.1695	   2.08585	1.88579e+07	
         R10	   2673	      76.5	   15.1616	   2.06269	  1.875e+07	      76.5	    15.207	   2.05248	1.87222e+07	      76.5	   15.1974	   2.00372	1.85523e+07	      76.5	   15.1479	   2.01192	1.85721e+07	      76.5	   15.1843	   2.05758	1.87355e+07	      76.5	   15.2022	    2.0281	1.86372e+07	      76.5	   15.1727	   2.00782	1.85617e+07	      76.5	   15.1548	    2.0373	 1.8661e+07	
         R10	   2674	      76.5	   15.1479	   2.01192	1.85735e+07	      76.5	   15.1974	   2.00372	1.85529e+07	      76.5	   15.1905	   1.95018	1.84073e+07	      76.5	   15.1384	   1.95792	1.84304e+07	      76.5	   15.1727	   2.00782	1.85627e+07	      76.5	    15.194	   1.97695	1.84801e+07	      76.5	   15.1644	   1.95405	1.84185e+07	      76.5	   15.1432	   1.98492	1.85019e+07	
         R10	   2675	      76.5	   15.1384	   1.95792	1.84312e+07	      76.5	   15.1905	   1.95018	1.84088e+07	      76.5	   15.1824	   1.89035	1.82832e+07	      76.5	   15.1278	   1.90144	1.83194e+07	      76.5	   15.1644	   1.95405	1.84196e+07	      76.5	   15.1864	   1.92026	 1.8346e+07	      76.5	   15.1551	   1.89589	1.83011e+07	      76.5	   15.1331	   1.92968	1.83753e+07	
         R10	   2676	      76.5	   15.1278	   1.90144	1.83185e+07	      76.5	   15.1824	   1.89035	1.82851e+07	      76.5	    15.164	    1.8267	1.81868e+07	      76.5	   15.1058	   1.83945	1.82242e+07	      76.5	   15.1551	   1.89589	1.83016e+07	      76.5	   15.1732	   1.85853	1.82359e+07	      76.5	   15.1349	   1.83307	1.82053e+07	      76.5	   15.1168	   1.87044	1.82713e+07	
         R10	   2677	      76.5	   15.1058	   1.83945	1.82172e+07	      76.5	    15.164	    1.8267	1.81948e+07	      76.5	    15.153	   1.75706	1.80843e+07	      76.5	   15.0711	   1.76391	1.81427e+07	      76.5	   15.1349	   1.83307	1.82058e+07	      76.5	   15.1585	   1.79188	1.81395e+07	      76.5	   15.1121	   1.76049	1.81133e+07	      76.5	   15.0884	   1.80168	1.81799e+07	
         R10	   2678	      76.5	   14.9596	   1.85831	1.81054e+07	      76.5	   14.9593	    1.7763	1.80901e+07	      76.5	   14.8634	   1.77819	1.80515e+07	      76.5	   14.8687	   1.85117	1.79925e+07	      76.5	   14.9595	   1.81731	1.80977e+07	      76.5	   14.9113	   1.77725	1.80707e+07	      76.5	    14.866	   1.81468	1.80219e+07	      76.5	   14.9142	   1.85474	1.80489e+07	
         R10	   2679	      76.5	   14.8687	   1.85117	1.79588e+07	      76.5	   14.8634	   1.77819	1.79833e+07	      76.5	   14.7621	    1.7898	1.79325e+07	      76.5	   14.7634	   1.88522	1.77779e+07	      76.5	    14.866	   1.81468	1.79711e+07	      76.5	   14.8128	     1.784	1.79579e+07	      76.5	   14.7628	   1.83751	1.78551e+07	      76.5	    14.816	    1.8682	1.78683e+07	
         R10	   2680	      76.5	   14.8766	   1.91355	1.79609e+07	      76.5	   14.8687	   1.85117	1.79539e+07	      76.5	   14.7634	   1.88522	1.77626e+07	      76.5	   14.8284	   1.94764	1.77739e+07	      76.5	   14.8727	   1.88236	1.79574e+07	      76.5	    14.816	    1.8682	1.78582e+07	      76.5	   14.7959	   1.91643	1.77682e+07	      76.5	   14.8525	   1.93059	1.78673e+07	
         R10	   2681	      76.5	   14.8284	   1.94764	1.77718e+07	      76.5	   14.7634	   1.88522	1.77749e+07	      76.5	   14.7145	   1.99244	1.74456e+07	      76.5	   14.7913	   2.01569	1.75461e+07	      76.5	   14.7959	   1.91643	1.77732e+07	      76.5	   14.7389	   1.93883	1.76101e+07	      76.5	   14.7529	   2.00406	1.74956e+07	      76.5	   14.8098	   1.98166	1.76588e+07	
         R10	   2682	      76.5	   14.7913	   2.01569	1.75368e+07	      76.5	   14.7145	   1.99244	1.74466e+07	      76.5	   14.7024	   2.08626	1.71293e+07	      76.5	    14.782	   2.10044	1.73379e+07	      76.5	   14.7529	   2.00406	1.74915e+07	      76.5	   14.7084	   2.03935	1.72877e+07	      76.5	   14.7422	   2.09335	1.72333e+07	      76.5	   14.7866	   2.05806	1.74371e+07	
         R10	   2683	      76.5	    14.782	   2.10044	1.73326e+07	      76.5	   14.7024	   2.08626	1.71226e+07	      76.5	   14.6902	   2.16923	1.68068e+07	      76.5	   14.7616	   2.18263	1.70696e+07	      76.5	   14.7422	   2.09335	1.72273e+07	      76.5	   14.6963	   2.12774	1.69644e+07	      76.5	   14.7259	   2.17593	1.69378e+07	      76.5	   14.7718	   2.14154	1.72008e+07	
         R10	   2684	      76.5	    14.782	   2.10044	1.73748e+07	      76.5	   14.7616	   2.18263	1.71111e+07	      76.5	   14.8179	   2.21186	1.72918e+07	      76.5	   14.8422	   2.16452	1.74999e+07	      76.5	   14.7718	   2.14154	1.72426e+07	      76.5	   14.7897	   2.19725	1.72013e+07	      76.5	     14.83	   2.18819	1.73957e+07	      76.5	   14.8121	   2.13248	 1.7437e+07	
         R10	   2685	      76.5	   14.8422	   2.16452	1.75225e+07	      76.5	   14.8179	   2.21186	1.73164e+07	      76.5	   14.8708	   2.24242	1.75064e+07	      76.5	   14.8892	   2.19668	1.76896e+07	      76.5	     14.83	   2.18819	1.74193e+07	      76.5	   14.8443	   2.22714	1.74113e+07	      76.5	     14.88	   2.21955	1.75978e+07	      76.5	   14.8657	    2.1806	1.76059e+07	
         R10	   2686	      76.5	   14.8892	   2.19668	1.76976e+07	      76.5	   14.8708	   2.24242	1.75134e+07	      76.5	   14.9218	    2.2558	  1.775e+07	      76.5	   14.9354	    2.2119	1.79131e+07	      76.5	     14.88	   2.21955	1.76053e+07	      76.5	   14.8963	   2.24911	1.76317e+07	      76.5	   14.9286	   2.23385	1.78314e+07	      76.5	   14.9123	   2.20429	1.78053e+07	
         R10	   2687	      76.5	   14.9354	    2.2119	1.79154e+07	      76.5	   14.9218	    2.2558	1.77531e+07	      76.5	   14.9694	   2.26912	1.80034e+07	      76.5	   14.9834	   2.22896	1.81739e+07	      76.5	   14.9286	   2.23385	1.78341e+07	      76.5	   14.9456	   2.26246	1.78782e+07	      76.5	   14.9764	   2.24904	1.80884e+07	      76.5	   14.9594	   2.22043	1.80446e+07	
         R10	   2688	      76.5	   14.9834	   2.22896	 1.8174e+07	      76.5	   14.9694	   2.26912	1.80048e+07	      76.5	   15.0074	   2.28863	1.82162e+07	      76.5	   15.0271	    2.2523	1.84445e+07	      76.5	   14.9764	   2.24904	1.80891e+07	      76.5	   14.9884	   2.27887	1.81104e+07	      76.5	   15.0172	   2.27046	  1.833e+07	      76.5	   15.0052	   2.24063	1.83092e+07	
         R10	   2689	      76.5	   15.0933	   2.35536	1.87919e+07	      76.5	   15.1123	   2.35187	1.90505e+07	      76.5	   15.1124	   2.33216	1.91349e+07	      76.5	   15.0948	   2.33426	1.89002e+07	      76.5	   15.1028	   2.35362	1.89212e+07	      76.5	   15.1123	   2.34201	1.90925e+07	      76.5	   15.1036	   2.33321	1.90176e+07	      76.5	   15.0941	   2.34481	1.88459e+07	
         R10	   2690	      76.5	   15.0633	   2.25669	1.87409e+07	      76.5	   15.0906	   2.25894	1.89957e+07	      76.5	   15.0919	   2.23276	1.89915e+07	      76.5	    15.066	   2.22964	1.87727e+07	      76.5	    15.077	   2.25782	1.88682e+07	      76.5	   15.0913	   2.24585	1.89933e+07	      76.5	   15.0789	    2.2312	 1.8882e+07	      76.5	   15.0646	   2.24316	1.87566e+07	
         R10	   2691	      76.5	   15.1131	   2.20651	1.91133e+07	      76.5	   15.1308	   2.19114	1.91908e+07	      76.5	   15.1244	    2.1682	1.90548e+07	      76.5	   15.1012	   2.18021	1.89585e+07	      76.5	    15.122	   2.19883	1.91517e+07	      76.5	   15.1276	   2.17967	1.91228e+07	      76.5	   15.1128	   2.17421	1.90063e+07	      76.5	   15.1071	   2.19336	1.90359e+07	
         R10	   2692	      76.5	     15.21	   2.17099	1.94032e+07	      76.5	   15.2384	   2.16571	1.93624e+07	      76.5	   15.2319	    2.1331	1.91269e+07	      76.5	   15.1969	   2.14345	1.91868e+07	      76.5	   15.2242	   2.16835	 1.9382e+07	      76.5	   15.2352	    2.1494	1.92446e+07	      76.5	   15.2144	   2.13827	1.91559e+07	      76.5	   15.2034	   2.15722	1.92949e+07	
         R10	   2693	      76.5	   15.1429	    2.1235	1.89507e+07	      76.5	   15.1773	   2.10902	1.89667e+07	      76.5	   15.1616	   2.06269	1.87486e+07	      76.5	   15.1199	   2.07511	 1.8715e+07	      76.5	   15.1601	   2.11626	1.89581e+07	      76.5	   15.1695	   2.08585	1.88576e+07	      76.5	   15.1408	    2.0689	1.87313e+07	      76.5	   15.1314	    2.0993	1.88328e+07	
         R10	   2694	      76.5	   15.1199	   2.07511	1.87154e+07	      76.5	   15.1616	   2.06269	1.87493e+07	      76.5	   15.1479	   2.01192	1.85721e+07	      76.5	   15.1006	   2.02256	1.85349e+07	      76.5	   15.1408	    2.0689	1.87319e+07	      76.5	   15.1548	    2.0373	1.86607e+07	      76.5	   15.1243	   2.01724	1.85531e+07	      76.5	   15.1102	   2.04883	1.86252e+07	
         R10	   2695	      76.5	   15.1006	   2.02256	1.85331e+07	      76.5	   15.1479	   2.01192	1.85731e+07	      76.5	   15.1384	   1.95792	1.84312e+07	      76.5	   15.0818	   1.96592	 1.8395e+07	      76.5	   15.1243	   2.01724	1.85527e+07	      76.5	   15.1432	   1.98492	1.85022e+07	      76.5	   15.1101	   1.96192	1.84127e+07	      76.5	   15.0912	   1.99424	1.84641e+07	
         R10	   2696	      76.5	   15.0818	   1.96592	1.83928e+07	      76.5	   15.1384	   1.95792	1.84322e+07	      76.5	   15.1278	   1.90144	1.83213e+07	      76.5	   15.0639	   1.91478	1.82933e+07	      76.5	   15.1101	   1.96192	1.84121e+07	      76.5	   15.1331	   1.92968	1.83767e+07	      76.5	   15.0958	   1.90811	 1.8307e+07	      76.5	   15.0728	   1.94035	 1.8343e+07	
         R10	   2697	      76.5	   15.0639	   1.91478	1.82958e+07	      76.5	   15.1278	   1.90144	1.83202e+07	      76.5	   15.1058	   1.83945	1.82161e+07	      76.5	   15.0422	   1.85988	1.82239e+07	      76.5	   15.0958	   1.90811	1.83077e+07	      76.5	   15.1168	   1.87044	1.82681e+07	      76.5	    15.074	   1.84966	1.82198e+07	      76.5	   15.0531	   1.88733	1.82598e+07	
         R10	   2698	      76.5	    14.958	   1.92774	1.81271e+07	      76.5	   14.9596	   1.85831	1.81051e+07	      76.5	   14.8687	   1.85117	1.79939e+07	      76.5	   14.8766	   1.91355	1.79309e+07	      76.5	   14.9588	   1.89303	 1.8116e+07	      76.5	   14.9142	   1.85474	1.80494e+07	      76.5	   14.8727	   1.88236	1.79624e+07	      76.5	   14.9173	   1.92064	 1.8029e+07	
         R10	   2699	      76.5	    14.896	   1.99215	1.79391e+07	      76.5	   14.8284	   1.94764	 1.7797e+07	      76.5	   14.7913	   2.01569	1.75954e+07	      76.5	   14.8618	   2.04206	1.77635e+07	      76.5	   14.8622	   1.96989	 1.7868e+07	      76.5	   14.8098	   1.98166	1.76961e+07	      76.5	   14.8265	   2.02887	1.76793e+07	      76.5	   14.8789	    2.0171	1.78511e+07	
         R10	   2700	      76.5	   14.8758	   2.12489	1.77365e+07	      76.5	   14.8422	   2.16452	1.75202e+07	      76.5	   14.8892	   2.19668	1.76896e+07	      76.5	   14.9105	   2.15303	1.78665e+07	      76.5	    14.859	    2.1447	1.76283e+07	      76.5	   14.8657	    2.1806	1.76048e+07	      76.5	   14.8999	   2.17486	1.77779e+07	      76.5	   14.8932	   2.13896	1.78015e+07	
         R10	   2701	      76.5	   14.9105	   2.15303	1.78656e+07	      76.5	   14.8892	   2.19668	1.76974e+07	      76.5	   14.9354	    2.2119	 1.7913e+07	      76.5	   14.9515	   2.17036	1.80589e+07	      76.5	   14.8999	   2.17486	1.77813e+07	      76.5	   14.9123	   2.20429	1.78052e+07	      76.5	   14.9435	   2.19113	1.79858e+07	      76.5	    14.931	   2.16169	1.79623e+07	
         R10	   2702	      76.5	   14.9515	   2.17036	 1.8058e+07	      76.5	   14.9354	    2.2119	1.79158e+07	      76.5	   14.9834	   2.22896	 1.8174e+07	      76.5	   15.0004	    2.1907	1.83212e+07	      76.5	   14.9435	   2.19113	1.79867e+07	      76.5	   14.9594	   2.22043	1.80448e+07	      76.5	   14.9919	   2.20983	1.82473e+07	      76.5	    14.976	   2.18053	1.81896e+07	
         R10	   2703	      76.5	   15.0714	   2.32072	1.86824e+07	      76.5	   15.0661	   2.34409	 1.8539e+07	      76.5	   15.0948	   2.33426	 1.8899e+07	      76.5	   15.0913	   2.31601	1.89231e+07	      76.5	   15.0688	    2.3324	1.86105e+07	      76.5	   15.0805	   2.33918	1.87189e+07	      76.5	   15.0931	   2.32514	1.89109e+07	      76.5	   15.0813	   2.31836	1.88027e+07	
         R10	   2704	      76.5	   15.0714	   2.32072	1.86904e+07	      76.5	   15.0913	   2.31601	1.89173e+07	      76.5	   15.0946	   2.29801	1.90015e+07	      76.5	    15.073	   2.28565	1.87964e+07	      76.5	   15.0813	   2.31836	1.88038e+07	      76.5	    15.093	   2.30701	1.89592e+07	      76.5	   15.0838	   2.29183	 1.8899e+07	      76.5	   15.0722	   2.30318	 1.8743e+07	
         R10	   2705	      76.5	   15.0775	   2.09398	1.86321e+07	      76.5	   15.1199	   2.07511	1.87166e+07	      76.5	   15.1006	   2.02256	1.85349e+07	      76.5	   15.0505	     2.037	1.84394e+07	      76.5	   15.0987	   2.08454	1.86738e+07	      76.5	   15.1102	   2.04883	1.86257e+07	      76.5	   15.0755	   2.02978	1.84868e+07	      76.5	    15.064	   2.06549	1.85358e+07	
         R10	   2706	      76.5	   15.0505	     2.037	 1.8441e+07	      76.5	   15.1006	   2.02256	1.85345e+07	      76.5	   15.0818	   1.96592	1.83957e+07	      76.5	   15.0209	   1.98149	1.82965e+07	      76.5	   15.0755	   2.02978	1.84874e+07	      76.5	   15.0912	   1.99424	1.84651e+07	      76.5	   15.0513	    1.9737	1.83458e+07	      76.5	   15.0357	   2.00924	1.83687e+07	
         R10	   2707	      76.5	    15.028	   1.81319	 1.8171e+07	      76.5	   15.0422	   1.85988	1.82257e+07	      76.5	   15.1058	   1.83945	1.82145e+07	      76.5	   15.0711	   1.76391	 1.8143e+07	      76.5	   15.0351	   1.83654	1.81983e+07	      76.5	    15.074	   1.84966	1.82199e+07	      76.5	   15.0884	   1.80168	1.81786e+07	      76.5	   15.0496	   1.78855	 1.8157e+07	
         R10	   2708	      76.5	   14.9494	   2.02135	1.81062e+07	      76.5	    14.896	   1.99215	1.79429e+07	      76.5	   14.8618	   2.04206	1.77897e+07	      76.5	   14.9054	    2.0767	1.79125e+07	      76.5	   14.9227	   2.00675	1.80245e+07	      76.5	   14.8789	    2.0171	1.78662e+07	      76.5	   14.8836	   2.05938	 1.7851e+07	      76.5	   14.9274	   2.04902	 1.8009e+07	
         R10	   2709	      76.5	    14.782	   2.10044	1.73694e+07	      76.5	   14.8422	   2.16452	1.75038e+07	      76.5	   14.8758	   2.12489	1.77339e+07	      76.5	   14.8424	   2.09177	1.76256e+07	      76.5	   14.8121	   2.13248	1.74363e+07	      76.5	    14.859	    2.1447	1.76187e+07	      76.5	   14.8591	   2.10833	1.76797e+07	      76.5	   14.8122	   2.09611	1.74975e+07	
         R10	   2710	      76.5	   14.9333	   2.11033	1.80155e+07	      76.5	   14.9105	   2.15303	1.78666e+07	      76.5	   14.9515	   2.17036	1.80598e+07	      76.5	   14.9699	   2.12938	1.81781e+07	      76.5	   14.9219	   2.13168	1.79409e+07	      76.5	    14.931	   2.16169	1.79632e+07	      76.5	   14.9607	   2.14987	1.81187e+07	      76.5	   14.9516	   2.11985	1.80968e+07	
         R10	   2711	      76.5	   14.9699	   2.12938	1.81771e+07	      76.5	   14.9515	   2.17036	1.80571e+07	      76.5	   15.0004	    2.1907	1.83211e+07	      76.5	   15.0133	   2.14932	1.84046e+07	      76.5	   14.9607	   2.14987	1.81169e+07	      76.5	    14.976	   2.18053	1.81891e+07	      76.5	   15.0069	   2.17001	1.83625e+07	      76.5	   14.9916	   2.13935	1.82908e+07	
         R10	   2712	      76.5	   15.0385	   2.21271	1.85623e+07	      76.5	   15.0004	    2.1907	1.83246e+07	      76.5	   14.9834	   2.22896	1.81741e+07	      76.5	   15.0271	    2.2523	1.84453e+07	      76.5	   15.0195	    2.2017	1.84434e+07	      76.5	   14.9919	   2.20983	1.82491e+07	      76.5	   15.0052	   2.24063	1.83097e+07	      76.5	   15.0328	    2.2325	1.85034e+07	
         R10	   2713	      76.5	   15.0647	   2.19087	1.87385e+07	      76.5	   15.0869	   2.20514	1.89152e+07	      76.5	   15.1012	   2.18021	1.89607e+07	      76.5	    15.081	   2.15874	1.87906e+07	      76.5	   15.0758	     2.198	1.88268e+07	      76.5	    15.094	   2.19267	1.89376e+07	      76.5	   15.0911	   2.16947	1.88757e+07	      76.5	   15.0729	    2.1748	1.87642e+07	
         R10	   2714	      76.5	    15.081	   2.15874	1.87952e+07	      76.5	   15.1012	   2.18021	1.89576e+07	      76.5	   15.1244	    2.1682	1.90542e+07	      76.5	   15.1125	    2.1369	1.88893e+07	      76.5	   15.0911	   2.16947	1.88764e+07	      76.5	   15.1128	   2.17421	1.90056e+07	      76.5	   15.1185	   2.15255	1.89717e+07	      76.5	   15.0968	   2.14782	1.88417e+07	
         R10	   2715	      76.5	   15.0326	   2.10637	1.84658e+07	      76.5	   15.0775	   2.09398	 1.8631e+07	      76.5	   15.0505	     2.037	1.84382e+07	      76.5	   15.0086	   2.05308	1.83207e+07	      76.5	   15.0551	   2.10017	1.85481e+07	      76.5	    15.064	   2.06549	1.85346e+07	      76.5	   15.0295	   2.04504	1.83792e+07	      76.5	   15.0206	   2.07972	1.83932e+07	
         R10	   2716	      76.5	    14.953	   2.07287	1.81068e+07	      76.5	   14.9333	   2.11033	1.80173e+07	      76.5	   14.9699	   2.12938	1.81754e+07	      76.5	   14.9835	   2.09094	1.82459e+07	      76.5	   14.9431	    2.0916	1.80619e+07	      76.5	   14.9516	   2.11985	1.80963e+07	      76.5	   14.9767	   2.11016	1.82105e+07	      76.5	   14.9682	   2.08191	1.81763e+07	
         R10	   2717	      76.5	   15.0271	    2.2523	1.84486e+07	      76.5	    15.044	    2.3014	1.84797e+07	      76.5	    15.073	   2.28565	1.87955e+07	      76.5	   15.0633	   2.25669	1.87344e+07	      76.5	   15.0355	   2.27685	1.84637e+07	      76.5	   15.0585	   2.29353	1.86374e+07	      76.5	   15.0681	   2.27117	1.87647e+07	      76.5	   15.0452	    2.2545	1.85915e+07	
         R10	   2718	      76.5	   15.0385	   2.21271	 1.8569e+07	      76.5	   15.0271	    2.2523	1.84465e+07	      76.5	   15.0633	   2.25669	1.87366e+07	      76.5	    15.066	   2.22964	 1.8771e+07	      76.5	   15.0328	    2.2325	1.85074e+07	      76.5	   15.0452	    2.2545	1.85915e+07	      76.5	   15.0646	   2.24316	1.87536e+07	      76.5	   15.0523	   2.22117	  1.867e+07	
         R10	   2719	      76.5	   15.0385	   2.21271	1.85659e+07	      76.5	    15.066	   2.22964	1.87719e+07	      76.5	   15.0869	   2.20514	1.89168e+07	      76.5	   15.0647	   2.19087	1.87373e+07	      76.5	   15.0523	   2.22117	1.86688e+07	      76.5	   15.0764	   2.21739	1.88439e+07	      76.5	   15.0758	     2.198	 1.8827e+07	      76.5	   15.0516	   2.20179	1.86513e+07	
         R10	   2720	      76.5	   15.0441	    2.1749	1.85984e+07	      76.5	   15.0647	   2.19087	1.87362e+07	      76.5	    15.081	   2.15874	1.87876e+07	      76.5	   15.0573	   2.14375	1.86324e+07	      76.5	   15.0544	   2.18288	1.86673e+07	      76.5	   15.0729	    2.1748	1.87616e+07	      76.5	   15.0692	   2.15124	  1.871e+07	      76.5	   15.0507	   2.15932	1.86152e+07	
         R10	   2721	      76.5	   14.9054	    2.0767	1.79112e+07	      76.5	   14.8618	   2.04206	1.77876e+07	      76.5	   14.8424	   2.09177	 1.7636e+07	      76.5	   14.8758	   2.12489	1.77374e+07	      76.5	   14.8836	   2.05938	1.78494e+07	      76.5	   14.8521	   2.06691	1.77117e+07	      76.5	   14.8591	   2.10833	1.76866e+07	      76.5	   14.8906	   2.10079	1.78241e+07	
         R10	   2722	      76.5	   14.9054	    2.0767	1.79201e+07	      76.5	   14.8758	   2.12489	 1.7733e+07	      76.5	   14.9105	   2.15303	1.78663e+07	      76.5	   14.9333	   2.11033	1.80111e+07	      76.5	   14.8906	   2.10079	1.78263e+07	      76.5	   14.8932	   2.13896	1.77996e+07	      76.5	   14.9219	   2.13168	1.79385e+07	      76.5	   14.9193	   2.09351	1.79655e+07	
         R10	   2723	      76.5	   14.9494	   2.02135	1.81204e+07	      76.5	   14.9054	    2.0767	1.79212e+07	      76.5	   14.9333	   2.11033	1.80111e+07	      76.5	    14.953	   2.07287	1.81079e+07	      76.5	   14.9274	   2.04902	1.80205e+07	      76.5	   14.9193	   2.09351	1.79661e+07	      76.5	   14.9431	    2.0916	1.80593e+07	      76.5	   14.9512	   2.04711	 1.8114e+07	
         R10	   2724	      76.5	   15.0004	    2.1907	1.83188e+07	      76.5	   15.0385	   2.21271	1.85621e+07	      76.5	   15.0647	   2.19087	 1.8742e+07	      76.5	   15.0441	    2.1749	1.85902e+07	      76.5	   15.0195	    2.2017	1.84404e+07	      76.5	   15.0516	   2.20179	1.86517e+07	      76.5	   15.0544	   2.18288	1.86661e+07	      76.5	   15.0223	    2.1828	1.84542e+07	
         R10	   2725	      76.5	   15.0133	   2.14932	 1.8406e+07	      76.5	   15.0004	    2.1907	1.83272e+07	      76.5	   15.0441	    2.1749	1.85962e+07	      76.5	   15.0573	   2.14375	1.86337e+07	      76.5	   15.0069	   2.17001	1.83663e+07	      76.5	   15.0223	    2.1828	1.84614e+07	      76.5	   15.0507	   2.15932	1.86147e+07	      76.5	   15.0353	   2.14653	1.85196e+07	
         R10	   2726	      76.5	   15.0937	   2.27473	1.90231e+07	      76.5	   15.0906	   2.25894	1.89936e+07	      76.5	   15.0633	   2.25669	1.87361e+07	      76.5	    15.073	   2.28565	1.87968e+07	      76.5	   15.0922	   2.26684	1.90083e+07	      76.5	    15.077	   2.25782	1.88648e+07	      76.5	   15.0681	   2.27117	1.87663e+07	      76.5	   15.0834	   2.28019	1.89098e+07	
         R10	   2727	      76.5	   14.7913	   2.01569	1.75995e+07	      76.5	    14.782	   2.10044	1.73799e+07	      76.5	   14.8424	   2.09177	1.76338e+07	      76.5	   14.8618	   2.04206	1.77535e+07	      76.5	   14.7866	   2.05806	1.74894e+07	      76.5	   14.8122	   2.09611	1.75069e+07	      76.5	   14.8521	   2.06691	1.76936e+07	      76.5	   14.8265	   2.02887	1.76764e+07	
         R10	   2728	      76.5	   15.0422	   1.85988	1.81981e+07	      76.5	    15.028	   1.81319	1.81536e+07	      76.5	   14.9593	    1.7763	1.81271e+07	      76.5	   14.9596	   1.85831	1.81317e+07	      76.5	   15.0351	   1.83654	1.81758e+07	      76.5	   14.9937	   1.79475	1.81403e+07	      76.5	   14.9595	   1.81731	1.81294e+07	      76.5	   15.0009	    1.8591	1.81647e+07	
         R10	   2729	      76.5	   15.0639	   1.91478	1.83018e+07	      76.5	   15.0422	   1.85988	1.82047e+07	      76.5	   14.9596	   1.85831	1.81333e+07	      76.5	    14.958	   1.92774	1.81313e+07	      76.5	   15.0531	   1.88733	1.82532e+07	      76.5	   15.0009	    1.8591	1.81688e+07	      76.5	   14.9588	   1.89303	1.81323e+07	      76.5	   15.0109	   1.92126	1.82161e+07	
         R10	   2730	      76.5	    14.958	   1.92774	1.81232e+07	      76.5	   14.8766	   1.91355	1.79582e+07	      76.5	   14.8284	   1.94764	1.77942e+07	      76.5	    14.896	   1.99215	1.79456e+07	      76.5	   14.9173	   1.92064	1.80406e+07	      76.5	   14.8525	   1.93059	1.78762e+07	      76.5	   14.8622	   1.96989	1.78698e+07	      76.5	    14.927	   1.95994	1.80341e+07	
         R10	   2731	      76.5	   15.2638	   2.19664	1.96044e+07	      76.5	   15.2507	   2.19032	1.95648e+07	      76.5	   15.2487	    2.2124	1.98182e+07	      76.5	   15.2656	   2.21273	 1.9782e+07	      76.5	   15.2573	   2.19348	1.95843e+07	      76.5	   15.2497	   2.20136	1.96915e+07	      76.5	   15.2571	   2.21257	1.97996e+07	      76.5	   15.2647	   2.20469	1.96932e+07	
         R10	   2732	      76.5	   15.2638	   2.19664	1.96005e+07	      76.5	   15.2656	   2.21273	1.97843e+07	      76.5	   15.2829	   2.21176	1.96944e+07	      76.5	   15.2774	   2.18927	1.94761e+07	      76.5	   15.2647	   2.20469	1.96924e+07	      76.5	   15.2743	   2.21224	1.97388e+07	      76.5	   15.2801	   2.20051	1.95851e+07	      76.5	   15.2706	   2.19295	1.95381e+07	
         R10	   2733	      76.5	   15.2638	   2.19664	1.96134e+07	      76.5	   15.2774	   2.18927	1.94708e+07	      76.5	   15.2691	   2.16218	 1.9259e+07	      76.5	   15.2507	   2.19032	1.95696e+07	      76.5	   15.2706	   2.19295	1.95419e+07	      76.5	   15.2732	   2.17572	1.93647e+07	      76.5	   15.2599	   2.17625	1.94141e+07	      76.5	   15.2573	   2.19348	1.95912e+07	
         R10	   2734	      76.5	   15.2333	   2.19208	1.96032e+07	      76.5	   15.2507	   2.19032	1.95697e+07	      76.5	   15.2691	   2.16218	1.92661e+07	      76.5	   15.2384	   2.16571	 1.9368e+07	      76.5	    15.242	    2.1912	 1.9586e+07	      76.5	   15.2599	   2.17625	1.94177e+07	      76.5	   15.2537	   2.16395	1.93161e+07	      76.5	   15.2359	   2.17889	1.94856e+07	
         R10	   2735	      76.5	   15.2153	   2.19317	1.95958e+07	      76.5	   15.2333	   2.19208	1.96002e+07	      76.5	   15.2384	   2.16571	1.93636e+07	      76.5	     15.21	   2.17099	1.94031e+07	      76.5	   15.2243	   2.19262	1.95976e+07	      76.5	   15.2359	   2.17889	1.94819e+07	      76.5	   15.2242	   2.16835	1.93825e+07	      76.5	   15.2127	   2.18208	1.94994e+07	
         R10	   2736	      76.5	   15.1893	   2.17712	 1.9396e+07	      76.5	   15.1954	   2.19232	1.95343e+07	      76.5	   15.2153	   2.19317	1.95972e+07	      76.5	     15.21	   2.17099	1.93997e+07	      76.5	   15.1923	   2.18472	1.94652e+07	      76.5	   15.2054	   2.19274	1.95653e+07	      76.5	   15.2127	   2.18208	1.94985e+07	      76.5	   15.1996	   2.17406	1.93975e+07	
         R10	   2737	      76.5	   15.1893	   2.17712	 1.9401e+07	      76.5	     15.21	   2.17099	1.93943e+07	      76.5	   15.1969	   2.14345	1.91948e+07	      76.5	   15.1611	   2.16594	1.92344e+07	      76.5	   15.1996	   2.17406	1.93972e+07	      76.5	   15.2034	   2.15722	1.92945e+07	      76.5	    15.179	   2.15469	1.92134e+07	      76.5	   15.1752	   2.17153	1.93173e+07	
         R10	   2738	      76.5	   15.1893	   2.17712	1.94038e+07	      76.5	   15.1611	   2.16594	 1.9215e+07	      76.5	   15.1738	   2.19361	 1.9451e+07	      76.5	   15.1954	   2.19232	1.95363e+07	      76.5	   15.1752	   2.17153	 1.9309e+07	      76.5	   15.1675	   2.17977	 1.9333e+07	      76.5	   15.1846	   2.19296	1.94932e+07	      76.5	   15.1923	   2.18472	  1.947e+07	
         R10	   2739	      76.5	   15.1429	    2.1235	1.89541e+07	      76.5	   15.1611	   2.16594	1.92242e+07	      76.5	   15.1969	   2.14345	1.91906e+07	      76.5	   15.1773	   2.10902	1.89667e+07	      76.5	    15.152	   2.14472	1.90892e+07	      76.5	    15.179	   2.15469	1.92063e+07	      76.5	   15.1871	   2.12623	1.90785e+07	      76.5	   15.1601	   2.11626	1.89598e+07	
         R10	   2740	      76.5	   15.1125	    2.1369	1.88872e+07	      76.5	   15.1244	    2.1682	1.90584e+07	      76.5	   15.1611	   2.16594	1.92243e+07	      76.5	   15.1429	    2.1235	1.89492e+07	      76.5	   15.1185	   2.15255	1.89728e+07	      76.5	   15.1428	   2.16707	1.91407e+07	      76.5	    15.152	   2.14472	1.90867e+07	      76.5	   15.1277	    2.1302	1.89178e+07	
         R10	   2741	      76.5	   15.0775	   2.09398	1.86318e+07	      76.5	   15.1125	    2.1369	1.88859e+07	      76.5	   15.1429	    2.1235	1.89482e+07	      76.5	   15.1199	   2.07511	1.87175e+07	      76.5	    15.095	   2.11544	1.87588e+07	      76.5	   15.1277	    2.1302	1.89166e+07	      76.5	   15.1314	    2.0993	1.88328e+07	      76.5	   15.0987	   2.08454	1.86741e+07	
         R10	   2742	      76.5	   15.0573	   2.14375	1.86343e+07	      76.5	    15.081	   2.15874	1.87932e+07	      76.5	   15.1125	    2.1369	1.88888e+07	      76.5	   15.0775	   2.09398	1.86302e+07	      76.5	   15.0692	   2.15124	1.87137e+07	      76.5	   15.0968	   2.14782	1.88405e+07	      76.5	    15.095	   2.11544	1.87594e+07	      76.5	   15.0674	   2.11886	1.86318e+07	
         R10	   2743	      76.5	   15.0133	   2.14932	1.84075e+07	      76.5	   15.0573	   2.14375	 1.8642e+07	      76.5	   15.0775	   2.09398	1.86403e+07	      76.5	   15.0326	   2.10637	1.84732e+07	      76.5	   15.0353	   2.14653	1.85245e+07	      76.5	   15.0674	   2.11886	1.86406e+07	      76.5	   15.0551	   2.10017	1.85563e+07	      76.5	    15.023	   2.12785	  1.844e+07	
         R10	   2744	      76.5	   14.9835	   2.09094	1.82458e+07	      76.5	   14.9699	   2.12938	1.81772e+07	      76.5	   15.0133	   2.14932	1.84026e+07	      76.5	   15.0326	   2.10637	1.84657e+07	      76.5	   14.9767	   2.11016	1.82113e+07	      76.5	   14.9916	   2.13935	1.82899e+07	      76.5	    15.023	   2.12785	1.84339e+07	      76.5	   15.0081	   2.09865	1.83557e+07	
         R10	   2745	      76.5	   14.9494	   2.02135	1.81088e+07	      76.5	    14.953	   2.07287	1.81067e+07	      76.5	   14.9835	   2.09094	1.82502e+07	      76.5	   15.0086	   2.05308	1.83192e+07	      76.5	   14.9512	   2.04711	1.81076e+07	      76.5	   14.9682	   2.08191	1.81784e+07	      76.5	   14.9961	   2.07201	1.82845e+07	      76.5	    14.979	   2.03721	 1.8214e+07	
         R10	   2746	      76.5	   14.9494	   2.02135	1.81096e+07	      76.5	   15.0086	   2.05308	1.83176e+07	      76.5	   15.0505	     2.037	1.84389e+07	      76.5	   15.0209	   1.98149	1.82992e+07	      76.5	    14.979	   2.03721	1.82136e+07	      76.5	   15.0295	   2.04504	 1.8378e+07	      76.5	   15.0357	   2.00924	 1.8369e+07	      76.5	   14.9852	   2.00142	1.82039e+07	
         R10	   2747	      76.5	   15.0209	   1.98149	1.82958e+07	      76.5	    14.958	   1.92774	1.81299e+07	      76.5	    14.896	   1.99215	1.79508e+07	      76.5	   14.9494	   2.02135	1.81112e+07	      76.5	   14.9894	   1.95461	1.82129e+07	      76.5	    14.927	   1.95994	1.80401e+07	      76.5	   14.9227	   2.00675	 1.8031e+07	      76.5	   14.9852	   2.00142	1.82031e+07	
         R10	   2748	      76.5	   15.0818	   1.96592	 1.8399e+07	      76.5	   15.0639	   1.91478	1.83049e+07	      76.5	    14.958	   1.92774	1.81249e+07	      76.5	   15.0209	   1.98149	1.82914e+07	      76.5	   15.0728	   1.94035	1.83519e+07	      76.5	   15.0109	   1.92126	1.82144e+07	      76.5	   14.9894	   1.95461	1.82081e+07	      76.5	   15.0513	    1.9737	1.83448e+07	
         R10	   2749	      76.5	   15.1118	   2.37781	1.89114e+07	      76.5	     15.13	     2.383	1.91434e+07	      76.5	     15.13	     2.366	1.92354e+07	      76.5	   15.1209	    2.3804	1.90274e+07	      76.5	     15.13	    2.3745	1.91892e+07	      76.5	   15.1209	    2.3719	1.90733e+07	       N/A	       N/A	       N/A	        N/A	       N/A	       N/A	       N/A	        N/A	
         R10	   2750	      76.5	   15.0946	   2.29801	1.90022e+07	      76.5	   15.1133	   2.29909	1.92294e+07	      76.5	   15.1108	   2.28118	1.92183e+07	      76.5	    15.104	   2.29855	1.91158e+07	      76.5	   15.1121	   2.29014	1.92237e+07	      76.5	   15.1027	    2.2896	1.91099e+07	       N/A	       N/A	       N/A	        N/A	       N/A	       N/A	       N/A	        N/A	
         R10	   2751	      76.5	   15.0906	   2.25894	1.89948e+07	      76.5	   15.1138	   2.26445	1.92394e+07	      76.5	   15.1123	   2.24672	1.92064e+07	      76.5	   15.1022	    2.2617	1.91171e+07	      76.5	    15.113	   2.25558	1.92228e+07	      76.5	   15.1015	   2.25283	1.91003e+07	       N/A	       N/A	       N/A	        N/A	       N/A	       N/A	       N/A	        N/A	
         R10	   2752	      76.5	   15.1476	   2.19343	1.92964e+07	      76.5	   15.1461	   2.21359	1.93971e+07	      76.5	   15.1633	   2.21037	1.94964e+07	      76.5	   15.1469	   2.20351	1.93466e+07	      76.5	   15.1547	   2.21198	1.94465e+07	      76.5	   15.1555	    2.2019	1.93963e+07	       N/A	       N/A	       N/A	        N/A	       N/A	       N/A	       N/A	        N/A	
         R10	   2753	      76.5	   15.1131	   2.20651	1.91143e+07	      76.5	   15.1309	   2.21336	1.92723e+07	      76.5	   15.1308	   2.19114	1.91894e+07	      76.5	    15.122	   2.20994	1.91932e+07	      76.5	   15.1309	   2.20225	1.92307e+07	      76.5	    15.122	   2.19883	1.91515e+07	       N/A	       N/A	       N/A	        N/A	       N/A	       N/A	       N/A	        N/A	
         R10	   2754	      76.5	   15.1738	   2.19361	1.94495e+07	      76.5	   15.1633	   2.21037	1.95019e+07	      76.5	   15.1818	   2.21267	1.96324e+07	      76.5	   15.1685	   2.20199	1.94754e+07	      76.5	   15.1725	   2.21152	1.95669e+07	      76.5	   15.1778	   2.20314	1.95409e+07	       N/A	       N/A	       N/A	        N/A	       N/A	       N/A	       N/A	        N/A	
         R10	   2755	      76.5	   15.0661	   2.34409	 1.8537e+07	      76.5	   15.0933	   2.35536	1.87908e+07	      76.5	   15.0948	   2.33426	1.88981e+07	      76.5	   15.0797	   2.34973	1.86638e+07	      76.5	   15.0941	   2.34481	1.88443e+07	      76.5	   15.0805	   2.33918	1.87175e+07	       N/A	       N/A	       N/A	        N/A	       N/A	       N/A	       N/A	        N/A	
         R10	   2756	      76.5	    15.066	   2.22964	 1.8773e+07	      76.5	   15.0919	   2.23276	1.89912e+07	      76.5	   15.0869	   2.20514	1.89196e+07	      76.5	   15.0789	    2.2312	 1.8882e+07	      76.5	   15.0894	   2.21895	1.89553e+07	      76.5	   15.0764	   2.21739	1.88459e+07	       N/A	       N/A	       N/A	        N/A	       N/A	       N/A	       N/A	        N/A	
         R10	   2757	      76.5	   15.0869	   2.20514	1.89172e+07	      76.5	   15.1131	   2.20651	1.91102e+07	      76.5	   15.1012	   2.18021	1.89598e+07	      76.5	      15.1	   2.20582	1.90135e+07	      76.5	   15.1071	   2.19336	 1.9035e+07	      76.5	    15.094	   2.19267	1.89382e+07	       N/A	       N/A	       N/A	        N/A	       N/A	       N/A	       N/A	        N/A	
         R10	   2758	      76.5	    15.044	    2.3014	1.84751e+07	      76.5	   15.0714	   2.32072	1.86844e+07	      76.5	    15.073	   2.28565	1.87985e+07	      76.5	   15.0577	   2.31106	1.85797e+07	      76.5	   15.0722	   2.30318	1.87411e+07	      76.5	   15.0585	   2.29353	1.86366e+07	       N/A	       N/A	       N/A	        N/A	       N/A	       N/A	       N/A	        N/A	
         R10	   2759	      76.5	   15.0271	    2.2523	1.84536e+07	      76.5	   15.0074	   2.28863	1.82148e+07	      76.5	    15.044	    2.3014	1.84793e+07	      76.5	   15.0172	   2.27046	1.83339e+07	      76.5	   15.0257	   2.29501	 1.8347e+07	      76.5	   15.0355	   2.27685	1.84661e+07	       N/A	       N/A	       N/A	        N/A	       N/A	       N/A	       N/A	        N/A	
         R10	   2760	      76.5	   14.9593	    1.7763	1.81221e+07	      76.5	    15.028	   1.81319	1.81657e+07	      76.5	   15.0711	   1.76391	1.81426e+07	      76.5	   14.9937	   1.79475	1.81438e+07	      76.5	   15.0496	   1.78855	1.81541e+07	      76.5	   15.0152	   1.77011	1.81321e+07	       N/A	       N/A	       N/A	        N/A	       N/A	       N/A	       N/A	        N/A	
         R10	   2761	      76.5	   14.9835	   2.09094	1.82459e+07	      76.5	   15.0326	   2.10637	1.84609e+07	      76.5	   15.0086	   2.05308	1.83174e+07	      76.5	   15.0081	   2.09865	1.83533e+07	      76.5	   15.0206	   2.07972	1.83891e+07	      76.5	   14.9961	   2.07201	1.82814e+07	       N/A	       N/A	       N/A	        N/A	       N/A	       N/A	       N/A	        N/A	
         R10	   2762	    74.375	   16.1121	   3.19011	8.12275e+06	    74.375	   15.9164	   2.99973	7.39718e+06	   74.0696	   15.9164	   2.99973	8.05438e+06	   74.0696	   16.1892	   3.26518	7.81319e+06	    74.375	   16.0142	   3.09492	7.62576e+06	   74.2223	   15.9164	   2.99973	7.68913e+06	   74.0696	   16.0528	   3.13245	7.90205e+06	   74.2223	   16.1506	   3.22765	7.88547e+06	
         R10	   2763	   74.0485	   16.5328	   3.59945	6.13327e+06	    74.375	   16.5328	   3.59945	6.04081e+06	    74.375	   16.3175	   3.39002	7.40712e+06	   74.0696	   16.1892	   3.26518	5.07491e+06	   74.2117	   16.5328	   3.59945	 6.0754e+06	    74.375	   16.4251	   3.49474	6.70038e+06	   74.2223	   16.2534	    3.3276	 6.2139e+06	   74.0591	    16.361	   3.43232	5.60053e+06	
         R10	   2764	   73.0071	   15.9164	   2.99973	7.98264e+06	     72.25	   15.9164	   2.99973	5.44297e+06	     72.25	   16.5328	   3.59945	5.90579e+06	    72.986	   16.5328	   3.59945	5.45059e+06	   72.6286	   15.9164	   2.99973	6.42425e+06	     72.25	   16.2246	   3.29959	5.66351e+06	    72.618	   16.5328	   3.59945	5.34913e+06	   72.9966	   16.2246	   3.29959	6.51879e+06	
         R10	   2765	   73.6137	   15.9164	   2.99973	7.64949e+06	   73.0071	   15.9164	   2.99973	7.67213e+06	    72.986	   16.5328	   3.59945	4.94648e+06	   73.5855	   16.5328	   3.59945	5.50994e+06	   73.3104	   15.9164	   2.99973	7.61068e+06	   72.9966	   16.2246	   3.29959	6.10185e+06	   73.2857	   16.5328	   3.59945	5.21792e+06	   73.5996	   16.2246	   3.29959	6.48056e+06	
         R10	   2766	   74.0696	   16.1892	   3.26518	6.15659e+06	   74.0696	   15.9164	   2.99973	7.48761e+06	   73.6137	   15.9164	   2.99973	 7.5904e+06	   73.5855	   16.5328	   3.59945	6.69477e+06	   74.0696	   16.0528	   3.13245	6.78694e+06	   73.8416	   15.9164	   2.99973	7.49589e+06	   73.5996	   16.2246	   3.29959	 6.9606e+06	   73.8275	    16.361	   3.43232	6.30797e+06	
         R10	   2767	    74.375	   16.3175	   3.39002	8.17537e+06	    74.375	   16.1121	   3.19011	6.71835e+06	   74.0696	   16.1892	   3.26518	7.09479e+06	    74.375	   16.2148	   3.29007	7.43516e+06	   74.2223	   16.1506	   3.22765	6.88876e+06	   74.2223	   16.2534	    3.3276	7.58956e+06	       N/A	       N/A	       N/A	        N/A	       N/A	       N/A	       N/A	        N/A	
         R10	   2768	   74.0696	   16.1892	   3.26518	5.49546e+06	   73.5855	   16.5328	   3.59945	5.97226e+06	   74.0485	   16.5328	   3.59945	6.31438e+06	   73.8275	    16.361	   3.43232	5.73283e+06	    73.817	   16.5328	   3.59945	6.13906e+06	   74.0591	    16.361	   3.43232	5.90372e+06	       N/A	       N/A	       N/A	        N/A	       N/A	       N/A	       N/A	        N/A	
         R10	   2769	   74.3446	    16.797	   3.85656	7.36915e+06	    74.375	   16.5328	   3.59945	6.75293e+06	   74.0485	   16.5328	   3.59945	 7.2764e+06	   74.0184	   16.8145	   3.87357	5.27689e+06	   74.3598	   16.6649	   3.72801	7.04557e+06	   74.2117	   16.5328	   3.59945	6.98433e+06	   74.0334	   16.6736	   3.73651	6.24128e+06	   74.1815	   16.8058	   3.86507	6.27244e+06	
         R10	   2770	   74.6753	   16.7879	   3.84768	8.04431e+06	   74.6785	   16.5328	   3.59945	6.68975e+06	    74.375	   16.5328	   3.59945	 6.6976e+06	   74.3446	    16.797	   3.85656	6.56347e+06	   74.6769	   16.6603	   3.72356	7.31534e+06	   74.5267	   16.5328	   3.59945	6.68776e+06	   74.3598	   16.6649	   3.72801	6.58962e+06	   74.5099	   16.7925	   3.85212	7.28049e+06	
         R10	   2771	   74.9673	   16.7688	   3.82913	7.46572e+06	   74.9651	   16.5328	   3.59945	6.91697e+06	   74.6785	   16.5328	   3.59945	6.56592e+06	   74.6753	   16.7879	   3.84768	 7.2141e+06	   74.9662	   16.6508	   3.71429	7.15358e+06	   74.8218	   16.5328	   3.59945	6.73656e+06	   74.6769	   16.6603	   3.72356	 6.7982e+06	   74.8213	   16.7784	    3.8384	7.29566e+06	
         R10	   2772	   75.2379	   16.7333	    3.7946	7.58575e+06	   75.2349	   16.5328	   3.59945	7.23805e+06	   74.9651	   16.5328	   3.59945	6.95705e+06	   74.9673	   16.7688	   3.82913	7.04776e+06	   75.2364	   16.6331	   3.69702	7.37648e+06	      75.1	   16.5328	   3.59945	7.09517e+06	   74.9662	   16.6508	   3.71429	6.94863e+06	   75.1026	   16.7511	   3.81186	7.24078e+06	
         R10	   2773	   75.4796	   16.7024	   3.76446	8.07912e+06	   75.4879	   16.5328	   3.59945	7.22157e+06	   75.2349	   16.5328	   3.59945	7.22657e+06	   75.2379	   16.7333	    3.7946	7.32466e+06	   75.4838	   16.6176	   3.68196	7.63903e+06	   75.3614	   16.5328	   3.59945	7.22054e+06	   75.2364	   16.6331	   3.69702	7.25807e+06	   75.3588	   16.7178	   3.77953	7.69412e+06	
         R10	   2774	    75.733	   16.7007	   3.76283	7.81312e+06	    75.724	   16.5328	   3.59945	7.27009e+06	   75.4879	   16.5328	   3.59945	7.18159e+06	   75.4796	   16.7024	   3.76446	7.49475e+06	   75.7285	   16.6167	   3.68114	7.52593e+06	   75.6059	   16.5328	   3.59945	  7.224e+06	   75.4838	   16.6176	   3.68196	7.32175e+06	   75.6063	   16.7015	   3.76364	7.64576e+06	
         R10	   2775	   75.9241	   16.6955	   3.75775	7.89251e+06	   75.9433	   16.5328	   3.59945	7.22281e+06	    75.724	   16.5328	   3.59945	7.26957e+06	    75.733	   16.7007	   3.76283	7.66606e+06	   75.9337	   16.6141	    3.6786	7.53511e+06	   75.8336	   16.5328	   3.59945	7.24385e+06	   75.7285	   16.6167	   3.68114	7.45448e+06	   75.8286	   16.6981	   3.76029	7.77915e+06	
         R10	   2776	   76.1481	   16.6929	   3.75529	7.64494e+06	   76.1457	   16.5328	   3.59945	7.23901e+06	   75.9433	   16.5328	   3.59945	7.15985e+06	   75.9241	   16.6955	   3.75775	7.72331e+06	   76.1469	   16.6129	   3.67737	7.43956e+06	   76.0445	   16.5328	   3.59945	7.19921e+06	   75.9337	   16.6141	    3.6786	7.41722e+06	   76.0361	   16.6942	   3.75652	7.67308e+06	
         R10	   2777	   76.3357	   16.6565	   3.71986	7.32102e+06	   76.3313	   16.5328	   3.59945	 7.2514e+06	   76.1457	   16.5328	   3.59945	7.26324e+06	   76.1481	   16.6929	   3.75529	7.49842e+06	   76.3335	   16.5946	   3.65965	7.22915e+06	   76.2385	   16.5328	   3.59945	7.24336e+06	   76.1469	   16.6129	   3.67737	7.37799e+06	   76.2419	   16.6747	   3.73757	7.38006e+06	
         R10	   2778	      76.5	   16.6578	   3.72114	6.54685e+06	      76.5	   16.5328	   3.59945	8.06547e+06	   76.3313	   16.5328	   3.59945	6.90193e+06	   76.3357	   16.6565	   3.71986	7.78626e+06	      76.5	   16.5953	    3.6603	6.54955e+06	   76.4156	   16.5328	   3.59945	7.44644e+06	   76.3335	   16.5946	   3.65965	7.28815e+06	   76.4179	   16.6572	    3.7205	6.95382e+06	
         R10	   2779	      76.5	   16.8023	   3.86166	7.81525e+06	      76.5	   16.6578	   3.72114	6.65833e+06	   76.3357	   16.6565	   3.71986	7.42045e+06	   76.3234	   16.8088	   3.86804	8.28708e+06	      76.5	   16.7301	    3.7914	7.09028e+06	   76.4179	   16.6572	    3.7205	6.99823e+06	   76.3296	   16.7327	   3.79395	7.80326e+06	   76.4117	   16.8055	   3.86485	7.90629e+06	
         R10	   2780	   76.2556	   16.9647	   4.01974	8.23818e+06	      76.5	    16.966	   4.02101	8.75945e+06	      76.5	   16.8023	   3.86166	7.94041e+06	   76.3234	   16.8088	   3.86804	7.54871e+06	   76.3778	   16.9654	   4.02037	 8.3448e+06	      76.5	   16.8841	   3.94133	8.22089e+06	   76.4117	   16.8055	   3.86485	7.72915e+06	   76.2895	   16.8868	   3.94389	7.83703e+06	
         R10	   2781	   76.2494	   17.1492	   4.19918	7.42774e+06	      76.5	   17.1492	   4.19918	8.74264e+06	      76.5	    16.966	   4.02101	9.12682e+06	   76.2556	   16.9647	   4.01974	7.72142e+06	   76.3747	   17.1492	   4.19918	7.99849e+06	      76.5	   17.0576	   4.11009	 8.6555e+06	   76.3778	   16.9654	   4.02037	8.41473e+06	   76.2525	   17.0569	   4.10946	7.55422e+06	
         R10	   2782	   75.9434	   17.1492	   4.19918	6.92175e+06	   76.2494	   17.1492	   4.19918	7.68435e+06	   76.2556	   16.9647	   4.01974	7.91675e+06	   75.9919	   16.9323	   3.98814	7.39762e+06	   76.0964	   17.1492	   4.19918	7.29409e+06	   76.2525	   17.0569	   4.10946	7.77839e+06	   76.1238	   16.9485	   4.00394	7.63626e+06	   75.9677	   17.0407	   4.09366	7.12258e+06	
         R10	   2783	   75.5991	   16.8917	   3.94867	7.12982e+06	    75.582	   17.1492	   4.19918	6.42318e+06	   75.9434	   17.1492	   4.19918	6.93765e+06	   75.9919	   16.9323	   3.98814	7.41415e+06	   75.5905	   17.0204	   4.07392	 6.7404e+06	   75.7627	   17.1492	   4.19918	  6.668e+06	   75.9677	   17.0407	   4.09366	7.14215e+06	   75.7955	    16.912	    3.9684	7.25488e+06	
         R10	   2784	    72.986	   16.5328	   3.59945	6.85148e+06	     72.25	   16.5328	   3.59945	5.44336e+06	     72.25	   17.1492	   4.19918	5.96943e+06	   72.9439	   17.1492	   4.19918	5.69341e+06	    72.618	   16.5328	   3.59945	5.88596e+06	     72.25	    16.841	   3.89931	5.52243e+06	   72.5969	   17.1492	   4.19918	4.74228e+06	   72.9649	    16.841	   3.89931	6.16549e+06	
         R10	   2785	   73.5855	   16.5328	   3.59945	6.48695e+06	    72.986	   16.5328	   3.59945	6.30797e+06	   72.9439	   17.1492	   4.19918	4.86566e+06	   73.5823	   17.1492	   4.19918	5.33988e+06	   73.2857	   16.5328	   3.59945	6.36751e+06	   72.9649	    16.841	   3.89931	 5.4833e+06	   73.2631	   17.1492	   4.19918	5.08411e+06	   73.5839	    16.841	   3.89931	 5.8168e+06	
         R10	   2786	   74.0184	   16.8145	   3.87357	5.34093e+06	   74.0485	   16.5328	   3.59945	6.94803e+06	   73.5855	   16.5328	   3.59945	6.31376e+06	   73.5823	   17.1492	   4.19918	5.63986e+06	   74.0334	   16.6736	   3.73651	6.08785e+06	    73.817	   16.5328	   3.59945	6.60168e+06	   73.5839	    16.841	   3.89931	5.86103e+06	   73.8004	   16.9818	   4.03637	5.48145e+06	
         R10	   2787	   74.3446	    16.797	   3.85656	6.55079e+06	   74.0184	   16.8145	   3.87357	5.81066e+06	   73.5823	   17.1492	   4.19918	 5.4373e+06	   74.1653	   17.1492	   4.19918	5.52605e+06	   74.1815	   16.8058	   3.86507	6.10889e+06	   73.8004	   16.9818	   4.03637	5.57926e+06	   73.8738	   17.1492	   4.19918	5.46867e+06	    74.255	   16.9731	   4.02787	6.01932e+06	
         R10	   2788	   74.6753	   16.7879	   3.84768	7.44275e+06	   74.3446	    16.797	   3.85656	6.27712e+06	   74.1653	   17.1492	   4.19918	5.49041e+06	    74.693	   17.1492	   4.19918	5.67188e+06	   74.5099	   16.7925	   3.85212	6.81748e+06	    74.255	   16.9731	   4.02787	5.82698e+06	   74.4292	   17.1492	   4.19918	5.57594e+06	   74.6841	   16.9685	   4.02343	6.53379e+06	
         R10	   2789	   75.9919	   16.9323	   3.98814	7.75582e+06	   76.2556	   16.9647	   4.01974	8.52982e+06	   76.3234	   16.8088	   3.86804	7.07731e+06	   76.1481	   16.6929	   3.75529	7.63987e+06	   76.1238	   16.9485	   4.00394	8.12521e+06	   76.2895	   16.8868	   3.94389	7.79369e+06	   76.2357	   16.7509	   3.81166	7.32651e+06	     76.07	   16.8126	   3.87171	7.69128e+06	
         R10	   2790	   75.9919	   16.9323	   3.98814	7.79929e+06	   75.9241	   16.6955	   3.75775	7.58079e+06	    75.733	   16.7007	   3.76283	7.51542e+06	   75.5991	   16.8917	   3.94867	7.48086e+06	    75.958	   16.8139	   3.87295	7.68079e+06	   75.8286	   16.6981	   3.76029	7.54182e+06	   75.6661	   16.7962	   3.85575	7.49704e+06	   75.7955	    16.912	    3.9684	7.62438e+06	
         R10	   2791	   75.1652	   17.1492	   4.19918	6.32742e+06	    75.582	   17.1492	   4.19918	6.41744e+06	   75.5991	   16.8917	   3.94867	7.04578e+06	   75.3243	   16.9148	   3.97114	6.68361e+06	   75.3736	   17.1492	   4.19918	6.34438e+06	   75.5905	   17.0204	   4.07392	6.69641e+06	   75.4617	   16.9032	    3.9599	6.84395e+06	   75.2448	    17.032	   4.08516	6.50208e+06	
         R10	   2792	   75.2379	   16.7333	    3.7946	7.23178e+06	   74.9673	   16.7688	   3.82913	6.28342e+06	   75.1652	   17.1492	   4.19918	6.17813e+06	   75.3243	   16.9148	   3.97114	6.19004e+06	   75.1026	   16.7511	   3.81186	6.70534e+06	   75.0662	    16.959	   4.01415	6.21511e+06	   75.2448	    17.032	   4.08516	6.18077e+06	   75.2811	   16.8241	   3.88287	6.69865e+06	
         R10	   2793	   75.5991	   16.8917	   3.94867	 7.2605e+06	   75.4796	   16.7024	   3.76446	8.14698e+06	   75.2379	   16.7333	    3.7946	7.19018e+06	   75.3243	   16.9148	   3.97114	6.84646e+06	   75.5394	    16.797	   3.85656	7.70091e+06	   75.3588	   16.7178	   3.77953	7.66619e+06	   75.2811	   16.8241	   3.88287	6.99876e+06	   75.4617	   16.9032	    3.9599	7.03157e+06	
         R10	   2794	    74.693	   17.1492	   4.19918	5.84798e+06	   75.1652	   17.1492	   4.19918	6.50958e+06	   74.9673	   16.7688	   3.82913	7.13535e+06	   74.6753	   16.7879	   3.84768	6.85235e+06	   74.9291	   17.1492	   4.19918	6.16545e+06	   75.0662	    16.959	   4.01415	 6.8202e+06	   74.8213	   16.7784	    3.8384	6.95588e+06	   74.6841	   16.9685	   4.02343	 6.3108e+06	
         R10	   2795	   76.3234	   16.8088	   3.86804	8.28066e+06	   76.3357	   16.6565	   3.71986	7.01597e+06	   76.1481	   16.6929	   3.75529	 7.4131e+06	   76.3296	   16.7327	   3.79395	7.63274e+06	   76.2419	   16.6747	   3.73757	7.19713e+06	   76.2357	   16.7509	   3.81166	7.82862e+06	       N/A	       N/A	       N/A	        N/A	       N/A	       N/A	       N/A	        N/A	
         R10	   2796	   76.1481	   16.6929	   3.75529	7.53764e+06	   75.9241	   16.6955	   3.75775	7.38205e+06	   75.9919	   16.9323	   3.98814	7.65048e+06	   76.0361	   16.6942	   3.75652	7.45424e+06	    75.958	   16.8139	   3.87295	7.50881e+06	     76.07	   16.8126	   3.87171	7.58763e+06	       N/A	       N/A	       N/A	        N/A	       N/A	       N/A	       N/A	        N/A	
         R10	   2797	   75.4796	   16.7024	   3.76446	7.37284e+06	   75.5991	   16.8917	   3.94867	7.55064e+06	    75.733	   16.7007	   3.76283	7.54718e+06	   75.5394	    16.797	   3.85656	7.45814e+06	   75.6661	   16.7962	   3.85575	7.54873e+06	   75.6063	   16.7015	   3.76364	7.45542e+06	       N/A	       N/A	       N/A	        N/A	       N/A	       N/A	       N/A	        N/A	
         R10	   2798	   76.6767	   15.9793	   3.06093	6.87813e+06	   76.6732	   15.9164	   2.99973	7.34193e+06	   76.5855	   15.9164	   2.99973	9.43309e+06	   76.5806	   15.9761	    3.0578	6.24602e+06	   76.6749	   15.9478	   3.03033	7.09865e+06	   76.6293	   15.9164	   2.99973	8.30121e+06	   76.5831	   15.9462	   3.02876	7.59414e+06	   76.6287	   15.9777	   3.05936	6.54816e+06	
         R10	   2799	   76.7578	   15.9845	   3.06595	6.66368e+06	   76.7631	   15.9164	   2.99973	6.78383e+06	   76.6732	   15.9164	   2.99973	7.24285e+06	   76.6767	   15.9793	   3.06093	6.88189e+06	   76.7605	   15.9504	   3.03284	6.71861e+06	   76.7182	   15.9164	   2.99973	6.99798e+06	   76.6749	   15.9478	   3.03033	7.04438e+06	   76.7173	   15.9819	   3.06344	6.75485e+06	
         R10	   2800	   76.8561	   15.9854	   3.06692	 6.8282e+06	   76.8553	   15.9164	   2.99973	6.57695e+06	   76.7631	   15.9164	   2.99973	6.80767e+06	   76.7578	   15.9845	   3.06595	6.70129e+06	   76.8557	   15.9509	   3.03332	6.69982e+06	   76.8092	   15.9164	   2.99973	6.68192e+06	   76.7605	   15.9504	   3.03284	6.74924e+06	   76.8069	    15.985	   3.06644	6.76002e+06	
         R10	   2801	     76.95	   15.9878	   3.06923	6.87938e+06	   76.9498	   15.9164	   2.99973	6.56646e+06	   76.8553	   15.9164	   2.99973	6.59567e+06	   76.8561	   15.9854	   3.06692	6.81839e+06	   76.9499	   15.9521	   3.03448	6.71861e+06	   76.9026	   15.9164	   2.99973	6.57695e+06	   76.8557	   15.9509	   3.03332	6.70469e+06	    76.903	   15.9866	   3.06808	6.84649e+06	
         R10	   2802	   77.0393	   15.9835	   3.06505	6.97975e+06	   77.0465	   15.9164	   2.99973	6.56726e+06	   76.9498	   15.9164	   2.99973	6.55585e+06	     76.95	   15.9878	   3.06923	6.91146e+06	   77.0429	     15.95	   3.03239	6.76631e+06	   76.9981	   15.9164	   2.99973	6.55995e+06	   76.9499	   15.9521	   3.03448	6.73025e+06	   76.9946	   15.9857	   3.06714	 6.9444e+06	
         R10	   2803	   77.1435	   15.9995	   3.08058	6.92744e+06	   77.1454	   15.9164	   2.99973	6.70541e+06	   77.0465	   15.9164	   2.99973	6.62719e+06	   77.0393	   15.9835	   3.06505	6.88485e+06	   77.1444	   15.9579	   3.04015	6.80998e+06	   77.0959	   15.9164	   2.99973	6.66549e+06	   77.0429	     15.95	   3.03239	6.74776e+06	   77.0914	   15.9915	   3.07281	 6.9059e+06	
         R10	   2804	   77.2435	   15.9837	   3.06518	7.11488e+06	   77.2466	   15.9164	   2.99973	6.62628e+06	   77.1454	   15.9164	   2.99973	6.63812e+06	   77.1435	   15.9995	   3.08058	6.99556e+06	    77.245	     15.95	   3.03246	6.86329e+06	    77.196	   15.9164	   2.99973	6.63164e+06	   77.1444	   15.9579	   3.04015	6.81231e+06	   77.1935	   15.9916	   3.07288	7.05437e+06	
         R10	   2805	   77.3512	   15.9919	   3.07316	7.03658e+06	     77.35	   15.9164	   2.99973	6.74787e+06	   77.2466	   15.9164	   2.99973	6.68887e+06	   77.2435	   15.9837	   3.06518	7.03562e+06	   77.3506	   15.9541	   3.03644	  6.883e+06	   77.2983	   15.9164	   2.99973	 6.7183e+06	    77.245	     15.95	   3.03246	6.85263e+06	   77.2973	   15.9878	   3.06917	7.03587e+06	
         R10	   2806	   77.4387	   15.9944	    3.0756	  7.061e+06	   77.4514	   15.9164	   2.99973	6.76325e+06	     77.35	   15.9164	   2.99973	6.73043e+06	   77.3512	   15.9919	   3.07316	7.10518e+06	    77.445	   15.9554	   3.03766	6.90248e+06	   77.4007	   15.9164	   2.99973	 6.7466e+06	   77.3506	   15.9541	   3.03644	6.90982e+06	   77.3949	   15.9931	   3.07438	7.08305e+06	
         R10	   2807	     77.57	   16.0187	    3.0993	7.03913e+06	   77.5694	   15.9164	   2.99973	 6.8534e+06	   77.4514	   15.9164	   2.99973	6.81242e+06	   77.4387	   15.9944	    3.0756	7.00562e+06	   77.5697	   15.9676	   3.04951	 6.9374e+06	   77.5104	   15.9164	   2.99973	6.83285e+06	    77.445	   15.9554	   3.03766	6.89665e+06	   77.5043	   16.0065	   3.08745	7.01954e+06	
         R10	   2808	   77.7132	   16.0212	   3.10175	7.07172e+06	   77.7039	   15.9164	   2.99973	 6.8234e+06	   77.5694	   15.9164	   2.99973	6.81487e+06	     77.57	   16.0187	    3.0993	7.08743e+06	   77.7085	   15.9688	   3.05074	6.93897e+06	   77.6366	   15.9164	   2.99973	6.81828e+06	   77.5697	   15.9676	   3.04951	 6.9424e+06	   77.6416	     16.02	   3.10052	7.07877e+06	
         R10	   2809	   77.8593	   16.0353	   3.11538	7.00547e+06	    77.855	   15.9164	   2.99973	6.85762e+06	   77.7039	   15.9164	   2.99973	6.85324e+06	   77.7132	   16.0212	   3.10175	7.05764e+06	   77.8572	   15.9758	   3.05755	6.92115e+06	   77.7794	   15.9164	   2.99973	6.85467e+06	   77.7085	   15.9688	   3.05074	6.94455e+06	   77.7863	   16.0282	   3.10856	7.02758e+06	
         R10	   2810	   78.0265	   16.0473	   3.12714	 7.0069e+06	   78.0226	   15.9164	   2.99973	6.86117e+06	    77.855	   15.9164	   2.99973	6.85077e+06	   77.8593	   16.0353	   3.11538	7.09974e+06	   78.0246	   15.9819	   3.06343	6.92502e+06	   77.9388	   15.9164	   2.99973	6.85457e+06	   77.8572	   15.9758	   3.05755	6.96466e+06	   77.9429	   16.0413	   3.12126	7.04981e+06	
         R10	   2811	   78.2116	   16.0584	   3.13794	6.96988e+06	   78.2069	   15.9164	   2.99973	6.87156e+06	   78.0226	   15.9164	   2.99973	6.87064e+06	   78.0265	   16.0473	   3.12714	7.05045e+06	   78.2092	   15.9874	   3.06883	6.91135e+06	   78.1147	   15.9164	   2.99973	6.86906e+06	   78.0246	   15.9819	   3.06343	6.94885e+06	    78.119	   16.0529	   3.13254	7.00199e+06	
         R10	   2812	   78.4116	   16.0662	   3.14548	6.94684e+06	   78.4076	   15.9164	   2.99973	6.88438e+06	   78.2069	   15.9164	   2.99973	 6.8747e+06	   78.2116	   16.0584	   3.13794	7.07148e+06	   78.4096	   15.9913	    3.0726	6.90743e+06	   78.3073	   15.9164	   2.99973	6.87687e+06	   78.2092	   15.9874	   3.06883	6.96174e+06	   78.3116	   16.0623	   3.14171	6.99866e+06	
         R10	   2813	    78.625	   16.0631	   3.14252	 6.8807e+06	    78.625	   15.9164	   2.99973	6.96139e+06	   78.4076	   15.9164	   2.99973	6.89515e+06	   78.4116	   16.0662	   3.14548	7.09473e+06	    78.625	   15.9898	   3.07112	6.91732e+06	   78.5163	   15.9164	   2.99973	6.92492e+06	   78.4096	   15.9913	    3.0726	6.98419e+06	   78.5183	   16.0647	     3.144	6.97266e+06	
         R10	   2814	    78.625	   16.2148	   3.29007	6.84375e+06	    78.625	   16.0631	   3.14252	6.89915e+06	   78.4116	   16.0662	   3.14548	7.06327e+06	   78.4053	   16.2172	   3.29245	6.58163e+06	    78.625	    16.139	   3.21629	6.87087e+06	   78.5183	   16.0647	     3.144	6.97032e+06	   78.4085	   16.1417	   3.21897	6.82223e+06	   78.5152	    16.216	   3.29126	6.70305e+06	
         R10	   2815	   78.3977	   16.3742	   3.44516	6.65932e+06	    78.625	   16.3713	   3.44238	5.67163e+06	    78.625	   16.2148	   3.29007	6.73911e+06	   78.4053	   16.2172	   3.29245	6.58502e+06	   78.5113	   16.3728	   3.44377	5.90495e+06	    78.625	   16.2931	   3.36622	6.14379e+06	   78.5152	    16.216	   3.29126	 6.6529e+06	   78.4015	   16.2957	    3.3688	6.55535e+06	
         R10	   2816	   78.3725	   16.5328	   3.59945	5.34495e+06	    78.625	   16.5328	   3.59945	  5.333e+06	    78.625	   16.3713	   3.44238	5.75795e+06	   78.3977	   16.3742	   3.44516	6.56443e+06	   78.4987	   16.5328	   3.59945	5.33573e+06	    78.625	   16.4521	   3.52092	5.35453e+06	   78.5113	   16.3728	   3.44377	5.92895e+06	   78.3851	   16.4535	    3.5223	5.82983e+06	
         R10	   2817	   78.1288	   16.5328	   3.59945	 5.3717e+06	   78.3725	   16.5328	   3.59945	5.35232e+06	   78.3977	   16.3742	   3.44516	5.72446e+06	   78.1625	   16.3665	   3.43771	6.37462e+06	   78.2507	   16.5328	   3.59945	5.35936e+06	   78.3851	   16.4535	    3.5223	5.42312e+06	   78.2801	   16.3704	   3.44143	5.92747e+06	   78.1457	   16.4497	   3.51858	5.75882e+06	
         R10	   2818	   77.9129	   16.3628	    3.4341	6.25651e+06	   77.8941	   16.5328	   3.59945	5.43861e+06	   78.1288	   16.5328	   3.59945	5.38757e+06	   78.1625	   16.3665	   3.43771	5.89943e+06	   77.9035	   16.4478	   3.51678	5.75583e+06	   78.0115	   16.5328	   3.59945	5.40934e+06	   78.1457	   16.4497	   3.51858	5.54286e+06	   78.0377	   16.3647	   3.43591	6.01874e+06	
         R10	   2819	   77.6643	    16.387	   3.45762	5.99007e+06	   77.6683	   16.5328	   3.59945	5.49718e+06	   77.8941	   16.5328	   3.59945	5.44163e+06	   77.9129	   16.3628	    3.4341	5.96412e+06	   77.6663	   16.4599	   3.52853	5.67911e+06	   77.7812	   16.5328	   3.59945	5.46664e+06	   77.9035	   16.4478	   3.51678	5.60897e+06	   77.7886	   16.3749	   3.44586	5.94929e+06	
         R10	   2820	   77.4547	   16.3892	   3.45977	6.08502e+06	   77.4513	   16.5328	   3.59945	5.51953e+06	   77.6683	   16.5328	   3.59945	5.47628e+06	   77.6643	    16.387	   3.45762	5.88407e+06	    77.453	    16.461	   3.52961	5.73399e+06	   77.5598	   16.5328	   3.59945	5.49623e+06	   77.6663	   16.4599	   3.52853	5.60441e+06	   77.5595	   16.3881	   3.45869	 5.9644e+06	
         R10	   2821	   77.2466	   16.3956	   3.46601	6.03652e+06	   77.2433	   16.5328	   3.59945	5.57593e+06	   77.4513	   16.5328	   3.59945	5.52455e+06	   77.4547	   16.3892	   3.45977	5.86617e+06	   77.2449	   16.4642	   3.53273	5.74863e+06	   77.3473	   16.5328	   3.59945	5.54937e+06	    77.453	    16.461	   3.52961	5.61517e+06	   77.3506	   16.3924	   3.46289	5.94118e+06	
         R10	   2822	   77.0472	   16.4011	   3.47137	5.97624e+06	   77.0441	   16.5328	   3.59945	5.61059e+06	   77.2433	   16.5328	   3.59945	5.56993e+06	   77.2466	   16.3956	   3.46601	5.82847e+06	   77.0456	   16.4669	   3.53541	5.74299e+06	   77.1437	   16.5328	   3.59945	5.59002e+06	   77.2449	   16.4642	   3.53273	5.63264e+06	   77.1469	   16.3984	   3.46869	5.89737e+06	
         R10	   2823	   76.8568	   16.4059	   3.47606	5.79789e+06	   76.8539	   16.5328	   3.59945	5.64791e+06	   77.0441	   16.5328	   3.59945	5.62399e+06	   77.0472	   16.4011	   3.47137	5.81922e+06	   76.8553	   16.4694	   3.53775	5.68832e+06	    76.949	   16.5328	   3.59945	5.63594e+06	   77.0456	   16.4669	   3.53541	 5.6637e+06	    76.952	   16.4035	   3.47371	5.80557e+06	
         R10	   2824	   76.6763	   16.4115	   3.48147	5.56136e+06	   76.6725	   16.5328	   3.59945	5.51111e+06	   76.8539	   16.5328	   3.59945	5.63443e+06	   76.8568	   16.4059	   3.47606	 5.7301e+06	   76.6744	   16.4721	   3.54046	5.50282e+06	   76.7632	   16.5328	   3.59945	 5.5706e+06	   76.8553	   16.4694	   3.53775	5.64261e+06	   76.7665	   16.4087	   3.47876	5.64425e+06	
         R10	   2825	      76.5	   16.4164	   3.48621	7.00323e+06	      76.5	   16.5328	   3.59945	5.63383e+06	   76.6725	   16.5328	   3.59945	5.27979e+06	   76.6763	   16.4115	   3.48147	5.06668e+06	      76.5	   16.4746	   3.54283	5.71527e+06	   76.5862	   16.5328	   3.59945	5.31854e+06	   76.6744	   16.4721	   3.54046	 5.1397e+06	   76.5882	   16.4139	   3.48384	5.99371e+06	
         R10	   2826	      76.5	   16.3094	   3.38216	5.46273e+06	      76.5	   16.4164	   3.48621	6.20716e+06	   76.6763	   16.4115	   3.48147	5.68362e+06	   76.6715	    16.302	   3.37488	5.81906e+06	      76.5	   16.3629	   3.43418	5.73129e+06	   76.5882	   16.4139	   3.48384	5.82335e+06	   76.6739	   16.3567	   3.42817	5.72039e+06	   76.5857	   16.3057	   3.37852	5.63014e+06	
         R10	   2827	   76.6499	   16.2119	   3.28724	5.79899e+06	      76.5	   16.2119	    3.2873	4.77682e+06	      76.5	   16.3094	   3.38216	5.14135e+06	   76.6715	    16.302	   3.37488	6.27148e+06	    76.575	   16.2119	   3.28727	5.28469e+06	      76.5	   16.2607	   3.33473	4.93467e+06	   76.5857	   16.3057	   3.37852	5.66923e+06	   76.6607	   16.2569	   3.33106	6.01596e+06	
         R10	   2828	   76.6286	   16.1273	   3.20497	5.67459e+06	      76.5	   16.1239	   3.20162	4.43322e+06	      76.5	   16.2119	    3.2873	4.68664e+06	   76.6499	   16.2119	   3.28724	6.03368e+06	   76.5643	   16.1256	    3.2033	5.04838e+06	      76.5	   16.1679	   3.24446	 4.5486e+06	    76.575	   16.2119	   3.28727	5.34718e+06	   76.6393	   16.1696	    3.2461	5.84243e+06	
         R10	   2829	   76.6181	    16.048	   3.12782	 5.7013e+06	      76.5	   16.0453	   3.12513	4.33025e+06	      76.5	   16.1239	   3.20162	 4.3686e+06	   76.6286	   16.1273	   3.20497	5.81323e+06	    76.559	   16.0467	   3.12648	 4.9894e+06	      76.5	   16.0846	   3.16338	4.33318e+06	   76.5643	   16.1256	    3.2033	5.08304e+06	   76.6234	   16.0877	   3.16639	5.74714e+06	
         R10	   2830	   76.5806	   15.9761	    3.0578	7.36758e+06	   76.5855	   15.9164	   2.99973	9.13769e+06	      76.5	   15.9164	   2.99973	1.43077e+07	      76.5	   15.9761	   3.05784	1.88542e+06	   76.5831	   15.9462	   3.02876	7.81003e+06	   76.5427	   15.9164	   2.99973	1.16097e+07	      76.5	   15.9462	   3.02878	6.44194e+06	   76.5403	   15.9761	   3.05782	3.72208e+06	
         R10	   2831	   76.8532	   16.0665	   3.14573	6.64023e+06	   76.8561	   15.9854	   3.06692	 6.5964e+06	   76.7578	   15.9845	   3.06595	6.54059e+06	   76.7481	   16.0563	   3.13583	6.50981e+06	   76.8546	   16.0259	   3.10633	6.61327e+06	   76.8069	    15.985	   3.06644	6.56214e+06	    76.753	   16.0204	   3.10089	 6.5109e+06	   76.8006	   16.0614	   3.14078	6.56979e+06	
         R10	   2832	   76.9469	   16.0703	   3.14944	6.82759e+06	     76.95	   15.9878	   3.06923	6.69757e+06	   76.8561	   15.9854	   3.06692	6.59621e+06	   76.8532	   16.0665	   3.14573	6.69767e+06	   76.9485	    16.029	   3.10933	6.76102e+06	    76.903	   15.9866	   3.06808	6.64382e+06	   76.8546	   16.0259	   3.10633	6.64223e+06	      76.9	   16.0684	   3.14759	6.76163e+06	
         R10	   2833	   77.0479	   16.0607	   3.14012	6.95202e+06	   77.0393	   15.9835	   3.06505	6.71044e+06	     76.95	   15.9878	   3.06923	6.65985e+06	   76.9469	   16.0703	   3.14944	6.81456e+06	   77.0436	   16.0221	   3.10259	6.83042e+06	   76.9946	   15.9857	   3.06714	6.68343e+06	   76.9485	    16.029	   3.10933	6.73585e+06	   76.9974	   16.0655	   3.14478	6.88262e+06	
         R10	   2834	    77.272	   16.0799	   3.15886	7.07397e+06	   77.2435	   15.9837	   3.06518	6.88508e+06	   77.1435	   15.9995	   3.08058	6.82511e+06	   77.1658	    16.059	   3.13845	6.88808e+06	   77.2577	   16.0318	   3.11202	6.97864e+06	   77.1935	   15.9916	   3.07288	6.85461e+06	   77.1546	   16.0292	   3.10951	6.85623e+06	   77.2189	   16.0694	   3.14865	6.98085e+06	
         R10	   2835	   77.4292	   16.0811	   3.16002	7.11571e+06	   77.4387	   15.9944	    3.0756	6.89931e+06	   77.3512	   15.9919	   3.07316	6.92655e+06	    77.272	   16.0799	   3.15886	6.98882e+06	   77.4339	   16.0377	   3.11781	7.00397e+06	   77.3949	   15.9931	   3.07438	6.91259e+06	   77.3116	   16.0359	   3.11601	6.95349e+06	   77.3506	   16.0805	   3.15944	7.05191e+06	
         R10	   2836	   77.7091	   16.1248	   3.20247	7.05721e+06	   77.7132	   16.0212	   3.10175	6.94269e+06	     77.57	   16.0187	    3.0993	6.99904e+06	   77.5839	   16.1238	   3.20154	6.96349e+06	   77.7111	    16.073	   3.15211	6.99794e+06	   77.6416	     16.02	   3.10052	6.96896e+06	   77.5769	   16.0713	   3.15042	6.97781e+06	   77.6465	   16.1243	   3.20201	 7.0068e+06	
         R10	   2837	   77.8382	   16.1579	   3.23474	6.88055e+06	   77.8593	   16.0353	   3.11538	6.95742e+06	   77.7132	   16.0212	   3.10175	7.00284e+06	   77.7091	   16.1248	   3.20247	7.01015e+06	   77.8488	   16.0966	   3.17506	6.91668e+06	   77.7863	   16.0282	   3.10856	6.97892e+06	   77.7111	    16.073	   3.15211	7.00092e+06	   77.7737	   16.1413	   3.21861	 6.9398e+06	
         R10	   2838	   78.0052	    16.192	    3.2679	 6.8392e+06	   78.0265	   16.0473	   3.12714	7.00431e+06	   77.8593	   16.0353	   3.11538	7.04377e+06	   77.8382	   16.1579	   3.23474	6.93695e+06	   78.0159	   16.1197	   3.19752	6.92111e+06	   77.9429	   16.0413	   3.12126	7.01967e+06	   77.8488	   16.0966	   3.17506	6.98673e+06	   77.9217	    16.175	   3.25132	6.88191e+06	
         R10	   2839	   78.1868	   16.2113	   3.28666	6.71685e+06	   78.2116	   16.0584	   3.13794	6.93536e+06	   78.0265	   16.0473	   3.12714	7.03108e+06	   78.0052	    16.192	    3.2679	6.83224e+06	   78.1992	   16.1349	    3.2123	6.82404e+06	    78.119	   16.0529	   3.13254	6.97669e+06	   78.0159	   16.1197	   3.19752	6.93049e+06	    78.096	   16.2017	   3.27728	6.76993e+06	
         R10	   2840	   78.4053	   16.2172	   3.29245	6.73797e+06	   78.4116	   16.0662	   3.14548	6.93258e+06	   78.2116	   16.0584	   3.13794	7.03855e+06	   78.1868	   16.2113	   3.28666	6.71475e+06	   78.4085	   16.1417	   3.21897	 6.8332e+06	   78.3116	   16.0623	   3.14171	6.97559e+06	   78.1992	   16.1349	    3.2123	6.87589e+06	   78.2961	   16.2143	   3.28956	6.71969e+06	
         R10	   2841	   78.1625	   16.3665	   3.43771	 6.4586e+06	   78.3977	   16.3742	   3.44516	5.69462e+06	   78.4053	   16.2172	   3.29245	 6.6792e+06	   78.1868	   16.2113	   3.28666	6.69258e+06	   78.2801	   16.3704	   3.44143	 5.9481e+06	   78.4015	   16.2957	    3.3688	6.15242e+06	   78.2961	   16.2143	   3.28956	6.67729e+06	   78.1746	   16.2889	   3.36219	6.54153e+06	
         R10	   2842	   77.9129	   16.3628	    3.4341	6.45723e+06	   78.1625	   16.3665	   3.43771	5.84763e+06	   78.1868	   16.2113	   3.28666	6.65838e+06	   78.0052	    16.192	    3.2679	6.93915e+06	   78.0377	   16.3647	   3.43591	6.08264e+06	   78.1746	   16.2889	   3.36219	6.22893e+06	    78.096	   16.2017	   3.27728	6.79265e+06	   77.9591	   16.2774	     3.351	6.67288e+06	
         R10	   2843	   77.4485	   16.2641	   3.33806	6.54371e+06	   77.4547	   16.3892	   3.45977	6.28744e+06	   77.6643	    16.387	   3.45762	6.05819e+06	   77.6469	   16.2526	   3.32682	6.50868e+06	   77.4516	   16.3267	   3.39891	6.38984e+06	   77.5595	   16.3881	   3.45869	6.15351e+06	   77.6556	   16.3198	   3.39222	6.27179e+06	   77.5477	   16.2583	   3.33244	6.52583e+06	
         R10	   2844	   77.2555	   16.2784	   3.35192	6.45749e+06	   77.2466	   16.3956	   3.46601	6.30145e+06	   77.4547	   16.3892	   3.45977	 6.0296e+06	   77.4485	   16.2641	   3.33806	6.51902e+06	   77.2511	    16.337	   3.40897	6.35753e+06	   77.3506	   16.3924	   3.46289	6.15605e+06	   77.4516	   16.3267	   3.39891	 6.2619e+06	    77.352	   16.2712	   3.34499	6.48775e+06	
         R10	   2845	   77.0309	   16.2805	   3.35405	6.37223e+06	   77.0472	   16.4011	   3.47137	6.24161e+06	   77.2466	   16.3956	   3.46601	6.05086e+06	   77.2555	   16.2784	   3.35192	6.54115e+06	    77.039	   16.3408	   3.41271	6.28378e+06	   77.1469	   16.3984	   3.46869	6.14081e+06	   77.2511	    16.337	   3.40897	6.28348e+06	   77.1432	   16.2795	   3.35298	 6.4562e+06	
         R10	   2846	   76.8482	   16.2901	   3.36329	6.27639e+06	   76.8568	   16.4059	   3.47606	6.17153e+06	   77.0472	   16.4011	   3.47137	6.05498e+06	   77.0309	   16.2805	   3.35405	6.42408e+06	   76.8525	    16.348	   3.41968	6.20159e+06	    76.952	   16.4035	   3.47371	6.10987e+06	    77.039	   16.3408	   3.41271	6.22504e+06	   76.9395	   16.2853	   3.35867	6.34916e+06	
         R10	   2847	   76.6715	    16.302	   3.37488	5.71751e+06	   76.6763	   16.4115	   3.48147	 6.0954e+06	   76.8568	   16.4059	   3.47606	6.13561e+06	   76.8482	   16.2901	   3.36329	6.27289e+06	   76.6739	   16.3567	   3.42817	5.89111e+06	   76.7665	   16.4087	   3.47876	6.11529e+06	   76.8525	    16.348	   3.41968	6.18734e+06	   76.7598	    16.296	   3.36909	5.98852e+06	
         R10	   2848	   76.6499	   16.2119	   3.28724	5.70742e+06	   76.6715	    16.302	   3.37488	 6.2241e+06	   76.8482	   16.2901	   3.36329	6.46659e+06	   76.8266	   16.1845	   3.26056	6.48989e+06	   76.6607	   16.2569	   3.33106	5.95033e+06	   76.7598	    16.296	   3.36909	6.34493e+06	   76.8374	   16.2373	   3.31193	6.46646e+06	   76.7383	   16.1982	    3.2739	6.09489e+06	
         R10	   2849	   76.7329	   16.1186	    3.1965	6.27201e+06	   76.6286	   16.1273	   3.20497	5.65585e+06	   76.6499	   16.2119	   3.28724	6.03266e+06	   76.8266	   16.1845	   3.26056	6.57741e+06	   76.6808	    16.123	   3.20074	5.96347e+06	   76.6393	   16.1696	    3.2461	5.83362e+06	   76.7383	   16.1982	    3.2739	6.30452e+06	   76.7798	   16.1515	   3.22853	6.41478e+06	
         R10	   2850	   76.5806	   15.9761	    3.0578	7.34185e+06	      76.5	   15.9761	   3.05784	3.93527e+06	      76.5	   16.0453	   3.12513	4.01371e+06	   76.6181	    16.048	   3.12782	5.82821e+06	   76.5403	   15.9761	   3.05782	 5.1705e+06	      76.5	   16.0107	   3.09148	3.69851e+06	    76.559	   16.0467	   3.12648	4.92073e+06	   76.5994	   16.0121	   3.09281	6.54009e+06	
         R10	   2851	   76.7481	   16.0563	   3.13583	6.46971e+06	   76.7578	   15.9845	   3.06595	6.65134e+06	   76.6767	   15.9793	   3.06093	6.51425e+06	   76.6181	    16.048	   3.12782	5.99456e+06	    76.753	   16.0204	   3.10089	6.54579e+06	   76.7173	   15.9819	   3.06344	6.57834e+06	   76.6474	   16.0137	   3.09437	6.23359e+06	   76.6831	   16.0522	   3.13183	 6.2317e+06	
         R10	   2852	   77.1658	    16.059	   3.13845	6.99526e+06	   77.1435	   15.9995	   3.08058	6.93722e+06	   77.0479	   16.0607	   3.14012	6.67917e+06	   77.0967	   16.1313	   3.20881	6.85325e+06	   77.1546	   16.0292	   3.10951	6.96603e+06	   77.0957	   16.0301	   3.11035	6.80691e+06	   77.0723	    16.096	   3.17447	6.76587e+06	   77.1312	   16.0951	   3.17363	6.92422e+06	
         R10	   2853	   77.4539	    16.164	   3.24061	6.91317e+06	   77.4292	   16.0811	   3.16002	6.99479e+06	    77.272	   16.0799	   3.15886	6.88376e+06	   77.2883	    16.161	   3.23769	6.96768e+06	   77.4415	   16.1225	   3.20031	6.95131e+06	   77.3506	   16.0805	   3.15944	 6.9386e+06	   77.2802	   16.1204	   3.19828	6.92455e+06	   77.3711	   16.1625	   3.23915	6.94036e+06	
         R10	   2854	   77.5839	   16.1238	   3.20154	 7.0596e+06	     77.57	   16.0187	    3.0993	7.07076e+06	   77.4292	   16.0811	   3.16002	6.71153e+06	   77.4539	    16.164	   3.24061	7.10572e+06	   77.5769	   16.0713	   3.15042	7.06331e+06	   77.4996	   16.0499	   3.12966	6.88683e+06	   77.4415	   16.1225	   3.20031	6.90726e+06	   77.5189	   16.1439	   3.22108	 7.0817e+06	
         R10	   2855	   76.9665	   16.1628	   3.23944	6.61882e+06	   76.8266	   16.1845	   3.26056	6.42649e+06	   76.8482	   16.2901	   3.36329	6.45696e+06	   77.0309	   16.2805	   3.35405	6.62599e+06	   76.8965	   16.1736	      3.25	6.52156e+06	   76.8374	   16.2373	   3.31193	6.42755e+06	   76.9395	   16.2853	   3.35867	6.53809e+06	   76.9987	   16.2217	   3.29674	6.61687e+06	
         R10	   2856	   76.7481	   16.0563	   3.13583	6.34441e+06	   76.6181	    16.048	   3.12782	 5.8577e+06	   76.6286	   16.1273	   3.20497	5.85859e+06	   76.7329	   16.1186	    3.1965	6.41399e+06	   76.6831	   16.0522	   3.13183	6.09978e+06	   76.6234	   16.0877	   3.16639	 5.8431e+06	   76.6808	    16.123	   3.20074	6.13564e+06	   76.7405	   16.0875	   3.16617	6.37043e+06	
         R10	   2857	   76.8532	   16.0665	   3.14573	6.61203e+06	   76.7481	   16.0563	   3.13583	6.53268e+06	   76.7329	   16.1186	    3.1965	6.09702e+06	   76.8266	   16.1845	   3.26056	6.65145e+06	   76.8006	   16.0614	   3.14078	6.56694e+06	   76.7405	   16.0875	   3.16617	6.30384e+06	   76.7798	   16.1515	   3.22853	6.37144e+06	   76.8399	   16.1255	   3.20315	6.62158e+06	
         R10	   2858	   76.9469	   16.0703	   3.14944	6.66933e+06	   76.8532	   16.0665	   3.14573	6.56622e+06	   76.8266	   16.1845	   3.26056	6.52169e+06	   76.9665	   16.1628	   3.23944	  6.813e+06	      76.9	   16.0684	   3.14759	6.61707e+06	   76.8399	   16.1255	   3.20315	6.53272e+06	   76.8965	   16.1736	      3.25	6.66477e+06	   76.9567	   16.1165	   3.19444	6.73526e+06	
         R10	   2859	   77.0967	   16.1313	   3.20881	6.82537e+06	   77.0479	   16.0607	   3.14012	6.85618e+06	   76.9469	   16.0703	   3.14944	6.64375e+06	   76.9665	   16.1628	   3.23944	6.86162e+06	   77.0723	    16.096	   3.17447	 6.8404e+06	   76.9974	   16.0655	   3.14478	 6.7483e+06	   76.9567	   16.1165	   3.19444	6.74697e+06	   77.0316	    16.147	   3.22412	6.84267e+06	
         R10	   2860	   77.1338	   16.1948	    3.2706	6.91757e+06	   77.0967	   16.1313	   3.20881	6.81168e+06	   76.9665	   16.1628	   3.23944	6.54222e+06	   77.0309	   16.2805	   3.35405	 6.5608e+06	   77.1153	    16.163	    3.2397	6.86284e+06	   77.0316	    16.147	   3.22412	6.67551e+06	   76.9987	   16.2217	   3.29674	6.54435e+06	   77.0824	   16.2377	   3.31232	 6.7341e+06	
         R10	   2861	   77.2883	    16.161	   3.23769	7.04508e+06	    77.272	   16.0799	   3.15886	6.93191e+06	   77.0967	   16.1313	   3.20881	6.82534e+06	   77.1338	   16.1948	    3.2706	6.73601e+06	   77.2802	   16.1204	   3.19828	 6.9877e+06	   77.1844	   16.1056	   3.18383	 6.8782e+06	   77.1153	    16.163	    3.2397	6.77943e+06	   77.2111	   16.1779	   3.25415	6.89011e+06	
         R10	   2862	   77.4539	    16.164	   3.24061	6.81093e+06	   77.2883	    16.161	   3.23769	 6.8559e+06	   77.2555	   16.2784	   3.35192	6.62576e+06	   77.4485	   16.2641	   3.33806	 6.7198e+06	   77.3711	   16.1625	   3.23915	6.83242e+06	   77.2719	   16.2197	   3.29481	6.73704e+06	    77.352	   16.2712	   3.34499	6.67267e+06	   77.4512	    16.214	   3.28933	6.75868e+06	
         R10	   2863	   77.4539	    16.164	   3.24061	6.83242e+06	   77.4485	   16.2641	   3.33806	6.76284e+06	   77.6469	   16.2526	   3.32682	6.73282e+06	   77.5839	   16.1238	   3.20154	6.83794e+06	   77.4512	    16.214	   3.28933	6.79266e+06	   77.5477	   16.2583	   3.33244	6.74588e+06	   77.6154	   16.1882	   3.26418	6.78422e+06	   77.5189	   16.1439	   3.22108	6.83495e+06	
         R10	   2864	   77.9129	   16.3628	    3.4341	6.15503e+06	   78.0052	    16.192	    3.2679	6.86246e+06	   77.8382	   16.1579	   3.23474	6.93679e+06	   77.7987	   16.2549	   3.32912	6.33074e+06	   77.9591	   16.2774	     3.351	6.48555e+06	   77.9217	    16.175	   3.25132	6.88944e+06	   77.8184	   16.2064	   3.28193	6.63029e+06	   77.8558	   16.3089	   3.38161	6.20394e+06	
         R10	   2865	   77.6469	   16.2526	   3.32682	6.45382e+06	   77.6643	    16.387	   3.45762	6.24433e+06	   77.9129	   16.3628	    3.4341	6.05522e+06	   77.7987	   16.2549	   3.32912	 6.9925e+06	   77.6556	   16.3198	   3.39222	6.32227e+06	   77.7886	   16.3749	   3.44586	6.11942e+06	   77.8558	   16.3089	   3.38161	6.49245e+06	   77.7228	   16.2537	   3.32797	6.70516e+06	
         R10	   2866	   77.8382	   16.1579	   3.23474	6.86433e+06	   77.7091	   16.1248	   3.20247	7.03359e+06	   77.6469	   16.2526	   3.32682	6.67721e+06	   77.7987	   16.2549	   3.32912	 6.7935e+06	   77.7737	   16.1413	   3.21861	6.94851e+06	    77.678	   16.1887	   3.26464	6.85308e+06	   77.7228	   16.2537	   3.32797	6.72561e+06	   77.8184	   16.2064	   3.28193	6.82539e+06	
         R10	   2867	   77.1435	   15.9995	   3.08058	6.85265e+06	   77.0393	   15.9835	   3.06505	6.75311e+06	   77.0479	   16.0607	   3.14012	6.89631e+06	   77.0914	   15.9915	   3.07281	6.80254e+06	   77.0436	   16.0221	   3.10259	6.82321e+06	   77.0957	   16.0301	   3.11035	6.87357e+06	       N/A	       N/A	       N/A	        N/A	       N/A	       N/A	       N/A	        N/A	
         R10	   2868	   77.3512	   15.9919	   3.07316	6.90212e+06	   77.2435	   15.9837	   3.06518	6.91471e+06	    77.272	   16.0799	   3.15886	6.93177e+06	   77.2973	   15.9878	   3.06917	6.90827e+06	   77.2577	   16.0318	   3.11202	6.92107e+06	   77.3116	   16.0359	   3.11601	6.91354e+06	       N/A	       N/A	       N/A	        N/A	       N/A	       N/A	       N/A	        N/A	
         R10	   2869	     77.57	   16.0187	    3.0993	6.95927e+06	   77.4387	   15.9944	    3.0756	6.94054e+06	   77.4292	   16.0811	   3.16002	7.04652e+06	   77.5043	   16.0065	   3.08745	6.94959e+06	   77.4339	   16.0377	   3.11781	6.99001e+06	   77.4996	   16.0499	   3.12966	6.99708e+06	       N/A	       N/A	       N/A	        N/A	       N/A	       N/A	       N/A	        N/A	
         R10	   2870	   76.6767	   15.9793	   3.06093	6.42379e+06	   76.5806	   15.9761	    3.0578	6.15791e+06	   76.6181	    16.048	   3.12782	6.06273e+06	   76.6287	   15.9777	   3.05936	6.27924e+06	   76.5994	   16.0121	   3.09281	 6.0637e+06	   76.6474	   16.0137	   3.09437	6.21844e+06	       N/A	       N/A	       N/A	        N/A	       N/A	       N/A	       N/A	        N/A	
         R10	   2871	    77.272	   16.0799	   3.15886	7.05635e+06	   77.1658	    16.059	   3.13845	 6.8967e+06	   77.0967	   16.1313	   3.20881	6.72548e+06	   77.2189	   16.0694	   3.14865	6.97639e+06	   77.1312	   16.0951	   3.17363	6.81105e+06	   77.1844	   16.1056	   3.18383	6.89063e+06	       N/A	       N/A	       N/A	        N/A	       N/A	       N/A	       N/A	        N/A	
         R10	   2872	   77.1338	   16.1948	    3.2706	6.67688e+06	   77.0309	   16.2805	   3.35405	 6.5253e+06	   77.2555	   16.2784	   3.35192	 6.7277e+06	   77.0824	   16.2377	   3.31232	 6.5945e+06	   77.1432	   16.2795	   3.35298	6.62589e+06	   77.1947	   16.2366	   3.31126	6.69899e+06	       N/A	       N/A	       N/A	        N/A	       N/A	       N/A	       N/A	        N/A	
         R10	   2873	   77.2883	    16.161	   3.23769	6.84219e+06	   77.1338	   16.1948	    3.2706	6.61294e+06	   77.2555	   16.2784	   3.35192	6.74212e+06	   77.2111	   16.1779	   3.25415	6.72707e+06	   77.1947	   16.2366	   3.31126	 6.6757e+06	   77.2719	   16.2197	   3.29481	6.78788e+06	       N/A	       N/A	       N/A	        N/A	       N/A	       N/A	       N/A	        N/A	
         R10	   2874	   77.6469	   16.2526	   3.32682	6.69564e+06	   77.7091	   16.1248	   3.20247	 6.9074e+06	   77.5839	   16.1238	   3.20154	6.86327e+06	    77.678	   16.1887	   3.26464	6.79637e+06	   77.6465	   16.1243	   3.20201	 6.8801e+06	   77.6154	   16.1882	   3.26418	6.77946e+06	       N/A	       N/A	       N/A	        N/A	       N/A	       N/A	       N/A	        N/A	
         R10	   2875	   76.8559	   16.6483	    3.7119	6.31716e+06	   76.8539	   16.5328	   3.59945	 5.9844e+06	   76.6725	   16.5328	   3.59945	 6.1234e+06	   76.6909	   16.6677	   3.73078	6.34653e+06	   76.8549	   16.5906	   3.65568	6.14366e+06	   76.7632	   16.5328	   3.59945	6.03655e+06	   76.6817	   16.6003	   3.66512	6.15753e+06	   76.7734	    16.658	   3.72134	6.28809e+06	
         R10	   2876	   77.0586	   16.6498	   3.71331	6.52254e+06	   77.0441	   16.5328	   3.59945	5.93393e+06	   76.8539	   16.5328	   3.59945	5.94887e+06	   76.8559	   16.6483	    3.7119	6.44043e+06	   77.0514	   16.5913	   3.65638	6.21422e+06	    76.949	   16.5328	   3.59945	 5.9414e+06	   76.8549	   16.5906	   3.65568	6.18765e+06	   76.9573	   16.6491	   3.71261	6.47998e+06	
         R10	   2877	   77.2381	   16.6857	   3.74825	6.32601e+06	   77.2433	   16.5328	   3.59945	6.06299e+06	   77.0441	   16.5328	   3.59945	6.00356e+06	   77.0586	   16.6498	   3.71331	6.56007e+06	   77.2407	   16.6092	   3.67385	6.17137e+06	   77.1437	   16.5328	   3.59945	6.03235e+06	   77.0514	   16.5913	   3.65638	6.26065e+06	   77.1483	   16.6677	   3.73078	6.43629e+06	
         R10	   2878	   77.4432	   16.7241	   3.78558	6.36236e+06	   77.4513	   16.5328	   3.59945	 6.0693e+06	   77.2433	   16.5328	   3.59945	 6.0688e+06	   77.2381	   16.6857	   3.74825	 6.6275e+06	   77.4473	   16.6284	   3.69251	6.17876e+06	   77.3473	   16.5328	   3.59945	6.06833e+06	   77.2407	   16.6092	   3.67385	6.32474e+06	   77.3406	   16.7049	   3.76692	 6.4812e+06	
         R10	   2879	   77.6176	   16.7144	   3.77616	6.50951e+06	   77.6683	   16.5328	   3.59945	6.08159e+06	   77.4513	   16.5328	   3.59945	6.04108e+06	   77.4432	   16.7241	   3.78558	6.72239e+06	   77.6429	   16.6236	    3.6878	6.28226e+06	   77.5598	   16.5328	   3.59945	6.05946e+06	   77.4473	   16.6284	   3.69251	6.34912e+06	   77.5304	   16.7192	   3.78087	6.60575e+06	
         R10	   2880	   77.8907	   16.7106	   3.77245	6.65326e+06	   77.8941	   16.5328	   3.59945	 6.0313e+06	   77.6683	   16.5328	   3.59945	6.07826e+06	   77.6176	   16.7144	   3.77616	6.38373e+06	   77.8924	   16.6217	   3.68595	6.32187e+06	   77.7812	   16.5328	   3.59945	6.05153e+06	   77.6429	   16.6236	    3.6878	6.19411e+06	   77.7542	   16.7125	    3.7743	6.48244e+06	
         R10	   2881	   78.0936	   16.7274	   3.78882	6.22805e+06	   78.1288	   16.5328	   3.59945	6.12978e+06	   77.8941	   16.5328	   3.59945	6.07292e+06	   77.8907	   16.7106	   3.77245	 6.7401e+06	   78.1112	   16.6301	   3.69413	 6.1587e+06	   78.0115	   16.5328	   3.59945	6.09783e+06	   77.8924	   16.6217	   3.68595	6.36871e+06	   77.9922	    16.719	   3.78063	6.43903e+06	
         R10	   2882	   78.3701	    16.723	   3.78454	6.13215e+06	   78.3725	   16.5328	   3.59945	6.13084e+06	   78.1288	   16.5328	   3.59945	6.12402e+06	   78.0936	   16.7274	   3.78882	6.74127e+06	   78.3713	   16.6279	     3.692	6.11709e+06	   78.2507	   16.5328	   3.59945	6.12151e+06	   78.1112	   16.6301	   3.69413	 6.4048e+06	   78.2319	   16.7252	   3.78668	6.38694e+06	
         R10	   2883	    78.625	   16.7091	   3.77097	6.06333e+06	    78.625	   16.5328	   3.59945	6.11126e+06	   78.3725	   16.5328	   3.59945	6.17874e+06	   78.3701	    16.723	   3.78454	6.95984e+06	    78.625	   16.6209	   3.68521	6.04452e+06	   78.4987	   16.5328	   3.59945	6.14052e+06	   78.3713	   16.6279	     3.692	6.54249e+06	   78.4976	    16.716	   3.77776	6.41341e+06	
         R10	   2884	    78.625	   16.9145	   3.97088	6.17334e+06	    78.625	   16.7091	   3.77097	5.81199e+06	   78.3701	    16.723	   3.78454	7.00492e+06	   78.3309	   16.9376	   3.99335	6.19665e+06	    78.625	   16.8118	   3.87093	5.99016e+06	   78.4976	    16.716	   3.77776	6.34593e+06	   78.3505	   16.8303	   3.88895	 6.5994e+06	   78.4779	   16.9261	   3.98212	6.10606e+06	
         R10	   2885	   78.2783	   17.1492	   4.19918	4.82553e+06	    78.625	   17.1492	   4.19918	4.82329e+06	    78.625	   16.9145	   3.97088	5.97502e+06	   78.3309	   16.9376	   3.99335	6.10316e+06	   78.4517	   17.1492	   4.19918	4.81855e+06	    78.625	   17.0318	   4.08503	5.31047e+06	   78.4779	   16.9261	   3.98212	5.96646e+06	   78.3046	   17.0434	   4.09626	5.34307e+06	
         R10	   2886	    77.946	   17.1492	   4.19918	 4.8787e+06	   78.2783	   17.1492	   4.19918	4.82531e+06	   78.3309	   16.9376	   3.99335	5.85328e+06	   78.0143	   16.9349	   3.99068	6.19526e+06	   78.1122	   17.1492	   4.19918	4.84737e+06	   78.3046	   17.0434	   4.09626	5.23588e+06	   78.1726	   16.9362	   3.99202	5.97829e+06	   77.9801	    17.042	   4.09493	5.44073e+06	
         R10	   2887	   77.6991	   16.9204	   3.97656	6.23867e+06	   77.6281	   17.1492	   4.19918	5.00802e+06	    77.946	   17.1492	   4.19918	4.89806e+06	   78.0143	   16.9349	   3.99068	5.87146e+06	   77.6636	   17.0348	   4.08787	5.54492e+06	    77.787	   17.1492	   4.19918	4.94652e+06	   77.9801	    17.042	   4.09493	5.30055e+06	   77.8567	   16.9276	   3.98362	6.03052e+06	
         R10	   2888	   77.3448	   16.9232	   3.97934	6.02211e+06	   77.3245	   17.1492	   4.19918	5.22339e+06	   77.6281	   17.1492	   4.19918	5.02205e+06	   77.6991	   16.9204	   3.97656	6.12472e+06	   77.3347	   17.0362	   4.08926	5.56876e+06	   77.4763	   17.1492	   4.19918	5.11541e+06	   77.6636	   17.0348	   4.08787	5.50164e+06	    77.522	   16.9218	   3.97795	6.05806e+06	
         R10	   2889	   77.0267	   16.9756	   4.03034	5.90835e+06	   77.0353	   17.1492	   4.19918	5.63962e+06	   77.3245	   17.1492	   4.19918	5.22415e+06	   77.3448	   16.9232	   3.97934	6.15497e+06	    77.031	   17.0624	   4.11476	5.74357e+06	   77.1799	   17.1492	   4.19918	 5.4188e+06	   77.3347	   17.0362	   4.08926	5.63832e+06	   77.1858	   16.9494	   4.00484	6.01111e+06	
         R10	   2890	   76.7624	   16.9733	   4.02804	6.41345e+06	   76.7605	   17.1492	   4.19918	6.10149e+06	   77.0353	   17.1492	   4.19918	5.58523e+06	   77.0267	   16.9756	   4.03034	6.08367e+06	   76.7614	   17.0612	   4.11361	6.24953e+06	   76.8979	   17.1492	   4.19918	5.83104e+06	    77.031	   17.0624	   4.11476	5.80107e+06	   76.8946	   16.9744	   4.02919	6.20778e+06	
         R10	   2891	      76.5	    16.966	   4.02101	7.93864e+06	      76.5	   17.1492	   4.19918	7.53046e+06	   76.7605	   17.1492	   4.19918	5.82736e+06	   76.7624	   16.9733	   4.02804	6.24027e+06	      76.5	   17.0576	   4.11009	7.31317e+06	   76.6302	   17.1492	   4.19918	6.47053e+06	   76.7614	   17.0612	   4.11361	6.02834e+06	   76.6312	   16.9696	   4.02452	 7.0778e+06	
         R10	   2892	      76.5	   16.8023	   3.86166	6.16279e+06	      76.5	    16.966	   4.02101	7.43137e+06	   76.7624	   16.9733	   4.02804	6.68603e+06	   76.7318	   16.8161	    3.8751	6.51493e+06	      76.5	   16.8841	   3.94133	6.63631e+06	   76.6312	   16.9696	   4.02452	6.83715e+06	   76.7471	   16.8947	   3.95157	6.51092e+06	   76.6159	   16.8092	   3.86838	6.31589e+06	
         R10	   2893	   76.6909	   16.6677	   3.73078	6.71338e+06	   76.6725	   16.5328	   3.59945	5.89992e+06	      76.5	   16.5328	   3.59945	6.67925e+06	      76.5	   16.6578	   3.72114	5.39304e+06	   76.6817	   16.6003	   3.66512	6.22205e+06	   76.5862	   16.5328	   3.59945	 6.2467e+06	      76.5	   16.5953	    3.6603	5.08077e+06	   76.5954	   16.6628	   3.72596	5.78848e+06	
         R10	   2894	   78.0143	   16.9349	   3.99068	6.25029e+06	   78.3309	   16.9376	   3.99335	5.85302e+06	   78.3701	    16.723	   3.78454	6.15304e+06	   78.0936	   16.7274	   3.78882	6.76127e+06	   78.1726	   16.9362	   3.99202	6.01272e+06	   78.3505	   16.8303	   3.88895	5.99771e+06	   78.2319	   16.7252	   3.78668	6.40672e+06	    78.054	   16.8311	   3.88975	6.50464e+06	
         R10	   2895	   77.6991	   16.9204	   3.97656	6.31294e+06	   78.0143	   16.9349	   3.99068	5.82308e+06	   78.0936	   16.7274	   3.78882	 6.1269e+06	   77.8907	   16.7106	   3.77245	6.90428e+06	   77.8567	   16.9276	   3.98362	6.04048e+06	    78.054	   16.8311	   3.88975	5.97096e+06	   77.9922	    16.719	   3.78063	6.47653e+06	   77.7949	   16.8155	    3.8745	6.60408e+06	
         R10	   2896	   76.9819	   16.8081	   3.86734	6.44451e+06	   76.7318	   16.8161	    3.8751	5.96345e+06	   76.7624	   16.9733	   4.02804	6.95005e+06	   77.0267	   16.9756	   4.03034	6.44979e+06	   76.8569	   16.8121	   3.87122	6.14454e+06	   76.7471	   16.8947	   3.95157	6.40899e+06	   76.8946	   16.9744	   4.02919	6.68699e+06	   77.0043	   16.8919	   3.94884	 6.4342e+06	
         R10	   2897	   76.6909	   16.6677	   3.73078	6.48399e+06	      76.5	   16.6578	   3.72114	5.23355e+06	      76.5	   16.8023	   3.86166	6.01964e+06	   76.7318	   16.8161	    3.8751	7.04626e+06	   76.5954	   16.6628	   3.72596	5.81205e+06	      76.5	   16.7301	    3.7914	5.43391e+06	   76.6159	   16.8092	   3.86838	6.34144e+06	   76.7114	   16.7419	   3.80294	6.69858e+06	
         R10	   2898	   76.8559	   16.6483	    3.7119	6.03752e+06	   76.6909	   16.6677	   3.73078	5.99897e+06	   76.7318	   16.8161	    3.8751	6.66419e+06	   76.9819	   16.8081	   3.86734	6.52393e+06	   76.7734	    16.658	   3.72134	5.99903e+06	   76.7114	   16.7419	   3.80294	6.29499e+06	   76.8569	   16.8121	   3.87122	6.58341e+06	   76.9189	   16.7282	   3.78962	6.27474e+06	
         R10	   2899	   77.6991	   16.9204	   3.97656	6.04281e+06	   77.6176	   16.7144	   3.77616	 6.7027e+06	   77.4432	   16.7241	   3.78558	6.56372e+06	   77.3448	   16.9232	   3.97934	 6.2197e+06	   77.6583	   16.8174	   3.87636	6.36297e+06	   77.5304	   16.7192	   3.78087	6.61322e+06	    77.394	   16.8236	   3.88246	6.38809e+06	    77.522	   16.9218	   3.97795	6.11296e+06	
         R10	   2900	   77.3448	   16.9232	   3.97934	6.46711e+06	   77.4432	   16.7241	   3.78558	6.27099e+06	   77.2381	   16.6857	   3.74825	6.61541e+06	   77.1912	   16.7988	    3.8583	5.99224e+06	    77.394	   16.8236	   3.88246	6.36242e+06	   77.3406	   16.7049	   3.76692	6.43617e+06	   77.2146	   16.7423	   3.80328	6.28649e+06	    77.268	    16.861	   3.91882	6.21752e+06	
         R10	   2901	   76.9819	   16.8081	   3.86734	6.28438e+06	   77.0267	   16.9756	   4.03034	6.33782e+06	   77.3448	   16.9232	   3.97934	6.43362e+06	   77.1912	   16.7988	    3.8583	6.41706e+06	   77.0043	   16.8919	   3.94884	6.28899e+06	   77.1858	   16.9494	   4.00484	6.34808e+06	    77.268	    16.861	   3.91882	6.42267e+06	   77.0865	   16.8035	   3.86282	6.34255e+06	
         R10	   2902	   77.2381	   16.6857	   3.74825	6.11908e+06	   77.0586	   16.6498	   3.71331	6.38236e+06	   76.9819	   16.8081	   3.86734	6.41659e+06	   77.1912	   16.7988	    3.8583	6.89082e+06	   77.1483	   16.6677	   3.73078	6.24898e+06	   77.0202	   16.7289	   3.79033	6.38685e+06	   77.0865	   16.8035	   3.86282	6.64794e+06	   77.2146	   16.7423	   3.80328	6.49471e+06	
         R10	   2903	   77.0586	   16.6498	   3.71331	6.17396e+06	   76.8559	   16.6483	    3.7119	6.13614e+06	   76.9819	   16.8081	   3.86734	6.36355e+06	   76.9573	   16.6491	   3.71261	6.14789e+06	   76.9189	   16.7282	   3.78962	6.23681e+06	   77.0202	   16.7289	   3.79033	 6.2511e+06	       N/A	       N/A	       N/A	        N/A	       N/A	       N/A	       N/A	        N/A	
         R10	   2904	   77.6991	   16.9204	   3.97656	6.06271e+06	   77.8907	   16.7106	   3.77245	6.52284e+06	   77.6176	   16.7144	   3.77616	6.41274e+06	   77.7949	   16.8155	    3.8745	6.28501e+06	   77.7542	   16.7125	    3.7743	6.43718e+06	   77.6583	   16.8174	   3.87636	 6.2271e+06	       N/A	       N/A	       N/A	        N/A	       N/A	       N/A	       N/A	        N/A	
         R10	   2905	   74.8583	   15.4683	   2.56373	7.70547e+06	   74.9081	      15.3	       2.4	8.02491e+06	   74.6584	      15.3	       2.4	7.61161e+06	    74.623	   15.4925	   2.58728	7.64645e+06	   74.8832	   15.3841	   2.48186	7.81388e+06	   74.7833	      15.3	       2.4	7.81049e+06	   74.6407	   15.3962	   2.49364	7.58335e+06	   74.7407	   15.4804	    2.5755	7.67527e+06	
         R10	   2906	   75.0756	   15.4404	   2.53657	7.92267e+06	    75.124	      15.3	       2.4	 8.1407e+06	   74.9081	      15.3	       2.4	 7.7778e+06	   74.8583	   15.4683	   2.56373	7.77055e+06	   75.0998	   15.3702	   2.46828	7.99935e+06	    75.016	      15.3	       2.4	7.95598e+06	   74.8832	   15.3841	   2.48186	7.73356e+06	    74.967	   15.4543	   2.55015	7.84564e+06	
         R10	   2907	   75.2552	   15.4148	   2.51171	7.98117e+06	   75.3061	      15.3	       2.4	 8.3209e+06	    75.124	      15.3	       2.4	7.92269e+06	   75.0756	   15.4404	   2.53657	8.01051e+06	   75.2807	   15.3574	   2.45586	8.12067e+06	   75.2151	      15.3	       2.4	8.11651e+06	   75.0998	   15.3702	   2.46828	7.94091e+06	   75.1654	   15.4276	   2.52414	7.99573e+06	
         R10	   2908	   75.4146	   15.3927	   2.49017	8.11039e+06	   75.4545	      15.3	       2.4	8.37928e+06	   75.3061	      15.3	       2.4	8.18771e+06	   75.2552	   15.4148	   2.51171	8.05397e+06	   75.4346	   15.3463	   2.44509	8.22678e+06	   75.3803	      15.3	       2.4	8.28139e+06	   75.2807	   15.3574	   2.45586	8.09823e+06	   75.3349	   15.4037	   2.50094	8.08153e+06	
         R10	   2909	   75.5418	   15.3899	   2.48748	8.23426e+06	   75.5691	      15.3	       2.4	8.42625e+06	   75.4545	      15.3	       2.4	  8.288e+06	   75.4146	   15.3927	   2.49017	8.19001e+06	   75.5555	    15.345	   2.44374	8.31429e+06	   75.5118	      15.3	       2.4	8.35666e+06	   75.4346	   15.3463	   2.44509	8.22511e+06	   75.4782	   15.3913	   2.48883	8.21084e+06	
         R10	   2910	     75.65	   15.3588	   2.45717	8.35896e+06	     75.65	      15.3	       2.4	8.41139e+06	   75.5691	      15.3	       2.4	8.38743e+06	   75.5418	   15.3899	   2.48748	8.28011e+06	     75.65	   15.3294	   2.42859	8.37812e+06	   75.6096	      15.3	       2.4	8.39869e+06	   75.5555	    15.345	   2.44374	 8.3182e+06	   75.5959	   15.3743	   2.47233	8.31854e+06	
         R10	   2911	   75.5387	   15.5494	   2.64263	8.19597e+06	     75.65	   15.5496	   2.64289	8.26413e+06	     75.65	   15.4836	   2.57862	8.28922e+06	   75.5369	   15.4718	   2.56717	8.23329e+06	   75.5943	   15.5495	   2.64276	8.22921e+06	     75.65	   15.5166	   2.61075	8.27526e+06	   75.5935	   15.4777	    2.5729	8.26005e+06	   75.5378	   15.5106	    2.6049	 8.2121e+06	
         R10	   2912	   75.5367	   15.6204	   2.71179	8.12932e+06	     75.65	   15.6181	   2.70953	8.15222e+06	     75.65	   15.5496	   2.64289	 8.2428e+06	   75.5387	   15.5494	   2.64263	8.17346e+06	   75.5934	   15.6193	   2.71066	8.14024e+06	     75.65	   15.5839	   2.67621	8.19711e+06	   75.5943	   15.5495	   2.64276	8.20727e+06	   75.5377	   15.5849	   2.67721	8.15099e+06	
         R10	   2913	   75.5345	   15.6925	   2.78185	7.95914e+06	     75.65	    15.689	   2.77853	8.03669e+06	     75.65	   15.6181	   2.70953	8.11109e+06	   75.5367	   15.6204	   2.71179	8.09581e+06	   75.5923	   15.6907	   2.78019	7.99703e+06	     75.65	   15.6536	   2.74403	8.07376e+06	   75.5934	   15.6193	   2.71066	8.10287e+06	   75.5356	   15.6565	   2.74682	8.02747e+06	
         R10	   2914	   75.5322	   15.7651	   2.85251	7.77821e+06	     75.65	   15.7624	   2.84989	7.83905e+06	     75.65	    15.689	   2.77853	7.96152e+06	   75.5345	   15.6925	   2.78185	7.89903e+06	   75.5911	   15.7637	    2.8512	7.80782e+06	     75.65	   15.7257	   2.81421	7.89921e+06	   75.5923	   15.6907	   2.78019	7.92949e+06	   75.5334	   15.7288	   2.81718	 7.8375e+06	
         R10	   2915	   75.5317	   15.8397	   2.92508	7.57413e+06	     75.65	   15.8382	   2.92363	7.60909e+06	     75.65	   15.7624	   2.84989	7.69908e+06	   75.5322	   15.7651	   2.85251	7.65372e+06	   75.5909	   15.8389	   2.92435	7.59106e+06	     75.65	   15.8003	   2.88676	7.64946e+06	   75.5911	   15.7637	    2.8512	7.67561e+06	    75.532	   15.8024	    2.8888	7.60964e+06	
         R10	   2916	   75.5497	   15.9164	   2.99973	7.40504e+06	     75.65	   15.9164	   2.99973	7.42117e+06	     75.65	   15.8382	   2.92363	7.34651e+06	   75.5317	   15.8397	   2.92508	7.33067e+06	   75.5999	   15.9164	   2.99973	7.41273e+06	     75.65	   15.8773	   2.96168	7.37084e+06	   75.5909	   15.8389	   2.92435	7.33804e+06	   75.5407	    15.878	    2.9624	7.35633e+06	
         R10	   2917	   75.4222	   15.9164	   2.99973	7.36243e+06	   75.5497	   15.9164	   2.99973	7.40711e+06	   75.5317	   15.8397	   2.92508	7.32178e+06	   75.4039	   15.8404	   2.92583	7.30128e+06	    75.486	   15.9164	   2.99973	 7.3841e+06	   75.5407	    15.878	    2.9624	7.35269e+06	   75.4678	   15.8401	   2.92546	7.31103e+06	    75.413	   15.8784	   2.96278	7.32019e+06	
         R10	   2918	    75.253	   15.8272	   2.91294	7.17627e+06	   75.2673	   15.9164	   2.99973	7.29357e+06	   75.4222	   15.9164	   2.99973	7.36177e+06	   75.4039	   15.8404	   2.92583	7.27559e+06	   75.2602	   15.8718	   2.95633	7.22649e+06	   75.3448	   15.9164	   2.99973	7.32682e+06	    75.413	   15.8784	   2.96278	7.30687e+06	   75.3284	   15.8338	   2.91939	7.22543e+06	
         R10	   2919	   75.0838	   15.7613	   2.84885	7.36919e+06	   75.0852	   15.9164	   2.99973	7.12914e+06	   75.2673	   15.9164	   2.99973	7.35041e+06	    75.253	   15.8272	   2.91294	 7.1699e+06	   75.0845	   15.8389	   2.92429	 7.2293e+06	   75.1763	   15.9164	   2.99973	7.23712e+06	   75.2602	   15.8718	   2.95633	7.25154e+06	   75.1684	   15.7943	    2.8809	7.26751e+06	
         R10	   2920	   74.8855	   15.7754	   2.86255	7.23315e+06	   74.8758	   15.9164	   2.99973	6.97993e+06	   75.0852	   15.9164	   2.99973	7.11291e+06	   75.0838	   15.7613	   2.84885	7.42096e+06	   74.8806	   15.8459	   2.93114	7.09206e+06	   74.9805	   15.9164	   2.99973	7.04454e+06	   75.0845	   15.8389	   2.92429	7.24762e+06	   74.9846	   15.7684	    2.8557	7.32496e+06	
         R10	   2921	    74.634	   15.7019	   2.79105	7.16488e+06	    74.639	   15.9164	   2.99973	6.80786e+06	   74.8758	   15.9164	   2.99973	6.99718e+06	   74.8855	   15.7754	   2.86255	7.21855e+06	   74.6365	   15.8091	   2.89539	6.97179e+06	   74.7574	   15.9164	   2.99973	6.89955e+06	   74.8806	   15.8459	   2.93114	7.09361e+06	   74.7598	   15.7387	    2.8268	7.19012e+06	
         R10	   2922	    74.375	   15.7109	   2.79982	6.79296e+06	    74.375	   15.9164	   2.99973	6.64818e+06	    74.639	   15.9164	   2.99973	6.78304e+06	    74.634	   15.7019	   2.79105	7.21629e+06	    74.375	   15.8137	   2.89977	6.70932e+06	    74.507	   15.9164	   2.99973	6.71369e+06	   74.6365	   15.8091	   2.89539	6.98412e+06	   74.5045	   15.7064	   2.79543	7.00346e+06	
         R10	   2923	    74.623	   15.4925	   2.58728	7.42139e+06	   74.6584	      15.3	       2.4	7.96158e+06	    74.375	      15.3	       2.4	7.22793e+06	    74.375	   15.5055	   2.59991	7.48546e+06	   74.6407	   15.3962	   2.49364	7.63447e+06	   74.5167	      15.3	       2.4	7.57451e+06	    74.375	   15.4027	   2.49995	7.33066e+06	    74.499	    15.499	    2.5936	7.45117e+06	
         R10	   2924	   75.0894	   15.5921	   2.68418	7.82125e+06	   75.0756	   15.4404	   2.53657	7.86511e+06	   74.8583	   15.4683	   2.56373	7.76959e+06	   74.8842	   15.6049	   2.69665	7.74439e+06	   75.0825	   15.5162	   2.61037	7.83206e+06	    74.967	   15.4543	   2.55015	7.81639e+06	   74.8713	   15.5366	   2.63019	7.75632e+06	   74.9868	   15.5985	   2.69041	7.77981e+06	
         R10	   2925	   75.2652	   15.5033	   2.59777	7.93743e+06	   75.2552	   15.4148	   2.51171	8.02788e+06	   75.0756	   15.4404	   2.53657	7.98695e+06	   75.0894	   15.5921	   2.68418	7.93289e+06	   75.2602	    15.459	   2.55474	7.97558e+06	   75.1654	   15.4276	   2.52414	8.00642e+06	   75.0825	   15.5162	   2.61037	7.94949e+06	   75.1773	   15.5477	   2.64097	7.93289e+06	
         R10	   2926	   75.5369	   15.4718	   2.56717	8.25018e+06	     75.65	   15.4836	   2.57862	8.27895e+06	     75.65	     15.42	   2.51671	8.31169e+06	   75.5418	   15.3899	   2.48748	8.29682e+06	   75.5935	   15.4777	    2.5729	8.26347e+06	     75.65	   15.4518	   2.54767	 8.2916e+06	   75.5959	   15.4049	    2.5021	 8.3007e+06	   75.5394	   15.4309	   2.52733	8.26672e+06	
         R10	   2927	   75.4173	   15.4731	   2.56838	8.15825e+06	   75.5369	   15.4718	   2.56717	8.23086e+06	   75.5418	   15.3899	   2.48748	8.21794e+06	   75.4146	   15.3927	   2.49017	8.23277e+06	   75.4771	   15.4724	   2.56778	 8.1938e+06	   75.5394	   15.4309	   2.52733	8.21785e+06	   75.4782	   15.3913	   2.48883	8.22473e+06	   75.4159	   15.4329	   2.52928	8.18866e+06	
         R10	   2928	   75.4268	   15.5533	   2.64642	8.08638e+06	   75.5387	   15.5494	   2.64263	8.20804e+06	   75.5369	   15.4718	   2.56717	8.21624e+06	   75.4173	   15.4731	   2.56838	8.17323e+06	   75.4828	   15.5513	   2.64452	8.14636e+06	   75.5378	   15.5106	    2.6049	8.20972e+06	   75.4771	   15.4724	   2.56778	8.19417e+06	    75.422	   15.5132	    2.6074	8.12705e+06	
         R10	   2929	   75.4147	   15.6255	   2.71673	 8.0749e+06	   75.5367	   15.6204	   2.71179	8.06287e+06	   75.5387	   15.5494	   2.64263	8.17547e+06	   75.4268	   15.5533	   2.64642	8.08371e+06	   75.4757	    15.623	   2.71426	8.06847e+06	   75.5377	   15.5849	   2.67721	8.11862e+06	   75.4828	   15.5513	   2.64452	8.12899e+06	   75.4208	   15.5894	   2.68157	8.07902e+06	
         R10	   2930	   75.4097	   15.6919	    2.7813	7.91708e+06	   75.5345	   15.6925	   2.78185	7.97613e+06	   75.5367	   15.6204	   2.71179	8.03515e+06	   75.4147	   15.6255	   2.71673	8.03297e+06	   75.4721	   15.6922	   2.78158	7.94557e+06	   75.5356	   15.6565	   2.74682	8.00543e+06	   75.4757	    15.623	   2.71426	8.03352e+06	   75.4122	   15.6587	   2.74902	7.97501e+06	
         R10	   2931	   75.4123	   15.7644	   2.85185	7.70715e+06	   75.5322	   15.7651	   2.85251	7.80893e+06	   75.5345	   15.6925	   2.78185	7.90959e+06	   75.4097	   15.6919	    2.7813	7.83777e+06	   75.4722	   15.7647	   2.85218	7.75738e+06	   75.5334	   15.7288	   2.81718	7.85818e+06	   75.4721	   15.6922	   2.78158	7.87248e+06	    75.411	   15.7281	   2.81658	7.77149e+06	
         R10	   2932	   75.4039	   15.8404	   2.92583	7.52654e+06	   75.5317	   15.8397	   2.92508	7.56481e+06	   75.5322	   15.7651	   2.85251	7.66927e+06	   75.4123	   15.7644	   2.85185	7.57775e+06	   75.4678	   15.8401	   2.92546	7.54505e+06	    75.532	   15.8024	    2.8888	 7.6132e+06	   75.4722	   15.7647	   2.85218	7.62281e+06	   75.4081	   15.8024	   2.88884	7.54849e+06	
         R10	   2933	    74.623	   15.4925	   2.58728	7.42059e+06	    74.375	   15.5055	   2.59991	7.45412e+06	    74.375	   15.7109	   2.79982	6.87808e+06	    74.634	   15.7019	   2.79105	7.31883e+06	    74.499	    15.499	    2.5936	7.43319e+06	    74.375	   15.6082	   2.69986	7.16387e+06	   74.5045	   15.7064	   2.79543	7.09661e+06	   74.6285	   15.5972	   2.68916	7.36509e+06	
         R10	   2934	   75.2526	   15.7008	   2.78992	7.76258e+06	   75.4097	   15.6919	    2.7813	7.88913e+06	   75.4147	   15.6255	   2.71673	7.95449e+06	   75.2588	   15.6308	   2.72182	7.98867e+06	   75.3312	   15.6963	   2.78561	7.82227e+06	   75.4122	   15.6587	   2.74902	7.92129e+06	   75.3368	   15.6281	   2.71927	7.97066e+06	   75.2557	   15.6658	   2.75587	7.87436e+06	
         R10	   2935	   74.8842	   15.6049	   2.69665	7.38202e+06	   74.8583	   15.4683	   2.56373	7.67911e+06	    74.623	   15.4925	   2.58728	7.63634e+06	    74.634	   15.7019	   2.79105	7.56828e+06	   74.8713	   15.5366	   2.63019	 7.5272e+06	   74.7407	   15.4804	    2.5755	7.65754e+06	   74.6285	   15.5972	   2.68916	 7.5974e+06	   74.7591	   15.6534	   2.74385	7.46843e+06	
         R10	   2936	   74.8842	   15.6049	   2.69665	7.69739e+06	   74.8855	   15.7754	   2.86255	7.33853e+06	   75.0838	   15.7613	   2.84885	 7.5247e+06	   75.0894	   15.5921	   2.68418	7.72041e+06	   74.8848	   15.6901	    2.7796	7.51391e+06	   74.9846	   15.7684	    2.8557	7.42955e+06	   75.0866	   15.6767	   2.76651	7.62215e+06	   74.9868	   15.5985	   2.69041	7.70674e+06	
         R10	   2937	   75.4173	   15.4731	   2.56838	8.09626e+06	   75.4146	   15.3927	   2.49017	8.13195e+06	   75.2552	   15.4148	   2.51171	8.08946e+06	   75.2652	   15.5033	   2.59777	8.09772e+06	   75.4159	   15.4329	   2.52928	 8.1073e+06	   75.3349	   15.4037	   2.50094	8.11026e+06	   75.2602	    15.459	   2.55474	8.08748e+06	   75.3412	   15.4882	   2.58308	8.09638e+06	
         R10	   2938	   75.2588	   15.6308	   2.72182	 7.9463e+06	   75.4147	   15.6255	   2.71673	7.98298e+06	   75.4268	   15.5533	   2.64642	8.10902e+06	   75.3138	   15.5638	   2.65665	8.03889e+06	   75.3368	   15.6281	   2.71927	7.96344e+06	   75.4208	   15.5894	   2.68157	8.04522e+06	   75.3703	   15.5585	   2.65153	8.07313e+06	   75.2863	   15.5973	   2.68923	7.99249e+06	
         R10	   2939	   75.2652	   15.5033	   2.59777	7.95493e+06	   75.0894	   15.5921	   2.68418	7.95773e+06	   75.2588	   15.6308	   2.72182	 7.8553e+06	   75.3138	   15.5638	   2.65665	 8.0123e+06	   75.1773	   15.5477	   2.64097	7.95477e+06	   75.1741	   15.6114	     2.703	7.90387e+06	   75.2863	   15.5973	   2.68923	 7.9329e+06	   75.2895	   15.5335	   2.62721	 7.9813e+06	
         R10	   2940	   75.4268	   15.5533	   2.64642	8.11407e+06	   75.4173	   15.4731	   2.56838	8.10268e+06	   75.2652	   15.5033	   2.59777	8.09644e+06	   75.3138	   15.5638	   2.65665	8.01693e+06	    75.422	   15.5132	    2.6074	 8.1056e+06	   75.3412	   15.4882	   2.58308	8.09855e+06	   75.2895	   15.5335	   2.62721	8.05574e+06	   75.3703	   15.5585	   2.65153	8.06468e+06	
         R10	   2941	   75.2526	   15.7008	   2.78992	7.49407e+06	   75.2588	   15.6308	   2.72182	7.77312e+06	   75.0894	   15.5921	   2.68418	7.86999e+06	   75.0838	   15.7613	   2.84885	7.74568e+06	   75.2557	   15.6658	   2.75587	7.63356e+06	   75.1741	   15.6114	     2.703	7.81983e+06	   75.0866	   15.6767	   2.76651	7.80773e+06	   75.1682	    15.731	   2.81938	7.61674e+06	
         R10	   2942	    75.253	   15.8272	   2.91294	7.52123e+06	   75.4039	   15.8404	   2.92583	7.56201e+06	   75.4123	   15.7644	   2.85185	7.58941e+06	   75.2981	   15.7625	   2.85004	7.53417e+06	   75.3284	   15.8338	   2.91939	7.54023e+06	   75.4081	   15.8024	   2.88884	7.57296e+06	   75.3552	   15.7635	   2.85095	7.55877e+06	   75.2756	   15.7949	   2.88149	7.51049e+06	
         R10	   2943	   75.2526	   15.7008	   2.78992	7.54524e+06	   75.0838	   15.7613	   2.84885	 7.7484e+06	    75.253	   15.8272	   2.91294	7.62766e+06	   75.2981	   15.7625	   2.85004	7.42945e+06	   75.1682	    15.731	   2.81938	 7.6457e+06	   75.1684	   15.7943	    2.8809	7.68322e+06	   75.2756	   15.7949	   2.88149	7.51851e+06	   75.2754	   15.7316	   2.81998	7.48605e+06	
         R10	   2944	   75.4123	   15.7644	   2.85185	 7.7429e+06	   75.4097	   15.6919	    2.7813	7.81132e+06	   75.2526	   15.7008	   2.78992	7.78005e+06	   75.2981	   15.7625	   2.85004	7.62234e+06	    75.411	   15.7281	   2.81658	7.77624e+06	   75.3312	   15.6963	   2.78561	7.79389e+06	   75.2754	   15.7316	   2.81998	7.70028e+06	   75.3552	   15.7635	   2.85095	7.68059e+06	
         R10	   2945	     75.65	     15.42	   2.51671	8.31784e+06	     75.65	   15.3588	   2.45717	8.35617e+06	   75.5418	   15.3899	   2.48748	8.26876e+06	     75.65	   15.3894	   2.48694	8.33111e+06	   75.5959	   15.3743	   2.47233	8.31125e+06	   75.5959	   15.4049	    2.5021	8.28945e+06	       N/A	       N/A	       N/A	        N/A	       N/A	       N/A	       N/A	        N/A	
         R10	   2946	   74.8842	   15.6049	   2.69665	7.43076e+06	    74.634	   15.7019	   2.79105	7.50562e+06	   74.8855	   15.7754	   2.86255	7.47838e+06	   74.7591	   15.6534	   2.74385	7.46762e+06	   74.7598	   15.7387	    2.8268	7.48957e+06	   74.8848	   15.6901	    2.7796	7.44975e+06	       N/A	       N/A	       N/A	        N/A	       N/A	       N/A	       N/A	        N/A	
         R10	   2947	   74.9219	   13.8584	       2.4	6.54142e+06	   74.9213	      13.6	       2.4	7.14368e+06	   74.6542	      13.6	       2.4	6.97516e+06	    74.655	   13.8762	       2.4	6.43891e+06	   74.9216	   13.7292	       2.4	6.73242e+06	   74.7878	      13.6	       2.4	7.05324e+06	   74.6546	   13.7381	       2.4	6.58293e+06	   74.7884	   13.8673	       2.4	6.48037e+06	
         R10	   2948	   75.1768	   13.8455	       2.4	6.72492e+06	   75.1763	      13.6	       2.4	7.36115e+06	   74.9213	      13.6	       2.4	7.13613e+06	   74.9219	   13.8584	       2.4	 6.5094e+06	   75.1766	   13.7227	       2.4	6.93718e+06	   75.0488	      13.6	       2.4	 7.2432e+06	   74.9216	   13.7292	       2.4	 6.7135e+06	   75.0493	   13.8519	       2.4	6.60772e+06	
         R10	   2949	   75.4184	   13.8353	       2.4	7.02475e+06	   75.4192	      13.6	       2.4	7.66753e+06	   75.1763	      13.6	       2.4	 7.3632e+06	   75.1768	   13.8455	       2.4	6.73425e+06	   75.4188	   13.7176	       2.4	7.24935e+06	   75.2978	      13.6	       2.4	7.50827e+06	   75.1766	   13.7227	       2.4	6.94301e+06	   75.2976	   13.8404	       2.4	 6.8721e+06	
         R10	   2950	     75.65	   13.8398	       2.4	7.33174e+06	     75.65	      13.6	       2.4	8.00025e+06	   75.4192	      13.6	       2.4	7.66576e+06	   75.4184	   13.8353	       2.4	7.05508e+06	     75.65	   13.7199	       2.4	7.56091e+06	   75.5346	      13.6	       2.4	7.82798e+06	   75.4188	   13.7176	       2.4	7.26269e+06	   75.5342	   13.8376	       2.4	7.18693e+06	
         R10	   2951	     75.65	   14.0447	       2.4	7.23715e+06	     75.65	   13.8398	       2.4	7.07625e+06	   75.4184	   13.8353	       2.4	6.92277e+06	   75.4195	   14.0461	       2.4	6.99951e+06	     75.65	   13.9423	       2.4	7.13906e+06	   75.5342	   13.8376	       2.4	6.99603e+06	    75.419	   13.9407	       2.4	6.94361e+06	   75.5348	   14.0454	       2.4	7.09993e+06	
         R10	   2952	   75.4967	   14.2158	       2.4	6.88562e+06	     75.65	   14.2147	       2.4	 7.3052e+06	     75.65	   14.0447	       2.4	6.93309e+06	   75.4195	   14.0461	       2.4	6.94094e+06	   75.5733	   14.2153	       2.4	7.08576e+06	     75.65	   14.1297	       2.4	7.11676e+06	   75.5348	   14.0454	       2.4	6.92934e+06	   75.4581	    14.131	       2.4	 6.9123e+06	
         R10	   2953	   75.5322	   14.3482	       2.4	7.17107e+06	     75.65	   14.3498	       2.4	7.33861e+06	     75.65	   14.2147	       2.4	7.02694e+06	   75.4967	   14.2158	       2.4	6.83407e+06	   75.5911	    14.349	       2.4	7.24448e+06	     75.65	   14.2823	       2.4	7.17247e+06	   75.5733	   14.2153	       2.4	6.92816e+06	   75.5144	    14.282	       2.4	6.97872e+06	
         R10	   2954	   75.5497	     14.45	       2.4	7.37961e+06	     75.65	     14.45	       2.4	 7.5286e+06	     75.65	   14.3498	       2.4	6.89783e+06	   75.5322	   14.3482	       2.4	6.86749e+06	   75.5999	     14.45	       2.4	7.45202e+06	     75.65	   14.3999	       2.4	7.19796e+06	   75.5911	    14.349	       2.4	6.87944e+06	    75.541	   14.3991	       2.4	7.10479e+06	
         R10	   2955	    75.268	   14.2785	       2.4	6.56354e+06	   75.2673	     14.45	       2.4	7.11843e+06	   75.4222	     14.45	       2.4	7.16215e+06	    75.374	   14.3152	       2.4	6.77147e+06	   75.2677	   14.3643	       2.4	6.81381e+06	   75.3448	     14.45	       2.4	 7.1382e+06	   75.3981	   14.3826	       2.4	6.95239e+06	    75.321	   14.2969	       2.4	6.66238e+06	
         R10	   2956	   75.0876	   14.2531	       2.4	6.62229e+06	   75.0852	     14.45	       2.4	7.06612e+06	   75.2673	     14.45	       2.4	7.14465e+06	    75.268	   14.2785	       2.4	6.56417e+06	   75.0864	   14.3515	       2.4	6.79553e+06	   75.1763	     14.45	       2.4	7.10061e+06	   75.2677	   14.3643	       2.4	6.82834e+06	   75.1778	   14.2658	       2.4	6.58899e+06	
         R10	   2957	   74.8755	    14.221	       2.4	6.58265e+06	   74.8758	     14.45	       2.4	6.99195e+06	   75.0852	     14.45	       2.4	7.07252e+06	   75.0876	   14.2531	       2.4	6.46096e+06	   74.8756	   14.3355	       2.4	6.73052e+06	   74.9805	     14.45	       2.4	7.02725e+06	   75.0864	   14.3515	       2.4	6.72083e+06	   74.9815	    14.237	       2.4	6.51942e+06	
         R10	   2958	   74.6334	   14.1993	       2.4	6.52525e+06	    74.639	     14.45	       2.4	6.92089e+06	   74.8758	     14.45	       2.4	6.98087e+06	   74.8755	    14.221	       2.4	6.48824e+06	   74.6362	   14.3246	       2.4	6.65665e+06	   74.7574	     14.45	       2.4	6.94597e+06	   74.8756	   14.3355	       2.4	6.67873e+06	   74.7544	   14.2101	       2.4	6.50068e+06	
         R10	   2959	    74.375	   14.1802	       2.4	6.41632e+06	    74.375	     14.45	       2.4	6.74883e+06	    74.639	     14.45	       2.4	6.88824e+06	   74.6334	   14.1993	       2.4	6.51957e+06	    74.375	   14.3151	       2.4	6.55219e+06	    74.507	     14.45	       2.4	6.81264e+06	   74.6362	   14.3246	       2.4	6.63741e+06	   74.5042	   14.1897	       2.4	6.45561e+06	
         R10	   2960	    74.655	   13.8762	       2.4	6.38963e+06	   74.6542	      13.6	       2.4	  6.947e+06	    74.375	      13.6	       2.4	 6.6819e+06	    74.375	   13.8968	       2.4	6.47183e+06	   74.6546	   13.7381	       2.4	6.54509e+06	   74.5146	      13.6	       2.4	 6.8052e+06	    74.375	   13.7484	       2.4	 6.5044e+06	    74.515	   13.8865	       2.4	6.42536e+06	
         R10	   2961	   75.4195	   14.0461	       2.4	6.85977e+06	   75.4184	   13.8353	       2.4	  6.905e+06	   75.1768	   13.8455	       2.4	  6.626e+06	   75.1846	   14.0651	       2.4	6.70201e+06	    75.419	   13.9407	       2.4	6.86483e+06	   75.2976	   13.8404	       2.4	6.75663e+06	   75.1807	   13.9553	       2.4	6.65443e+06	   75.3021	   14.0556	       2.4	6.77384e+06	
         R10	   2962	    75.374	   14.3152	       2.4	7.26676e+06	   75.4222	     14.45	       2.4	7.26364e+06	   75.5322	   14.3482	       2.4	6.66636e+06	   75.4967	   14.2158	       2.4	 6.6734e+06	   75.3981	   14.3826	       2.4	7.24795e+06	   75.4772	   14.3991	       2.4	6.95437e+06	   75.5144	    14.282	       2.4	6.64269e+06	   75.4353	   14.2655	       2.4	6.95125e+06	
         R10	   2963	    75.268	   14.2785	       2.4	6.92664e+06	    75.374	   14.3152	       2.4	7.06615e+06	   75.4967	   14.2158	       2.4	6.69675e+06	   75.4195	   14.0461	       2.4	6.76508e+06	    75.321	   14.2969	       2.4	6.99139e+06	   75.4353	   14.2655	       2.4	6.87232e+06	   75.4581	    14.131	       2.4	6.72915e+06	   75.3438	   14.1623	       2.4	6.84258e+06	
         R10	   2964	   75.0876	   14.2531	       2.4	6.78134e+06	    75.268	   14.2785	       2.4	 6.7601e+06	   75.4195	   14.0461	       2.4	6.77803e+06	   75.1846	   14.0651	       2.4	6.60103e+06	   75.1778	   14.2658	       2.4	 6.7663e+06	   75.3438	   14.1623	       2.4	6.76798e+06	   75.3021	   14.0556	       2.4	6.67669e+06	   75.1361	   14.1591	       2.4	6.68466e+06	
         R10	   2965	   74.8755	    14.221	       2.4	6.63549e+06	   75.0876	   14.2531	       2.4	6.67567e+06	   75.1846	   14.0651	       2.4	6.53564e+06	   74.9876	   14.0228	       2.4	6.49918e+06	   74.9815	    14.237	       2.4	6.64753e+06	   75.1361	   14.1591	       2.4	6.60027e+06	   75.0861	    14.044	       2.4	6.51374e+06	   74.9315	   14.1219	       2.4	6.56671e+06	
         R10	   2966	    74.655	   13.8762	       2.4	6.34924e+06	    74.375	   13.8968	       2.4	6.43115e+06	    74.375	   14.1802	       2.4	6.42576e+06	   74.6334	   14.1993	       2.4	6.52535e+06	    74.515	   13.8865	       2.4	 6.3773e+06	    74.375	   14.0385	       2.4	6.42611e+06	   74.5042	   14.1897	       2.4	6.47164e+06	   74.6442	   14.0377	       2.4	6.43709e+06	
         R10	   2967	   74.9876	   14.0228	       2.4	6.66564e+06	   75.1846	   14.0651	       2.4	6.74427e+06	   75.1768	   13.8455	       2.4	6.61401e+06	   74.9219	   13.8584	       2.4	6.44227e+06	   75.0861	    14.044	       2.4	6.70196e+06	   75.1807	   13.9553	       2.4	 6.6693e+06	   75.0493	   13.8519	       2.4	6.51997e+06	   74.9547	   13.9406	       2.4	 6.5421e+06	
         R10	   2968	   74.8755	    14.221	       2.4	6.66703e+06	   74.9876	   14.0228	       2.4	6.30607e+06	   74.9219	   13.8584	       2.4	6.58768e+06	    74.655	   13.8762	       2.4	6.43112e+06	   74.9315	   14.1219	       2.4	6.48112e+06	   74.9547	   13.9406	       2.4	6.44226e+06	   74.7884	   13.8673	       2.4	6.50358e+06	   74.7652	   14.0486	       2.4	6.54668e+06	
         R10	   2969	   75.4222	     14.45	       2.4	7.21929e+06	   75.5497	     14.45	       2.4	7.35494e+06	   75.5322	   14.3482	       2.4	  6.961e+06	    75.486	     14.45	       2.4	7.28362e+06	    75.541	   14.3991	       2.4	7.14016e+06	   75.4772	   14.3991	       2.4	7.07786e+06	       N/A	       N/A	       N/A	        N/A	       N/A	       N/A	       N/A	        N/A	
         R10	   2970	   74.8755	    14.221	       2.4	6.51322e+06	    74.655	   13.8762	       2.4	6.35076e+06	   74.6334	   14.1993	       2.4	  6.544e+06	   74.7652	   14.0486	       2.4	6.42824e+06	   74.6442	   14.0377	       2.4	6.44662e+06	   74.7544	   14.2101	       2.4	6.52239e+06	       N/A	       N/A	       N/A	        N/A	       N/A	       N/A	       N/A	        N/A	
         R10	   2971	   74.8666	   14.6828	       2.4	6.80615e+06	   74.8758	     14.45	       2.4	7.04135e+06	    74.639	     14.45	       2.4	6.97722e+06	   74.6314	   14.7141	       2.4	6.72956e+06	   74.8712	   14.5664	       2.4	6.80206e+06	   74.7574	     14.45	       2.4	7.00528e+06	   74.6352	    14.582	       2.4	6.70264e+06	    74.749	   14.6984	       2.4	6.75251e+06	
         R10	   2972	   75.0786	   14.6489	       2.4	6.88801e+06	   75.0852	     14.45	       2.4	7.13152e+06	   74.8758	     14.45	       2.4	7.04741e+06	   74.8666	   14.6828	       2.4	6.62613e+06	   75.0819	   14.5494	       2.4	6.91014e+06	   74.9805	     14.45	       2.4	7.08558e+06	   74.8712	   14.5664	       2.4	6.71623e+06	   74.9726	   14.6658	       2.4	6.74058e+06	
         R10	   2973	   75.2601	   14.6204	       2.4	7.00825e+06	   75.2673	     14.45	       2.4	 7.2199e+06	   75.0852	     14.45	       2.4	 7.1117e+06	   75.0786	   14.6489	       2.4	6.75876e+06	   75.2637	   14.5352	       2.4	7.03833e+06	   75.1763	     14.45	       2.4	 7.1617e+06	   75.0819	   14.5494	       2.4	6.83737e+06	   75.1693	   14.6346	       2.4	6.87215e+06	
         R10	   2974	   75.4145	   14.5914	       2.4	7.18971e+06	   75.4222	     14.45	       2.4	7.33962e+06	   75.2673	     14.45	       2.4	7.24981e+06	   75.2601	   14.6204	       2.4	6.85392e+06	   75.4183	   14.5207	       2.4	7.20749e+06	   75.3448	     14.45	       2.4	7.29271e+06	   75.2637	   14.5352	       2.4	6.97932e+06	   75.3373	   14.6059	       2.4	7.01359e+06	
         R10	   2975	   75.5426	   14.5656	       2.4	7.35317e+06	   75.5497	     14.45	       2.4	7.44355e+06	   75.4222	     14.45	       2.4	 7.3361e+06	   75.4145	   14.5914	       2.4	6.97466e+06	   75.5462	   14.5078	       2.4	7.34982e+06	    75.486	     14.45	       2.4	7.38794e+06	   75.4183	   14.5207	       2.4	7.10168e+06	   75.4785	   14.5785	       2.4	7.15657e+06	
         R10	   2976	     75.65	   14.5579	       2.4	7.53313e+06	     75.65	     14.45	       2.4	7.53171e+06	   75.5497	     14.45	       2.4	7.42744e+06	   75.5426	   14.5656	       2.4	7.29739e+06	     75.65	   14.5039	       2.4	7.48359e+06	   75.5999	     14.45	       2.4	7.47818e+06	   75.5462	   14.5078	       2.4	7.31697e+06	   75.5963	   14.5617	       2.4	7.41044e+06	
         R10	   2977	     75.65	   14.6624	       2.4	7.30269e+06	     75.65	   14.5579	       2.4	7.22286e+06	   75.5426	   14.5656	       2.4	7.06551e+06	   75.5562	   14.6714	       2.4	7.14317e+06	     75.65	   14.6101	       2.4	7.23872e+06	   75.5963	   14.5617	       2.4	7.13996e+06	   75.5494	   14.6185	       2.4	7.07314e+06	   75.6031	   14.6669	       2.4	7.21997e+06	
         R10	   2978	   75.5545	    14.768	       2.4	7.19384e+06	     75.65	   14.7635	       2.4	 7.2363e+06	     75.65	   14.6624	       2.4	7.15323e+06	   75.5562	   14.6714	       2.4	7.00434e+06	   75.6022	   14.7657	       2.4	7.21473e+06	     75.65	   14.7129	       2.4	7.18394e+06	   75.6031	   14.6669	       2.4	7.07563e+06	   75.5553	   14.7197	       2.4	7.08831e+06	
         R10	   2979	   75.5518	   14.8632	       2.4	7.18652e+06	     75.65	   14.8613	       2.4	7.32867e+06	     75.65	   14.7635	       2.4	7.15385e+06	   75.5545	    14.768	       2.4	 7.1023e+06	   75.6009	   14.8623	       2.4	7.25442e+06	     75.65	   14.8124	       2.4	7.23718e+06	   75.6022	   14.7657	       2.4	7.12759e+06	   75.5531	   14.8156	       2.4	7.14063e+06	
         R10	   2980	   75.5528	   14.9548	       2.4	7.26389e+06	     75.65	   14.9557	       2.4	7.28167e+06	     75.65	   14.8613	       2.4	7.28687e+06	   75.5518	   14.8632	       2.4	 7.1773e+06	   75.6014	   14.9553	       2.4	7.27217e+06	     75.65	   14.9085	       2.4	7.28306e+06	   75.6009	   14.8623	       2.4	7.22939e+06	   75.5523	    14.909	       2.4	7.22036e+06	
         R10	   2981	   75.5581	   15.0476	       2.4	7.17222e+06	     75.65	   15.0468	       2.4	7.32396e+06	     75.65	   14.9557	       2.4	7.23725e+06	   75.5528	   14.9548	       2.4	7.25337e+06	    75.604	   15.0472	       2.4	7.24594e+06	     75.65	   15.0013	       2.4	7.28043e+06	   75.6014	   14.9553	       2.4	7.24502e+06	   75.5554	   15.0012	       2.4	7.21232e+06	
         R10	   2982	   75.5655	   15.1311	       2.4	7.19112e+06	     75.65	   15.1346	       2.4	7.19269e+06	     75.65	   15.0468	       2.4	7.30771e+06	   75.5581	   15.0476	       2.4	 7.1595e+06	   75.6077	   15.1329	       2.4	7.19122e+06	     75.65	   15.0907	       2.4	7.24859e+06	    75.604	   15.0472	       2.4	7.23157e+06	   75.5618	   15.0894	       2.4	7.17383e+06	
         R10	   2983	   75.5631	   15.2215	       2.4	  7.124e+06	     75.65	    15.219	       2.4	7.14215e+06	     75.65	   15.1346	       2.4	7.18403e+06	   75.5655	   15.1311	       2.4	7.18066e+06	   75.6066	   15.2202	       2.4	7.13199e+06	     75.65	   15.1768	       2.4	7.15897e+06	   75.6077	   15.1329	       2.4	7.18162e+06	   75.5643	   15.1763	       2.4	7.14738e+06	
         R10	   2984	   75.5691	      15.3	       2.4	7.08577e+06	     75.65	      15.3	       2.4	7.11415e+06	     75.65	    15.219	       2.4	7.15036e+06	   75.5631	   15.2215	       2.4	7.11061e+06	   75.6096	      15.3	       2.4	7.09934e+06	     75.65	   15.2595	       2.4	7.12377e+06	   75.6066	   15.2202	       2.4	7.12894e+06	   75.5661	   15.2607	       2.4	7.09056e+06	
         R10	   2985	   75.4484	   15.1681	       2.4	7.13858e+06	   75.4545	      15.3	       2.4	 7.0426e+06	   75.5691	      15.3	       2.4	7.10482e+06	   75.5631	   15.2215	       2.4	7.10578e+06	   75.4515	    15.234	       2.4	7.07565e+06	   75.5118	      15.3	       2.4	7.07122e+06	   75.5661	   15.2607	       2.4	 7.0972e+06	   75.5058	   15.1948	       2.4	7.12114e+06	
         R10	   2986	   75.2981	   15.0981	       2.4	7.40793e+06	   75.3061	      15.3	       2.4	 7.2141e+06	   75.4545	      15.3	       2.4	6.96662e+06	   75.4484	   15.1681	       2.4	6.85088e+06	   75.3021	    15.199	       2.4	7.26807e+06	   75.3803	      15.3	       2.4	  7.084e+06	   75.4515	    15.234	       2.4	6.89371e+06	   75.3733	   15.1331	       2.4	7.12649e+06	
         R10	   2987	   75.1176	   15.0875	       2.4	6.93789e+06	    75.124	      15.3	       2.4	7.33115e+06	   75.3061	      15.3	       2.4	6.86965e+06	   75.2981	   15.0981	       2.4	7.15356e+06	   75.1208	   15.1938	       2.4	7.09218e+06	   75.2151	      15.3	       2.4	7.09845e+06	   75.3021	    15.199	       2.4	6.97343e+06	   75.2079	   15.0928	       2.4	7.04042e+06	
         R10	   2988	   74.9099	   15.0901	       2.4	6.94862e+06	   74.9081	      15.3	       2.4	7.35303e+06	    75.124	      15.3	       2.4	6.86281e+06	   75.1176	   15.0875	       2.4	7.06741e+06	    74.909	    15.195	       2.4	7.12219e+06	    75.016	      15.3	       2.4	7.09624e+06	   75.1208	   15.1938	       2.4	6.91972e+06	   75.0137	   15.0888	       2.4	7.00561e+06	
         R10	   2989	   74.6498	   15.0178	       2.4	7.13967e+06	   74.6584	      15.3	       2.4	7.66786e+06	   74.9081	      15.3	       2.4	 6.5271e+06	   74.9099	   15.0901	       2.4	6.82464e+06	   74.6541	   15.1589	       2.4	7.33306e+06	   74.7833	      15.3	       2.4	  7.079e+06	    74.909	    15.195	       2.4	6.64082e+06	   74.7798	   15.0539	       2.4	6.97617e+06	
         R10	   2990	    74.375	   15.0167	       2.4	6.68971e+06	    74.375	      15.3	       2.4	7.71545e+06	   74.6584	      15.3	       2.4	6.34044e+06	   74.6498	   15.0178	       2.4	7.22666e+06	    74.375	   15.1583	       2.4	7.18899e+06	   74.5167	      15.3	       2.4	7.00472e+06	   74.6541	   15.1589	       2.4	6.71508e+06	   74.5124	   15.0172	       2.4	 6.9472e+06	
         R10	   2991	   74.6314	   14.7141	       2.4	6.67286e+06	    74.639	     14.45	       2.4	6.94827e+06	    74.375	     14.45	       2.4	6.81809e+06	    74.375	   14.7333	       2.4	6.92172e+06	   74.6352	    14.582	       2.4	6.66135e+06	    74.507	     14.45	       2.4	6.87678e+06	    74.375	   14.5917	       2.4	  6.738e+06	   74.5032	   14.7237	       2.4	6.78475e+06	
         R10	   2992	   75.1077	   14.8596	       2.4	6.94717e+06	   75.0786	   14.6489	       2.4	6.83065e+06	   74.8666	   14.6828	       2.4	6.61557e+06	   74.8995	   14.8852	       2.4	6.97694e+06	   75.0931	   14.7542	       2.4	6.85299e+06	   74.9726	   14.6658	       2.4	6.70884e+06	   74.8831	    14.784	       2.4	6.77549e+06	   75.0036	   14.8724	       2.4	 6.9564e+06	
         R10	   2993	   75.2857	   14.8189	       2.4	6.90839e+06	   75.2601	   14.6204	       2.4	6.91481e+06	   75.0786	   14.6489	       2.4	6.69553e+06	   75.1077	   14.8596	       2.4	 7.0111e+06	   75.2729	   14.7196	       2.4	6.87698e+06	   75.1693	   14.6346	       2.4	 6.7911e+06	   75.0931	   14.7542	       2.4	6.81499e+06	   75.1967	   14.8392	       2.4	6.95475e+06	
         R10	   2994	   75.4356	   14.7085	       2.4	6.58158e+06	   75.4145	   14.5914	       2.4	7.16271e+06	   75.2601	   14.6204	       2.4	 6.8553e+06	   75.2857	   14.8189	       2.4	7.36455e+06	    75.425	   14.6499	       2.4	6.83296e+06	   75.3373	   14.6059	       2.4	7.00643e+06	   75.2729	   14.7196	       2.4	7.07528e+06	   75.3607	   14.7637	       2.4	 6.9363e+06	
         R10	   2995	   75.4295	   14.9708	       2.4	7.28573e+06	   75.5528	   14.9548	       2.4	6.98676e+06	   75.5518	   14.8632	       2.4	 7.1519e+06	   75.4287	   14.8752	       2.4	 6.9449e+06	   75.4911	   14.9628	       2.4	7.13562e+06	   75.5523	    14.909	       2.4	7.06739e+06	   75.4902	   14.8692	       2.4	 7.0369e+06	   75.4291	    14.923	       2.4	7.10874e+06	
         R10	   2996	   74.6314	   14.7141	       2.4	6.66947e+06	    74.375	   14.7333	       2.4	6.91652e+06	    74.375	   15.0167	       2.4	6.84158e+06	   74.6498	   15.0178	       2.4	 7.1464e+06	   74.5032	   14.7237	       2.4	 6.7715e+06	    74.375	    14.875	       2.4	6.84536e+06	   74.5124	   15.0172	       2.4	6.98193e+06	   74.6406	   14.8659	       2.4	6.90506e+06	
         R10	   2997	   74.8995	   14.8852	       2.4	6.82735e+06	   74.8666	   14.6828	       2.4	6.84613e+06	   74.6314	   14.7141	       2.4	 6.7846e+06	   74.6498	   15.0178	       2.4	6.93082e+06	   74.8831	    14.784	       2.4	6.82092e+06	    74.749	   14.6984	       2.4	6.80158e+06	   74.6406	   14.8659	       2.4	6.85403e+06	   74.7746	   14.9515	       2.4	6.86358e+06	
         R10	   2998	   74.8995	   14.8852	       2.4	6.94573e+06	   74.9099	   15.0901	       2.4	 7.0111e+06	   75.1176	   15.0875	       2.4	7.14142e+06	   75.1077	   14.8596	       2.4	6.87373e+06	   74.9047	   14.9876	       2.4	6.97679e+06	   75.0137	   15.0888	       2.4	7.07286e+06	   75.1127	   14.9736	       2.4	7.00688e+06	   75.0036	   14.8724	       2.4	6.90465e+06	
         R10	   2999	   75.1077	   14.8596	       2.4	6.94205e+06	   75.1176	   15.0875	       2.4	7.02503e+06	   75.2981	   15.0981	       2.4	7.11039e+06	   75.2857	   14.8189	       2.4	6.89589e+06	   75.1127	   14.9736	       2.4	6.98172e+06	   75.2079	   15.0928	       2.4	7.06747e+06	   75.2919	   14.9585	       2.4	7.00078e+06	   75.1967	   14.8392	       2.4	6.90775e+06	
         R10	   3000	   75.5562	   14.6714	       2.4	7.06353e+06	   75.5426	   14.5656	       2.4	7.16761e+06	   75.4145	   14.5914	       2.4	6.83657e+06	   75.4356	   14.7085	       2.4	 7.1741e+06	   75.5494	   14.6185	       2.4	7.08557e+06	   75.4785	   14.5785	       2.4	6.99279e+06	    75.425	   14.6499	       2.4	6.96812e+06	   75.4959	   14.6899	       2.4	7.11479e+06	
         R10	   3001	   75.5545	    14.768	       2.4	7.08038e+06	   75.5562	   14.6714	       2.4	7.04034e+06	   75.4356	   14.7085	       2.4	7.16341e+06	   75.4716	   14.7826	       2.4	7.29311e+06	   75.5553	   14.7197	       2.4	7.05161e+06	   75.4959	   14.6899	       2.4	 7.0956e+06	   75.4536	   14.7455	       2.4	7.21185e+06	    75.513	   14.7753	       2.4	7.18599e+06	
         R10	   3002	   75.4287	   14.8752	       2.4	7.04291e+06	   75.5518	   14.8632	       2.4	7.23733e+06	   75.5545	    14.768	       2.4	7.08937e+06	   75.4716	   14.7826	       2.4	7.23335e+06	   75.4902	   14.8692	       2.4	7.12488e+06	   75.5531	   14.8156	       2.4	7.16002e+06	    75.513	   14.7753	       2.4	7.15977e+06	   75.4501	   14.8289	       2.4	7.12051e+06	
         R10	   3003	   75.4356	   14.7085	       2.4	6.81677e+06	   75.2857	   14.8189	       2.4	  7.244e+06	   75.4287	   14.8752	       2.4	6.98652e+06	   75.4716	   14.7826	       2.4	6.68835e+06	   75.3607	   14.7637	       2.4	7.02829e+06	   75.3572	   14.8471	       2.4	7.10597e+06	   75.4501	   14.8289	       2.4	6.83086e+06	   75.4536	   14.7455	       2.4	6.74816e+06	
         R10	   3004	   75.4295	   14.9708	       2.4	7.28412e+06	   75.4287	   14.8752	       2.4	7.09811e+06	   75.2857	   14.8189	       2.4	7.26388e+06	   75.2981	   15.0981	       2.4	6.98309e+06	   75.4291	    14.923	       2.4	7.18986e+06	   75.3572	   14.8471	       2.4	7.18059e+06	   75.2919	   14.9585	       2.4	7.11583e+06	   75.3638	   15.0344	       2.4	7.12029e+06	
         R10	   3005	   75.4295	   14.9708	       2.4	7.18839e+06	   75.2981	   15.0981	       2.4	7.06109e+06	   75.4484	   15.1681	       2.4	 6.8821e+06	   75.4747	   15.0625	       2.4	7.04959e+06	   75.3638	   15.0344	       2.4	7.10875e+06	   75.3733	   15.1331	       2.4	 6.9673e+06	   75.4615	   15.1153	       2.4	 6.9638e+06	   75.4521	   15.0166	       2.4	7.11672e+06	
         R10	   3006	   75.5581	   15.0476	       2.4	7.27474e+06	   75.5528	   14.9548	       2.4	 7.0321e+06	   75.4295	   14.9708	       2.4	7.32527e+06	   75.4747	   15.0625	       2.4	7.18024e+06	   75.5554	   15.0012	       2.4	7.15315e+06	   75.4911	   14.9628	       2.4	7.17841e+06	   75.4521	   15.0166	       2.4	7.24905e+06	   75.5164	   15.0551	       2.4	7.22495e+06	
         R10	   3007	   75.4484	   15.1681	       2.4	7.21475e+06	   75.5655	   15.1311	       2.4	7.07709e+06	   75.5581	   15.0476	       2.4	7.24573e+06	   75.4747	   15.0625	       2.4	 7.1511e+06	    75.507	   15.1496	       2.4	 7.1428e+06	   75.5618	   15.0894	       2.4	7.15979e+06	   75.5164	   15.0551	       2.4	7.19555e+06	   75.4615	   15.1153	       2.4	7.18138e+06	
         R10	   3008	   75.5655	   15.1311	       2.4	7.08832e+06	   75.4484	   15.1681	       2.4	7.19888e+06	   75.5631	   15.2215	       2.4	 7.1172e+06	    75.507	   15.1496	       2.4	7.14076e+06	   75.5058	   15.1948	       2.4	7.15699e+06	   75.5643	   15.1763	       2.4	7.09769e+06	       N/A	       N/A	       N/A	        N/A	       N/A	       N/A	       N/A	        N/A	
         R10	   3009	   74.8995	   14.8852	       2.4	6.91317e+06	   74.6498	   15.0178	       2.4	6.89711e+06	   74.9099	   15.0901	       2.4	6.95422e+06	   74.7746	   14.9515	       2.4	6.89859e+06	   74.7798	   15.0539	       2.4	6.91594e+06	   74.9047	   14.9876	       2.4	6.93338e+06	       N/A	       N/A	       N/A	        N/A	       N/A	       N/A	       N/A	        N/A	
         R10	   3010	   74.8548	    16.113	     3.191	7.77377e+06	   74.8758	   15.9164	   2.99973	7.56891e+06	    74.639	   15.9164	   2.99973	7.45764e+06	   74.6296	   16.1237	    3.2014	7.62041e+06	   74.8653	   16.0147	   3.09536	7.66226e+06	   74.7574	   15.9164	   2.99973	7.51066e+06	   74.6343	     16.02	   3.10056	7.52626e+06	   74.7422	   16.1183	    3.1962	7.69426e+06	
         R10	   3011	    75.058	   16.0772	   3.15615	7.96349e+06	   75.0852	   15.9164	   2.99973	7.64393e+06	   74.8758	   15.9164	   2.99973	7.59029e+06	   74.8548	    16.113	     3.191	7.59743e+06	   75.0716	   15.9968	   3.07794	7.79209e+06	   74.9805	   15.9164	   2.99973	7.61431e+06	   74.8653	   16.0147	   3.09536	7.58169e+06	   74.9564	   16.0951	   3.17357	7.77992e+06	
         R10	   3012	   75.2433	   16.0436	   3.12351	7.98709e+06	   75.2673	   15.9164	   2.99973	7.67577e+06	   75.0852	   15.9164	   2.99973	7.63937e+06	    75.058	   16.0772	   3.15615	7.84235e+06	   75.2553	     15.98	   3.06162	7.82082e+06	   75.1763	   15.9164	   2.99973	7.65669e+06	   75.0716	   15.9968	   3.07794	7.72614e+06	   75.1507	   16.0604	   3.13983	7.91253e+06	
         R10	   3013	   75.3985	   16.0266	   3.10692	7.98319e+06	   75.4222	   15.9164	   2.99973	7.68724e+06	   75.2673	   15.9164	   2.99973	7.64699e+06	   75.2433	   16.0436	   3.12351	8.00007e+06	   75.4103	   15.9715	   3.05332	7.82672e+06	   75.3448	   15.9164	   2.99973	7.66626e+06	   75.2553	     15.98	   3.06162	7.81305e+06	   75.3209	   16.0351	   3.11521	7.99091e+06	
         R10	   3014	   75.5187	   16.0045	   3.08545	8.03111e+06	   75.5497	   15.9164	   2.99973	7.67815e+06	   75.4222	   15.9164	   2.99973	7.70668e+06	   75.3985	   16.0266	   3.10692	8.01465e+06	   75.5342	   15.9604	   3.04259	7.84578e+06	    75.486	   15.9164	   2.99973	7.69224e+06	   75.4103	   15.9715	   3.05332	7.85225e+06	   75.4586	   16.0155	   3.09619	8.02219e+06	
         R10	   3015	   75.6489	   15.9959	    3.0771	   8.06e+06	     75.65	   15.9164	   2.99973	7.63825e+06	   75.5497	   15.9164	   2.99973	7.65537e+06	   75.5187	   16.0045	   3.08545	8.09395e+06	   75.6494	   15.9561	   3.03841	 7.8422e+06	   75.5999	   15.9164	   2.99973	7.64666e+06	   75.5342	   15.9604	   3.04259	7.86708e+06	   75.5838	   16.0002	   3.08128	8.07686e+06	
         R10	   3016	   75.7393	   16.0032	   3.08415	8.10716e+06	   75.7534	   15.9164	   2.99973	7.61251e+06	     75.65	   15.9164	   2.99973	7.63149e+06	   75.6489	   15.9959	    3.0771	8.09435e+06	   75.7464	   15.9598	   3.04194	7.85341e+06	   75.7017	   15.9164	   2.99973	7.62181e+06	   75.6494	   15.9561	   3.03841	7.85624e+06	   75.6941	   15.9995	   3.08063	8.10061e+06	
         R10	   3017	   75.8471	   15.9968	   3.07796	8.05328e+06	   75.8546	   15.9164	   2.99973	7.57165e+06	   75.7534	   15.9164	   2.99973	7.62658e+06	   75.7393	   16.0032	   3.08415	8.07956e+06	   75.8509	   15.9566	   3.03884	7.80609e+06	    75.804	   15.9164	   2.99973	 7.5989e+06	   75.7464	   15.9598	   3.04194	7.84575e+06	   75.7932	        16	   3.08106	8.06637e+06	
         R10	   3018	   75.9387	   15.9848	   3.06633	7.96797e+06	   75.9535	   15.9164	   2.99973	 7.5034e+06	   75.8546	   15.9164	   2.99973	7.57325e+06	   75.8471	   15.9968	   3.07796	8.03116e+06	   75.9461	   15.9506	   3.03303	7.73018e+06	   75.9041	   15.9164	   2.99973	7.53786e+06	   75.8509	   15.9566	   3.03884	 7.7948e+06	   75.8929	   15.9908	   3.07214	7.99952e+06	
         R10	   3019	    76.048	   16.0022	   3.08325	7.83363e+06	   76.0502	   15.9164	   2.99973	7.47062e+06	   75.9535	   15.9164	   2.99973	 7.4509e+06	   75.9387	   15.9848	   3.06633	8.08102e+06	   76.0491	   15.9593	   3.04149	7.65107e+06	   76.0019	   15.9164	   2.99973	 7.4593e+06	   75.9461	   15.9506	   3.03303	7.76313e+06	   75.9934	   15.9935	   3.07479	7.95539e+06	
         R10	   3020	   76.1448	   15.9912	   3.07251	7.66341e+06	   76.1447	   15.9164	   2.99973	7.46597e+06	   76.0502	   15.9164	   2.99973	7.51792e+06	    76.048	   16.0022	   3.08325	 7.7957e+06	   76.1447	   15.9538	   3.03612	7.56314e+06	   76.0974	   15.9164	   2.99973	7.48779e+06	   76.0491	   15.9593	   3.04149	7.65478e+06	   76.0964	   15.9967	   3.07788	7.72868e+06	
         R10	   3021	   76.2352	   15.9884	   3.06976	7.52283e+06	   76.2369	   15.9164	   2.99973	 7.5331e+06	   76.1447	   15.9164	   2.99973	 7.4355e+06	   76.1448	   15.9912	   3.07251	 7.7108e+06	    76.236	   15.9524	   3.03474	 7.5233e+06	   76.1908	   15.9164	   2.99973	7.47559e+06	   76.1447	   15.9538	   3.03612	7.57188e+06	     76.19	   15.9898	   3.07114	7.61415e+06	
         R10	   3022	   76.3237	   15.9844	   3.06589	7.42733e+06	   76.3268	   15.9164	   2.99973	7.83547e+06	   76.2369	   15.9164	   2.99973	7.50919e+06	   76.2352	   15.9884	   3.06976	7.49862e+06	   76.3252	   15.9504	   3.03281	7.61444e+06	   76.2818	   15.9164	   2.99973	7.65676e+06	    76.236	   15.9524	   3.03474	7.49949e+06	   76.2794	   15.9864	   3.06783	7.45043e+06	
         R10	   3023	   76.4133	   15.9823	   3.06386	6.85899e+06	   76.4145	   15.9164	   2.99973	9.40672e+06	   76.3268	   15.9164	   2.99973	7.87925e+06	   76.3237	   15.9844	   3.06589	7.40467e+06	   76.4139	   15.9493	   3.03179	7.86009e+06	   76.3707	   15.9164	   2.99973	8.55424e+06	   76.3252	   15.9504	   3.03281	7.62884e+06	   76.3685	   15.9833	   3.06487	7.11597e+06	
         R10	   3024	      76.5	   15.9761	   3.05784	3.03418e+06	      76.5	   15.9164	   2.99973	1.43545e+07	   76.4145	   15.9164	   2.99973	8.90358e+06	   76.4133	   15.9823	   3.06386	7.83754e+06	      76.5	   15.9462	   3.02878	6.95611e+06	   76.4573	   15.9164	   2.99973	1.15479e+07	   76.4139	   15.9493	   3.03179	7.95053e+06	   76.4567	   15.9792	   3.06085	4.76919e+06	
         R10	   3025	      76.5	   16.0453	   3.12513	4.99392e+06	      76.5	   15.9761	   3.05784	4.87649e+06	   76.4133	   15.9823	   3.06386	8.05134e+06	   76.4167	   16.0504	   3.13008	6.31101e+06	      76.5	   16.0107	   3.09148	4.76458e+06	   76.4567	   15.9792	   3.06085	6.09413e+06	    76.415	   16.0163	   3.09697	7.12707e+06	   76.4584	   16.0478	   3.12761	5.64464e+06	
         R10	   3026	   76.4035	   16.1302	    3.2078	6.47354e+06	      76.5	   16.1239	   3.20162	5.21304e+06	      76.5	   16.0453	   3.12513	5.26896e+06	   76.4167	   16.0504	   3.13008	6.00686e+06	   76.4518	   16.1271	   3.20471	5.84237e+06	      76.5	   16.0846	   3.16338	5.22586e+06	   76.4584	   16.0478	   3.12761	5.61718e+06	   76.4101	   16.0903	   3.16894	6.23662e+06	
         R10	   3027	   76.3428	   16.2177	    3.2929	7.02807e+06	      76.5	   16.2119	    3.2873	5.60993e+06	      76.5	   16.1239	   3.20162	5.32851e+06	   76.4035	   16.1302	    3.2078	6.32656e+06	   76.4214	   16.2148	    3.2901	6.31733e+06	      76.5	   16.1679	   3.24446	5.46063e+06	   76.4518	   16.1271	   3.20471	5.82455e+06	   76.3731	    16.174	   3.25035	6.67157e+06	
         R10	   3028	   76.3382	   16.3206	   3.39306	7.22416e+06	      76.5	   16.3094	   3.38216	6.09121e+06	      76.5	   16.2119	    3.2873	5.64933e+06	   76.3428	   16.2177	    3.2929	6.81024e+06	   76.4191	    16.315	   3.38761	6.64011e+06	      76.5	   16.2607	   3.33473	5.85023e+06	   76.4214	   16.2148	    3.2901	6.22814e+06	   76.3405	   16.2692	   3.34298	7.01069e+06	
         R10	   3029	   76.3248	   16.4246	    3.4942	6.87263e+06	      76.5	   16.4164	   3.48621	6.93702e+06	      76.5	   16.3094	   3.38216	 6.3214e+06	   76.3382	   16.3206	   3.39306	6.82443e+06	   76.4124	   16.4205	    3.4902	6.82163e+06	      76.5	   16.3629	   3.43418	6.53952e+06	   76.4191	    16.315	   3.38761	6.56215e+06	   76.3315	   16.3726	   3.44363	6.83042e+06	
         R10	   3030	   76.3313	   16.5328	   3.59945	6.53462e+06	      76.5	   16.5328	   3.59945	6.81187e+06	      76.5	   16.4164	   3.48621	 7.4369e+06	   76.3248	   16.4246	    3.4942	6.20691e+06	   76.4156	   16.5328	   3.59945	6.57622e+06	      76.5	   16.4746	   3.54283	6.58925e+06	   76.4124	   16.4205	    3.4902	6.75558e+06	    76.328	   16.4787	   3.54682	6.33705e+06	
         R10	   3031	   76.1457	   16.5328	   3.59945	6.93064e+06	   76.3313	   16.5328	   3.59945	6.80338e+06	   76.3248	   16.4246	    3.4942	6.50778e+06	   76.1312	   16.4171	   3.48691	6.82492e+06	   76.2385	   16.5328	   3.59945	6.86371e+06	    76.328	   16.4787	   3.54682	6.62511e+06	    76.228	   16.4208	   3.49055	6.66541e+06	   76.1385	   16.4749	   3.54318	6.84987e+06	
         R10	   3032	   75.9366	   16.4079	     3.478	6.95304e+06	   75.9433	   16.5328	   3.59945	6.90766e+06	   76.1457	   16.5328	   3.59945	6.95435e+06	   76.1312	   16.4171	   3.48691	6.78556e+06	   75.9399	   16.4704	   3.53873	6.88453e+06	   76.0445	   16.5328	   3.59945	6.93096e+06	   76.1385	   16.4749	   3.54318	6.84271e+06	   76.0339	   16.4125	   3.48246	6.86689e+06	
         R10	   3033	   75.7161	    16.402	   3.47219	6.95667e+06	    75.724	   16.5328	   3.59945	6.81881e+06	   75.9433	   16.5328	   3.59945	 6.8923e+06	   75.9366	   16.4079	     3.478	6.98026e+06	   75.7201	   16.4674	   3.53582	6.83682e+06	   75.8336	   16.5328	   3.59945	6.85542e+06	   75.9399	   16.4704	   3.53873	6.89101e+06	   75.8263	    16.405	    3.4751	6.96792e+06	
         R10	   3034	   75.4909	    16.399	   3.46931	6.93342e+06	   75.4879	   16.5328	   3.59945	6.71309e+06	    75.724	   16.5328	   3.59945	6.82901e+06	   75.7161	    16.402	   3.47219	7.01188e+06	   75.4894	   16.4659	   3.53438	6.77132e+06	   75.6059	   16.5328	   3.59945	6.77034e+06	   75.7201	   16.4674	   3.53582	6.86942e+06	   75.6035	   16.4005	   3.47075	6.97234e+06	
         R10	   3035	   75.2321	   16.3784	   3.44929	6.89716e+06	   75.2349	   16.5328	   3.59945	6.58874e+06	   75.4879	   16.5328	   3.59945	6.70563e+06	   75.4909	    16.399	   3.46931	7.00261e+06	   75.2335	   16.4556	   3.52437	6.68166e+06	   75.3614	   16.5328	   3.59945	6.64611e+06	   75.4894	   16.4659	   3.53438	6.80224e+06	   75.3615	   16.3887	    3.4593	6.94835e+06	
         R10	   3036	   74.9194	   16.3258	   3.39811	7.01265e+06	   74.9651	   16.5328	   3.59945	6.40745e+06	   75.2349	   16.5328	   3.59945	6.60128e+06	   75.2321	   16.3784	   3.44929	6.98336e+06	   74.9423	   16.4293	   3.49878	6.62851e+06	      75.1	   16.5328	   3.59945	6.50164e+06	   75.2335	   16.4556	   3.52437	6.73047e+06	   75.0757	   16.3521	    3.4237	 6.9933e+06	
         R10	   3037	   74.6487	   16.3286	   3.40081	7.07633e+06	   74.6785	   16.5328	   3.59945	6.21977e+06	   74.9651	   16.5328	   3.59945	6.44336e+06	   74.9194	   16.3258	   3.39811	6.92546e+06	   74.6636	   16.4307	   3.50013	6.55335e+06	   74.8218	   16.5328	   3.59945	 6.3283e+06	   74.9423	   16.4293	   3.49878	6.60253e+06	   74.7841	   16.3272	   3.39946	6.99862e+06	
         R10	   3038	    74.375	   16.3175	   3.39002	 6.2213e+06	    74.375	   16.5328	   3.59945	6.12379e+06	   74.6785	   16.5328	   3.59945	6.12007e+06	   74.6487	   16.3286	   3.40081	7.19606e+06	    74.375	   16.4251	   3.49474	6.15767e+06	   74.5267	   16.5328	   3.59945	6.10608e+06	   74.6636	   16.4307	   3.50013	6.56625e+06	   74.5119	   16.3231	   3.39542	6.70628e+06	
         R10	   3039	   74.6296	   16.1237	    3.2014	7.42611e+06	    74.639	   15.9164	   2.99973	7.32777e+06	    74.375	   15.9164	   2.99973	6.82801e+06	    74.375	   16.1121	   3.19011	9.05956e+06	   74.6343	     16.02	   3.10056	7.35807e+06	    74.507	   15.9164	   2.99973	7.06685e+06	    74.375	   16.0142	   3.09492	7.85698e+06	   74.5023	   16.1179	   3.19576	8.22754e+06	
         R10	   3040	   75.2807	   16.1671	   3.24366	 7.9097e+06	   75.2433	   16.0436	   3.12351	7.86747e+06	    75.058	   16.0772	   3.15615	 7.7749e+06	   75.1114	   16.2013	    3.2769	7.67595e+06	    75.262	   16.1054	   3.18358	7.88409e+06	   75.1507	   16.0604	   3.13983	7.81914e+06	   75.0847	   16.1392	   3.21653	7.72232e+06	   75.1961	   16.1842	   3.26028	7.79077e+06	
         R10	   3041	   75.4334	   16.1296	   3.20722	8.04922e+06	   75.3985	   16.0266	   3.10692	7.84617e+06	   75.2433	   16.0436	   3.12351	7.86726e+06	   75.2807	   16.1671	   3.24366	7.88654e+06	   75.4159	   16.0781	   3.15707	7.94346e+06	   75.3209	   16.0351	   3.11521	7.85653e+06	    75.262	   16.1054	   3.18358	7.87153e+06	    75.357	   16.1484	   3.22544	7.96637e+06	
         R10	   3042	   75.5878	   16.0948	   3.17329	8.04195e+06	   75.5187	   16.0045	   3.08545	 7.8525e+06	   75.3985	   16.0266	   3.10692	7.89007e+06	   75.4334	   16.1296	   3.20722	7.92029e+06	   75.5533	   16.0496	   3.12937	7.94275e+06	   75.4586	   16.0155	   3.09619	7.87046e+06	   75.4159	   16.0781	   3.15707	7.89994e+06	   75.5106	   16.1122	   3.19026	7.98104e+06	
         R10	   3043	    75.859	   16.0821	   3.16093	7.98557e+06	   75.8471	   15.9968	   3.07796	7.72285e+06	   75.7393	   16.0032	   3.08415	7.80594e+06	   75.7361	   16.0877	   3.16636	8.06126e+06	   75.8531	   16.0394	   3.11944	7.85184e+06	   75.7932	        16	   3.08106	7.76438e+06	   75.7377	   16.0454	   3.12526	7.93119e+06	   75.7976	   16.0849	   3.16365	8.02316e+06	
         R10	   3044	   75.9525	   16.0655	   3.14479	7.78528e+06	   75.9387	   15.9848	   3.06633	7.70954e+06	   75.8471	   15.9968	   3.07796	 7.7478e+06	    75.859	   16.0821	   3.16093	7.98952e+06	   75.9456	   16.0252	   3.10556	7.74572e+06	   75.8929	   15.9908	   3.07214	7.72838e+06	   75.8531	   16.0394	   3.11944	7.86598e+06	   75.9058	   16.0738	   3.15286	7.88735e+06	
         R10	   3045	   76.1467	   16.0743	   3.15333	7.59601e+06	   76.1448	   15.9912	   3.07251	7.36833e+06	    76.048	   16.0022	   3.08325	7.62398e+06	   76.0741	   16.0714	   3.15057	7.67551e+06	   76.1458	   16.0327	   3.11292	7.47904e+06	   76.0964	   15.9967	   3.07788	7.49391e+06	   76.0611	   16.0368	   3.11691	7.64941e+06	   76.1104	   16.0728	   3.15195	7.63547e+06	
         R10	   3046	   76.2333	   16.0641	   3.14348	7.33488e+06	   76.2352	   15.9884	   3.06976	 7.1639e+06	   76.1448	   15.9912	   3.07251	7.37052e+06	   76.1467	   16.0743	   3.15333	7.55967e+06	   76.2342	   16.0262	   3.10662	7.23819e+06	     76.19	   15.9898	   3.07114	7.26321e+06	   76.1458	   16.0327	   3.11292	7.46159e+06	     76.19	   16.0692	   3.14841	7.44579e+06	
         R10	   3047	   76.3243	   16.0502	   3.12991	6.97898e+06	   76.3237	   15.9844	   3.06589	7.03496e+06	   76.2352	   15.9884	   3.06976	7.20559e+06	   76.2333	   16.0641	   3.14348	7.30375e+06	    76.324	   16.0173	    3.0979	6.97535e+06	   76.2794	   15.9864	   3.06783	 7.1165e+06	   76.2342	   16.0262	   3.10662	7.24163e+06	   76.2788	   16.0572	   3.13669	7.14073e+06	
         R10	   3048	   76.4167	   16.0504	   3.13008	6.53487e+06	   76.4133	   15.9823	   3.06386	6.50659e+06	   76.3237	   15.9844	   3.06589	6.93037e+06	   76.3243	   16.0502	   3.12991	7.05963e+06	    76.415	   16.0163	   3.09697	6.48017e+06	   76.3685	   15.9833	   3.06487	6.71416e+06	    76.324	   16.0173	    3.0979	6.97189e+06	   76.3705	   16.0503	      3.13	6.79214e+06	
         R10	   3049	   76.1539	    16.313	    3.3856	7.49222e+06	   76.3382	   16.3206	   3.39306	7.13389e+06	   76.3428	   16.2177	    3.2929	6.82926e+06	   76.1948	   16.2389	   3.31352	7.30725e+06	    76.246	   16.3168	   3.38933	7.31258e+06	   76.3405	   16.2692	   3.34298	6.97761e+06	   76.2688	   16.2283	   3.30321	7.06443e+06	   76.1744	   16.2759	   3.34956	7.38331e+06	
         R10	   3050	   76.1312	   16.4171	   3.48691	7.35671e+06	   76.3248	   16.4246	    3.4942	7.11083e+06	   76.3382	   16.3206	   3.39306	6.66825e+06	   76.1539	    16.313	    3.3856	7.24047e+06	    76.228	   16.4208	   3.49055	7.23363e+06	   76.3315	   16.3726	   3.44363	6.88427e+06	    76.246	   16.3168	   3.38933	 6.9477e+06	   76.1426	    16.365	   3.43626	 7.2835e+06	
         R10	   3051	   75.7306	   16.2889	   3.36222	7.45933e+06	   75.7161	    16.402	   3.47219	7.28998e+06	   75.9366	   16.4079	     3.478	7.29253e+06	   75.9652	   16.2789	   3.35242	7.44785e+06	   75.7233	   16.3455	    3.4172	7.35826e+06	   75.8263	    16.405	    3.4751	7.29047e+06	   75.9509	   16.3434	   3.41521	7.35317e+06	   75.8479	   16.2839	   3.35732	7.45299e+06	
         R10	   3052	   75.5199	   16.2631	   3.33709	7.59969e+06	   75.4909	    16.399	   3.46931	7.17631e+06	   75.7161	    16.402	   3.47219	7.35951e+06	   75.7306	   16.2889	   3.36222	7.37953e+06	   75.5054	   16.3311	    3.4032	7.36973e+06	   75.6035	   16.4005	   3.47075	7.26707e+06	   75.7233	   16.3455	    3.4172	7.35355e+06	   75.6252	    16.276	   3.34965	7.48835e+06	
         R10	   3053	   74.6296	   16.1237	    3.2014	 7.6374e+06	    74.375	   16.1121	   3.19011	7.62016e+06	    74.375	   16.3175	   3.39002	6.64221e+06	   74.6487	   16.3286	   3.40081	7.06061e+06	   74.5023	   16.1179	   3.19576	7.59038e+06	    74.375	   16.2148	   3.29007	  7.117e+06	   74.5119	   16.3231	   3.39542	6.84216e+06	   74.6392	   16.2261	   3.30111	7.31912e+06	
         R10	   3054	   74.8548	    16.113	     3.191	7.79782e+06	   74.6296	   16.1237	    3.2014	 7.7542e+06	   74.6487	   16.3286	   3.40081	6.94178e+06	   74.9194	   16.3258	   3.39811	7.20484e+06	   74.7422	   16.1183	    3.1962	7.77363e+06	   74.6392	   16.2261	   3.30111	7.32875e+06	   74.7841	   16.3272	   3.39946	7.06611e+06	   74.8871	   16.2194	   3.29455	7.49921e+06	
         R10	   3055	   75.1114	   16.2013	    3.2769	7.17854e+06	    75.058	   16.0772	   3.15615	7.90219e+06	   74.8548	    16.113	     3.191	7.57079e+06	   74.9194	   16.3258	   3.39811	7.76518e+06	   75.0847	   16.1392	   3.21653	7.53132e+06	   74.9564	   16.0951	   3.17357	7.73568e+06	   74.8871	   16.2194	   3.29455	7.66293e+06	   75.0154	   16.2635	   3.33751	7.46477e+06	
         R10	   3056	   75.7361	   16.0877	   3.16636	8.02739e+06	   75.7393	   16.0032	   3.08415	7.77041e+06	   75.6489	   15.9959	    3.0771	7.83802e+06	   75.5878	   16.0948	   3.17329	8.05507e+06	   75.7377	   16.0454	   3.12526	7.89659e+06	   75.6941	   15.9995	   3.08063	7.80395e+06	   75.6183	   16.0453	    3.1252	7.94438e+06	   75.6619	   16.0912	   3.16983	8.04093e+06	
         R10	   3057	   76.0741	   16.0714	   3.15057	7.51396e+06	    76.048	   16.0022	   3.08325	7.56875e+06	   75.9525	   16.0655	   3.14479	7.90176e+06	   76.0058	   16.1319	   3.20943	7.63147e+06	   76.0611	   16.0368	   3.11691	7.54113e+06	   76.0003	   16.0339	   3.11402	7.73438e+06	   75.9792	   16.0987	   3.17711	7.76609e+06	     76.04	   16.1017	      3.18	7.57266e+06	
         R10	   3058	   76.2577	   16.1396	   3.21693	7.20182e+06	   76.2333	   16.0641	   3.14348	7.20985e+06	   76.1467	   16.0743	   3.15333	7.46752e+06	   76.1129	   16.1834	    3.2595	7.63183e+06	   76.2455	   16.1019	   3.18021	7.19508e+06	     76.19	   16.0692	   3.14841	7.33642e+06	   76.1298	   16.1288	   3.20641	7.54456e+06	   76.1853	   16.1615	   3.23822	7.41674e+06	
         R10	   3059	    75.898	   16.1725	   3.24894	7.76394e+06	   76.0058	   16.1319	   3.20943	7.82718e+06	   75.9525	   16.0655	   3.14479	7.70291e+06	    75.859	   16.0821	   3.16093	7.83836e+06	   75.9519	   16.1522	   3.22918	7.79326e+06	   75.9792	   16.0987	   3.17711	7.76498e+06	   75.9058	   16.0738	   3.15286	7.77062e+06	   75.8785	   16.1273	   3.20494	7.79909e+06	
         R10	   3060	    75.898	   16.1725	   3.24894	7.87649e+06	    75.859	   16.0821	   3.16093	7.74794e+06	   75.7361	   16.0877	   3.16636	7.86327e+06	   75.7445	   16.1842	   3.26031	7.94537e+06	   75.8785	   16.1273	   3.20494	7.81084e+06	   75.7976	   16.0849	   3.16365	7.80554e+06	   75.7403	   16.1359	   3.21334	 7.9019e+06	   75.8213	   16.1784	   3.25463	7.91081e+06	
         R10	   3061	   76.1467	   16.0743	   3.15333	7.39187e+06	   76.0741	   16.0714	   3.15057	7.59338e+06	   76.0058	   16.1319	   3.20943	7.65431e+06	   76.1129	   16.1834	    3.2595	7.55961e+06	   76.1104	   16.0728	   3.15195	7.49174e+06	     76.04	   16.1017	      3.18	7.62321e+06	   76.0594	   16.1576	   3.23446	 7.6054e+06	   76.1298	   16.1288	   3.20641	 7.4696e+06	
         R10	   3062	   76.3243	   16.0502	   3.12991	6.88306e+06	   76.2333	   16.0641	   3.14348	7.14483e+06	   76.2577	   16.1396	   3.21693	7.28316e+06	   76.3301	   16.1107	   3.18878	6.89888e+06	   76.2788	   16.0572	   3.13669	7.01356e+06	   76.2455	   16.1019	   3.18021	7.20624e+06	   76.2939	   16.1252	   3.20286	7.09062e+06	   76.3272	   16.0804	   3.15935	6.88186e+06	
         R10	   3063	   76.4035	   16.1302	    3.2078	6.51895e+06	   76.4167	   16.0504	   3.13008	6.21048e+06	   76.3243	   16.0502	   3.12991	6.87778e+06	   76.3301	   16.1107	   3.18878	6.96617e+06	   76.4101	   16.0903	   3.16894	6.36164e+06	   76.3705	   16.0503	      3.13	6.53802e+06	   76.3272	   16.0804	   3.15935	6.90851e+06	   76.3668	   16.1205	   3.19829	6.74187e+06	
         R10	   3064	   76.2577	   16.1396	   3.21693	7.30022e+06	   76.3428	   16.2177	    3.2929	6.94757e+06	   76.4035	   16.1302	    3.2078	6.20141e+06	   76.3301	   16.1107	   3.18878	6.88996e+06	   76.3002	   16.1787	   3.25492	 7.1202e+06	   76.3731	    16.174	   3.25035	6.57044e+06	   76.3668	   16.1205	   3.19829	6.54502e+06	   76.2939	   16.1252	   3.20286	7.09456e+06	
         R10	   3065	   76.1948	   16.2389	   3.31352	7.43689e+06	   76.3428	   16.2177	    3.2929	7.02873e+06	   76.2577	   16.1396	   3.21693	 7.0926e+06	   76.1129	   16.1834	    3.2595	7.57618e+06	   76.2688	   16.2283	   3.30321	7.23246e+06	   76.3002	   16.1787	   3.25492	7.05728e+06	   76.1853	   16.1615	   3.23822	7.33384e+06	   76.1538	   16.2111	   3.28651	7.50199e+06	
         R10	   3066	   75.9652	   16.2789	   3.35242	7.46974e+06	   75.9366	   16.4079	     3.478	7.27772e+06	   76.1312	   16.4171	   3.48691	7.30425e+06	   76.1539	    16.313	    3.3856	7.20902e+06	   75.9509	   16.3434	   3.41521	7.35856e+06	   76.0339	   16.4125	   3.48246	7.28966e+06	   76.1426	    16.365	   3.43626	7.24101e+06	   76.0595	   16.2959	   3.36901	7.33765e+06	
         R10	   3067	   75.9652	   16.2789	   3.35242	 7.7543e+06	   76.1539	    16.313	    3.3856	7.55915e+06	   76.1948	   16.2389	   3.31352	7.11729e+06	   76.1129	   16.1834	    3.2595	7.48396e+06	   76.0595	   16.2959	   3.36901	7.65204e+06	   76.1744	   16.2759	   3.34956	7.33226e+06	   76.1538	   16.2111	   3.28651	7.29801e+06	    76.039	   16.2311	   3.30596	7.61402e+06	
         R10	   3068	   75.9652	   16.2789	   3.35242	7.74378e+06	   76.1129	   16.1834	    3.2595	7.38002e+06	   76.0058	   16.1319	   3.20943	7.77451e+06	    75.898	   16.1725	   3.24894	7.77113e+06	    76.039	   16.2311	   3.30596	7.55867e+06	   76.0594	   16.1576	   3.23446	7.57718e+06	   75.9519	   16.1522	   3.22918	7.77269e+06	   75.9316	   16.2257	   3.30068	7.75173e+06	
         R10	   3069	   75.7306	   16.2889	   3.36222	7.71489e+06	   75.9652	   16.2789	   3.35242	 7.6194e+06	    75.898	   16.1725	   3.24894	7.71132e+06	   75.7445	   16.1842	   3.26031	7.75725e+06	   75.8479	   16.2839	   3.35732	7.66703e+06	   75.9316	   16.2257	   3.30068	7.66004e+06	   75.8213	   16.1784	   3.25463	7.73411e+06	   75.7375	   16.2366	   3.31126	7.72992e+06	
         R10	   3070	   75.5199	   16.2631	   3.33709	7.81169e+06	   75.7306	   16.2889	   3.36222	7.70957e+06	   75.7445	   16.1842	   3.26031	7.67472e+06	   75.6229	   16.1742	   3.25058	7.75514e+06	   75.6252	    16.276	   3.34965	7.75889e+06	   75.7375	   16.2366	   3.31126	 7.6864e+06	   75.6837	   16.1792	   3.25544	 7.7147e+06	   75.5714	   16.2187	   3.29383	7.78187e+06	
         R10	   3071	   75.5878	   16.0948	   3.17329	7.97181e+06	   75.4334	   16.1296	   3.20722	 7.8692e+06	   75.5199	   16.2631	   3.33709	7.81593e+06	   75.6229	   16.1742	   3.25058	7.65065e+06	   75.5106	   16.1122	   3.19026	7.91994e+06	   75.4766	   16.1964	   3.27215	7.83842e+06	   75.5714	   16.2187	   3.29383	7.73095e+06	   75.6053	   16.1345	   3.21193	 7.8076e+06	
         R10	   3072	   75.7445	   16.1842	   3.26031	7.93127e+06	   75.7361	   16.0877	   3.16636	7.81195e+06	   75.5878	   16.0948	   3.17329	7.89819e+06	   75.6229	   16.1742	   3.25058	8.02299e+06	   75.7403	   16.1359	   3.21334	7.86932e+06	   75.6619	   16.0912	   3.16983	7.85495e+06	   75.6053	   16.1345	   3.21193	   7.96e+06	   75.6837	   16.1792	   3.25544	7.97683e+06	
         R10	   3073	   75.5199	   16.2631	   3.33709	7.70486e+06	   75.4334	   16.1296	   3.20722	7.98696e+06	   75.2807	   16.1671	   3.24366	7.75817e+06	   75.3437	    16.264	   3.33793	 7.7142e+06	   75.4766	   16.1964	   3.27215	7.84113e+06	    75.357	   16.1484	   3.22544	7.87248e+06	   75.3122	   16.2155	    3.2908	7.73553e+06	   75.4318	   16.2636	   3.33751	7.70707e+06	
         R10	   3074	   75.2321	   16.3784	   3.44929	7.31607e+06	   75.4909	    16.399	   3.46931	  7.243e+06	   75.5199	   16.2631	   3.33709	7.52116e+06	   75.3437	    16.264	   3.33793	7.34983e+06	   75.3615	   16.3887	    3.4593	7.27265e+06	   75.5054	   16.3311	    3.4032	7.36354e+06	   75.4318	   16.2636	   3.33751	7.43139e+06	   75.2879	   16.3212	   3.39361	7.32968e+06	
         R10	   3075	   75.2807	   16.1671	   3.24366	7.72521e+06	   75.1114	   16.2013	    3.2769	7.60161e+06	   75.2321	   16.3784	   3.44929	7.36304e+06	   75.3437	    16.264	   3.33793	 7.1002e+06	   75.1961	   16.1842	   3.26028	7.65873e+06	   75.1717	   16.2898	   3.36309	7.46415e+06	   75.2879	   16.3212	   3.39361	7.22787e+06	   75.3122	   16.2155	    3.2908	7.41147e+06	
         R10	   3076	   75.6489	   15.9959	    3.0771	7.85698e+06	   75.5187	   16.0045	   3.08545	  7.865e+06	   75.5878	   16.0948	   3.17329	8.00022e+06	   75.5838	   16.0002	   3.08128	7.86075e+06	   75.5533	   16.0496	   3.12937	7.92812e+06	   75.6183	   16.0453	    3.1252	7.92541e+06	       N/A	       N/A	       N/A	        N/A	       N/A	       N/A	       N/A	        N/A	
         R10	   3077	    76.048	   16.0022	   3.08325	7.54693e+06	   75.9387	   15.9848	   3.06633	7.68306e+06	   75.9525	   16.0655	   3.14479	 7.8182e+06	   75.9934	   15.9935	   3.07479	7.61415e+06	   75.9456	   16.0252	   3.10556	7.75021e+06	   76.0003	   16.0339	   3.11402	7.68112e+06	       N/A	       N/A	       N/A	        N/A	       N/A	       N/A	       N/A	        N/A	
         R10	   3078	   75.1114	   16.2013	    3.2769	7.27226e+06	   74.9194	   16.3258	   3.39811	  7.611e+06	   75.2321	   16.3784	   3.44929	7.46204e+06	   75.0154	   16.2635	   3.33751	7.43785e+06	   75.0757	   16.3521	    3.4237	 7.5317e+06	   75.1717	   16.2898	   3.36309	7.35079e+06	       N/A	       N/A	       N/A	        N/A	       N/A	       N/A	       N/A	        N/A	
         R10	   3079	   73.0071	      15.3	       1.6	7.44588e+06	     72.25	      15.3	       1.6	7.54869e+06	     72.25	      15.3	       2.4	6.87024e+06	   73.0071	      15.3	       2.4	5.49447e+06	   72.6286	      15.3	       1.6	7.14676e+06	     72.25	      15.3	         2	6.44884e+06	   72.6286	      15.3	       2.4	5.60671e+06	   73.0071	      15.3	         2	6.24552e+06	
         R10	   3080	   73.6137	      15.3	       1.6	7.97459e+06	   73.0071	      15.3	       1.6	8.20648e+06	   73.0071	      15.3	       2.4	7.13848e+06	   73.6137	      15.3	       2.4	6.24319e+06	   73.3104	      15.3	       1.6	7.87221e+06	   73.0071	      15.3	         2	7.29766e+06	   73.3104	      15.3	       2.4	 6.6332e+06	   73.6137	      15.3	         2	7.05518e+06	
         R10	   3081	   74.0696	      15.3	   2.01934	7.52199e+06	   74.0696	      15.3	       2.4	 5.4669e+06	    74.375	      15.3	       2.4	8.69657e+06	    74.375	      15.3	   2.13333	8.33783e+06	   74.0696	      15.3	   2.20967	 6.4907e+06	   74.2223	      15.3	       2.4	7.06435e+06	    74.375	      15.3	   2.26667	 8.4998e+06	   74.2223	      15.3	   2.07633	7.92363e+06	
         R10	   3082	   74.0696	      15.3	   2.01934	 7.9786e+06	    74.375	      15.3	   1.86667	8.30025e+06	    74.375	      15.3	       1.6	8.44665e+06	   74.0696	      15.3	       1.6	8.44736e+06	   74.2223	      15.3	     1.943	8.11917e+06	    74.375	      15.3	   1.73333	8.36793e+06	   74.2223	      15.3	       1.6	8.43533e+06	   74.0696	      15.3	   1.80967	8.18216e+06	
         R10	   3083	   74.0696	      15.3	   2.01934	6.04525e+06	   74.0696	      15.3	       1.6	8.14296e+06	   73.6137	      15.3	       1.6	7.92908e+06	   73.6137	      15.3	       2.4	8.86794e+06	   74.0696	      15.3	   1.80967	7.06436e+06	   73.8416	      15.3	       1.6	8.02789e+06	   73.6137	      15.3	         2	8.36537e+06	   73.8416	      15.3	   2.20967	7.44803e+06	
         R10	   3084	   74.0696	      15.3	   2.01934	7.76777e+06	    74.375	      15.3	   2.13333	8.44892e+06	    74.375	      15.3	   1.86667	8.27475e+06	   74.2223	      15.3	   2.07633	8.10687e+06	    74.375	      15.3	         2	8.35779e+06	   74.2223	      15.3	     1.943	8.01635e+06	       N/A	       N/A	       N/A	        N/A	       N/A	       N/A	       N/A	        N/A	
         R10	   3085	   73.6137	      15.3	       2.4	7.10129e+06	   74.0696	      15.3	       2.4	8.33921e+06	   74.0696	      15.3	   2.01934	 5.9965e+06	   73.8416	      15.3	       2.4	7.65058e+06	   74.0696	      15.3	   2.20967	7.15019e+06	   73.8416	      15.3	   2.20967	6.51274e+06	       N/A	       N/A	       N/A	        N/A	       N/A	       N/A	       N/A	        N/A	
         R10	   3086	    72.961	      15.3	         0	9.51113e+06	     72.25	      15.3	         0	1.21902e+07	     72.25	      15.3	       0.8	7.71134e+06	    72.986	      15.3	       0.8	9.05983e+06	   72.6055	      15.3	         0	1.06473e+07	     72.25	      15.3	       0.4	9.94478e+06	    72.618	      15.3	       0.8	8.23352e+06	   72.9735	      15.3	       0.4	9.27859e+06	
         R10	   3087	   73.6123	      15.3	         0	9.55691e+06	    72.961	      15.3	         0	1.02733e+07	    72.986	      15.3	       0.8	8.79443e+06	   73.5855	      15.3	       0.8	9.04895e+06	   73.2867	      15.3	         0	9.90538e+06	   72.9735	      15.3	       0.4	9.48351e+06	   73.2857	      15.3	       0.8	8.81971e+06	   73.5989	      15.3	       0.4	9.27914e+06	
         R10	   3088	   74.0142	      15.3	  0.419023	 9.6062e+06	   74.0485	      15.3	       0.8	9.56464e+06	    74.375	      15.3	       0.8	9.36993e+06	   74.3438	      15.3	  0.426322	9.48673e+06	   74.0313	      15.3	  0.609512	9.41381e+06	   74.2117	      15.3	       0.8	9.45524e+06	   74.3594	      15.3	  0.613161	9.41028e+06	    74.179	      15.3	  0.422673	9.44725e+06	
         R10	   3089	   74.3438	      15.3	  0.426322	9.42899e+06	    74.375	      15.3	       0.8	 9.3171e+06	   74.6887	      15.3	       0.8	9.35286e+06	   74.6494	      15.3	  0.459467	 9.3182e+06	   74.3594	      15.3	  0.613161	9.34388e+06	   74.5318	      15.3	       0.8	9.33461e+06	    74.669	      15.3	  0.629734	9.32701e+06	   74.4966	      15.3	  0.442895	9.32712e+06	
         R10	   3090	   74.6494	      15.3	  0.459467	9.06188e+06	   74.6887	      15.3	       0.8	9.33216e+06	    74.983	      15.3	       0.8	9.51978e+06	    74.983	      15.3	  0.471679	1.01785e+07	    74.669	      15.3	  0.629734	 9.1893e+06	   74.8358	      15.3	       0.8	9.42296e+06	    74.983	      15.3	   0.63584	9.84695e+06	   74.8162	      15.3	  0.465573	9.59973e+06	
         R10	   3091	    74.983	      15.3	  0.471679	9.31418e+06	    74.983	      15.3	       0.8	9.49059e+06	   75.2579	      15.3	       0.8	9.55354e+06	   75.2411	      15.3	  0.455406	9.62989e+06	    74.983	      15.3	   0.63584	9.39504e+06	   75.1204	      15.3	       0.8	9.52064e+06	   75.2495	      15.3	  0.627703	9.56843e+06	    75.112	      15.3	  0.463543	 9.4476e+06	
         R10	   3092	   75.2411	      15.3	  0.455406	9.91378e+06	   75.2579	      15.3	       0.8	9.71368e+06	   75.5134	      15.3	       0.8	9.93052e+06	   75.5031	      15.3	  0.486008	1.04047e+07	   75.2495	      15.3	  0.627703	 9.7779e+06	   75.3856	      15.3	       0.8	9.81617e+06	   75.5082	      15.3	  0.643004	1.01496e+07	   75.3721	      15.3	  0.470707	 1.0109e+07	
         R10	   3093	   75.5031	      15.3	  0.486008	 9.3042e+06	   75.5134	      15.3	       0.8	9.89973e+06	   75.7495	      15.3	       0.8	9.94874e+06	   75.7322	      15.3	  0.552431	1.13673e+07	   75.5082	      15.3	  0.643004	9.56946e+06	   75.6314	      15.3	       0.8	9.91877e+06	   75.7409	      15.3	  0.676215	1.06549e+07	   75.6177	      15.3	  0.519219	 1.0296e+07	
         R10	   3094	   75.7322	      15.3	  0.552431	1.01501e+07	   75.7495	      15.3	       0.8	1.00229e+07	   75.9662	      15.3	       0.8	1.00938e+07	   75.9608	      15.3	  0.582564	 1.0667e+07	   75.7409	      15.3	  0.676215	1.00827e+07	   75.8578	      15.3	       0.8	1.00474e+07	   75.9635	      15.3	  0.691282	1.03753e+07	   75.8465	      15.3	  0.567497	1.03941e+07	
         R10	   3095	   75.9608	      15.3	  0.582564	1.07454e+07	   75.9662	      15.3	       0.8	1.00104e+07	   76.1635	      15.3	       0.8	1.01793e+07	   76.1385	      15.3	  0.567834	1.08702e+07	   75.9635	      15.3	  0.691282	1.03726e+07	   76.0648	      15.3	       0.8	1.00881e+07	    76.151	      15.3	  0.683917	1.05245e+07	   76.0497	      15.3	  0.575199	 1.0791e+07	
         R10	   3096	   76.1385	      15.3	  0.567834	1.07538e+07	   76.1635	      15.3	       0.8	1.01781e+07	   76.3415	      15.3	       0.8	1.02511e+07	   76.3447	      15.3	  0.636697	1.08605e+07	    76.151	      15.3	  0.683917	1.04648e+07	   76.2525	      15.3	       0.8	1.02085e+07	   76.3431	      15.3	  0.718348	1.05555e+07	   76.2416	      15.3	  0.602265	1.07954e+07	
         R10	   3097	   76.3447	      15.3	  0.636697	1.04499e+07	   76.3415	      15.3	       0.8	1.01316e+07	      76.5	      15.3	       0.8	1.02628e+07	      76.5	      15.3	  0.637669	1.12624e+07	   76.3431	      15.3	  0.718348	1.02897e+07	   76.4207	      15.3	       0.8	1.01816e+07	      76.5	      15.3	  0.718834	1.06908e+07	   76.4224	      15.3	  0.637183	1.08222e+07	
         R10	   3098	   76.3447	      15.3	  0.636697	1.04775e+07	      76.5	      15.3	  0.637669	1.09719e+07	      76.5	      15.3	  0.450225	1.14196e+07	   76.3052	      15.3	  0.436837	1.12702e+07	   76.4224	      15.3	  0.637183	1.07157e+07	      76.5	      15.3	  0.543947	1.11674e+07	   76.4026	      15.3	  0.443531	1.13053e+07	    76.325	      15.3	  0.536767	1.08603e+07	
         R10	   3099	   76.3052	      15.3	  0.436837	1.13263e+07	      76.5	      15.3	  0.450225	1.12036e+07	      76.5	      15.3	  0.237669	1.16738e+07	    76.271	      15.3	  0.237031	 1.2903e+07	   76.4026	      15.3	  0.443531	 1.1242e+07	      76.5	      15.3	  0.343947	1.13918e+07	   76.3855	      15.3	   0.23735	1.21598e+07	   76.2881	      15.3	  0.336934	1.20583e+07	
         R10	   3100	    76.271	      15.3	  0.237031	1.27218e+07	      76.5	      15.3	  0.237669	1.12861e+07	      76.5	      15.3	         0	 1.5553e+07	   76.2666	      15.3	         0	1.31353e+07	   76.3855	      15.3	   0.23735	1.19416e+07	      76.5	      15.3	  0.118834	1.32235e+07	   76.3833	      15.3	         0	1.41405e+07	   76.2688	      15.3	  0.118515	 1.2842e+07	
         R10	   3101	   76.0351	      15.3	  0.261056	1.09066e+07	    76.271	      15.3	  0.237031	1.28686e+07	   76.2666	      15.3	         0	1.11275e+07	   75.9734	      15.3	         0	  1.171e+07	    76.153	      15.3	  0.249044	1.18315e+07	   76.2688	      15.3	  0.118515	1.18073e+07	     76.12	      15.3	         0	1.13677e+07	   76.0042	      15.3	  0.130528	1.12911e+07	
         R10	   3102	   73.6123	      15.3	         0	8.94979e+06	   73.5855	      15.3	       0.8	9.25026e+06	   74.0485	      15.3	       0.8	9.24672e+06	   74.0142	      15.3	  0.419023	1.02485e+07	   73.5989	      15.3	       0.4	9.07023e+06	    73.817	      15.3	       0.8	9.22861e+06	   74.0313	      15.3	  0.609512	9.60523e+06	   73.8133	      15.3	  0.209512	9.57368e+06	
         R10	   3103	   74.2039	      15.3	         0	 8.7549e+06	   73.6123	      15.3	         0	1.03714e+07	   74.0142	      15.3	  0.419023	9.88726e+06	   74.3438	      15.3	  0.426322	9.47022e+06	   73.9081	      15.3	         0	9.50149e+06	   73.8133	      15.3	  0.209512	1.00108e+07	    74.179	      15.3	  0.422673	9.59201e+06	   74.2738	      15.3	  0.213161	 9.0637e+06	
         R10	   3104	   74.7358	      15.3	         0	8.93107e+06	   74.2039	      15.3	         0	  1.057e+07	   74.3438	      15.3	  0.426322	9.49967e+06	   74.6494	      15.3	  0.459467	9.14909e+06	   74.4699	      15.3	         0	 9.7496e+06	   74.2738	      15.3	  0.213161	1.00001e+07	   74.4966	      15.3	  0.442895	9.29218e+06	   74.6926	      15.3	  0.229734	 9.0162e+06	
         R10	   3105	   76.1385	      15.3	  0.567834	 1.1101e+07	   76.3052	      15.3	  0.436837	1.14459e+07	    76.271	      15.3	  0.237031	1.24751e+07	   76.0351	      15.3	  0.261056	1.06444e+07	   76.2218	      15.3	  0.502336	1.12645e+07	   76.2881	      15.3	  0.336934	1.19255e+07	    76.153	      15.3	  0.249044	1.15372e+07	   76.0868	      15.3	  0.414445	1.08375e+07	
         R10	   3106	   75.9608	      15.3	  0.582564	1.07846e+07	   76.1385	      15.3	  0.567834	1.09713e+07	   76.0351	      15.3	  0.261056	1.14442e+07	   75.8083	      15.3	  0.329547	1.07359e+07	   76.0497	      15.3	  0.575199	1.08706e+07	   76.0868	      15.3	  0.414445	 1.1196e+07	   75.9217	      15.3	  0.295301	 1.1053e+07	   75.8846	      15.3	  0.456055	1.07264e+07	
         R10	   3107	   75.8083	      15.3	  0.329547	  1.063e+07	   76.0351	      15.3	  0.261056	1.12601e+07	   75.9734	      15.3	         0	 9.8989e+06	   75.6206	      15.3	         0	1.11533e+07	   75.9217	      15.3	  0.295301	1.09109e+07	   76.0042	      15.3	  0.130528	1.04876e+07	    75.797	      15.3	         0	1.04485e+07	   75.7145	      15.3	  0.164773	1.08456e+07	
         R10	   3108	   75.6206	      15.3	         0	1.14235e+07	   75.5031	      15.3	  0.486008	9.67699e+06	   75.7322	      15.3	  0.552431	1.14895e+07	   75.8083	      15.3	  0.329547	 1.0449e+07	   75.5619	      15.3	  0.243004	1.05095e+07	   75.6177	      15.3	  0.519219	1.05573e+07	   75.7703	      15.3	  0.440989	1.09404e+07	   75.7145	      15.3	  0.164773	1.08798e+07	
         R10	   3109	   75.2081	      15.3	         0	1.07147e+07	   75.2411	      15.3	  0.455406	1.00969e+07	   75.5031	      15.3	  0.486008	1.04603e+07	   75.6206	      15.3	         0	9.31402e+06	   75.2246	      15.3	  0.227703	1.03738e+07	   75.3721	      15.3	  0.470707	1.02408e+07	   75.5619	      15.3	  0.243004	9.79988e+06	   75.4143	      15.3	         0	9.94477e+06	
         R10	   3110	   74.7358	      15.3	         0	1.02188e+07	    74.983	      15.3	  0.471679	9.43505e+06	   75.2411	      15.3	  0.455406	9.71824e+06	   75.2081	      15.3	         0	9.38702e+06	   74.8594	      15.3	   0.23584	9.80476e+06	    75.112	      15.3	  0.463543	9.55523e+06	   75.2246	      15.3	  0.227703	9.52138e+06	    74.972	      15.3	         0	9.80068e+06	
         R10	   3111	   76.1385	      15.3	  0.567834	1.08836e+07	   76.3447	      15.3	  0.636697	1.10033e+07	   76.3052	      15.3	  0.436837	1.14052e+07	   76.2416	      15.3	  0.602265	1.09263e+07	    76.325	      15.3	  0.536767	 1.1191e+07	   76.2218	      15.3	  0.502336	1.11395e+07	       N/A	       N/A	       N/A	        N/A	       N/A	       N/A	       N/A	        N/A	
         R10	   3112	   74.7358	      15.3	         0	1.00457e+07	   74.6494	      15.3	  0.459467	8.98695e+06	    74.983	      15.3	  0.471679	1.01665e+07	   74.6926	      15.3	  0.229734	9.50044e+06	   74.8162	      15.3	  0.465573	9.54663e+06	   74.8594	      15.3	   0.23584	1.00883e+07	       N/A	       N/A	       N/A	        N/A	       N/A	       N/A	       N/A	        N/A	
         R10	   3113	   75.7322	      15.3	  0.552431	1.03354e+07	   75.9608	      15.3	  0.582564	1.08043e+07	   75.8083	      15.3	  0.329547	1.05692e+07	   75.8465	      15.3	  0.567497	1.05398e+07	   75.8846	      15.3	  0.456055	1.06775e+07	   75.7703	      15.3	  0.440989	1.04421e+07	       N/A	       N/A	       N/A	        N/A	       N/A	       N/A	       N/A	        N/A	
         R10	   3114	   80.1935	        19	         6	1.01226e+07	     80.75	        19	         6	1.03561e+07	     80.75	     19.83	         6	1.15511e+07	   80.1935	     19.83	         6	8.42464e+06	   80.4717	        19	         6	 9.6441e+06	     80.75	    19.415	         6	1.08279e+07	   80.4717	     19.83	         6	9.98779e+06	   80.1935	    19.415	         6	9.05881e+06	
         R10	   3115	   79.6538	        19	         6	7.54998e+06	   80.1935	        19	         6	6.99632e+06	   80.1935	     19.83	         6	8.86484e+06	   79.6538	     19.83	         6	6.01418e+06	   79.9236	        19	         6	6.66899e+06	   80.1935	    19.415	         6	7.61344e+06	   79.9236	     19.83	         6	7.37679e+06	   79.6538	    19.415	         6	6.60868e+06	
         R10	   3116	    79.131	        19	         6	7.11018e+06	   79.6538	        19	         6	5.25314e+06	   79.6538	     19.83	         6	6.05941e+06	    79.131	     19.83	         6	4.28855e+06	   79.3924	        19	         6	5.78296e+06	   79.6538	    19.415	         6	5.55644e+06	   79.3924	     19.83	         6	5.11031e+06	    79.131	    19.415	         6	5.58474e+06	
         R10	   3117	    78.625	   19.3952	         6	4.26246e+06	    78.625	        19	         6	5.95455e+06	    79.131	        19	         6	5.03403e+06	    79.131	     19.83	         6	4.60397e+06	    78.625	   19.1976	         6	 5.0767e+06	    78.878	        19	         6	5.20982e+06	    79.131	    19.415	         6	4.61186e+06	    78.878	   19.6126	         6	4.26463e+06	
         R10	   3118	    78.625	   19.3952	         6	3.61536e+06	    79.131	     19.83	         6	4.56129e+06	    78.625	     19.83	         6	3.93896e+06	    78.878	   19.6126	         6	4.02542e+06	    78.878	     19.83	         6	4.12383e+06	    78.625	   19.6126	         6	3.75598e+06	       N/A	       N/A	       N/A	        N/A	       N/A	       N/A	       N/A	        N/A	
         R10	   3119	   80.1935	     19.83	         6	7.42012e+06	     80.75	     19.83	         6	 1.1237e+07	     80.75	     20.66	         6	8.66006e+06	   80.0004	     20.66	         6	8.00249e+06	   80.4717	     19.83	         6	9.05908e+06	     80.75	    20.245	         6	9.94194e+06	   80.3752	     20.66	         6	8.31199e+06	   80.0969	    20.245	         6	7.39545e+06	
         R10	   3120	   79.6538	     19.83	         6	 5.6685e+06	   80.1935	     19.83	         6	7.77219e+06	   80.0004	     20.66	         6	6.95754e+06	   79.2921	     20.66	         6	4.36983e+06	   79.9236	     19.83	         6	6.68274e+06	   80.0969	    20.245	         6	7.06878e+06	   79.6462	     20.66	         6	5.59976e+06	   79.4729	    20.245	         6	4.97226e+06	
         R10	   3121	    78.625	     20.66	         6	2.43607e+06	    78.625	     19.83	         6	3.44251e+06	    79.131	     19.83	         6	4.18231e+06	   79.2921	     20.66	         6	4.20288e+06	    78.625	    20.245	         6	2.92673e+06	    78.878	     19.83	         6	3.75386e+06	   79.2115	    20.245	         6	4.07496e+06	   78.9585	     20.66	         6	3.16336e+06	
         R10	   3122	    79.131	     19.83	         6	4.25432e+06	   79.6538	     19.83	         6	5.62066e+06	   79.2921	     20.66	         6	4.61706e+06	   79.3924	     19.83	         6	4.86291e+06	   79.4729	    20.245	         6	5.06462e+06	   79.2115	    20.245	         6	4.30821e+06	       N/A	       N/A	       N/A	        N/A	       N/A	       N/A	       N/A	        N/A	
         R10	   3123	   80.0004	     20.66	         6	6.92923e+06	     80.75	     20.66	         6	7.57231e+06	     80.75	      21.5	         6	6.21647e+06	   80.0094	      21.5	         6	8.15931e+06	   80.3752	     20.66	         6	7.22023e+06	     80.75	     21.08	         6	6.87015e+06	   80.3797	      21.5	         6	6.85775e+06	   80.0049	     21.08	         6	7.36372e+06	
         R10	   3124	   79.2921	     20.66	         6	4.01858e+06	   80.0004	     20.66	         6	6.23087e+06	   80.0094	      21.5	         6	4.75844e+06	   79.3011	      21.5	         6	4.70304e+06	   79.6462	     20.66	         6	5.06301e+06	   80.0049	     21.08	         6	4.96475e+06	   79.6553	      21.5	         6	3.80059e+06	   79.2966	     21.08	         6	4.30979e+06	
         R10	   3125	    78.625	     20.66	         6	2.33409e+06	   79.2921	     20.66	         6	3.55246e+06	   79.3011	      21.5	         6	3.25247e+06	    78.625	      21.5	         6	3.52427e+06	   78.9585	     20.66	         6	2.84424e+06	   79.2966	     21.08	         6	2.45093e+06	   78.9631	      21.5	         6	1.66635e+06	    78.625	     21.08	         6	2.86547e+06	
         R10	   3126	    72.986	      15.3	       0.8	9.25112e+06	     72.25	      15.3	       0.8	8.19541e+06	     72.25	      15.3	       1.6	7.20629e+06	   73.0071	      15.3	       1.6	7.24073e+06	    72.618	      15.3	       0.8	8.47198e+06	     72.25	      15.3	       1.2	7.70024e+06	   72.6286	      15.3	       1.6	 6.7483e+06	   72.9966	      15.3	       1.2	8.14232e+06	
         R10	   3127	   73.5855	      15.3	       0.8	8.73956e+06	    72.986	      15.3	       0.8	8.51478e+06	   73.0071	      15.3	       1.6	 7.9434e+06	   73.6137	      15.3	       1.6	7.94516e+06	   73.2857	      15.3	       0.8	8.58629e+06	   72.9966	      15.3	       1.2	 8.2173e+06	   73.3104	      15.3	       1.6	7.84345e+06	   73.5996	      15.3	       1.2	8.33095e+06	
         R10	   3128	   74.0696	      15.3	   1.21934	8.34047e+06	   74.0696	      15.3	       1.6	8.16184e+06	    74.375	      15.3	       1.6	8.29551e+06	    74.375	      15.3	   1.34603	8.76125e+06	   74.0696	      15.3	   1.40967	8.24883e+06	   74.2223	      15.3	       1.6	8.22804e+06	    74.375	      15.3	   1.47302	8.52786e+06	   74.2223	      15.3	   1.28268	8.54883e+06	
         R10	   3129	   74.0696	      15.3	   1.21934	8.64618e+06	    74.375	      15.3	   1.07937	8.78655e+06	    74.375	      15.3	       0.8	9.19159e+06	   74.0485	      15.3	       0.8	9.18894e+06	   74.2223	      15.3	   1.14935	8.70925e+06	    74.375	      15.3	  0.939683	8.98821e+06	   74.2117	      15.3	       0.8	9.18939e+06	   74.0591	      15.3	   1.00967	 8.9158e+06	
         R10	   3130	   73.6137	      15.3	       1.6	7.84129e+06	   74.0696	      15.3	   1.21934	8.63674e+06	   74.0485	      15.3	       0.8	 8.9712e+06	   73.5855	      15.3	       0.8	9.14113e+06	   73.8416	      15.3	   1.40967	8.23284e+06	   74.0591	      15.3	   1.00967	8.80299e+06	    73.817	      15.3	       0.8	9.03451e+06	   73.5996	      15.3	       1.2	8.48468e+06	
         R10	   3131	   74.0696	      15.3	   1.21934	8.50248e+06	    74.375	      15.3	   1.34603	8.75801e+06	    74.375	      15.3	   1.07937	8.79675e+06	   74.2223	      15.3	   1.28268	8.62841e+06	    74.375	      15.3	    1.2127	8.77622e+06	   74.2223	      15.3	   1.14935	8.64855e+06	       N/A	       N/A	       N/A	        N/A	       N/A	       N/A	       N/A	        N/A	
         R10	   3132	   74.0696	      15.3	       1.6	8.02427e+06	   74.0696	      15.3	   1.21934	8.57461e+06	   73.6137	      15.3	       1.6	7.78815e+06	   74.0696	      15.3	   1.40967	8.29665e+06	   73.8416	      15.3	   1.40967	8.17519e+06	   73.8416	      15.3	       1.6	7.89098e+06	       N/A	       N/A	       N/A	        N/A	       N/A	       N/A	       N/A	        N/A	
         R10	   3133	   76.7279	      15.3	         0	1.23845e+07	      76.5	      15.3	         0	1.52264e+07	      76.5	      15.3	  0.237669	1.03917e+07	   76.7279	      15.3	  0.212304	1.22885e+07	    76.614	      15.3	         0	 1.3629e+07	      76.5	      15.3	  0.118834	1.25997e+07	    76.614	      15.3	  0.224987	1.12743e+07	   76.7279	      15.3	  0.106152	1.22942e+07	
         R10	   3134	   76.7279	      15.3	  0.212304	1.25117e+07	      76.5	      15.3	  0.237669	1.07721e+07	      76.5	      15.3	  0.450225	 1.0515e+07	   76.7177	      15.3	  0.419759	1.05317e+07	    76.614	      15.3	  0.224987	1.15092e+07	      76.5	      15.3	  0.343947	 1.0593e+07	   76.6089	      15.3	  0.434992	1.05075e+07	   76.7228	      15.3	  0.316032	1.14814e+07	
         R10	   3135	   76.7177	      15.3	  0.419759	1.04979e+07	      76.5	      15.3	  0.450225	 1.0672e+07	      76.5	      15.3	  0.637669	1.00149e+07	   76.6973	      15.3	  0.607315	9.78446e+06	   76.6089	      15.3	  0.434992	 1.0536e+07	      76.5	      15.3	  0.543947	1.03113e+07	   76.5986	      15.3	  0.622492	9.89009e+06	   76.7075	      15.3	  0.513537	1.01288e+07	
         R10	   3136	   76.6973	      15.3	  0.607315	9.75076e+06	      76.5	      15.3	  0.637669	1.02938e+07	      76.5	      15.3	       0.8	9.30544e+06	    76.648	      15.3	       0.8	9.26745e+06	   76.5986	      15.3	  0.622492	9.97294e+06	      76.5	      15.3	  0.718834	  9.727e+06	    76.574	      15.3	       0.8	9.27155e+06	   76.6726	      15.3	  0.703657	9.50706e+06	
         R10	   3137	   76.9061	      15.3	  0.619706	9.89743e+06	   76.6973	      15.3	  0.607315	9.93022e+06	    76.648	      15.3	       0.8	9.34032e+06	    76.805	      15.3	       0.8	9.36741e+06	   76.8017	      15.3	   0.61351	 9.9019e+06	   76.6726	      15.3	  0.703657	9.63365e+06	   76.7265	      15.3	       0.8	9.35031e+06	   76.8556	      15.3	  0.709853	 9.6252e+06	
         R10	   3138	   77.1251	      15.3	  0.595442	9.88882e+06	   77.1462	      15.3	       0.8	9.32711e+06	   77.3304	      15.3	       0.8	9.31281e+06	   77.3242	      15.3	  0.543019	9.68921e+06	   77.1357	      15.3	  0.697721	9.60796e+06	   77.2383	      15.3	       0.8	9.31555e+06	   77.3273	      15.3	   0.67151	9.50033e+06	   77.2247	      15.3	   0.56923	9.78331e+06	
         R10	   3139	   77.3242	      15.3	  0.543019	9.60142e+06	   77.3304	      15.3	       0.8	9.32221e+06	   77.5236	      15.3	       0.8	9.30051e+06	   77.5136	      15.3	  0.520072	9.66782e+06	   77.3273	      15.3	   0.67151	9.46159e+06	    77.427	      15.3	       0.8	9.30798e+06	   77.5186	      15.3	  0.660036	9.48048e+06	   77.4189	      15.3	  0.531546	9.63062e+06	
         R10	   3140	   77.5136	      15.3	  0.520072	9.71354e+06	   77.5236	      15.3	       0.8	9.26566e+06	   77.7258	      15.3	       0.8	9.26581e+06	   77.7017	      15.3	  0.558573	9.35407e+06	   77.5186	      15.3	  0.660036	9.48647e+06	   77.6247	      15.3	       0.8	9.26323e+06	   77.7138	      15.3	  0.679286	 9.3025e+06	   77.6077	      15.3	  0.539322	9.53052e+06	
         R10	   3141	   77.7017	      15.3	  0.558573	 9.6071e+06	   77.7258	      15.3	       0.8	 9.2692e+06	    77.937	      15.3	       0.8	9.19164e+06	   77.9373	      15.3	  0.559303	9.21477e+06	   77.7138	      15.3	  0.679286	9.43095e+06	   77.8314	      15.3	       0.8	9.22807e+06	   77.9372	      15.3	  0.679652	9.20264e+06	   77.8195	      15.3	  0.558938	9.40632e+06	
         R10	   3142	   77.9373	      15.3	  0.559303	 9.1381e+06	    77.937	      15.3	       0.8	9.16249e+06	   78.1573	      15.3	       0.8	9.21526e+06	   78.1317	      15.3	  0.527147	9.31883e+06	   77.9372	      15.3	  0.679652	9.14972e+06	   78.0472	      15.3	       0.8	9.18574e+06	   78.1445	      15.3	  0.663573	  9.252e+06	   78.0345	      15.3	  0.543225	9.22569e+06	
         R10	   3143	   78.1317	      15.3	  0.527147	9.65148e+06	   78.1573	      15.3	       0.8	9.21759e+06	   78.3866	      15.3	       0.8	9.12219e+06	   78.3752	      15.3	  0.532532	9.36698e+06	   78.1445	      15.3	  0.663573	9.41815e+06	    78.272	      15.3	       0.8	 9.1664e+06	   78.3809	      15.3	  0.666266	 9.2308e+06	   78.2534	      15.3	   0.52984	9.50028e+06	
         R10	   3144	   78.3752	      15.3	  0.532532	8.95305e+06	   78.3866	      15.3	       0.8	 9.1419e+06	    78.625	      15.3	       0.8	9.03865e+06	    78.625	      15.3	  0.558673	9.17945e+06	   78.3809	      15.3	  0.666266	9.03738e+06	   78.5058	      15.3	       0.8	9.08865e+06	    78.625	      15.3	  0.679336	9.10809e+06	   78.5001	      15.3	  0.545603	9.06424e+06	
         R10	   3145	   78.3546	      15.3	  0.263318	9.05131e+06	   78.3752	      15.3	  0.532532	8.94618e+06	    78.625	      15.3	  0.558673	9.11349e+06	    78.625	      15.3	  0.292006	8.99079e+06	   78.3649	      15.3	  0.397925	8.98204e+06	   78.5001	      15.3	  0.545603	9.02961e+06	    78.625	      15.3	  0.425339	9.04702e+06	   78.4898	      15.3	  0.277662	9.00608e+06	
         R10	   3146	   78.3546	      15.3	  0.263318	9.13989e+06	    78.625	      15.3	  0.292006	9.04256e+06	    78.625	      15.3	         0	9.22451e+06	   78.3217	      15.3	         0	9.88499e+06	   78.4898	      15.3	  0.277662	9.06972e+06	    78.625	      15.3	  0.146003	9.07288e+06	   78.4733	      15.3	         0	9.37656e+06	   78.3381	      15.3	  0.131659	 9.5019e+06	
         R10	   3147	   78.0773	      15.3	  0.263443	9.80812e+06	   78.3546	      15.3	  0.263318	9.70951e+06	   78.3217	      15.3	         0	9.64447e+06	   78.0291	      15.3	         0	9.84584e+06	   78.2159	      15.3	  0.263381	9.74497e+06	   78.3381	      15.3	  0.131659	9.59955e+06	   78.1754	      15.3	         0	9.50768e+06	   78.0532	      15.3	  0.131722	9.68098e+06	
         R10	   3148	   78.0773	      15.3	  0.263443	9.30232e+06	   78.0291	      15.3	         0	9.86926e+06	   77.7473	      15.3	         0	9.43781e+06	    77.794	      15.3	  0.282486	 9.3567e+06	   78.0532	      15.3	  0.131722	9.51135e+06	   77.8882	      15.3	         0	9.52812e+06	   77.7707	      15.3	  0.141243	9.39492e+06	   77.9356	      15.3	  0.272965	9.28592e+06	
         R10	   3149	    77.794	      15.3	  0.282486	9.60322e+06	   77.7473	      15.3	         0	9.34683e+06	   77.4763	      15.3	         0	9.93935e+06	   77.5022	      15.3	  0.265437	9.88059e+06	   77.7707	      15.3	  0.141243	   9.43e+06	   77.6118	      15.3	         0	9.56317e+06	   77.4893	      15.3	  0.132719	9.88765e+06	   77.6481	      15.3	  0.273962	9.73658e+06	
         R10	   3150	   77.5022	      15.3	  0.265437	9.65631e+06	   77.4763	      15.3	         0	9.78978e+06	    77.216	      15.3	         0	1.01592e+07	   77.2397	      15.3	  0.275932	1.01429e+07	   77.4893	      15.3	  0.132719	9.62887e+06	   77.3462	      15.3	         0	9.81063e+06	   77.2279	      15.3	  0.137966	1.01434e+07	    77.371	      15.3	  0.270684	9.89787e+06	
         R10	   3151	   77.2397	      15.3	  0.275932	1.00448e+07	    77.216	      15.3	         0	1.00156e+07	   76.9666	      15.3	         0	1.06014e+07	   76.9625	      15.3	  0.208864	1.09151e+07	   77.2279	      15.3	  0.137966	9.96451e+06	   77.0913	      15.3	         0	1.02425e+07	   76.9646	      15.3	  0.104432	1.07576e+07	   77.1011	      15.3	  0.242398	1.04763e+07	
         R10	   3152	   76.9625	      15.3	  0.208864	 1.0494e+07	   76.9666	      15.3	         0	1.09214e+07	   76.7279	      15.3	         0	1.14096e+07	   76.7279	      15.3	  0.212304	1.20694e+07	   76.9646	      15.3	  0.104432	1.07064e+07	   76.8472	      15.3	         0	1.11191e+07	   76.7279	      15.3	  0.106152	1.15441e+07	   76.8452	      15.3	  0.210584	1.12372e+07	
         R10	   3153	   76.9227	      15.3	  0.420222	1.05787e+07	   76.9625	      15.3	  0.208864	1.04234e+07	   76.7279	      15.3	  0.212304	1.16793e+07	   76.7177	      15.3	  0.419759	1.07641e+07	   76.9426	      15.3	  0.314543	1.04951e+07	   76.8452	      15.3	  0.210584	1.10374e+07	   76.7228	      15.3	  0.316032	 1.1187e+07	   76.8202	      15.3	  0.419991	1.06416e+07	
         R10	   3154	   76.9227	      15.3	  0.420222	1.04865e+07	   76.7177	      15.3	  0.419759	1.06785e+07	   76.6973	      15.3	  0.607315	9.94086e+06	   76.9061	      15.3	  0.619706	9.93874e+06	   76.8202	      15.3	  0.419991	1.05641e+07	   76.7075	      15.3	  0.513537	1.02979e+07	   76.8017	      15.3	   0.61351	9.92708e+06	   76.9144	      15.3	  0.519964	 1.0208e+07	
         R10	   3155	   76.9061	      15.3	  0.619706	9.86121e+06	   76.9711	      15.3	       0.8	9.35696e+06	   77.1462	      15.3	       0.8	9.33984e+06	   77.1251	      15.3	  0.595442	9.78955e+06	   76.9386	      15.3	  0.709853	9.60885e+06	   77.0587	      15.3	       0.8	9.34266e+06	   77.1357	      15.3	  0.697721	9.56466e+06	   77.0156	      15.3	  0.607574	 9.8182e+06	
         R10	   3156	   76.9227	      15.3	  0.420222	1.03778e+07	   76.9061	      15.3	  0.619706	9.91732e+06	   77.1251	      15.3	  0.595442	9.85206e+06	   77.0916	      15.3	  0.440336	1.00689e+07	   76.9144	      15.3	  0.519964	1.01463e+07	   77.0156	      15.3	  0.607574	9.87768e+06	   77.1083	      15.3	  0.517889	 9.9563e+06	   77.0071	      15.3	  0.430279	 1.0215e+07	
         R10	   3157	   78.1317	      15.3	  0.527147	9.76583e+06	   78.3752	      15.3	  0.532532	 9.4521e+06	   78.3546	      15.3	  0.263318	9.79915e+06	   78.0773	      15.3	  0.263443	9.96286e+06	   78.2534	      15.3	   0.52984	9.59468e+06	   78.3649	      15.3	  0.397925	9.61237e+06	   78.2159	      15.3	  0.263381	9.86672e+06	   78.1045	      15.3	  0.395295	9.84714e+06	
         R10	   3158	   77.9373	      15.3	  0.559303	9.03325e+06	   78.1317	      15.3	  0.527147	9.34571e+06	   78.0773	      15.3	  0.263443	9.13814e+06	    77.794	      15.3	  0.282486	9.20321e+06	   78.0345	      15.3	  0.543225	9.18866e+06	   78.1045	      15.3	  0.395295	9.20723e+06	   77.9356	      15.3	  0.272965	9.13498e+06	   77.8657	      15.3	  0.420895	9.11668e+06	
         R10	   3159	   77.2397	      15.3	  0.275932	 1.0064e+07	   76.9625	      15.3	  0.208864	1.08601e+07	   76.9227	      15.3	  0.420222	1.04274e+07	   77.0916	      15.3	  0.440336	1.00777e+07	   77.1011	      15.3	  0.242398	 1.0457e+07	   76.9426	      15.3	  0.314543	1.06347e+07	   77.0071	      15.3	  0.430279	1.02454e+07	   77.1656	      15.3	  0.358134	1.00636e+07	
         R10	   3160	   77.2397	      15.3	  0.275932	1.03321e+07	   77.0916	      15.3	  0.440336	1.00614e+07	   77.1251	      15.3	  0.595442	9.96157e+06	   77.3242	      15.3	  0.543019	 9.7557e+06	   77.1656	      15.3	  0.358134	1.01797e+07	   77.1083	      15.3	  0.517889	1.00111e+07	   77.2247	      15.3	   0.56923	9.85469e+06	    77.282	      15.3	  0.409476	1.00409e+07	
         R10	   3161	   77.5136	      15.3	  0.520072	  9.673e+06	   77.5022	      15.3	  0.265437	9.58433e+06	   77.2397	      15.3	  0.275932	1.00692e+07	   77.3242	      15.3	  0.543019	9.64156e+06	   77.5079	      15.3	  0.392755	9.62519e+06	    77.371	      15.3	  0.270684	9.82564e+06	    77.282	      15.3	  0.409476	9.84909e+06	   77.4189	      15.3	  0.531546	9.65203e+06	
         R10	   3162	   77.7017	      15.3	  0.558573	9.41757e+06	    77.794	      15.3	  0.282486	9.63352e+06	   77.5022	      15.3	  0.265437	9.95268e+06	   77.5136	      15.3	  0.520072	9.73574e+06	   77.7479	      15.3	  0.420529	9.50524e+06	   77.6481	      15.3	  0.273962	9.79185e+06	   77.5079	      15.3	  0.392755	9.83434e+06	   77.6077	      15.3	  0.539322	9.57181e+06	
         R10	   3163	   76.9061	      15.3	  0.619706	9.88773e+06	    76.805	      15.3	       0.8	9.39915e+06	   76.9711	      15.3	       0.8	9.35943e+06	   76.8556	      15.3	  0.709853	9.63766e+06	   76.8881	      15.3	       0.8	9.37202e+06	   76.9386	      15.3	  0.709853	9.62264e+06	       N/A	       N/A	       N/A	        N/A	       N/A	       N/A	       N/A	        N/A	
         R10	   3164	   77.9373	      15.3	  0.559303	9.12415e+06	    77.794	      15.3	  0.282486	9.69758e+06	   77.7017	      15.3	  0.558573	9.64433e+06	   77.8657	      15.3	  0.420895	9.40546e+06	   77.7479	      15.3	  0.420529	9.64831e+06	   77.8195	      15.3	  0.558938	9.37859e+06	       N/A	       N/A	       N/A	        N/A	       N/A	       N/A	       N/A	        N/A	
         R10	   3165	    76.648	      15.3	       0.8	9.36884e+06	      76.5	      15.3	       0.8	9.74331e+06	      76.5	      15.3	  0.951056	8.69532e+06	   76.6487	      15.3	  0.948637	9.25214e+06	    76.574	      15.3	       0.8	9.52048e+06	      76.5	      15.3	  0.875528	9.12684e+06	   76.5743	      15.3	  0.949846	8.95198e+06	   76.6483	      15.3	  0.874318	9.31023e+06	
         R10	   3166	   76.6487	      15.3	  0.948637	9.28822e+06	      76.5	      15.3	  0.951056	9.05385e+06	      76.5	      15.3	   1.08986	 8.6275e+06	   76.6383	      15.3	   1.08668	8.82659e+06	   76.5743	      15.3	  0.949846	9.14435e+06	      76.5	      15.3	   1.02046	8.82584e+06	   76.5692	      15.3	   1.08827	  8.723e+06	   76.6435	      15.3	   1.01766	9.05382e+06	
         R10	   3167	   76.6383	      15.3	   1.08668	8.79685e+06	      76.5	      15.3	   1.08986	8.81939e+06	      76.5	      15.3	    1.2164	8.49079e+06	   76.6242	      15.3	   1.21294	8.53298e+06	   76.5692	      15.3	   1.08827	8.79757e+06	      76.5	      15.3	   1.15313	8.65371e+06	   76.5621	      15.3	   1.21467	 8.5111e+06	   76.6312	      15.3	   1.14981	8.66156e+06	
         R10	   3168	   76.6242	      15.3	   1.21294	8.51511e+06	      76.5	      15.3	    1.2164	8.59052e+06	      76.5	      15.3	   1.33068	8.36318e+06	   76.6103	      15.3	   1.32778	8.30249e+06	   76.5621	      15.3	   1.21467	8.54879e+06	      76.5	      15.3	   1.27354	8.47671e+06	   76.5552	      15.3	   1.32923	8.33214e+06	   76.6172	      15.3	   1.27036	8.40703e+06	
         R10	   3169	   76.6103	      15.3	   1.32778	8.31128e+06	      76.5	      15.3	   1.33068	8.42359e+06	      76.5	      15.3	   1.43271	8.32235e+06	   76.5974	      15.3	   1.42922	8.07562e+06	   76.5552	      15.3	   1.32923	8.36494e+06	      76.5	      15.3	    1.3817	8.37286e+06	   76.5487	      15.3	   1.43096	8.19884e+06	   76.6039	      15.3	    1.3785	8.19129e+06	
         R10	   3170	   76.5974	      15.3	   1.42922	8.11383e+06	      76.5	      15.3	   1.43271	8.46992e+06	      76.5	      15.3	   1.52248	8.62774e+06	   76.5854	      15.3	   1.51934	7.26439e+06	   76.5487	      15.3	   1.43096	8.28726e+06	      76.5	      15.3	    1.4776	8.53966e+06	   76.5427	      15.3	   1.52091	7.94103e+06	   76.5914	      15.3	   1.47428	7.68718e+06	
         R10	   3171	   76.5854	      15.3	   1.51934	7.23656e+06	      76.5	      15.3	   1.52248	9.40664e+06	      76.5	      15.3	       1.6	7.31539e+06	    76.581	      15.3	       1.6	7.29139e+06	   76.5427	      15.3	   1.52091	8.26747e+06	      76.5	      15.3	   1.56124	7.99586e+06	   76.5405	      15.3	       1.6	7.25826e+06	   76.5832	      15.3	   1.55967	7.23549e+06	
         R10	   3172	    76.666	      15.3	   1.52869	7.61841e+06	   76.5854	      15.3	   1.51934	7.64952e+06	    76.581	      15.3	       1.6	7.28024e+06	   76.6654	      15.3	       1.6	7.53576e+06	   76.6257	      15.3	   1.52402	7.62604e+06	   76.5832	      15.3	   1.55967	7.44255e+06	   76.6232	      15.3	       1.6	  7.402e+06	   76.6657	      15.3	   1.56435	 7.5768e+06	
         R10	   3173	    76.666	      15.3	   1.52869	7.65564e+06	   76.6654	      15.3	       1.6	7.63351e+06	   76.7532	      15.3	       1.6	7.63976e+06	   76.7582	      15.3	   1.51367	 7.8135e+06	   76.6657	      15.3	   1.56435	7.64408e+06	   76.7093	      15.3	       1.6	7.63546e+06	   76.7557	      15.3	   1.55684	 7.7266e+06	   76.7121	      15.3	   1.52118	7.73448e+06	
         R10	   3174	   76.7582	      15.3	   1.51367	7.81871e+06	   76.7532	      15.3	       1.6	 7.6239e+06	   76.8443	      15.3	       1.6	 7.6668e+06	   76.8417	      15.3	   1.50509	7.88068e+06	   76.7557	      15.3	   1.55684	7.72128e+06	   76.7987	      15.3	       1.6	 7.6445e+06	    76.843	      15.3	   1.55255	7.77337e+06	      76.8	      15.3	   1.50938	7.84884e+06	
         R10	   3175	   76.8417	      15.3	   1.50509	7.87222e+06	   76.8443	      15.3	       1.6	7.66748e+06	   76.9387	      15.3	       1.6	7.70493e+06	   76.9396	      15.3	   1.50153	7.92076e+06	    76.843	      15.3	   1.55255	7.76952e+06	   76.8915	      15.3	       1.6	7.68509e+06	   76.9391	      15.3	   1.55076	7.81239e+06	   76.8906	      15.3	   1.50331	7.89527e+06	
         R10	   3176	   76.9396	      15.3	   1.50153	7.91484e+06	   76.9387	      15.3	       1.6	7.70495e+06	   77.0365	      15.3	       1.6	7.74539e+06	   77.0373	      15.3	   1.49785	7.96332e+06	   76.9391	      15.3	   1.55076	7.80946e+06	   76.9876	      15.3	       1.6	7.72395e+06	   77.0369	      15.3	   1.54893	7.85399e+06	   76.9884	      15.3	   1.49969	7.93796e+06	
         R10	   3177	   77.0373	      15.3	   1.49785	7.95788e+06	   77.0365	      15.3	       1.6	7.74736e+06	   77.1376	      15.3	       1.6	 7.7913e+06	   77.1386	      15.3	   1.49427	8.00628e+06	   77.0369	      15.3	   1.54893	7.85226e+06	   77.0871	      15.3	       1.6	7.76814e+06	   77.1381	      15.3	   1.54713	7.89842e+06	   77.0879	      15.3	   1.49606	7.98103e+06	
         R10	   3178	   77.1386	      15.3	   1.49427	8.00584e+06	   77.1376	      15.3	       1.6	 7.7892e+06	   77.2421	      15.3	       1.6	7.83801e+06	   77.2428	      15.3	   1.49126	8.04852e+06	   77.1381	      15.3	   1.54713	 7.8972e+06	   77.1899	      15.3	       1.6	7.81254e+06	   77.2425	      15.3	   1.54563	  7.943e+06	   77.1907	      15.3	   1.49277	8.02622e+06	
         R10	   3179	   77.2428	      15.3	   1.49126	8.04486e+06	   77.2421	      15.3	       1.6	7.83884e+06	     77.35	      15.3	       1.6	7.88639e+06	   77.3421	      15.3	   1.49801	8.07232e+06	   77.2425	      15.3	   1.54563	7.94164e+06	   77.2961	      15.3	       1.6	7.86168e+06	   77.3461	      15.3	   1.54901	7.97914e+06	   77.2925	      15.3	   1.49464	8.05788e+06	
         R10	   3180	   77.3421	      15.3	   1.49801	8.05417e+06	     77.35	      15.3	       1.6	 7.8856e+06	   77.4514	      15.3	       1.6	7.92765e+06	   77.4573	      15.3	   1.48601	8.14598e+06	   77.3461	      15.3	   1.54901	7.96976e+06	   77.4007	      15.3	       1.6	7.90592e+06	   77.4544	      15.3	   1.54301	8.03669e+06	   77.3997	      15.3	   1.49201	8.09935e+06	
         R10	   3181	   77.4573	      15.3	   1.48601	8.10735e+06	   77.4514	      15.3	       1.6	7.92797e+06	   77.5694	      15.3	       1.6	 7.9685e+06	   77.5663	      15.3	   1.46817	8.19661e+06	   77.4544	      15.3	   1.54301	8.01761e+06	   77.5104	      15.3	       1.6	7.94751e+06	   77.5678	      15.3	   1.53409	8.08234e+06	   77.5118	      15.3	   1.47709	8.15154e+06	
         R10	   3182	   77.5663	      15.3	   1.46817	8.17364e+06	   77.5694	      15.3	       1.6	7.96624e+06	   77.7039	      15.3	       1.6	8.00605e+06	   77.7076	      15.3	   1.45417	8.22722e+06	   77.5678	      15.3	   1.53409	8.06989e+06	   77.6366	      15.3	       1.6	7.98539e+06	   77.7057	      15.3	   1.52709	8.11654e+06	   77.6369	      15.3	   1.46117	8.19998e+06	
         R10	   3183	   77.7076	      15.3	   1.45417	8.24294e+06	   77.7039	      15.3	       1.6	8.00555e+06	    77.855	      15.3	       1.6	8.03512e+06	   77.8592	      15.3	   1.43677	8.26015e+06	   77.7057	      15.3	   1.52709	8.12419e+06	   77.7794	      15.3	       1.6	8.01954e+06	   77.8571	      15.3	   1.51838	8.14754e+06	   77.7834	      15.3	   1.44547	8.25118e+06	
         R10	   3184	   77.8592	      15.3	   1.43677	8.26053e+06	    77.855	      15.3	       1.6	8.03371e+06	   78.0226	      15.3	       1.6	 8.0508e+06	   78.0288	      15.3	   1.40663	8.32472e+06	   77.8571	      15.3	   1.51838	8.14688e+06	   77.9388	      15.3	       1.6	8.04141e+06	   78.0257	      15.3	   1.50331	8.18768e+06	    77.944	      15.3	    1.4217	8.29248e+06	
         R10	   3185	   78.0288	      15.3	   1.40663	8.29448e+06	   78.0226	      15.3	       1.6	8.05541e+06	   78.2069	      15.3	       1.6	 8.0607e+06	   78.2074	      15.3	   1.38064	8.34107e+06	   78.0257	      15.3	   1.50331	8.17444e+06	   78.1147	      15.3	       1.6	8.05715e+06	   78.2071	      15.3	   1.49032	8.20065e+06	   78.1181	      15.3	   1.39363	8.31761e+06	
         R10	   3186	   78.2074	      15.3	   1.38064	8.32983e+06	   78.2069	      15.3	       1.6	8.05953e+06	   78.4076	      15.3	       1.6	8.05123e+06	   78.4074	      15.3	   1.36964	8.33674e+06	   78.2071	      15.3	   1.49032	8.19384e+06	   78.3073	      15.3	       1.6	8.05433e+06	   78.4075	      15.3	   1.48482	8.19333e+06	   78.3074	      15.3	   1.37514	8.33261e+06	
         R10	   3187	   78.4074	      15.3	   1.36964	8.32229e+06	   78.4076	      15.3	       1.6	8.05114e+06	    78.625	      15.3	       1.6	8.03281e+06	    78.625	      15.3	   1.34603	8.41984e+06	   78.4075	      15.3	   1.48482	8.18544e+06	   78.5163	      15.3	       1.6	8.04046e+06	    78.625	      15.3	   1.47302	8.22513e+06	   78.5162	      15.3	   1.35784	8.37014e+06	
         R10	   3188	   78.3844	      15.3	   1.11942	8.68714e+06	   78.4074	      15.3	   1.36964	8.32316e+06	    78.625	      15.3	   1.34603	8.42889e+06	    78.625	      15.3	   1.07937	 8.5933e+06	   78.3959	      15.3	   1.24453	 8.4993e+06	   78.5162	      15.3	   1.35784	8.37501e+06	    78.625	      15.3	    1.2127	8.49898e+06	   78.5047	      15.3	   1.09939	 8.6164e+06	
         R10	   3189	   78.3844	      15.3	   1.11942	 8.6976e+06	    78.625	      15.3	   1.07937	8.60307e+06	    78.625	      15.3	       0.8	8.90948e+06	   78.3866	      15.3	       0.8	 8.9684e+06	   78.5047	      15.3	   1.09939	8.62584e+06	    78.625	      15.3	  0.939683	8.75358e+06	   78.5058	      15.3	       0.8	8.93782e+06	   78.3855	      15.3	  0.959709	8.82753e+06	
         R10	   3190	   78.3844	      15.3	   1.11942	8.62011e+06	   78.3866	      15.3	       0.8	8.94758e+06	   78.1573	      15.3	       0.8	9.01166e+06	   78.1561	      15.3	   1.06272	8.75105e+06	   78.3855	      15.3	  0.959709	8.78303e+06	    78.272	      15.3	       0.8	8.97794e+06	   78.1567	      15.3	   0.93136	8.87834e+06	   78.2702	      15.3	   1.09107	8.67058e+06	
         R10	   3191	   78.1561	      15.3	   1.06272	8.71116e+06	   78.1573	      15.3	       0.8	9.02242e+06	    77.937	      15.3	       0.8	9.06519e+06	   77.9257	      15.3	   1.02023	8.88686e+06	   78.1567	      15.3	   0.93136	 8.8665e+06	   78.0472	      15.3	       0.8	9.04255e+06	   77.9313	      15.3	  0.910115	8.97427e+06	   78.0409	      15.3	   1.04147	8.79106e+06	
         R10	   3192	   77.9257	      15.3	   1.02023	8.78563e+06	    77.937	      15.3	       0.8	9.08066e+06	   77.7258	      15.3	       0.8	9.12722e+06	   77.7226	      15.3	   1.01626	8.89616e+06	   77.9313	      15.3	  0.910115	8.93292e+06	   77.8314	      15.3	       0.8	9.10226e+06	   77.7242	      15.3	   0.90813	 9.0097e+06	   77.8241	      15.3	   1.01824	8.83295e+06	
         R10	   3193	   77.7226	      15.3	   1.01626	8.84119e+06	   77.7258	      15.3	       0.8	9.13707e+06	   77.5236	      15.3	       0.8	9.18964e+06	   77.5284	      15.3	  0.998742	 8.9445e+06	   77.7242	      15.3	   0.90813	8.98909e+06	   77.6247	      15.3	       0.8	9.16156e+06	    77.526	      15.3	  0.899371	9.06538e+06	   77.6255	      15.3	    1.0075	8.88631e+06	
         R10	   3194	   77.5284	      15.3	  0.998742	8.90055e+06	   77.5236	      15.3	       0.8	9.20347e+06	   77.3304	      15.3	       0.8	9.26149e+06	   77.3329	      15.3	  0.981139	9.00204e+06	    77.526	      15.3	  0.899371	9.05173e+06	    77.427	      15.3	       0.8	9.23052e+06	   77.3316	      15.3	  0.890569	9.13005e+06	   77.4306	      15.3	   0.98994	8.94486e+06	
         R10	   3195	   77.3329	      15.3	  0.981139	8.94688e+06	   77.3304	      15.3	       0.8	9.26928e+06	   77.1462	      15.3	       0.8	9.31042e+06	   77.1486	      15.3	  0.972738	9.03165e+06	   77.3316	      15.3	  0.890569	9.10765e+06	   77.2383	      15.3	       0.8	9.28687e+06	   77.1474	      15.3	  0.886369	9.16959e+06	   77.2407	      15.3	  0.976938	8.98315e+06	
         R10	   3196	   77.1486	      15.3	  0.972738	8.97885e+06	   77.1462	      15.3	       0.8	9.31927e+06	   76.9711	      15.3	       0.8	9.36749e+06	   76.9734	      15.3	  0.964536	9.03105e+06	   77.1474	      15.3	  0.886369	9.14841e+06	   77.0587	      15.3	       0.8	 9.3392e+06	   76.9723	      15.3	  0.882268	9.19788e+06	    77.061	      15.3	  0.968637	8.99887e+06	
         R10	   3197	   76.9734	      15.3	  0.964536	8.98676e+06	   76.9711	      15.3	       0.8	9.35716e+06	    76.805	      15.3	       0.8	9.41952e+06	   76.8064	      15.3	  0.956763	9.05372e+06	   76.9723	      15.3	  0.882268	9.17092e+06	   76.8881	      15.3	       0.8	 9.3829e+06	   76.8057	      15.3	  0.878381	9.23462e+06	   76.8899	      15.3	  0.960649	9.01493e+06	
         R10	   3198	   76.8064	      15.3	  0.956763	8.98445e+06	    76.805	      15.3	       0.8	9.43036e+06	    76.648	      15.3	       0.8	9.47762e+06	   76.6487	      15.3	  0.948637	9.10706e+06	   76.8057	      15.3	  0.878381	9.20525e+06	   76.7265	      15.3	       0.8	9.44548e+06	   76.6483	      15.3	  0.874318	 9.2922e+06	   76.7275	      15.3	    0.9527	9.04247e+06	
         R10	   3199	   76.7935	      15.3	   1.09867	8.70932e+06	   76.8064	      15.3	  0.956763	8.98011e+06	   76.6487	      15.3	  0.948637	9.09657e+06	   76.6383	      15.3	   1.08668	 8.8196e+06	   76.7999	      15.3	   1.02772	8.84403e+06	   76.7275	      15.3	    0.9527	9.03518e+06	   76.6435	      15.3	   1.01766	8.95478e+06	   76.7159	      15.3	   1.09268	8.75951e+06	
         R10	   3200	   76.7935	      15.3	   1.09867	8.70056e+06	   76.6383	      15.3	   1.08668	8.78454e+06	   76.6242	      15.3	   1.21294	8.52715e+06	   76.7485	      15.3	    1.2208	8.46663e+06	   76.7159	      15.3	   1.09268	8.73937e+06	   76.6312	      15.3	   1.14981	8.65241e+06	   76.6863	      15.3	   1.21687	8.49325e+06	    76.771	      15.3	   1.15973	8.58254e+06	
         R10	   3201	   76.7485	      15.3	    1.2208	 8.4666e+06	   76.6242	      15.3	   1.21294	8.49794e+06	   76.6103	      15.3	   1.32778	8.29467e+06	   76.7212	      15.3	   1.33799	8.16554e+06	   76.6863	      15.3	   1.21687	8.47989e+06	   76.6172	      15.3	   1.27036	8.39453e+06	   76.6658	      15.3	   1.33289	8.22748e+06	   76.7349	      15.3	   1.27939	8.31516e+06	
         R10	   3202	   76.7212	      15.3	   1.33799	8.17909e+06	   76.6103	      15.3	   1.32778	8.29337e+06	   76.5974	      15.3	   1.42922	8.02865e+06	    76.702	      15.3	   1.43815	7.88158e+06	   76.6658	      15.3	   1.33289	8.23425e+06	   76.6039	      15.3	    1.3785	8.15879e+06	   76.6497	      15.3	   1.43368	7.95048e+06	   76.7116	      15.3	   1.38807	8.02991e+06	
         R10	   3203	    76.702	      15.3	   1.43815	7.89601e+06	   76.5974	      15.3	   1.42922	8.00588e+06	   76.5854	      15.3	   1.51934	 7.6238e+06	    76.666	      15.3	   1.52869	7.71838e+06	   76.6497	      15.3	   1.43368	 7.9483e+06	   76.5914	      15.3	   1.47428	7.81291e+06	   76.6257	      15.3	   1.52402	7.66832e+06	    76.684	      15.3	   1.48342	7.80714e+06	
         R10	   3204	   76.8322	      15.3	   1.40906	8.05246e+06	   76.8417	      15.3	   1.50509	7.84182e+06	   76.9396	      15.3	   1.50153	7.90069e+06	   76.9342	      15.3	   1.39365	8.10498e+06	   76.8369	      15.3	   1.45708	7.94684e+06	   76.8906	      15.3	   1.50331	7.87012e+06	   76.9369	      15.3	   1.44759	8.00259e+06	   76.8832	      15.3	   1.40136	8.07704e+06	
         R10	   3205	   76.9342	      15.3	   1.39365	8.11612e+06	   76.9396	      15.3	   1.50153	7.89474e+06	   77.0373	      15.3	   1.49785	7.95038e+06	    77.027	      15.3	   1.38014	8.16444e+06	   76.9369	      15.3	   1.44759	8.00513e+06	   76.9884	      15.3	   1.49969	7.92144e+06	   77.0321	      15.3	   1.43899	 8.0572e+06	   76.9806	      15.3	    1.3869	8.13917e+06	
         R10	   3206	    77.027	      15.3	   1.38014	8.16757e+06	   77.0373	      15.3	   1.49785	7.94922e+06	   77.1386	      15.3	   1.49427	7.99427e+06	   77.1355	      15.3	   1.38336	8.20407e+06	   77.0321	      15.3	   1.43899	8.05815e+06	   77.0879	      15.3	   1.49606	7.97068e+06	   77.1371	      15.3	   1.43882	8.09893e+06	   77.0813	      15.3	   1.38175	8.18457e+06	
         R10	   3207	   77.1355	      15.3	   1.38336	8.20703e+06	   77.1386	      15.3	   1.49427	7.98973e+06	   77.2428	      15.3	   1.49126	8.03954e+06	   77.2404	      15.3	   1.37071	8.26183e+06	   77.1371	      15.3	   1.43882	8.09808e+06	   77.1907	      15.3	   1.49277	8.01373e+06	   77.2416	      15.3	   1.43099	8.15055e+06	    77.188	      15.3	   1.37704	8.23326e+06	
         R10	   3208	   77.2404	      15.3	   1.37071	8.25587e+06	   77.2428	      15.3	   1.49126	8.03906e+06	   77.3421	      15.3	   1.49801	8.07018e+06	   77.3696	      15.3	   1.37848	8.27841e+06	   77.2416	      15.3	   1.43099	8.14727e+06	   77.2925	      15.3	   1.49464	8.05406e+06	   77.3559	      15.3	   1.43825	8.17399e+06	    77.305	      15.3	    1.3746	8.26562e+06	
         R10	   3209	   77.3696	      15.3	   1.37848	8.28032e+06	   77.4573	      15.3	   1.48601	 8.1084e+06	   77.5663	      15.3	   1.46817	8.19268e+06	   77.5362	      15.3	   1.34025	8.37403e+06	   77.4135	      15.3	   1.43225	8.19381e+06	   77.5118	      15.3	   1.47709	8.14988e+06	   77.5512	      15.3	   1.40421	8.28334e+06	   77.4529	      15.3	   1.35937	8.32542e+06	
         R10	   3210	   77.5362	      15.3	   1.34025	8.38289e+06	   77.5663	      15.3	   1.46817	8.16613e+06	   77.7076	      15.3	   1.45417	8.23006e+06	   77.6891	      15.3	   1.26681	8.49893e+06	   77.5512	      15.3	   1.40421	8.27428e+06	   77.6369	      15.3	   1.46117	8.19746e+06	   77.6983	      15.3	   1.36049	8.36446e+06	   77.6126	      15.3	   1.30353	8.43955e+06	
         R10	   3211	   77.6891	      15.3	   1.26681	8.47655e+06	   77.7076	      15.3	   1.45417	8.24391e+06	   77.8592	      15.3	   1.43677	8.26507e+06	   77.8559	      15.3	   1.24379	8.59054e+06	   77.6983	      15.3	   1.36049	8.36001e+06	   77.7834	      15.3	   1.44547	8.25431e+06	   77.8575	      15.3	   1.34028	8.42726e+06	   77.7725	      15.3	    1.2553	8.53143e+06	
         R10	   3212	   77.8559	      15.3	   1.24379	8.55355e+06	   77.8592	      15.3	   1.43677	8.25623e+06	   78.0288	      15.3	   1.40663	  8.348e+06	   78.0111	      15.3	   1.23778	8.42909e+06	   77.8575	      15.3	   1.34028	8.40443e+06	    77.944	      15.3	    1.4217	8.30167e+06	   78.0199	      15.3	    1.3222	8.38719e+06	   77.9335	      15.3	   1.24079	8.48952e+06	
         R10	   3213	   77.5183	      15.3	   1.15289	8.67851e+06	   77.5284	      15.3	  0.998742	8.89397e+06	   77.3329	      15.3	  0.981139	8.98781e+06	   77.3295	      15.3	   1.12889	8.70887e+06	   77.5234	      15.3	   1.07582	8.78534e+06	   77.4306	      15.3	   0.98994	8.93464e+06	   77.3312	      15.3	   1.05501	8.84811e+06	   77.4239	      15.3	   1.14089	8.69092e+06	
         R10	   3214	   77.3295	      15.3	   1.12889	8.70686e+06	   77.3329	      15.3	  0.981139	8.92878e+06	   77.1486	      15.3	  0.972738	9.00738e+06	   77.1333	      15.3	   1.12896	8.70159e+06	   77.3312	      15.3	   1.05501	8.81707e+06	   77.2407	      15.3	  0.976938	8.96196e+06	    77.141	      15.3	   1.05085	8.85394e+06	   77.2314	      15.3	   1.12892	8.70054e+06	
         R10	   3215	   77.1333	      15.3	   1.12896	8.68188e+06	   77.1486	      15.3	  0.972738	8.96324e+06	   76.9734	      15.3	  0.964536	9.00581e+06	   76.9563	      15.3	   1.11251	8.69875e+06	    77.141	      15.3	   1.05085	8.82158e+06	    77.061	      15.3	  0.968637	8.97873e+06	   76.9649	      15.3	   1.03852	8.85161e+06	   77.0448	      15.3	   1.12073	8.68646e+06	
         R10	   3216	   76.9563	      15.3	   1.11251	8.70109e+06	   76.9734	      15.3	  0.964536	8.96345e+06	   76.8064	      15.3	  0.956763	9.04449e+06	   76.7935	      15.3	   1.09867	8.70515e+06	   76.9649	      15.3	   1.03852	8.83121e+06	   76.8899	      15.3	  0.960649	8.99854e+06	   76.7999	      15.3	   1.02772	8.87415e+06	   76.8749	      15.3	   1.10559	8.69961e+06	
         R10	   3217	   76.9563	      15.3	   1.11251	8.69334e+06	   76.7935	      15.3	   1.09867	8.70215e+06	   76.7485	      15.3	    1.2208	8.44822e+06	   76.8849	      15.3	   1.25478	8.37832e+06	   76.8749	      15.3	   1.10559	8.69347e+06	    76.771	      15.3	   1.15973	 8.5743e+06	   76.8167	      15.3	   1.23779	8.41072e+06	   76.9206	      15.3	   1.18365	8.53359e+06	
         R10	   3218	    76.702	      15.3	   1.43815	7.95264e+06	   76.7582	      15.3	   1.51367	7.73519e+06	   76.8417	      15.3	   1.50509	7.84245e+06	   76.8322	      15.3	   1.40906	8.00904e+06	   76.7301	      15.3	   1.47591	7.84241e+06	      76.8	      15.3	   1.50938	 7.7882e+06	   76.8369	      15.3	   1.45708	 7.9256e+06	   76.7671	      15.3	   1.42361	7.97746e+06	
         R10	   3219	   77.0279	      15.3	   1.25564	8.41005e+06	    77.027	      15.3	   1.38014	8.17035e+06	   77.1355	      15.3	   1.38336	8.20074e+06	     77.13	      15.3	    1.2805	8.37638e+06	   77.0274	      15.3	   1.31789	8.28992e+06	   77.0813	      15.3	   1.38175	8.18413e+06	   77.1327	      15.3	   1.33193	8.28837e+06	   77.0789	      15.3	   1.26807	8.39223e+06	
         R10	   3220	     77.13	      15.3	    1.2805	8.42113e+06	   77.1355	      15.3	   1.38336	 8.1914e+06	   77.2404	      15.3	   1.37071	8.26131e+06	   77.2251	      15.3	   1.24388	8.45971e+06	   77.1327	      15.3	   1.33193	8.30609e+06	    77.188	      15.3	   1.37704	8.22528e+06	   77.2328	      15.3	    1.3073	8.36033e+06	   77.1775	      15.3	   1.26219	8.43935e+06	
         R10	   3221	   77.2251	      15.3	   1.24388	8.48468e+06	   77.2404	      15.3	   1.37071	8.25648e+06	   77.3696	      15.3	   1.37848	8.28014e+06	   77.3472	      15.3	   1.25813	8.47782e+06	   77.2328	      15.3	    1.3073	8.37045e+06	    77.305	      15.3	    1.3746	8.26689e+06	   77.3584	      15.3	   1.31831	8.37889e+06	   77.2861	      15.3	   1.25101	 8.4801e+06	
         R10	   3222	   76.8075	      15.3	   1.33866	8.18927e+06	   76.8849	      15.3	   1.25478	 8.3669e+06	   76.7485	      15.3	    1.2208	8.45561e+06	   76.7212	      15.3	   1.33799	8.18491e+06	   76.8462	      15.3	   1.29672	8.27639e+06	   76.8167	      15.3	   1.23779	8.40817e+06	   76.7349	      15.3	   1.27939	8.31946e+06	   76.7644	      15.3	   1.33832	8.18578e+06	
         R10	   3223	   76.8075	      15.3	   1.33866	8.18518e+06	   76.7212	      15.3	   1.33799	8.18507e+06	    76.702	      15.3	   1.43815	7.92584e+06	   76.8322	      15.3	   1.40906	7.99707e+06	   76.7644	      15.3	   1.33832	8.18314e+06	   76.7116	      15.3	   1.38807	8.05514e+06	   76.7671	      15.3	   1.42361	7.95839e+06	   76.8199	      15.3	   1.37386	8.09081e+06	
         R10	   3224	   76.8075	      15.3	   1.33866	8.16001e+06	   76.8322	      15.3	   1.40906	8.02694e+06	   76.9342	      15.3	   1.39365	8.10174e+06	   76.8849	      15.3	   1.25478	8.36864e+06	   76.8199	      15.3	   1.37386	8.09325e+06	   76.8832	      15.3	   1.40136	8.06299e+06	   76.9096	      15.3	   1.32422	8.23449e+06	   76.8462	      15.3	   1.29672	8.26279e+06	
         R10	   3225	   76.8849	      15.3	   1.25478	8.36646e+06	   76.9342	      15.3	   1.39365	8.11247e+06	    77.027	      15.3	   1.38014	8.16782e+06	   77.0279	      15.3	   1.25564	8.40801e+06	   76.9096	      15.3	   1.32422	8.23895e+06	   76.9806	      15.3	    1.3869	  8.139e+06	   77.0274	      15.3	   1.31789	8.28767e+06	   76.9564	      15.3	   1.25521	8.38448e+06	
         R10	   3226	   77.1333	      15.3	   1.12896	8.67371e+06	   76.9563	      15.3	   1.11251	8.68688e+06	   76.8849	      15.3	   1.25478	8.38549e+06	   77.0279	      15.3	   1.25564	 8.4208e+06	   77.0448	      15.3	   1.12073	8.67653e+06	   76.9206	      15.3	   1.18365	8.53422e+06	   76.9564	      15.3	   1.25521	8.40017e+06	   77.0806	      15.3	    1.1923	8.54509e+06	
         R10	   3227	   77.2251	      15.3	   1.24388	 8.4956e+06	   77.1333	      15.3	   1.12896	8.67218e+06	   77.0279	      15.3	   1.25564	8.40169e+06	     77.13	      15.3	    1.2805	8.39109e+06	   77.1792	      15.3	   1.18642	 8.5834e+06	   77.0806	      15.3	    1.1923	8.53461e+06	   77.0789	      15.3	   1.26807	8.39506e+06	   77.1775	      15.3	   1.26219	8.44254e+06	
         R10	   3228	   77.3472	      15.3	   1.25813	8.48527e+06	   77.3295	      15.3	   1.12889	8.68973e+06	   77.1333	      15.3	   1.12896	8.68084e+06	   77.2251	      15.3	   1.24388	 8.4809e+06	   77.3383	      15.3	   1.19351	8.58738e+06	   77.2314	      15.3	   1.12892	8.68139e+06	   77.1792	      15.3	   1.18642	8.58034e+06	   77.2861	      15.3	   1.25101	8.48202e+06	
         R10	   3229	   77.4664	      15.3	   1.25559	8.51039e+06	   77.5183	      15.3	   1.15289	 8.6712e+06	   77.3295	      15.3	   1.12889	8.70129e+06	   77.3472	      15.3	   1.25813	8.48637e+06	   77.4924	      15.3	   1.20424	8.59004e+06	   77.4239	      15.3	   1.14089	8.68342e+06	   77.3383	      15.3	   1.19351	8.59373e+06	   77.4068	      15.3	   1.25686	8.49737e+06	
         R10	   3230	   77.4664	      15.3	   1.25559	8.50448e+06	   77.3472	      15.3	   1.25813	8.46668e+06	   77.3696	      15.3	   1.37848	8.28956e+06	   77.5362	      15.3	   1.34025	8.37725e+06	   77.4068	      15.3	   1.25686	8.48442e+06	   77.3584	      15.3	   1.31831	8.37806e+06	   77.4529	      15.3	   1.35937	8.33162e+06	   77.5013	      15.3	   1.29792	8.44074e+06	
         R10	   3231	   77.4664	      15.3	   1.25559	8.48268e+06	   77.5362	      15.3	   1.34025	8.38934e+06	   77.6891	      15.3	   1.26681	 8.5135e+06	   77.5183	      15.3	   1.15289	8.67417e+06	   77.5013	      15.3	   1.29792	8.43573e+06	   77.6126	      15.3	   1.30353	8.44994e+06	   77.6037	      15.3	   1.20985	8.59254e+06	   77.4924	      15.3	   1.20424	8.57796e+06	
         R10	   3232	   78.1561	      15.3	   1.06272	8.74648e+06	   78.2074	      15.3	   1.38064	8.32904e+06	   78.4074	      15.3	   1.36964	8.33065e+06	   78.3844	      15.3	   1.11942	8.61168e+06	   78.1817	      15.3	   1.22168	8.53362e+06	   78.3074	      15.3	   1.37514	8.32933e+06	   78.3959	      15.3	   1.24453	 8.4634e+06	   78.2702	      15.3	   1.09107	8.66193e+06	
         R10	   3233	   78.1561	      15.3	   1.06272	8.72505e+06	   78.0111	      15.3	   1.23778	8.57929e+06	   78.0288	      15.3	   1.40663	8.33037e+06	   78.2074	      15.3	   1.38064	8.34697e+06	   78.0836	      15.3	   1.15025	8.64472e+06	   78.0199	      15.3	    1.3222	8.45299e+06	   78.1181	      15.3	   1.39363	8.33853e+06	   78.1817	      15.3	   1.22168	8.53345e+06	
         R10	   3234	   77.8559	      15.3	   1.24379	8.59971e+06	   78.0111	      15.3	   1.23778	 8.4774e+06	   78.1561	      15.3	   1.06272	 8.7176e+06	   77.9257	      15.3	   1.02023	8.89388e+06	   77.9335	      15.3	   1.24079	8.52958e+06	   78.0836	      15.3	   1.15025	8.59226e+06	   78.0409	      15.3	   1.04147	8.79712e+06	   77.8908	      15.3	   1.13201	8.74647e+06	
         R10	   3235	   77.6891	      15.3	   1.26681	 8.4919e+06	   77.8559	      15.3	   1.24379	8.60841e+06	   77.9257	      15.3	   1.02023	8.77819e+06	   77.7226	      15.3	   1.01626	 8.8786e+06	   77.7725	      15.3	    1.2553	8.54873e+06	   77.8908	      15.3	   1.13201	8.68996e+06	   77.8241	      15.3	   1.01824	8.82044e+06	   77.7058	      15.3	   1.14154	8.68509e+06	
         R10	   3236	   77.5284	      15.3	  0.998742	8.93588e+06	   77.5183	      15.3	   1.15289	8.64105e+06	   77.6891	      15.3	   1.26681	8.51341e+06	   77.7226	      15.3	   1.01626	8.84448e+06	   77.5234	      15.3	   1.07582	8.78826e+06	   77.6037	      15.3	   1.20985	8.57572e+06	   77.7058	      15.3	   1.14154	8.67713e+06	   77.6255	      15.3	    1.0075	8.88367e+06	
         R10	   3237	    76.702	      15.3	   1.43815	 7.9433e+06	    76.666	      15.3	   1.52869	7.66846e+06	   76.7582	      15.3	   1.51367	7.72601e+06	    76.684	      15.3	   1.48342	7.80579e+06	   76.7121	      15.3	   1.52118	7.69616e+06	   76.7301	      15.3	   1.47591	7.83328e+06	       N/A	       N/A	       N/A	        N/A	       N/A	       N/A	       N/A	        N/A	
         R10	   3238	   77.3696	      15.3	   1.37848	8.27865e+06	   77.3421	      15.3	   1.49801	8.05129e+06	   77.4573	      15.3	   1.48601	8.13964e+06	   77.3559	      15.3	   1.43825	8.16472e+06	   77.3997	      15.3	   1.49201	8.09457e+06	   77.4135	      15.3	   1.43225	8.20867e+06	       N/A	       N/A	       N/A	        N/A	       N/A	       N/A	       N/A	        N/A	
         R10	   3239	   77.4514	      15.3	       1.6	 8.0321e+06	     77.35	      15.3	       1.6	8.00234e+06	     77.35	      15.3	   1.70151	7.82314e+06	   77.4578	      15.3	   1.70399	7.84511e+06	   77.4007	      15.3	       1.6	8.01672e+06	     77.35	      15.3	   1.65076	7.91241e+06	   77.4039	      15.3	   1.70275	7.83265e+06	   77.4546	      15.3	   1.65199	7.93814e+06	
         R10	   3240	   77.4578	      15.3	   1.70399	7.85334e+06	     77.35	      15.3	   1.70151	7.83403e+06	     77.35	      15.3	   1.79987	7.64969e+06	    77.445	      15.3	   1.79387	7.68903e+06	   77.4039	      15.3	   1.70275	7.84221e+06	     77.35	      15.3	   1.75069	7.74149e+06	   77.3975	      15.3	   1.79687	7.66872e+06	   77.4514	      15.3	   1.74893	7.77102e+06	
         R10	   3241	    77.445	      15.3	   1.79387	7.70091e+06	     77.35	      15.3	   1.79987	7.65225e+06	     77.35	      15.3	   1.89507	7.47384e+06	   77.4428	      15.3	   1.89924	7.51452e+06	   77.3975	      15.3	   1.79687	7.67611e+06	     77.35	      15.3	   1.84747	7.56283e+06	   77.3964	      15.3	   1.89715	7.49325e+06	   77.4439	      15.3	   1.84656	7.60704e+06	
         R10	   3242	   77.4428	      15.3	   1.89924	7.51014e+06	     77.35	      15.3	   1.89507	7.46717e+06	     77.35	      15.3	   1.98711	7.30748e+06	   77.4476	      15.3	   1.97957	7.37752e+06	   77.3964	      15.3	   1.89715	7.48787e+06	     77.35	      15.3	   1.94109	7.38691e+06	   77.3988	      15.3	   1.98334	7.34216e+06	   77.4452	      15.3	   1.93941	7.44345e+06	
         R10	   3243	   77.4476	      15.3	   1.97957	7.37442e+06	     77.35	      15.3	   1.98711	7.31566e+06	     77.35	      15.3	     2.076	7.14489e+06	   77.4414	      15.3	   2.07521	7.22605e+06	   77.3988	      15.3	   1.98334	7.34453e+06	     77.35	      15.3	   2.03156	7.22985e+06	   77.3957	      15.3	    2.0756	7.18506e+06	   77.4445	      15.3	   2.02739	7.29989e+06	
         R10	   3244	   77.4414	      15.3	   2.07521	7.23137e+06	     77.35	      15.3	     2.076	7.14894e+06	     77.35	      15.3	   2.16173	7.01197e+06	   77.4367	      15.3	   2.15942	7.06664e+06	   77.3957	      15.3	    2.0756	7.18973e+06	     77.35	      15.3	   2.11887	7.07992e+06	   77.3934	      15.3	   2.16057	7.03897e+06	    77.439	      15.3	   2.11731	7.14855e+06	
         R10	   3245	   77.4367	      15.3	   2.15942	7.07356e+06	     77.35	      15.3	   2.16173	7.01035e+06	     77.35	      15.3	   2.24431	6.87391e+06	   77.4306	      15.3	   2.24261	6.94854e+06	   77.3934	      15.3	   2.16057	 7.0417e+06	     77.35	      15.3	   2.20302	6.94164e+06	   77.3903	      15.3	   2.24346	  6.911e+06	   77.4337	      15.3	   2.20101	7.01058e+06	
         R10	   3246	   77.4306	      15.3	   2.24261	6.94987e+06	     77.35	      15.3	   2.24431	6.87147e+06	     77.35	      15.3	   2.32373	6.76006e+06	   77.4306	      15.3	   2.32389	6.82498e+06	   77.3903	      15.3	   2.24346	6.91046e+06	     77.35	      15.3	   2.28402	6.81523e+06	   77.3903	      15.3	   2.32381	 6.7923e+06	   77.4306	      15.3	   2.28325	6.88692e+06	
         R10	   3247	   77.4306	      15.3	   2.32389	6.81932e+06	     77.35	      15.3	   2.32373	6.75735e+06	     77.35	      15.3	       2.4	6.61629e+06	   77.4288	      15.3	       2.4	6.73988e+06	   77.3903	      15.3	   2.32381	6.78815e+06	     77.35	      15.3	   2.36187	6.68616e+06	   77.3894	      15.3	       2.4	6.67778e+06	   77.4297	      15.3	   2.36194	6.77918e+06	
         R10	   3248	   77.5253	      15.3	   2.31439	6.90874e+06	   77.4306	      15.3	   2.32389	6.82923e+06	   77.4288	      15.3	       2.4	6.69143e+06	   77.5234	      15.3	       2.4	 6.8128e+06	   77.4779	      15.3	   2.31914	6.86873e+06	   77.4297	      15.3	   2.36194	 6.7597e+06	   77.4761	      15.3	       2.4	6.75175e+06	   77.5243	      15.3	    2.3572	6.86033e+06	
         R10	   3249	   77.5253	      15.3	   2.31439	6.94058e+06	   77.5234	      15.3	       2.4	6.74615e+06	   77.6336	      15.3	       2.4	6.87505e+06	   77.6341	      15.3	   2.27608	 7.0229e+06	   77.5243	      15.3	    2.3572	6.84246e+06	   77.5785	      15.3	       2.4	6.81015e+06	   77.6339	      15.3	   2.33804	6.94803e+06	   77.5797	      15.3	   2.29524	6.98171e+06	
         R10	   3250	   77.6341	      15.3	   2.27608	  7.001e+06	   77.6336	      15.3	       2.4	6.86978e+06	   77.7596	      15.3	       2.4	 6.9288e+06	   77.7716	      15.3	   2.26714	7.14354e+06	   77.6339	      15.3	   2.33804	6.93394e+06	   77.6966	      15.3	       2.4	 6.8985e+06	   77.7656	      15.3	   2.33357	7.03472e+06	   77.7029	      15.3	   2.27161	7.07221e+06	
         R10	   3251	   77.7716	      15.3	   2.26714	7.06939e+06	   77.7596	      15.3	       2.4	6.91505e+06	   77.9013	      15.3	       2.4	6.99394e+06	   77.9069	      15.3	   2.24758	7.22605e+06	   77.7656	      15.3	   2.33357	6.99035e+06	   77.8304	      15.3	       2.4	6.95363e+06	   77.9041	      15.3	   2.32379	7.10817e+06	   77.8393	      15.3	   2.25736	7.14757e+06	
         R10	   3252	   77.9069	      15.3	   2.24758	7.15623e+06	   77.9013	      15.3	       2.4	6.97595e+06	   78.0586	      15.3	       2.4	7.03777e+06	   78.0643	      15.3	   2.23173	7.27399e+06	   77.9041	      15.3	   2.32379	7.06383e+06	     77.98	      15.3	       2.4	7.00552e+06	   78.0615	      15.3	   2.31586	7.15353e+06	   77.9856	      15.3	   2.23965	7.21495e+06	
         R10	   3253	   78.0643	      15.3	   2.23173	 7.1838e+06	   78.0586	      15.3	       2.4	7.03003e+06	   78.2317	      15.3	       2.4	7.06428e+06	   78.2378	      15.3	   2.21689	7.30302e+06	   78.0615	      15.3	   2.31586	7.10421e+06	   78.1452	      15.3	       2.4	7.04471e+06	   78.2347	      15.3	   2.30844	 7.1807e+06	    78.151	      15.3	   2.22431	7.24303e+06	
         R10	   3254	   78.2378	      15.3	   2.21689	7.25228e+06	   78.2317	      15.3	       2.4	7.05599e+06	   78.4205	      15.3	       2.4	7.08515e+06	   78.4257	      15.3	   2.20679	7.28803e+06	   78.2347	      15.3	   2.30844	7.15105e+06	   78.3261	      15.3	       2.4	7.06773e+06	   78.4231	      15.3	   2.30339	7.18394e+06	   78.3317	      15.3	   2.21184	7.26947e+06	
         R10	   3255	   78.4257	      15.3	   2.20679	7.32402e+06	   78.4205	      15.3	       2.4	7.05476e+06	    78.625	      15.3	       2.4	7.08583e+06	    78.625	      15.3	   2.20952	7.19064e+06	   78.4231	      15.3	   2.30339	7.18666e+06	   78.5228	      15.3	       2.4	7.06596e+06	    78.625	      15.3	   2.30476	7.13484e+06	   78.5254	      15.3	   2.20816	7.25613e+06	
         R10	   3256	   78.4211	      15.3	   2.01051	7.48559e+06	   78.4257	      15.3	   2.20679	7.32256e+06	    78.625	      15.3	   2.20952	7.19451e+06	    78.625	      15.3	    2.0127	7.60488e+06	   78.4234	      15.3	   2.10865	7.40127e+06	   78.5254	      15.3	   2.20816	7.25709e+06	    78.625	      15.3	   2.11111	7.39469e+06	   78.5231	      15.3	    2.0116	7.54522e+06	
         R10	   3257	   78.4211	      15.3	   2.01051	7.49009e+06	    78.625	      15.3	    2.0127	7.61701e+06	    78.625	      15.3	   1.80952	7.73541e+06	     78.42	      15.3	   1.80873	7.92551e+06	   78.5231	      15.3	    2.0116	7.55344e+06	    78.625	      15.3	   1.91111	7.65924e+06	   78.5225	      15.3	   1.80913	7.78871e+06	   78.4206	      15.3	   1.90962	7.69749e+06	
         R10	   3258	     78.42	      15.3	   1.80873	7.92957e+06	    78.625	      15.3	   1.80952	7.73409e+06	    78.625	      15.3	       1.6	8.07689e+06	   78.4076	      15.3	       1.6	8.10764e+06	   78.5225	      15.3	   1.80913	7.79009e+06	    78.625	      15.3	   1.70476	7.89636e+06	   78.5163	      15.3	       1.6	8.09114e+06	   78.4138	      15.3	   1.70436	8.00781e+06	
         R10	   3259	   78.2168	      15.3	   1.81847	7.88485e+06	     78.42	      15.3	   1.80873	7.74615e+06	   78.4076	      15.3	       1.6	8.09776e+06	   78.2069	      15.3	       1.6	8.12276e+06	   78.3184	      15.3	    1.8136	 7.7921e+06	   78.4138	      15.3	   1.70436	7.91585e+06	   78.3073	      15.3	       1.6	8.10908e+06	   78.2118	      15.3	   1.70924	7.99704e+06	
         R10	   3260	   78.2168	      15.3	   1.81847	7.80875e+06	   78.2069	      15.3	       1.6	8.12045e+06	   78.0226	      15.3	       1.6	8.12614e+06	   78.0195	      15.3	   1.75622	7.91568e+06	   78.2118	      15.3	   1.70924	7.95938e+06	   78.1147	      15.3	       1.6	8.12242e+06	   78.0211	      15.3	   1.67811	8.01872e+06	   78.1181	      15.3	   1.78735	7.84838e+06	
         R10	   3261	   78.0195	      15.3	   1.75622	7.83995e+06	   78.0226	      15.3	       1.6	8.12467e+06	    77.855	      15.3	       1.6	8.11779e+06	    77.861	      15.3	   1.75654	7.96294e+06	   78.0211	      15.3	   1.67811	7.98049e+06	   77.9388	      15.3	       1.6	8.12056e+06	    77.858	      15.3	   1.67827	 8.0382e+06	   77.9403	      15.3	   1.75638	7.89475e+06	
         R10	   3262	    77.861	      15.3	   1.75654	7.80608e+06	    77.855	      15.3	       1.6	8.10961e+06	   77.7039	      15.3	       1.6	8.09425e+06	   77.7104	      15.3	    1.7398	7.92917e+06	    77.858	      15.3	   1.67827	7.95629e+06	   77.7794	      15.3	       1.6	 8.1012e+06	   77.7071	      15.3	    1.6699	8.01036e+06	   77.7857	      15.3	   1.74817	7.86333e+06	
         R10	   3263	   77.7104	      15.3	    1.7398	7.87141e+06	   77.7039	      15.3	       1.6	8.09512e+06	   77.5694	      15.3	       1.6	8.06933e+06	    77.577	      15.3	   1.72208	7.86968e+06	   77.7071	      15.3	    1.6699	7.98196e+06	   77.6366	      15.3	       1.6	8.08165e+06	   77.5732	      15.3	   1.66104	7.96854e+06	   77.6437	      15.3	   1.73094	  7.867e+06	
         R10	   3264	    77.577	      15.3	   1.72208	7.85853e+06	   77.5694	      15.3	       1.6	 8.0665e+06	   77.4514	      15.3	       1.6	8.03423e+06	   77.4578	      15.3	   1.70399	7.87915e+06	   77.5732	      15.3	   1.66104	7.96162e+06	   77.5104	      15.3	       1.6	8.04985e+06	   77.4546	      15.3	   1.65199	7.95626e+06	   77.5174	      15.3	   1.71304	7.86657e+06	
         R10	   3265	   77.5606	      15.3	   1.85214	7.65847e+06	    77.577	      15.3	   1.72208	 7.8561e+06	   77.4578	      15.3	   1.70399	7.87878e+06	    77.445	      15.3	   1.79387	7.69936e+06	   77.5688	      15.3	   1.78711	7.75662e+06	   77.5174	      15.3	   1.71304	7.86482e+06	   77.4514	      15.3	   1.74893	7.78872e+06	   77.5028	      15.3	     1.823	 7.6773e+06	
         R10	   3266	   77.5473	      15.3	   1.96545	7.46886e+06	   77.4476	      15.3	   1.97957	7.38419e+06	   77.4414	      15.3	   2.07521	7.22208e+06	   77.5343	      15.3	   2.07707	7.27506e+06	   77.4975	      15.3	   1.97251	7.42608e+06	   77.4445	      15.3	   2.02739	 7.3028e+06	   77.4878	      15.3	   2.07614	7.24788e+06	   77.5408	      15.3	   2.02126	7.37124e+06	
         R10	   3267	   77.5343	      15.3	   2.07707	7.26566e+06	   77.4414	      15.3	   2.07521	7.21539e+06	   77.4367	      15.3	   2.15942	7.10966e+06	   77.5495	      15.3	   2.16943	7.11457e+06	   77.4878	      15.3	   2.07614	7.23994e+06	    77.439	      15.3	   2.11731	7.16194e+06	   77.4931	      15.3	   2.16442	7.11173e+06	   77.5419	      15.3	   2.12325	7.18933e+06	
         R10	   3268	   77.7621	      15.3	   2.12013	7.32849e+06	   77.7716	      15.3	   2.26714	7.07372e+06	   77.9069	      15.3	   2.24758	7.21981e+06	   77.8794	      15.3	   2.09236	 7.3684e+06	   77.7669	      15.3	   2.19364	 7.1996e+06	   77.8393	      15.3	   2.25736	7.14661e+06	   77.8932	      15.3	   2.16997	7.29167e+06	   77.8207	      15.3	   2.10625	 7.3484e+06	
         R10	   3269	   77.8794	      15.3	   2.09236	7.42511e+06	   77.9069	      15.3	   2.24758	7.14707e+06	   78.0643	      15.3	   2.23173	7.27068e+06	   78.0516	      15.3	   2.06263	7.41985e+06	   77.8932	      15.3	   2.16997	7.28374e+06	   77.9856	      15.3	   2.23965	 7.2086e+06	    78.058	      15.3	   2.14718	 7.3437e+06	   77.9655	      15.3	   2.07749	7.42222e+06	
         R10	   3270	   78.0516	      15.3	   2.06263	 7.4498e+06	   78.0643	      15.3	   2.23173	7.18675e+06	   78.2378	      15.3	   2.21689	7.30445e+06	   78.2277	      15.3	   2.02807	7.51013e+06	    78.058	      15.3	   2.14718	7.31668e+06	    78.151	      15.3	   2.22431	7.24516e+06	   78.2327	      15.3	   2.12248	 7.4035e+06	   78.1396	      15.3	   2.04535	7.47974e+06	
         R10	   3271	   78.2277	      15.3	   2.02807	 7.4987e+06	   78.2378	      15.3	   2.21689	7.25782e+06	   78.4257	      15.3	   2.20679	7.28822e+06	   78.4211	      15.3	   2.01051	7.54711e+06	   78.2327	      15.3	   2.12248	7.37491e+06	   78.3317	      15.3	   2.21184	7.27248e+06	   78.4234	      15.3	   2.10865	7.41467e+06	   78.3244	      15.3	   2.01929	7.52288e+06	
         R10	   3272	   78.2277	      15.3	   2.02807	7.49521e+06	   78.4211	      15.3	   2.01051	7.54448e+06	     78.42	      15.3	   1.80873	7.75223e+06	   78.2168	      15.3	   1.81847	7.89381e+06	   78.3244	      15.3	   2.01929	7.51962e+06	   78.4206	      15.3	   1.90962	7.63828e+06	   78.3184	      15.3	    1.8136	7.79832e+06	   78.2222	      15.3	   1.92327	7.68692e+06	
         R10	   3273	   78.0151	      15.3	   1.93043	7.56774e+06	   78.0195	      15.3	   1.75622	7.85427e+06	    77.861	      15.3	   1.75654	7.97258e+06	   77.8449	      15.3	   1.92717	7.69584e+06	   78.0173	      15.3	   1.84332	7.70607e+06	   77.9403	      15.3	   1.75638	7.90704e+06	    77.853	      15.3	   1.84185	7.83323e+06	     77.93	      15.3	    1.9288	7.62542e+06	
         R10	   3274	   77.8449	      15.3	   1.92717	7.64047e+06	    77.861	      15.3	   1.75654	7.80096e+06	   77.7104	      15.3	    1.7398	7.93323e+06	   77.6847	      15.3	   1.86055	7.68316e+06	    77.853	      15.3	   1.84185	 7.7198e+06	   77.7857	      15.3	   1.74817	 7.8622e+06	   77.6975	      15.3	   1.80017	7.80755e+06	   77.7648	      15.3	   1.89386	7.65874e+06	
         R10	   3275	   77.6847	      15.3	   1.86055	7.66364e+06	   77.7104	      15.3	    1.7398	7.86932e+06	    77.577	      15.3	   1.72208	7.87968e+06	   77.5606	      15.3	   1.85214	 7.6752e+06	   77.6975	      15.3	   1.80017	7.76611e+06	   77.6437	      15.3	   1.73094	7.87099e+06	   77.5688	      15.3	   1.78711	7.77663e+06	   77.6226	      15.3	   1.85634	 7.6675e+06	
         R10	   3276	   77.5606	      15.3	   1.85214	7.62605e+06	   77.4428	      15.3	   1.89924	7.53814e+06	   77.4476	      15.3	   1.97957	7.39537e+06	   77.5473	      15.3	   1.96545	7.47015e+06	   77.5017	      15.3	   1.87569	7.58154e+06	   77.4452	      15.3	   1.93941	 7.4664e+06	   77.4975	      15.3	   1.97251	7.43225e+06	    77.554	      15.3	    1.9088	7.54781e+06	
         R10	   3277	   77.6847	      15.3	   1.86055	7.66735e+06	   77.5606	      15.3	   1.85214	7.67188e+06	   77.5473	      15.3	   1.96545	7.44325e+06	   77.6799	      15.3	    2.0124	 7.4761e+06	   77.6226	      15.3	   1.85634	7.66806e+06	    77.554	      15.3	    1.9088	7.55712e+06	   77.6136	      15.3	   1.98893	7.45799e+06	   77.6823	      15.3	   1.93648	 7.5699e+06	
         R10	   3278	   77.6799	      15.3	    2.0124	7.45681e+06	   77.5343	      15.3	   2.07707	 7.2895e+06	   77.5495	      15.3	   2.16943	7.21497e+06	   77.6312	      15.3	   2.12849	7.20148e+06	   77.6071	      15.3	   2.04473	7.37291e+06	   77.5419	      15.3	   2.12325	7.25154e+06	   77.5904	      15.3	   2.14896	7.20796e+06	   77.6556	      15.3	   2.07045	7.32849e+06	
         R10	   3279	   78.0516	      15.3	   2.06263	7.49131e+06	   78.2277	      15.3	   2.02807	 7.5246e+06	   78.2168	      15.3	   1.81847	7.75844e+06	   78.0151	      15.3	   1.93043	7.66209e+06	   78.1396	      15.3	   2.04535	7.50754e+06	   78.2222	      15.3	   1.92327	7.63541e+06	   78.1159	      15.3	   1.87445	7.70125e+06	   78.0333	      15.3	   1.99653	7.57554e+06	
         R10	   3280	   77.8794	      15.3	   2.09236	7.39897e+06	   78.0516	      15.3	   2.06263	7.43575e+06	   78.0151	      15.3	   1.93043	7.55441e+06	   77.8449	      15.3	   1.92717	7.67106e+06	   77.9655	      15.3	   2.07749	7.41728e+06	   78.0333	      15.3	   1.99653	7.49119e+06	     77.93	      15.3	    1.9288	 7.6068e+06	   77.8621	      15.3	   2.00976	7.53186e+06	
         R10	   3281	   77.5033	      15.3	   2.24714	6.99252e+06	   77.4306	      15.3	   2.24261	6.93653e+06	   77.4306	      15.3	   2.32389	6.82298e+06	   77.5253	      15.3	   2.31439	 6.9079e+06	   77.4669	      15.3	   2.24487	6.96435e+06	   77.4306	      15.3	   2.28325	6.87921e+06	   77.4779	      15.3	   2.31914	6.86509e+06	   77.5143	      15.3	   2.28077	6.94912e+06	
         R10	   3282	   77.5033	      15.3	   2.24714	6.96275e+06	   77.5253	      15.3	   2.31439	6.96622e+06	   77.6341	      15.3	   2.27608	7.02791e+06	   77.5495	      15.3	   2.16943	7.18379e+06	   77.5143	      15.3	   2.28077	6.96373e+06	   77.5797	      15.3	   2.29524	6.99704e+06	   77.5918	      15.3	   2.22275	7.10539e+06	   77.5264	      15.3	   2.20828	7.07326e+06	
         R10	   3283	   77.5033	      15.3	   2.24714	6.99695e+06	   77.5495	      15.3	   2.16943	7.10683e+06	   77.4367	      15.3	   2.15942	 7.1149e+06	   77.4306	      15.3	   2.24261	6.93675e+06	   77.5264	      15.3	   2.20828	7.05185e+06	   77.4931	      15.3	   2.16442	   7.11e+06	   77.4337	      15.3	   2.20101	7.02534e+06	   77.4669	      15.3	   2.24487	6.96667e+06	
         R10	   3284	   77.6696	      15.3	   2.17596	7.19478e+06	   77.6312	      15.3	   2.12849	 7.1945e+06	   77.5495	      15.3	   2.16943	 7.1793e+06	   77.6341	      15.3	   2.27608	6.99625e+06	   77.6504	      15.3	   2.15223	7.19358e+06	   77.5904	      15.3	   2.14896	7.18663e+06	   77.5918	      15.3	   2.22275	7.08749e+06	   77.6518	      15.3	   2.22602	7.09551e+06	
         R10	   3285	   77.6696	      15.3	   2.17596	7.23266e+06	   77.6341	      15.3	   2.27608	7.00481e+06	   77.7716	      15.3	   2.26714	7.14716e+06	   77.7621	      15.3	   2.12013	7.25831e+06	   77.6518	      15.3	   2.22602	7.11869e+06	   77.7029	      15.3	   2.27161	7.07556e+06	   77.7669	      15.3	   2.19364	 7.2012e+06	   77.7159	      15.3	   2.14805	7.24531e+06	
         R10	   3286	   77.6696	      15.3	   2.17596	7.24383e+06	   77.7621	      15.3	   2.12013	7.31952e+06	   77.6799	      15.3	    2.0124	7.35957e+06	   77.6312	      15.3	   2.12849	7.24867e+06	   77.7159	      15.3	   2.14805	7.28147e+06	    77.721	      15.3	   2.06627	 7.3384e+06	   77.6556	      15.3	   2.07045	7.30369e+06	   77.6504	      15.3	   2.15223	7.24541e+06	
         R10	   3287	   77.6799	      15.3	    2.0124	7.43937e+06	   77.7621	      15.3	   2.12013	7.36404e+06	   77.8794	      15.3	   2.09236	 7.3649e+06	   77.8449	      15.3	   1.92717	7.62072e+06	    77.721	      15.3	   2.06627	7.40091e+06	   77.8207	      15.3	   2.10625	 7.3641e+06	   77.8621	      15.3	   2.00976	7.48975e+06	   77.7624	      15.3	   1.96979	7.52889e+06	
         R10	   3288	   77.5606	      15.3	   1.85214	7.64105e+06	    77.445	      15.3	   1.79387	7.68863e+06	   77.4428	      15.3	   1.89924	7.53742e+06	   77.5028	      15.3	     1.823	 7.6632e+06	   77.4439	      15.3	   1.84656	7.61237e+06	   77.5017	      15.3	   1.87569	7.58885e+06	       N/A	       N/A	       N/A	        N/A	       N/A	       N/A	       N/A	        N/A	
         R10	   3289	   77.6799	      15.3	    2.0124	7.46257e+06	   77.5473	      15.3	   1.96545	7.43989e+06	   77.5343	      15.3	   2.07707	7.30774e+06	   77.6136	      15.3	   1.98893	7.44998e+06	   77.5408	      15.3	   2.02126	7.37312e+06	   77.6071	      15.3	   2.04473	7.38492e+06	       N/A	       N/A	       N/A	        N/A	       N/A	       N/A	       N/A	        N/A	
         R10	   3290	   78.2168	      15.3	   1.81847	7.77537e+06	   78.0195	      15.3	   1.75622	7.90799e+06	   78.0151	      15.3	   1.93043	 7.6772e+06	   78.1181	      15.3	   1.78735	7.82824e+06	   78.0173	      15.3	   1.84332	7.78747e+06	   78.1159	      15.3	   1.87445	7.71821e+06	       N/A	       N/A	       N/A	        N/A	       N/A	       N/A	       N/A	        N/A	
         R10	   3291	   77.8449	      15.3	   1.92717	7.61898e+06	   77.6847	      15.3	   1.86055	7.67275e+06	   77.6799	      15.3	    2.0124	7.48143e+06	   77.7648	      15.3	   1.89386	7.64241e+06	   77.6823	      15.3	   1.93648	7.57525e+06	   77.7624	      15.3	   1.96979	 7.5491e+06	       N/A	       N/A	       N/A	        N/A	       N/A	       N/A	       N/A	        N/A	
         R10	   3292	   79.6875	       8.5	       2.4	7.39183e+06	    78.625	       8.5	       2.4	6.64856e+06	    78.625	      9.35	       2.4	7.97521e+06	   79.6875	      9.35	       2.4	8.20985e+06	   79.1563	       8.5	       2.4	6.97991e+06	    78.625	     8.925	       2.4	7.19967e+06	   79.1563	      9.35	       2.4	8.08965e+06	   79.6875	     8.925	       2.4	7.78846e+06	
         R10	   3293	     80.75	       8.5	       2.4	8.60216e+06	   79.6875	       8.5	       2.4	7.47923e+06	   79.6875	      9.35	       2.4	8.16843e+06	     80.75	      9.35	       2.4	8.73521e+06	   80.2188	       8.5	       2.4	8.00731e+06	   79.6875	     8.925	       2.4	7.80893e+06	   80.2188	      9.35	       2.4	8.44895e+06	     80.75	     8.925	       2.4	8.66107e+06	
         R10	   3294	   79.6875	      9.35	       2.4	7.53425e+06	    78.625	      9.35	       2.4	6.69317e+06	    78.625	      10.2	       2.4	7.48018e+06	   79.6875	      10.2	       2.4	7.75794e+06	   79.1563	      9.35	       2.4	7.10016e+06	    78.625	     9.775	       2.4	 7.0667e+06	   79.1563	      10.2	       2.4	7.61766e+06	   79.6875	     9.775	       2.4	7.64436e+06	
         R10	   3295	     80.75	      9.35	       2.4	8.69596e+06	   79.6875	      9.35	       2.4	 7.5245e+06	   79.6875	      10.2	       2.4	7.68173e+06	     80.75	      10.2	       2.4	8.80999e+06	   80.2188	      9.35	       2.4	8.08885e+06	   79.6875	     9.775	       2.4	7.60078e+06	   80.2188	      10.2	       2.4	8.22139e+06	     80.75	     9.775	       2.4	8.73456e+06	
         R10	   3296	   79.9744	     11.05	       2.4	7.67248e+06	     80.75	     11.05	       2.4	8.93081e+06	     80.75	      10.2	       2.4	8.69105e+06	   79.6875	      10.2	       2.4	7.63852e+06	   80.3622	     11.05	       2.4	8.26346e+06	     80.75	    10.625	       2.4	8.79239e+06	   80.2188	      10.2	       2.4	8.15469e+06	   79.8309	    10.625	       2.4	7.65522e+06	
         R10	   3297	   79.6875	      10.2	       2.4	7.66374e+06	    78.625	      10.2	       2.4	7.23768e+06	    78.625	     11.05	       2.4	7.07817e+06	    79.266	     11.05	       2.4	7.27825e+06	   79.1563	      10.2	       2.4	7.43362e+06	    78.625	    10.625	       2.4	7.15639e+06	   78.9455	     11.05	       2.4	7.17394e+06	   79.4768	    10.625	       2.4	 7.4674e+06	
         R10	   3298	    79.266	     11.05	       2.4	7.35281e+06	   79.9744	     11.05	       2.4	7.81576e+06	   79.6875	      10.2	       2.4	7.55654e+06	   79.6202	     11.05	       2.4	7.57914e+06	   79.8309	    10.625	       2.4	7.68528e+06	   79.4768	    10.625	       2.4	7.44542e+06	       N/A	       N/A	       N/A	        N/A	       N/A	       N/A	       N/A	        N/A	
         R10	   3299	   79.2479	      15.3	  0.372116	9.42981e+06	   79.2266	      15.3	         0	9.23398e+06	   78.9125	      15.3	         0	9.74352e+06	   78.9404	      15.3	  0.308896	8.71386e+06	   79.2372	      15.3	  0.186058	9.17865e+06	   79.0695	      15.3	         0	9.23298e+06	   78.9264	      15.3	  0.154448	9.09633e+06	   79.0941	      15.3	  0.340506	9.01241e+06	
         R10	   3300	   79.5713	      15.3	  0.400362	 9.4142e+06	   79.5674	      15.3	         0	9.12251e+06	   79.2266	      15.3	         0	9.84387e+06	   79.2479	      15.3	  0.372116	9.24303e+06	   79.5694	      15.3	  0.200181	9.24488e+06	    79.397	      15.3	         0	9.31753e+06	   79.2372	      15.3	  0.186058	9.53742e+06	   79.4096	      15.3	  0.386239	9.27105e+06	
         R10	   3301	   79.9385	      15.3	  0.401676	9.36152e+06	   79.9349	      15.3	         0	9.60927e+06	   79.5674	      15.3	         0	9.82835e+06	   79.5713	      15.3	  0.400362	9.11164e+06	   79.9367	      15.3	  0.200838	9.44106e+06	   79.7512	      15.3	         0	9.34973e+06	   79.5694	      15.3	  0.200181	9.37439e+06	   79.7549	      15.3	  0.401019	 9.2085e+06	
         R10	   3302	   80.3364	      15.3	  0.403082	9.53697e+06	   80.3291	      15.3	         0	1.07456e+07	   79.9349	      15.3	         0	9.77788e+06	   79.9385	      15.3	  0.401676	9.47118e+06	   80.3327	      15.3	  0.201541	9.98126e+06	    80.132	      15.3	         0	9.75278e+06	   79.9367	      15.3	  0.200838	9.54648e+06	   80.1374	      15.3	  0.402379	9.44615e+06	
         R10	   3303	     80.75	      15.3	       0.4	9.51402e+06	     80.75	      15.3	         0	1.44006e+07	   80.3291	      15.3	         0	1.11437e+07	   80.3364	      15.3	  0.403082	1.08462e+07	     80.75	      15.3	       0.2	1.18776e+07	   80.5396	      15.3	         0	1.11875e+07	   80.3327	      15.3	  0.201541	1.04806e+07	   80.5432	      15.3	  0.401541	1.00961e+07	
         R10	   3304	   80.2972	      15.3	       0.8	8.52995e+06	     80.75	      15.3	       0.8	9.64138e+06	     80.75	      15.3	       0.4	 9.6045e+06	   80.3364	      15.3	  0.403082	1.05298e+07	   80.5236	      15.3	       0.8	8.89502e+06	     80.75	      15.3	       0.6	9.62173e+06	   80.5432	      15.3	  0.401541	9.97314e+06	   80.3168	      15.3	  0.601541	9.49341e+06	
         R10	   3305	   79.8839	      15.3	       0.8	8.90633e+06	   80.2972	      15.3	       0.8	9.28432e+06	   80.3364	      15.3	  0.403082	 9.2611e+06	   79.9385	      15.3	  0.401676	9.50215e+06	   80.0906	      15.3	       0.8	9.06358e+06	   80.3168	      15.3	  0.601541	9.24363e+06	   80.1374	      15.3	  0.402379	9.34774e+06	   79.9112	      15.3	  0.600838	9.20202e+06	
         R10	   3306	     79.51	      15.3	       0.8	8.91695e+06	   79.8839	      15.3	       0.8	8.97595e+06	   79.9385	      15.3	  0.401676	9.43562e+06	   79.5713	      15.3	  0.400362	9.10435e+06	    79.697	      15.3	       0.8	8.93694e+06	   79.9112	      15.3	  0.600838	9.20486e+06	   79.7549	      15.3	  0.401019	9.24383e+06	   79.5407	      15.3	  0.600181	 9.0093e+06	
         R10	   3307	   79.1756	      15.3	       0.8	8.92455e+06	     79.51	      15.3	       0.8	9.06207e+06	   79.5713	      15.3	  0.400362	9.30588e+06	   79.2479	      15.3	  0.372116	9.07403e+06	   79.3428	      15.3	       0.8	8.98806e+06	   79.5407	      15.3	  0.600181	9.18286e+06	   79.4096	      15.3	  0.386239	9.15862e+06	   79.2117	      15.3	  0.586058	8.99206e+06	
         R10	   3308	    78.625	      15.3	  0.558673	 9.3305e+06	    78.625	      15.3	       0.8	9.02048e+06	   78.8806	      15.3	       0.8	9.00481e+06	   78.9022	      15.3	  0.546117	9.04152e+06	    78.625	      15.3	  0.679336	9.17435e+06	   78.7528	      15.3	       0.8	9.01077e+06	   78.8914	      15.3	  0.673059	9.02209e+06	   78.7636	      15.3	  0.552395	9.18332e+06	
         R10	   3309	   78.9404	      15.3	  0.308896	9.42394e+06	   78.9125	      15.3	         0	9.24067e+06	    78.625	      15.3	         0	9.82293e+06	    78.625	      15.3	  0.292006	9.43051e+06	   78.9264	      15.3	  0.154448	9.32729e+06	   78.7687	      15.3	         0	9.41578e+06	    78.625	      15.3	  0.146003	9.57428e+06	   78.7827	      15.3	  0.300451	9.39403e+06	
         R10	   3310	   78.9404	      15.3	  0.308896	9.30678e+06	    78.625	      15.3	  0.292006	9.36949e+06	    78.625	      15.3	  0.558673	9.29959e+06	   78.9022	      15.3	  0.546117	9.04068e+06	   78.7827	      15.3	  0.300451	9.30571e+06	    78.625	      15.3	  0.425339	9.32724e+06	   78.7636	      15.3	  0.552395	9.16733e+06	   78.9213	      15.3	  0.427507	9.15646e+06	
         R10	   3311	   79.1756	      15.3	       0.8	9.19876e+06	   79.2479	      15.3	  0.372116	9.74078e+06	   78.9404	      15.3	  0.308896	8.89988e+06	   78.9022	      15.3	  0.546117	8.92365e+06	   79.2117	      15.3	  0.586058	9.45929e+06	   79.0941	      15.3	  0.340506	 9.2416e+06	   78.9213	      15.3	  0.427507	8.88345e+06	   79.0389	      15.3	  0.673059	9.05884e+06	
         R10	   3312	   78.9022	      15.3	  0.546117	8.97977e+06	   78.8806	      15.3	       0.8	8.98725e+06	   79.1756	      15.3	       0.8	8.94022e+06	   78.8914	      15.3	  0.673059	8.98262e+06	   79.0281	      15.3	       0.8	8.96232e+06	   79.0389	      15.3	  0.673059	8.95951e+06	       N/A	       N/A	       N/A	        N/A	       N/A	       N/A	       N/A	        N/A	
         R10	   3313	   79.1756	      15.3	   1.11473	8.26752e+06	   79.1756	      15.3	       0.8	8.84793e+06	   78.8806	      15.3	       0.8	8.87423e+06	   78.8806	      15.3	   1.07529	8.92828e+06	   79.1756	      15.3	  0.957366	8.55297e+06	   79.0281	      15.3	       0.8	8.85773e+06	   78.8806	      15.3	  0.937646	8.89123e+06	   79.0281	      15.3	   1.09501	8.55252e+06	
         R10	   3314	     79.51	      15.3	   1.15417	8.70341e+06	     79.51	      15.3	       0.8	  8.957e+06	   79.1756	      15.3	       0.8	8.82777e+06	   79.1756	      15.3	   1.11473	8.65085e+06	     79.51	      15.3	  0.977084	8.82264e+06	   79.3428	      15.3	       0.8	8.88778e+06	   79.1756	      15.3	  0.957366	8.72729e+06	   79.3428	      15.3	   1.13445	8.61772e+06	
         R10	   3315	   79.8839	      15.3	    1.1936	9.11917e+06	   79.8839	      15.3	       0.8	8.94973e+06	     79.51	      15.3	       0.8	8.89161e+06	     79.51	      15.3	   1.15417	8.12415e+06	   79.8839	      15.3	  0.996802	9.01019e+06	    79.697	      15.3	       0.8	8.90513e+06	     79.51	      15.3	  0.977084	8.49973e+06	    79.697	      15.3	   1.17389	8.53023e+06	
         R10	   3316	   80.2972	      15.3	   1.23304	 8.9063e+06	   80.2972	      15.3	       0.8	9.26766e+06	   79.8839	      15.3	       0.8	8.78814e+06	   79.8839	      15.3	    1.1936	7.73468e+06	   80.2972	      15.3	   1.01652	9.06065e+06	   80.0906	      15.3	       0.8	8.98114e+06	   79.8839	      15.3	  0.996802	8.24525e+06	   80.0906	      15.3	   1.21332	8.20466e+06	
         R10	   3317	     80.75	      15.3	   1.21905	8.69537e+06	     80.75	      15.3	       0.8	9.97409e+06	   80.2972	      15.3	       0.8	8.58618e+06	   80.2972	      15.3	   1.23304	7.17938e+06	     80.75	      15.3	   1.00952	9.33105e+06	   80.5236	      15.3	       0.8	9.09158e+06	   80.2972	      15.3	   1.01652	7.85815e+06	   80.5236	      15.3	   1.22604	7.76879e+06	
         R10	   3318	   80.3619	      15.3	       1.6	6.73113e+06	     80.75	      15.3	       1.6	8.03921e+06	     80.75	      15.3	   1.21905	8.75647e+06	   80.2972	      15.3	   1.23304	7.36287e+06	    80.556	      15.3	       1.6	7.02786e+06	     80.75	      15.3	   1.40952	 8.3828e+06	   80.5236	      15.3	   1.22604	7.95231e+06	   80.3296	      15.3	   1.41652	7.00921e+06	
         R10	   3319	    80.002	      15.3	       1.6	7.67395e+06	   80.3619	      15.3	       1.6	7.43551e+06	   80.2972	      15.3	   1.23304	9.22688e+06	   79.8839	      15.3	    1.1936	7.70862e+06	    80.182	      15.3	       1.6	 7.5242e+06	   80.3296	      15.3	   1.41652	8.29132e+06	   80.0906	      15.3	   1.21332	8.29668e+06	    79.943	      15.3	    1.3968	7.66081e+06	
         R10	   3320	   79.6703	      15.3	       1.6	7.81925e+06	    80.002	      15.3	       1.6	7.64391e+06	   79.8839	      15.3	    1.1936	 9.2759e+06	     79.51	      15.3	   1.15417	8.09322e+06	   79.8361	      15.3	       1.6	7.72051e+06	    79.943	      15.3	    1.3968	8.40571e+06	    79.697	      15.3	   1.17389	8.53337e+06	   79.5901	      15.3	   1.37708	7.93948e+06	
         R10	   3321	   78.8441	      15.3	   1.36685	8.22179e+06	   78.8441	      15.3	       1.6	7.98198e+06	   79.0913	      15.3	       1.6	7.93938e+06	   79.0913	      15.3	   1.33869	8.45191e+06	   78.8441	      15.3	   1.48343	8.10063e+06	   78.9677	      15.3	       1.6	7.95594e+06	   79.0913	      15.3	   1.46934	8.16906e+06	   78.9677	      15.3	   1.35277	8.32663e+06	
         R10	   3322	    78.625	      15.3	   1.34603	 8.2467e+06	    78.625	      15.3	       1.6	8.04261e+06	   78.8441	      15.3	       1.6	8.00529e+06	   78.8441	      15.3	   1.36685	8.50957e+06	    78.625	      15.3	   1.47302	8.14244e+06	   78.7345	      15.3	       1.6	8.02206e+06	   78.8441	      15.3	   1.48343	8.25441e+06	   78.7345	      15.3	   1.35644	8.37471e+06	
         R10	   3323	   78.8806	      15.3	   1.07529	 8.5026e+06	   78.8806	      15.3	       0.8	 8.8889e+06	    78.625	      15.3	       0.8	 8.8863e+06	    78.625	      15.3	   1.07937	8.73722e+06	   78.8806	      15.3	  0.937646	8.69215e+06	   78.7528	      15.3	       0.8	8.88545e+06	    78.625	      15.3	  0.939683	8.80489e+06	   78.7528	      15.3	   1.07733	8.58528e+06	
         R10	   3324	   78.8806	      15.3	   1.07529	8.49366e+06	    78.625	      15.3	   1.07937	8.74009e+06	    78.625	      15.3	   1.34603	 8.2461e+06	   78.8441	      15.3	   1.36685	8.48662e+06	   78.7528	      15.3	   1.07733	8.58144e+06	    78.625	      15.3	    1.2127	8.48431e+06	   78.7345	      15.3	   1.35644	8.36317e+06	   78.8623	      15.3	   1.22107	8.46767e+06	
         R10	   3325	   79.1756	      15.3	   1.11473	8.30795e+06	   78.8806	      15.3	   1.07529	8.94257e+06	   78.8441	      15.3	   1.36685	8.26763e+06	   79.0913	      15.3	   1.33869	8.40684e+06	   79.0281	      15.3	   1.09501	8.56967e+06	   78.8623	      15.3	   1.22107	8.58808e+06	   78.9677	      15.3	   1.35277	8.32262e+06	   79.1334	      15.3	   1.22671	8.31446e+06	
         R10	   3326	   79.3667	      15.3	       1.6	8.15928e+06	     79.51	      15.3	   1.15417	8.71845e+06	   79.1756	      15.3	   1.11473	8.61334e+06	   79.0913	      15.3	   1.33869	 7.9455e+06	   79.4384	      15.3	   1.37708	8.38426e+06	   79.3428	      15.3	   1.13445	8.59351e+06	   79.1334	      15.3	   1.22671	8.24968e+06	    79.229	      15.3	   1.46934	8.03867e+06	
         R10	   3327	   79.3667	      15.3	       1.6	7.90729e+06	   79.6703	      15.3	       1.6	 7.7311e+06	     79.51	      15.3	   1.15417	8.49413e+06	   79.5185	      15.3	       1.6	7.81116e+06	   79.5901	      15.3	   1.37708	8.10389e+06	   79.4384	      15.3	   1.37708	8.17715e+06	       N/A	       N/A	       N/A	        N/A	       N/A	       N/A	       N/A	        N/A	
         R10	   3328	   79.0913	      15.3	   1.33869	8.04276e+06	   79.0913	      15.3	       1.6	  7.984e+06	   79.3667	      15.3	       1.6	7.84654e+06	   79.0913	      15.3	   1.46934	7.98779e+06	    79.229	      15.3	       1.6	7.91277e+06	    79.229	      15.3	   1.46934	7.90372e+06	       N/A	       N/A	       N/A	        N/A	       N/A	       N/A	       N/A	        N/A	
         R10	   3329	   79.1278	      15.3	   1.85414	7.56535e+06	   79.0913	      15.3	       1.6	 8.0122e+06	   78.8441	      15.3	       1.6	8.05281e+06	   78.8748	      15.3	   1.82224	7.95827e+06	   79.1096	      15.3	   1.72707	7.77335e+06	   78.9677	      15.3	       1.6	 8.0302e+06	   78.8594	      15.3	   1.71112	7.98241e+06	   79.0013	      15.3	   1.83819	7.67116e+06	
         R10	   3330	    79.411	      15.3	   1.91032	7.43322e+06	   79.3667	      15.3	       1.6	7.95442e+06	   79.0913	      15.3	       1.6	8.06296e+06	   79.1278	      15.3	   1.85414	7.95405e+06	   79.3889	      15.3	   1.75516	7.67969e+06	    79.229	      15.3	       1.6	  8.005e+06	   79.1096	      15.3	   1.72707	7.97574e+06	   79.2694	      15.3	   1.88223	7.58059e+06	
         R10	   3331	    79.705	      15.3	   1.97475	7.17498e+06	   79.6703	      15.3	       1.6	7.89879e+06	   79.3667	      15.3	       1.6	8.00853e+06	    79.411	      15.3	   1.91032	7.66711e+06	   79.6876	      15.3	   1.78737	7.51339e+06	   79.5185	      15.3	       1.6	7.94677e+06	   79.3889	      15.3	   1.75516	7.79502e+06	    79.558	      15.3	   1.94253	7.25138e+06	
         R10	   3332	   80.0216	      15.3	   2.00131	7.22624e+06	    80.002	      15.3	       1.6	7.84086e+06	   79.6703	      15.3	       1.6	7.96913e+06	    79.705	      15.3	   1.97475	7.49772e+06	   80.0118	      15.3	   1.80065	7.51434e+06	   79.8361	      15.3	       1.6	7.89754e+06	   79.6876	      15.3	   1.78737	7.70571e+06	   79.8633	      15.3	   1.98803	7.25334e+06	
         R10	   3333	   80.3775	      15.3	   2.00147	6.88648e+06	   80.3619	      15.3	       1.6	7.94056e+06	    80.002	      15.3	       1.6	 7.8498e+06	   80.0216	      15.3	   2.00131	7.13152e+06	   80.3697	      15.3	   1.80073	7.37632e+06	    80.182	      15.3	       1.6	7.85828e+06	   80.0118	      15.3	   1.80065	7.47944e+06	   80.1995	      15.3	   2.00139	6.95724e+06	
         R10	   3334	     80.75	      15.3	         2	7.40538e+06	     80.75	      15.3	       1.6	8.30758e+06	   80.3619	      15.3	       1.6	7.12485e+06	   80.3775	      15.3	   2.00147	6.01013e+06	     80.75	      15.3	       1.8	7.79062e+06	    80.556	      15.3	       1.6	7.44059e+06	   80.3697	      15.3	   1.80073	6.52347e+06	   80.5637	      15.3	   2.00073	 6.5478e+06	
         R10	   3335	   80.3488	      15.3	       2.4	2.87631e+06	     80.75	      15.3	       2.4	9.32517e+06	     80.75	      15.3	         2	7.72066e+06	   80.3775	      15.3	   2.00147	6.94024e+06	   80.5494	      15.3	       2.4	5.44881e+06	     80.75	      15.3	       2.2	 8.4655e+06	   80.5637	      15.3	   2.00073	7.25652e+06	   80.3631	      15.3	   2.20073	 4.2415e+06	
         R10	   3336	   79.9801	      15.3	       2.4	4.58329e+06	   80.3488	      15.3	       2.4	8.48548e+06	   80.3775	      15.3	   2.00147	7.62175e+06	   80.0216	      15.3	   2.00131	7.17727e+06	   80.1644	      15.3	       2.4	6.40909e+06	   80.3631	      15.3	   2.20073	7.69536e+06	   80.1995	      15.3	   2.00139	7.26657e+06	   80.0008	      15.3	   2.20065	5.83665e+06	
         R10	   3337	   79.6439	      15.3	       2.4	5.45346e+06	   79.9801	      15.3	       2.4	 7.9344e+06	   80.0216	      15.3	   2.00131	7.04194e+06	    79.705	      15.3	   1.97475	7.42015e+06	    79.812	      15.3	       2.4	6.69149e+06	   80.0008	      15.3	   2.20065	7.43354e+06	   79.8633	      15.3	   1.98803	7.13625e+06	   79.6745	      15.3	   2.18737	6.43469e+06	
         R10	   3338	   79.0986	      15.3	   2.12572	7.32963e+06	   79.0694	      15.3	       2.4	6.91348e+06	   79.3404	      15.3	       2.4	6.95329e+06	   79.3651	      15.3	    2.1445	7.25553e+06	    79.084	      15.3	   2.26286	7.11654e+06	   79.2049	      15.3	       2.4	6.92144e+06	   79.3527	      15.3	   2.27225	7.09048e+06	   79.2319	      15.3	   2.13511	7.27691e+06	
         R10	   3339	   78.8349	      15.3	    2.2217	7.45142e+06	   78.8309	      15.3	       2.4	6.96314e+06	   79.0694	      15.3	       2.4	7.03236e+06	   79.0986	      15.3	   2.12572	 7.1787e+06	   78.8329	      15.3	   2.31085	7.20051e+06	   78.9501	      15.3	       2.4	6.99074e+06	    79.084	      15.3	   2.26286	7.10328e+06	   78.9668	      15.3	   2.17371	7.31393e+06	
         R10	   3340	    78.625	      15.3	   2.20952	7.37761e+06	    78.625	      15.3	       2.4	7.10175e+06	   78.8309	      15.3	       2.4	7.01738e+06	   78.8349	      15.3	    2.2217	7.17841e+06	    78.625	      15.3	   2.30476	7.23651e+06	    78.728	      15.3	       2.4	7.05555e+06	   78.8329	      15.3	   2.31085	7.09157e+06	   78.7299	      15.3	   2.21561	7.27361e+06	
         R10	   3341	    78.846	      15.3	   2.00272	7.64107e+06	    78.625	      15.3	    2.0127	7.41394e+06	    78.625	      15.3	   2.20952	7.36447e+06	   78.8349	      15.3	    2.2217	7.15326e+06	   78.7355	      15.3	   2.00771	7.52668e+06	    78.625	      15.3	   2.11111	7.38549e+06	   78.7299	      15.3	   2.21561	7.25559e+06	   78.8404	      15.3	   2.11221	7.39665e+06	
         R10	   3342	   78.8748	      15.3	   1.82224	7.65637e+06	   78.8441	      15.3	       1.6	8.05002e+06	    78.625	      15.3	       1.6	8.09035e+06	    78.625	      15.3	   1.80952	7.98135e+06	   78.8594	      15.3	   1.71112	7.84182e+06	   78.7345	      15.3	       1.6	8.06874e+06	    78.625	      15.3	   1.70476	8.02382e+06	   78.7499	      15.3	   1.81588	7.76395e+06	
         R10	   3343	   78.8748	      15.3	   1.82224	7.65545e+06	    78.625	      15.3	   1.80952	7.99461e+06	    78.625	      15.3	    2.0127	7.42738e+06	    78.846	      15.3	   2.00272	7.63988e+06	   78.7499	      15.3	   1.81588	7.77323e+06	    78.625	      15.3	   1.91111	7.69693e+06	   78.7355	      15.3	   2.00771	7.53322e+06	   78.8604	      15.3	   1.91248	7.63008e+06	
         R10	   3344	   79.3651	      15.3	    2.1445	6.57904e+06	   79.6439	      15.3	       2.4	7.49032e+06	    79.705	      15.3	   1.97475	7.03522e+06	    79.411	      15.3	   1.91032	7.52032e+06	   79.5045	      15.3	   2.27225	6.97974e+06	   79.6745	      15.3	   2.18737	7.16114e+06	    79.558	      15.3	   1.94253	7.12052e+06	   79.3881	      15.3	   2.02741	6.95129e+06	
         R10	   3345	   79.0986	      15.3	   2.12572	7.33132e+06	   79.3651	      15.3	    2.1445	7.26797e+06	    79.411	      15.3	   1.91032	7.34359e+06	   79.1278	      15.3	   1.85414	8.01436e+06	   79.2319	      15.3	   2.13511	 7.2931e+06	   79.3881	      15.3	   2.02741	7.27196e+06	   79.2694	      15.3	   1.88223	7.58533e+06	   79.1132	      15.3	   1.98993	7.62283e+06	
         R10	   3346	   79.1278	      15.3	   1.85414	7.53869e+06	   78.8748	      15.3	   1.82224	 7.9647e+06	    78.846	      15.3	   2.00272	 7.3732e+06	   79.0986	      15.3	   2.12572	7.53545e+06	   79.0013	      15.3	   1.83819	7.66453e+06	   78.8604	      15.3	   1.91248	7.63578e+06	   78.9723	      15.3	   2.06422	7.44811e+06	   79.1132	      15.3	   1.98993	7.49304e+06	
         R10	   3347	   79.3651	      15.3	    2.1445	6.44392e+06	   79.3404	      15.3	       2.4	 6.6192e+06	   79.6439	      15.3	       2.4	7.36782e+06	   79.3527	      15.3	   2.27225	 6.5077e+06	   79.4922	      15.3	       2.4	6.98397e+06	   79.5045	      15.3	   2.27225	6.84069e+06	       N/A	       N/A	       N/A	        N/A	       N/A	       N/A	       N/A	        N/A	
         R10	   3348	    78.846	      15.3	   2.00272	7.36185e+06	   78.8349	      15.3	    2.2217	7.42721e+06	   79.0986	      15.3	   2.12572	7.43266e+06	   78.8404	      15.3	   2.11221	7.39452e+06	   78.9668	      15.3	   2.17371	7.42093e+06	   78.9723	      15.3	   2.06422	7.38791e+06	       N/A	       N/A	       N/A	        N/A	       N/A	       N/A	       N/A	        N/A	
         R10	   3349	   74.6887	      15.3	       0.8	9.30636e+06	    74.375	      15.3	       0.8	9.18971e+06	    74.375	      15.3	   1.07937	8.96565e+06	    74.667	      15.3	   1.07016	8.96396e+06	   74.5318	      15.3	       0.8	9.24771e+06	    74.375	      15.3	  0.939683	9.07704e+06	    74.521	      15.3	   1.07476	8.96038e+06	   74.6778	      15.3	  0.935078	9.13438e+06	
         R10	   3350	    74.667	      15.3	   1.07016	8.96189e+06	    74.375	      15.3	   1.07937	8.95611e+06	    74.375	      15.3	   1.34603	  8.411e+06	   74.6443	      15.3	   1.33537	8.75294e+06	    74.521	      15.3	   1.07476	8.95323e+06	    74.375	      15.3	    1.2127	8.68198e+06	   74.5097	      15.3	    1.3407	8.58041e+06	   74.6556	      15.3	   1.20277	8.85733e+06	
         R10	   3351	   74.6443	      15.3	   1.33537	8.75886e+06	    74.375	      15.3	   1.34603	8.40634e+06	    74.375	      15.3	       1.6	8.24808e+06	    74.639	      15.3	       1.6	8.32856e+06	   74.5097	      15.3	    1.3407	8.58094e+06	    74.375	      15.3	   1.47302	8.32647e+06	    74.507	      15.3	       1.6	8.28726e+06	   74.6417	      15.3	   1.46769	8.54338e+06	
         R10	   3352	   74.8922	      15.3	   1.33075	8.78991e+06	   74.6443	      15.3	   1.33537	 8.6198e+06	    74.639	      15.3	       1.6	8.34783e+06	   74.8758	      15.3	       1.6	8.40832e+06	   74.7683	      15.3	   1.33306	8.70349e+06	   74.6417	      15.3	   1.46769	8.48358e+06	   74.7574	      15.3	       1.6	8.37695e+06	    74.884	      15.3	   1.46538	  8.599e+06	
         R10	   3353	   74.8922	      15.3	   1.33075	8.76917e+06	   74.8758	      15.3	       1.6	8.40504e+06	   75.0852	      15.3	       1.6	8.44853e+06	    75.095	      15.3	   1.35773	8.79778e+06	    74.884	      15.3	   1.46538	 8.5869e+06	   74.9805	      15.3	       1.6	8.42556e+06	   75.0901	      15.3	   1.47886	8.62308e+06	   74.9936	      15.3	   1.34424	8.78187e+06	
         R10	   3354	    75.095	      15.3	   1.35773	 8.7815e+06	   75.0852	      15.3	       1.6	8.44864e+06	   75.2673	      15.3	       1.6	8.47306e+06	   75.2659	      15.3	   1.41225	8.77276e+06	   75.0901	      15.3	   1.47886	8.61495e+06	   75.1763	      15.3	       1.6	8.45968e+06	   75.2666	      15.3	   1.50612	8.62282e+06	   75.1804	      15.3	   1.38499	8.77567e+06	
         R10	   3355	   75.2659	      15.3	   1.41225	8.74162e+06	   75.2673	      15.3	       1.6	8.47263e+06	   75.4222	      15.3	       1.6	8.47905e+06	   75.4112	      15.3	   1.44802	8.71808e+06	   75.2666	      15.3	   1.50612	8.60701e+06	   75.3448	      15.3	       1.6	8.47489e+06	   75.4167	      15.3	   1.52401	8.59847e+06	   75.3386	      15.3	   1.43013	8.72872e+06	
         R10	   3356	   75.4112	      15.3	   1.44802	8.70729e+06	   75.4222	      15.3	       1.6	8.47366e+06	   75.5497	      15.3	       1.6	8.46672e+06	   75.5279	      15.3	    1.4802	8.70245e+06	   75.4167	      15.3	   1.52401	8.59036e+06	    75.486	      15.3	       1.6	8.46935e+06	   75.5388	      15.3	    1.5401	8.58447e+06	   75.4695	      15.3	   1.46411	8.70386e+06	
         R10	   3357	   75.5279	      15.3	    1.4802	8.66614e+06	   75.5497	      15.3	       1.6	8.47222e+06	     75.65	      15.3	       1.6	8.46512e+06	   75.6577	      15.3	   1.49188	8.66693e+06	   75.5388	      15.3	    1.5401	8.56905e+06	   75.5999	      15.3	       1.6	8.46802e+06	   75.6538	      15.3	   1.54594	8.56596e+06	   75.5928	      15.3	   1.48604	8.66548e+06	
         R10	   3358	   75.6577	      15.3	   1.49188	8.65448e+06	     75.65	      15.3	       1.6	8.46569e+06	   75.7579	      15.3	       1.6	8.45405e+06	   75.7466	      15.3	   1.48315	 8.6709e+06	   75.6538	      15.3	   1.54594	8.56001e+06	   75.7039	      15.3	       1.6	8.45895e+06	   75.7522	      15.3	   1.54157	8.56225e+06	   75.7021	      15.3	   1.48751	8.66216e+06	
         R10	   3359	   75.7466	      15.3	   1.48315	8.67612e+06	   75.7579	      15.3	       1.6	8.45288e+06	   75.8624	      15.3	       1.6	8.44087e+06	   75.8608	      15.3	   1.48932	8.66298e+06	   75.7522	      15.3	   1.54157	8.56429e+06	   75.8101	      15.3	       1.6	8.44585e+06	   75.8616	      15.3	   1.54466	8.55172e+06	   75.8037	      15.3	   1.48623	8.66834e+06	
         R10	   3360	   75.8608	      15.3	   1.48932	8.66505e+06	   75.8624	      15.3	       1.6	8.43888e+06	   75.9635	      15.3	       1.6	8.42691e+06	   75.9513	      15.3	   1.50319	8.64631e+06	   75.8616	      15.3	   1.54466	8.55176e+06	   75.9129	      15.3	       1.6	8.43177e+06	   75.9574	      15.3	   1.55159	8.53626e+06	   75.9061	      15.3	   1.49625	8.65479e+06	
         R10	   3361	   75.9513	      15.3	   1.50319	8.63788e+06	   75.9635	      15.3	       1.6	8.43269e+06	   76.0613	      15.3	       1.6	8.43257e+06	   76.0586	      15.3	   1.47931	8.68203e+06	   75.9574	      15.3	   1.55159	8.53493e+06	   76.0124	      15.3	       1.6	8.43148e+06	   76.0599	      15.3	   1.53965	8.55688e+06	    76.005	      15.3	   1.49125	8.65885e+06	
         R10	   3362	   76.0586	      15.3	   1.47931	8.68773e+06	   76.0613	      15.3	       1.6	8.43134e+06	   76.1557	      15.3	       1.6	8.43211e+06	   76.1591	      15.3	   1.50678	8.62888e+06	   76.0599	      15.3	   1.53965	 8.5591e+06	   76.1085	      15.3	       1.6	8.43067e+06	   76.1574	      15.3	   1.55339	 8.5303e+06	   76.1089	      15.3	   1.49304	8.65699e+06	
         R10	   3363	   76.1591	      15.3	   1.50678	8.62602e+06	   76.1557	      15.3	       1.6	8.43245e+06	   76.2468	      15.3	       1.6	8.43317e+06	   76.2453	      15.3	     1.508	 8.6117e+06	   76.1574	      15.3	   1.55339	8.52904e+06	   76.2013	      15.3	       1.6	8.43195e+06	   76.2461	      15.3	     1.554	8.52236e+06	   76.2022	      15.3	   1.50739	8.61808e+06	
         R10	   3364	   76.2453	      15.3	     1.508	8.61476e+06	   76.2468	      15.3	       1.6	8.44603e+06	   76.3346	      15.3	       1.6	8.45372e+06	   76.3333	      15.3	   1.51168	8.47028e+06	   76.2461	      15.3	     1.554	8.53031e+06	   76.2907	      15.3	       1.6	8.44904e+06	   76.3339	      15.3	   1.55584	 8.4618e+06	   76.2893	      15.3	   1.50984	8.54211e+06	
         R10	   3365	   76.3333	      15.3	   1.51168	8.45302e+06	   76.3346	      15.3	       1.6	 8.3759e+06	    76.419	      15.3	       1.6	8.09915e+06	   76.4174	      15.3	    1.5149	8.54882e+06	   76.3339	      15.3	   1.55584	8.41414e+06	   76.3768	      15.3	       1.6	8.23241e+06	   76.4182	      15.3	   1.55745	 8.3032e+06	   76.3753	      15.3	   1.51329	8.49359e+06	
         R10	   3366	   76.4174	      15.3	    1.5149	8.12243e+06	    76.419	      15.3	       1.6	 8.0299e+06	      76.5	      15.3	       1.6	7.98524e+06	      76.5	      15.3	   1.52248	1.02646e+07	   76.4182	      15.3	   1.55745	8.05011e+06	   76.4595	      15.3	       1.6	7.96457e+06	      76.5	      15.3	   1.56124	8.79891e+06	   76.4587	      15.3	   1.51869	9.14735e+06	
         R10	   3367	   76.4184	      15.3	   1.42439	9.03715e+06	   76.4174	      15.3	    1.5149	8.22996e+06	      76.5	      15.3	   1.52248	9.45095e+06	      76.5	      15.3	   1.43271	9.32141e+06	   76.4179	      15.3	   1.46964	8.63046e+06	   76.4587	      15.3	   1.51869	8.83122e+06	      76.5	      15.3	    1.4776	9.37661e+06	   76.4592	      15.3	   1.42855	9.17508e+06	
         R10	   3368	   76.4184	      15.3	   1.42439	9.04778e+06	      76.5	      15.3	   1.43271	9.12368e+06	      76.5	      15.3	   1.33068	9.28219e+06	   76.4035	      15.3	   1.31953	9.17595e+06	   76.4592	      15.3	   1.42855	 9.0857e+06	      76.5	      15.3	    1.3817	9.20282e+06	   76.4518	      15.3	   1.32511	9.22679e+06	    76.411	      15.3	   1.37196	9.10965e+06	
         R10	   3369	   76.4035	      15.3	   1.31953	9.19565e+06	      76.5	      15.3	   1.33068	9.22537e+06	      76.5	      15.3	    1.2164	 9.4834e+06	   76.3816	      15.3	   1.20702	9.38349e+06	   76.4518	      15.3	   1.32511	9.21005e+06	      76.5	      15.3	   1.27354	9.35432e+06	   76.4408	      15.3	   1.21171	9.42967e+06	   76.3926	      15.3	   1.26328	9.28782e+06	
         R10	   3370	   76.3816	      15.3	   1.20702	9.41999e+06	      76.5	      15.3	    1.2164	9.40002e+06	      76.5	      15.3	   1.08986	  9.742e+06	   76.3637	      15.3	   1.08431	9.67464e+06	   76.4408	      15.3	   1.21171	9.40922e+06	      76.5	      15.3	   1.15313	9.56994e+06	   76.4318	      15.3	   1.08708	 9.6988e+06	   76.3726	      15.3	   1.14566	9.54432e+06	
         R10	   3371	   76.3637	      15.3	   1.08431	9.70419e+06	      76.5	      15.3	   1.08986	9.58448e+06	      76.5	      15.3	  0.951056	1.00155e+07	   76.3469	      15.3	  0.943624	  1.016e+07	   76.4318	      15.3	   1.08708	 9.6403e+06	      76.5	      15.3	   1.02046	9.78702e+06	   76.4235	      15.3	   0.94734	1.00633e+07	   76.3553	      15.3	   1.01397	9.92857e+06	
         R10	   3372	   76.3469	      15.3	  0.943624	 1.0103e+07	      76.5	      15.3	  0.951056	9.68621e+06	      76.5	      15.3	       0.8	1.06719e+07	   76.3415	      15.3	       0.8	 1.0248e+07	   76.4235	      15.3	   0.94734	9.87346e+06	      76.5	      15.3	  0.875528	 1.0093e+07	   76.4207	      15.3	       0.8	1.04236e+07	   76.3442	      15.3	  0.871812	1.01754e+07	
         R10	   3373	   76.1714	      15.3	  0.953091	9.80326e+06	   76.3469	      15.3	  0.943624	9.99773e+06	   76.3415	      15.3	       0.8	1.03714e+07	   76.1635	      15.3	       0.8	 1.0214e+07	   76.2592	      15.3	  0.948358	9.89757e+06	   76.3442	      15.3	  0.871812	1.01845e+07	   76.2525	      15.3	       0.8	1.02835e+07	   76.1674	      15.3	  0.876545	 1.0006e+07	
         R10	   3374	   76.1714	      15.3	  0.953091	9.83344e+06	   76.1635	      15.3	       0.8	 1.0244e+07	   75.9662	      15.3	       0.8	1.00454e+07	   75.9646	      15.3	   1.01446	9.62469e+06	   76.1674	      15.3	  0.876545	1.00363e+07	   76.0648	      15.3	       0.8	1.01375e+07	   75.9654	      15.3	   0.90723	9.83333e+06	    76.068	      15.3	  0.983775	9.72369e+06	
         R10	   3375	   75.9646	      15.3	   1.01446	9.63239e+06	   75.9662	      15.3	       0.8	1.00708e+07	   75.7495	      15.3	       0.8	9.91388e+06	    75.721	      15.3	   1.02578	9.53038e+06	   75.9654	      15.3	   0.90723	9.84974e+06	   75.8578	      15.3	       0.8	9.98718e+06	   75.7352	      15.3	   0.91289	9.72128e+06	   75.8428	      15.3	   1.02012	 9.5743e+06	
         R10	   3376	    75.721	      15.3	   1.02578	 9.5315e+06	   75.7495	      15.3	       0.8	9.87601e+06	   75.5134	      15.3	       0.8	9.74133e+06	   75.5086	      15.3	   1.03558	9.41568e+06	   75.7352	      15.3	   0.91289	 9.7024e+06	   75.6314	      15.3	       0.8	9.80557e+06	    75.511	      15.3	  0.917789	 9.5776e+06	   75.6148	      15.3	   1.03068	9.46986e+06	
         R10	   3377	   75.5086	      15.3	   1.03558	 9.4469e+06	   75.5134	      15.3	       0.8	9.71071e+06	   75.2579	      15.3	       0.8	9.60128e+06	   75.2221	      15.3	   1.08375	9.19446e+06	    75.511	      15.3	  0.917789	9.57674e+06	   75.3856	      15.3	       0.8	9.65386e+06	     75.24	      15.3	  0.941875	9.39727e+06	   75.3654	      15.3	   1.05966	9.31545e+06	
         R10	   3378	   75.2221	      15.3	   1.08375	9.23955e+06	   75.2579	      15.3	       0.8	9.52757e+06	    74.983	      15.3	       0.8	9.41543e+06	   74.9453	      15.3	   1.07556	9.13521e+06	     75.24	      15.3	  0.941875	9.38236e+06	   75.1204	      15.3	       0.8	9.47015e+06	   74.9641	      15.3	   0.93778	9.27512e+06	   75.0837	      15.3	   1.07966	9.18434e+06	
         R10	   3379	   74.9453	      15.3	   1.07556	9.13924e+06	    74.983	      15.3	       0.8	9.38844e+06	   74.6887	      15.3	       0.8	9.29473e+06	    74.667	      15.3	   1.07016	9.04448e+06	   74.9641	      15.3	   0.93778	9.26255e+06	   74.8358	      15.3	       0.8	9.34064e+06	   74.6778	      15.3	  0.935078	9.16959e+06	   74.8061	      15.3	   1.07286	 9.0873e+06	
         R10	   3380	   74.9453	      15.3	   1.07556	9.09491e+06	    74.667	      15.3	   1.07016	9.03326e+06	   74.6443	      15.3	   1.33537	8.62118e+06	   74.8922	      15.3	   1.33075	8.82236e+06	   74.8061	      15.3	   1.07286	9.06054e+06	   74.6556	      15.3	   1.20277	8.82678e+06	   74.7683	      15.3	   1.33306	8.71987e+06	   74.9187	      15.3	   1.20316	8.95857e+06	
         R10	   3381	   75.2221	      15.3	   1.08375	9.23825e+06	   74.9453	      15.3	   1.07556	9.09707e+06	   74.8922	      15.3	   1.33075	8.79502e+06	    75.095	      15.3	   1.35773	8.82345e+06	   75.0837	      15.3	   1.07966	9.16394e+06	   74.9187	      15.3	   1.20316	8.94565e+06	   74.9936	      15.3	   1.34424	8.80757e+06	   75.1585	      15.3	   1.22074	9.03076e+06	
         R10	   3382	   75.2221	      15.3	   1.08375	9.19845e+06	    75.095	      15.3	   1.35773	 8.8128e+06	   75.2659	      15.3	   1.41225	8.81686e+06	   75.3185	      15.3	    1.2575	 8.9711e+06	   75.1585	      15.3	   1.22074	9.00546e+06	   75.1804	      15.3	   1.38499	8.81356e+06	   75.2922	      15.3	   1.33487	8.89396e+06	   75.2703	      15.3	   1.17062	9.08362e+06	
         R10	   3383	   75.3185	      15.3	    1.2575	8.97584e+06	   75.2659	      15.3	   1.41225	8.76896e+06	   75.4112	      15.3	   1.44802	 8.7429e+06	   75.5018	      15.3	   1.24397	9.04356e+06	   75.2922	      15.3	   1.33487	8.87237e+06	   75.3386	      15.3	   1.43013	  8.755e+06	   75.4565	      15.3	     1.346	8.89314e+06	   75.4101	      15.3	   1.25074	9.00807e+06	
         R10	   3384	   75.5018	      15.3	   1.24397	9.04656e+06	   75.4112	      15.3	   1.44802	8.74399e+06	   75.5279	      15.3	    1.4802	8.68507e+06	   75.6018	      15.3	   1.38031	8.83595e+06	   75.4565	      15.3	     1.346	8.89513e+06	   75.4695	      15.3	   1.46411	8.71389e+06	   75.5648	      15.3	   1.43026	8.76026e+06	   75.5518	      15.3	   1.31214	8.93979e+06	
         R10	   3385	   75.7228	      15.3	   1.36764	8.88078e+06	   75.7466	      15.3	   1.48315	8.69275e+06	   75.8608	      15.3	   1.48932	8.66989e+06	   75.8702	      15.3	   1.36559	8.89658e+06	   75.7347	      15.3	    1.4254	8.78634e+06	   75.8037	      15.3	   1.48623	8.68026e+06	   75.8655	      15.3	   1.42746	8.78308e+06	   75.7965	      15.3	   1.36662	8.88659e+06	
         R10	   3386	   75.8702	      15.3	   1.36559	8.88924e+06	   75.8608	      15.3	   1.48932	8.67235e+06	   75.9513	      15.3	   1.50319	8.62197e+06	   75.9682	      15.3	   1.38528	8.87268e+06	   75.8655	      15.3	   1.42746	8.78064e+06	   75.9061	      15.3	   1.49625	8.64637e+06	   75.9597	      15.3	   1.44424	8.74709e+06	   75.9192	      15.3	   1.37544	8.87977e+06	
         R10	   3387	   76.0845	      15.3	   1.39187	8.83249e+06	   76.0586	      15.3	   1.47931	8.67577e+06	   76.1591	      15.3	   1.50678	8.59712e+06	   76.1646	      15.3	   1.37961	8.85959e+06	   76.0715	      15.3	   1.43559	8.75403e+06	   76.1089	      15.3	   1.49304	8.63514e+06	   76.1619	      15.3	    1.4432	8.72811e+06	   76.1245	      15.3	   1.38574	 8.8453e+06	
         R10	   3388	   76.1646	      15.3	   1.37961	8.86187e+06	   76.1591	      15.3	   1.50678	8.60018e+06	   76.2453	      15.3	     1.508	8.57095e+06	   76.2392	      15.3	   1.38551	8.85037e+06	   76.1619	      15.3	    1.4432	8.73079e+06	   76.2022	      15.3	   1.50739	 8.5848e+06	   76.2423	      15.3	   1.44676	8.71047e+06	   76.2019	      15.3	   1.38256	8.85502e+06	
         R10	   3389	   76.2392	      15.3	   1.38551	8.85086e+06	   76.2453	      15.3	     1.508	 8.5501e+06	   76.3333	      15.3	   1.51168	8.45836e+06	   76.3292	      15.3	   1.41169	 8.8954e+06	   76.2423	      15.3	   1.44676	8.70029e+06	   76.2893	      15.3	   1.50984	8.50286e+06	   76.3313	      15.3	   1.46168	8.67659e+06	   76.2842	      15.3	    1.3986	8.87087e+06	
         R10	   3390	   76.3292	      15.3	   1.41169	 8.8189e+06	   76.3333	      15.3	   1.51168	8.55476e+06	   76.4174	      15.3	    1.5149	8.51801e+06	   76.4184	      15.3	   1.42439	8.89993e+06	   76.3313	      15.3	   1.46168	 8.6865e+06	   76.3753	      15.3	   1.51329	8.53323e+06	   76.4179	      15.3	   1.46964	8.70791e+06	   76.3738	      15.3	   1.41804	8.85844e+06	
         R10	   3391	   76.2523	      15.3	   1.24861	9.21943e+06	   76.3816	      15.3	   1.20702	9.40319e+06	   76.3637	      15.3	   1.08431	9.65385e+06	   76.2168	      15.3	    1.0951	9.52784e+06	   76.3169	      15.3	   1.22781	9.30863e+06	   76.3726	      15.3	   1.14566	9.52542e+06	   76.2902	      15.3	    1.0897	9.58811e+06	   76.2345	      15.3	   1.17185	 9.3721e+06	
         R10	   3392	   76.2168	      15.3	    1.0951	9.55434e+06	   76.3637	      15.3	   1.08431	9.67629e+06	   76.3469	      15.3	  0.943624	9.98656e+06	   76.1714	      15.3	  0.953091	9.76944e+06	   76.2902	      15.3	    1.0897	9.61164e+06	   76.3553	      15.3	   1.01397	9.82823e+06	   76.2592	      15.3	  0.948358	9.87458e+06	   76.1941	      15.3	   1.02409	9.66015e+06	
         R10	   3393	   76.0801	      15.3	   1.13339	 9.3956e+06	   76.2168	      15.3	    1.0951	9.52798e+06	   76.1714	      15.3	  0.953091	  9.834e+06	   75.9646	      15.3	   1.01446	9.60695e+06	   76.1484	      15.3	   1.11424	9.45946e+06	   76.1941	      15.3	   1.02409	9.67908e+06	    76.068	      15.3	  0.983775	9.71504e+06	   76.0223	      15.3	   1.07393	9.49724e+06	
         R10	   3394	   75.5086	      15.3	   1.03558	9.42558e+06	   75.2221	      15.3	   1.08375	9.19263e+06	   75.3185	      15.3	    1.2575	8.99659e+06	   75.5018	      15.3	   1.24397	9.08139e+06	   75.3654	      15.3	   1.05966	9.30461e+06	   75.2703	      15.3	   1.17062	9.09343e+06	   75.4101	      15.3	   1.25074	9.03671e+06	   75.5052	      15.3	   1.13978	9.25315e+06	
         R10	   3395	   75.6018	      15.3	   1.38031	8.86402e+06	   75.6577	      15.3	   1.49188	8.66353e+06	   75.7466	      15.3	   1.48315	8.68974e+06	   75.7228	      15.3	   1.36764	8.88159e+06	   75.6297	      15.3	    1.4361	8.76314e+06	   75.7021	      15.3	   1.48751	8.67598e+06	   75.7347	      15.3	    1.4254	8.78526e+06	   75.6623	      15.3	   1.37398	8.87178e+06	
         R10	   3396	   75.7067	      15.3	   1.20183	9.17403e+06	   75.7228	      15.3	   1.36764	8.90899e+06	   75.8702	      15.3	   1.36559	8.91074e+06	   75.8986	      15.3	   1.19999	9.21889e+06	   75.7148	      15.3	   1.28474	9.04084e+06	   75.7965	      15.3	   1.36662	8.90817e+06	   75.8844	      15.3	   1.28279	9.06464e+06	   75.8027	      15.3	   1.20091	9.19291e+06	
         R10	   3397	   76.0111	      15.3	   1.26819	9.11041e+06	   75.9682	      15.3	   1.38528	8.84866e+06	   76.0586	      15.3	   1.47931	8.67482e+06	   76.0845	      15.3	   1.39187	8.86236e+06	   75.9896	      15.3	   1.32674	 8.9793e+06	   76.0134	      15.3	   1.43229	8.76036e+06	   76.0715	      15.3	   1.43559	8.76849e+06	   76.0478	      15.3	   1.33003	8.98502e+06	
         R10	   3398	   76.1569	      15.3	   1.26782	9.12213e+06	   76.2523	      15.3	   1.24861	  9.212e+06	   76.2168	      15.3	    1.0951	9.51065e+06	   76.0801	      15.3	   1.13339	9.39262e+06	   76.2046	      15.3	   1.25822	9.16582e+06	   76.2345	      15.3	   1.17185	9.35995e+06	   76.1484	      15.3	   1.11424	9.44959e+06	   76.1185	      15.3	   1.20061	9.25517e+06	
         R10	   3399	   75.8986	      15.3	   1.19999	9.17961e+06	   75.8702	      15.3	   1.36559	8.91781e+06	   75.9682	      15.3	   1.38528	8.85391e+06	   76.0111	      15.3	   1.26819	9.13652e+06	   75.8844	      15.3	   1.28279	9.04849e+06	   75.9192	      15.3	   1.37544	8.88481e+06	   75.9896	      15.3	   1.32674	8.99502e+06	   75.9548	      15.3	   1.23409	9.15628e+06	
         R10	   3400	   76.3282	      15.3	    1.3297	9.05176e+06	   76.4035	      15.3	   1.31953	9.19039e+06	   76.3816	      15.3	   1.20702	9.38745e+06	   76.2523	      15.3	   1.24861	9.20266e+06	   76.3659	      15.3	   1.32462	9.12019e+06	   76.3926	      15.3	   1.26328	9.28721e+06	   76.3169	      15.3	   1.22781	9.29288e+06	   76.2903	      15.3	   1.28915	9.12499e+06	
         R10	   3401	   76.3282	      15.3	    1.3297	9.06829e+06	   76.2523	      15.3	   1.24861	9.19485e+06	   76.2392	      15.3	   1.38551	8.87584e+06	   76.3292	      15.3	   1.41169	8.79797e+06	   76.2903	      15.3	   1.28915	9.12952e+06	   76.2458	      15.3	   1.31706	9.03489e+06	   76.2842	      15.3	    1.3986	8.83555e+06	   76.3287	      15.3	    1.3707	8.93288e+06	
         R10	   3402	   76.3282	      15.3	    1.3297	9.08643e+06	   76.3292	      15.3	   1.41169	8.75705e+06	   76.4184	      15.3	   1.42439	8.95736e+06	   76.4035	      15.3	   1.31953	9.18343e+06	   76.3287	      15.3	    1.3707	8.92137e+06	   76.3738	      15.3	   1.41804	8.85409e+06	    76.411	      15.3	   1.37196	9.06805e+06	   76.3659	      15.3	   1.32462	9.13446e+06	
         R10	   3403	   76.1569	      15.3	   1.26782	9.11454e+06	   76.1646	      15.3	   1.37961	8.87363e+06	   76.2392	      15.3	   1.38551	8.87118e+06	   76.2523	      15.3	   1.24861	9.19581e+06	   76.1608	      15.3	   1.32372	 8.9936e+06	   76.2019	      15.3	   1.38256	 8.8714e+06	   76.2458	      15.3	   1.31706	9.03307e+06	   76.2046	      15.3	   1.25822	9.15399e+06	
         R10	   3404	   75.5018	      15.3	   1.24397	9.09749e+06	   75.6018	      15.3	   1.38031	8.87458e+06	   75.7228	      15.3	   1.36764	8.91169e+06	   75.7067	      15.3	   1.20183	9.18465e+06	   75.5518	      15.3	   1.31214	8.98486e+06	   75.6623	      15.3	   1.37398	8.89172e+06	   75.7148	      15.3	   1.28474	 9.0475e+06	   75.6043	      15.3	    1.2229	9.13867e+06	
         R10	   3405	    75.721	      15.3	   1.02578	9.50873e+06	   75.5086	      15.3	   1.03558	 9.3933e+06	   75.5018	      15.3	   1.24397	9.10321e+06	   75.7067	      15.3	   1.20183	9.19301e+06	   75.6148	      15.3	   1.03068	9.44711e+06	   75.5052	      15.3	   1.13978	9.24762e+06	   75.6043	      15.3	    1.2229	9.14546e+06	   75.7139	      15.3	   1.11381	 9.3505e+06	
         R10	   3406	   75.9646	      15.3	   1.01446	9.59331e+06	    75.721	      15.3	   1.02578	9.50145e+06	   75.7067	      15.3	   1.20183	9.20784e+06	   75.8986	      15.3	   1.19999	9.24603e+06	   75.8428	      15.3	   1.02012	9.54078e+06	   75.7139	      15.3	   1.11381	9.35418e+06	   75.8027	      15.3	   1.20091	 9.2237e+06	   75.9316	      15.3	   1.10723	9.41929e+06	
         R10	   3407	   76.0111	      15.3	   1.26819	9.12119e+06	   76.0801	      15.3	   1.13339	9.36364e+06	   75.9646	      15.3	   1.01446	9.62323e+06	   75.8986	      15.3	   1.19999	9.25653e+06	   76.0456	      15.3	   1.20079	9.24163e+06	   76.0223	      15.3	   1.07393	9.48929e+06	   75.9316	      15.3	   1.10723	9.43962e+06	   75.9548	      15.3	   1.23409	9.18732e+06	
         R10	   3408	   76.0845	      15.3	   1.39187	8.83618e+06	   76.1646	      15.3	   1.37961	8.86945e+06	   76.1569	      15.3	   1.26782	9.12082e+06	   76.0111	      15.3	   1.26819	  9.092e+06	   76.1245	      15.3	   1.38574	8.85181e+06	   76.1608	      15.3	   1.32372	8.99467e+06	    76.084	      15.3	   1.26801	9.10371e+06	   76.0478	      15.3	   1.33003	8.96279e+06	
         R10	   3409	   75.6018	      15.3	   1.38031	8.86402e+06	   75.5279	      15.3	    1.4802	8.66242e+06	   75.6577	      15.3	   1.49188	8.67965e+06	   75.5648	      15.3	   1.43026	8.76307e+06	   75.5928	      15.3	   1.48604	8.66983e+06	   75.6297	      15.3	    1.4361	8.77123e+06	       N/A	       N/A	       N/A	        N/A	       N/A	       N/A	       N/A	        N/A	
         R10	   3410	   75.9682	      15.3	   1.38528	8.87663e+06	   75.9513	      15.3	   1.50319	8.62976e+06	   76.0586	      15.3	   1.47931	 8.6751e+06	   75.9597	      15.3	   1.44424	8.75299e+06	    76.005	      15.3	   1.49125	 8.6513e+06	   76.0134	      15.3	   1.43229	8.77444e+06	       N/A	       N/A	       N/A	        N/A	       N/A	       N/A	       N/A	        N/A	
         R10	   3411	   76.0111	      15.3	   1.26819	9.07965e+06	   76.1569	      15.3	   1.26782	9.13237e+06	   76.0801	      15.3	   1.13339	9.40982e+06	    76.084	      15.3	   1.26801	9.10306e+06	   76.1185	      15.3	   1.20061	9.26894e+06	   76.0456	      15.3	   1.20079	9.24433e+06	       N/A	       N/A	       N/A	        N/A	       N/A	       N/A	       N/A	        N/A	
         R10	   3412	    74.639	      15.3	       1.6	8.37501e+06	    74.375	      15.3	       1.6	8.23474e+06	    74.375	      15.3	   1.86667	8.34633e+06	   74.6353	      15.3	   1.86718	7.92777e+06	    74.507	      15.3	       1.6	8.30015e+06	    74.375	      15.3	   1.73333	8.28104e+06	   74.5052	      15.3	   1.86692	8.12952e+06	   74.6372	      15.3	   1.73359	8.14885e+06	
         R10	   3413	   74.6353	      15.3	   1.86718	 7.9409e+06	    74.375	      15.3	   1.86667	8.14795e+06	    74.375	      15.3	   2.13333	7.71375e+06	   74.6405	      15.3	   2.13162	7.61138e+06	   74.5052	      15.3	   1.86692	8.03606e+06	    74.375	      15.3	         2	7.92331e+06	   74.5078	      15.3	   2.13248	7.66246e+06	   74.6379	      15.3	    1.9994	7.77039e+06	
         R10	   3414	   74.6405	      15.3	   2.13162	7.65283e+06	    74.375	      15.3	   2.13333	7.59149e+06	    74.375	      15.3	       2.4	6.56216e+06	   74.6584	      15.3	       2.4	8.23766e+06	   74.5078	      15.3	   2.13248	7.61827e+06	    74.375	      15.3	   2.26667	7.04578e+06	   74.5167	      15.3	       2.4	7.39511e+06	   74.6495	      15.3	   2.26581	 7.9404e+06	
         R10	   3415	   74.8986	      15.3	   2.11684	7.61924e+06	   74.6405	      15.3	   2.13162	7.81562e+06	   74.6584	      15.3	       2.4	6.71638e+06	   74.9081	      15.3	       2.4	 8.0844e+06	   74.7696	      15.3	   2.12423	7.71684e+06	   74.6495	      15.3	   2.26581	 7.2557e+06	   74.7833	      15.3	       2.4	7.39856e+06	   74.9034	      15.3	   2.25842	7.84956e+06	
         R10	   3416	   74.8986	      15.3	   2.11684	 7.6743e+06	   74.9081	      15.3	       2.4	7.00434e+06	    75.124	      15.3	       2.4	7.70751e+06	   75.1235	      15.3	   2.21705	7.75624e+06	   74.9034	      15.3	   2.25842	7.33478e+06	    75.016	      15.3	       2.4	7.35573e+06	   75.1237	      15.3	   2.30853	7.72742e+06	    75.011	      15.3	   2.16694	 7.7144e+06	
         R10	   3417	   75.1235	      15.3	   2.21705	 7.7629e+06	    75.124	      15.3	       2.4	7.06356e+06	   75.3061	      15.3	       2.4	7.62273e+06	   75.2968	      15.3	   2.23737	7.54528e+06	   75.1237	      15.3	   2.30853	7.40748e+06	   75.2151	      15.3	       2.4	7.34136e+06	   75.3015	      15.3	   2.31868	7.58276e+06	   75.2101	      15.3	   2.22721	7.65384e+06	
         R10	   3418	   75.2968	      15.3	   2.23737	7.69675e+06	   75.3061	      15.3	       2.4	7.12684e+06	   75.4545	      15.3	       2.4	7.48471e+06	   75.4449	      15.3	   2.26979	7.42172e+06	   75.3015	      15.3	   2.31868	7.41026e+06	   75.3803	      15.3	       2.4	7.30511e+06	   75.4497	      15.3	    2.3349	7.45234e+06	   75.3709	      15.3	   2.25358	7.55891e+06	
         R10	   3419	   75.4449	      15.3	   2.26979	7.51288e+06	   75.4545	      15.3	       2.4	7.22476e+06	   75.5691	      15.3	       2.4	7.26441e+06	   75.5616	      15.3	   2.29211	7.36379e+06	   75.4497	      15.3	    2.3349	7.36768e+06	   75.5118	      15.3	       2.4	7.24423e+06	   75.5654	      15.3	   2.34606	 7.3132e+06	   75.5033	      15.3	   2.28095	7.43805e+06	
         R10	   3420	   75.5616	      15.3	   2.29211	7.38168e+06	   75.5691	      15.3	       2.4	7.20497e+06	     75.65	      15.3	       2.4	7.09501e+06	     75.65	      15.3	   2.32373	7.30894e+06	   75.5654	      15.3	   2.34606	7.29226e+06	   75.6096	      15.3	       2.4	7.14959e+06	     75.65	      15.3	   2.36187	7.20166e+06	   75.6058	      15.3	   2.30792	7.34529e+06	
         R10	   3421	    75.565	      15.3	   2.17592	7.56419e+06	     75.65	      15.3	   2.16173	7.56536e+06	     75.65	      15.3	     2.076	7.71936e+06	    75.545	      15.3	   2.07575	7.75953e+06	   75.6075	      15.3	   2.16882	7.56433e+06	     75.65	      15.3	   2.11887	7.64202e+06	   75.5975	      15.3	   2.07588	7.73889e+06	    75.555	      15.3	   2.12583	7.66143e+06	
         R10	   3422	    75.545	      15.3	   2.07575	7.76435e+06	     75.65	      15.3	     2.076	7.71788e+06	     75.65	      15.3	   1.98711	7.86308e+06	   75.5635	      15.3	   1.98878	 7.9098e+06	   75.5975	      15.3	   2.07588	7.74056e+06	     75.65	      15.3	   2.03156	7.79015e+06	   75.6068	      15.3	   1.98795	 7.8861e+06	   75.5543	      15.3	   2.03227	7.83647e+06	
         R10	   3423	   75.5635	      15.3	   1.98878	7.91984e+06	     75.65	      15.3	   1.98711	7.86512e+06	     75.65	      15.3	   1.89507	8.03193e+06	   75.5557	      15.3	     1.896	8.06712e+06	   75.6068	      15.3	   1.98795	7.89212e+06	     75.65	      15.3	   1.94109	7.94829e+06	   75.6029	      15.3	   1.89553	8.04921e+06	   75.5596	      15.3	   1.94239	7.99319e+06	
         R10	   3424	   75.5557	      15.3	     1.896	8.05781e+06	     75.65	      15.3	   1.89507	8.04477e+06	     75.65	      15.3	   1.79987	 8.2356e+06	     75.53	      15.3	   1.80337	8.23267e+06	   75.6029	      15.3	   1.89553	8.05078e+06	     75.65	      15.3	   1.84747	8.13994e+06	     75.59	      15.3	   1.80162	8.23341e+06	   75.5428	      15.3	   1.84969	8.14497e+06	
         R10	   3425	     75.53	      15.3	   1.80337	8.21806e+06	     75.65	      15.3	   1.79987	8.23917e+06	     75.65	      15.3	   1.70151	8.37262e+06	   75.5519	      15.3	   1.69435	8.43329e+06	     75.59	      15.3	   1.80162	8.22768e+06	     75.65	      15.3	   1.75069	8.30557e+06	   75.6009	      15.3	   1.69793	8.40271e+06	   75.5409	      15.3	   1.74886	8.32522e+06	
         R10	   3426	   75.5519	      15.3	   1.69435	 8.4211e+06	     75.65	      15.3	   1.70151	8.37386e+06	     75.65	      15.3	       1.6	8.55591e+06	   75.5497	      15.3	       1.6	 8.5676e+06	   75.6009	      15.3	   1.69793	8.39711e+06	     75.65	      15.3	   1.65076	8.46467e+06	   75.5999	      15.3	       1.6	8.56143e+06	   75.5508	      15.3	   1.64718	8.49396e+06	
         R10	   3427	   75.4282	      15.3	   1.70635	8.41311e+06	   75.5519	      15.3	   1.69435	8.39584e+06	   75.5497	      15.3	       1.6	8.56162e+06	   75.4222	      15.3	       1.6	8.55229e+06	   75.4901	      15.3	   1.70035	 8.4042e+06	   75.5508	      15.3	   1.64718	8.47838e+06	    75.486	      15.3	       1.6	8.55626e+06	   75.4252	      15.3	   1.65318	 8.4825e+06	
         R10	   3428	   75.4282	      15.3	   1.70635	8.42585e+06	   75.4222	      15.3	       1.6	8.56925e+06	   75.2673	      15.3	       1.6	8.56663e+06	   75.2763	      15.3	    1.7767	8.28159e+06	   75.4252	      15.3	   1.65318	8.49733e+06	   75.3448	      15.3	       1.6	8.56741e+06	   75.2718	      15.3	   1.68835	8.42259e+06	   75.3523	      15.3	   1.74153	8.35237e+06	
         R10	   3429	   75.2763	      15.3	    1.7767	8.31545e+06	   75.2673	      15.3	       1.6	8.56249e+06	   75.0852	      15.3	       1.6	 8.5356e+06	   75.0802	      15.3	   1.81037	8.22222e+06	   75.2718	      15.3	   1.68835	8.43753e+06	   75.1763	      15.3	       1.6	8.54831e+06	   75.0827	      15.3	   1.70519	8.37654e+06	   75.1783	      15.3	   1.79354	8.26809e+06	
         R10	   3430	   75.0802	      15.3	   1.81037	 8.2914e+06	   75.0852	      15.3	       1.6	8.53965e+06	   74.8758	      15.3	       1.6	8.49561e+06	   74.8734	      15.3	   1.84062	 8.0813e+06	   75.0827	      15.3	   1.70519	8.41319e+06	   74.9805	      15.3	       1.6	8.51671e+06	   74.8746	      15.3	   1.72031	8.28427e+06	   74.9768	      15.3	    1.8255	8.18559e+06	
         R10	   3431	   74.8734	      15.3	   1.84062	8.20193e+06	   74.8758	      15.3	       1.6	 8.4958e+06	    74.639	      15.3	       1.6	8.42163e+06	   74.6353	      15.3	   1.86718	7.97538e+06	   74.8746	      15.3	   1.72031	8.34458e+06	   74.7574	      15.3	       1.6	8.45751e+06	   74.6372	      15.3	   1.73359	8.19675e+06	   74.7544	      15.3	    1.8539	8.08736e+06	
         R10	   3432	   74.8734	      15.3	   1.84062	8.22089e+06	   74.6353	      15.3	   1.86718	8.00332e+06	   74.6405	      15.3	   2.13162	7.78873e+06	   74.8986	      15.3	   2.11684	7.62606e+06	   74.7544	      15.3	    1.8539	8.11135e+06	   74.6379	      15.3	    1.9994	7.89073e+06	   74.7696	      15.3	   2.12423	7.70596e+06	    74.886	      15.3	   1.97873	7.91946e+06	
         R10	   3433	    75.147	      15.3	   2.00057	7.90209e+06	   75.1235	      15.3	   2.21705	7.70022e+06	   75.2968	      15.3	   2.23737	7.54652e+06	   75.3354	      15.3	   2.10073	7.86628e+06	   75.1353	      15.3	   2.10881	7.79902e+06	   75.2101	      15.3	   2.22721	7.62255e+06	   75.3161	      15.3	   2.16905	7.70495e+06	   75.2412	      15.3	   2.05065	7.88418e+06	
         R10	   3434	   75.5616	      15.3	   2.29211	7.42346e+06	     75.65	      15.3	   2.24431	7.39338e+06	     75.65	      15.3	   2.16173	7.55923e+06	    75.565	      15.3	   2.17592	7.55725e+06	   75.6058	      15.3	   2.26821	7.40785e+06	     75.65	      15.3	   2.20302	7.47565e+06	   75.6075	      15.3	   2.16882	7.55778e+06	   75.5633	      15.3	   2.23401	7.48959e+06	
         R10	   3435	   75.4449	      15.3	   2.26979	7.58076e+06	   75.5616	      15.3	   2.29211	7.36496e+06	    75.565	      15.3	   2.17592	7.62133e+06	   75.4612	      15.3	   2.16488	 7.5815e+06	   75.5033	      15.3	   2.28095	7.47263e+06	   75.5633	      15.3	   2.23401	7.49242e+06	   75.5131	      15.3	    2.1704	7.60131e+06	   75.4531	      15.3	   2.21733	7.57984e+06	
         R10	   3436	     75.45	      15.3	   2.04159	7.83793e+06	    75.545	      15.3	   2.07575	7.81315e+06	   75.5635	      15.3	   1.98878	7.89762e+06	   75.4405	      15.3	   1.96265	8.02011e+06	   75.4975	      15.3	   2.05867	7.82528e+06	   75.5543	      15.3	   2.03227	7.85467e+06	    75.502	      15.3	   1.97572	7.95833e+06	   75.4453	      15.3	   2.00212	  7.929e+06	
         R10	   3437	   75.3354	      15.3	   2.10073	7.73651e+06	   75.2968	      15.3	   2.23737	7.70412e+06	   75.4449	      15.3	   2.26979	7.46443e+06	   75.4612	      15.3	   2.16488	7.67868e+06	   75.3161	      15.3	   2.16905	7.71907e+06	   75.3709	      15.3	   2.25358	7.58396e+06	   75.4531	      15.3	   2.21733	7.57027e+06	   75.3983	      15.3	   2.13281	7.70758e+06	
         R10	   3438	   75.3354	      15.3	   2.10073	7.83194e+06	   75.4612	      15.3	   2.16488	7.68887e+06	    75.545	      15.3	   2.07575	7.76621e+06	     75.45	      15.3	   2.04159	7.79162e+06	   75.3983	      15.3	   2.13281	7.76029e+06	   75.5031	      15.3	   2.12031	 7.7263e+06	   75.4975	      15.3	   2.05867	7.77867e+06	   75.3927	      15.3	   2.07116	7.81144e+06	
         R10	   3439	   75.3354	      15.3	   2.10073	7.86191e+06	     75.45	      15.3	   2.04159	7.78678e+06	   75.4405	      15.3	   1.96265	7.99923e+06	   75.3089	      15.3	   1.93255	8.06074e+06	   75.3927	      15.3	   2.07116	7.82365e+06	   75.4453	      15.3	   2.00212	7.89288e+06	   75.3747	      15.3	    1.9476	8.02929e+06	   75.3221	      15.3	   2.01664	7.96048e+06	
         R10	   3440	   75.4405	      15.3	   1.96265	7.96767e+06	   75.5557	      15.3	     1.896	8.08419e+06	     75.53	      15.3	   1.80337	8.23327e+06	   75.4328	      15.3	      1.85	8.18346e+06	   75.4981	      15.3	   1.92932	8.02519e+06	   75.5428	      15.3	   1.84969	8.15838e+06	   75.4814	      15.3	   1.82669	8.20716e+06	   75.4367	      15.3	   1.90633	8.07448e+06	
         R10	   3441	   75.4328	      15.3	      1.85	8.18188e+06	     75.53	      15.3	   1.80337	8.25714e+06	   75.4282	      15.3	   1.70635	8.41245e+06	   75.2763	      15.3	    1.7767	 8.2698e+06	   75.4814	      15.3	   1.82669	8.21879e+06	   75.4791	      15.3	   1.75486	 8.3346e+06	   75.3523	      15.3	   1.74153	8.33956e+06	   75.3546	      15.3	   1.81335	 8.2255e+06	
         R10	   3442	   75.0802	      15.3	   1.81037	8.27819e+06	   74.8734	      15.3	   1.84062	8.08149e+06	   74.8986	      15.3	   2.11684	7.96008e+06	    75.147	      15.3	   2.00057	7.85319e+06	   74.9768	      15.3	    1.8255	8.17906e+06	    74.886	      15.3	   1.97873	8.01692e+06	   75.0228	      15.3	   2.05871	7.90546e+06	   75.1136	      15.3	   1.90547	8.06425e+06	
         R10	   3443	   75.3089	      15.3	   1.93255	8.05606e+06	   75.4405	      15.3	   1.96265	8.04579e+06	   75.4328	      15.3	      1.85	8.15607e+06	   75.2763	      15.3	    1.7767	8.34037e+06	   75.3747	      15.3	    1.9476	8.04996e+06	   75.4367	      15.3	   1.90633	8.10005e+06	   75.3546	      15.3	   1.81335	8.24815e+06	   75.2926	      15.3	   1.85462	8.19702e+06	
         R10	   3444	    75.147	      15.3	   2.00057	8.02774e+06	   75.3089	      15.3	   1.93255	8.01561e+06	   75.2763	      15.3	    1.7767	8.32566e+06	   75.0802	      15.3	   1.81037	8.22867e+06	   75.2279	      15.3	   1.96656	8.02043e+06	   75.2926	      15.3	   1.85462	8.16962e+06	   75.1783	      15.3	   1.79354	8.27628e+06	   75.1136	      15.3	   1.90547	8.12694e+06	
         R10	   3445	   75.5616	      15.3	   2.29211	7.42027e+06	     75.65	      15.3	   2.32373	7.29668e+06	     75.65	      15.3	   2.24431	7.39228e+06	   75.6058	      15.3	   2.30792	7.35842e+06	     75.65	      15.3	   2.28402	7.34416e+06	   75.6058	      15.3	   2.26821	7.40575e+06	       N/A	       N/A	       N/A	        N/A	       N/A	       N/A	       N/A	        N/A	
         R10	   3446	   75.4612	      15.3	   2.16488	7.62293e+06	    75.565	      15.3	   2.17592	7.64008e+06	    75.545	      15.3	   2.07575	7.74268e+06	   75.5131	      15.3	    2.1704	7.63134e+06	    75.555	      15.3	   2.12583	7.69095e+06	   75.5031	      15.3	   2.12031	7.68169e+06	       N/A	       N/A	       N/A	        N/A	       N/A	       N/A	       N/A	        N/A	
         R10	   3447	   75.4405	      15.3	   1.96265	7.99542e+06	   75.5635	      15.3	   1.98878	7.90454e+06	   75.5557	      15.3	     1.896	8.08617e+06	    75.502	      15.3	   1.97572	7.94959e+06	   75.5596	      15.3	   1.94239	7.99509e+06	   75.4981	      15.3	   1.92932	8.03992e+06	       N/A	       N/A	       N/A	        N/A	       N/A	       N/A	       N/A	        N/A	
         R10	   3448	     75.53	      15.3	   1.80337	8.25801e+06	   75.5519	      15.3	   1.69435	 8.4069e+06	   75.4282	      15.3	   1.70635	8.41977e+06	   75.5409	      15.3	   1.74886	8.33192e+06	   75.4901	      15.3	   1.70035	8.41296e+06	   75.4791	      15.3	   1.75486	8.33868e+06	       N/A	       N/A	       N/A	        N/A	       N/A	       N/A	       N/A	        N/A	
         R10	   3449	   74.8986	      15.3	   2.11684	7.92978e+06	   75.1235	      15.3	   2.21705	7.73371e+06	    75.147	      15.3	   2.00057	7.84174e+06	    75.011	      15.3	   2.16694	7.83161e+06	   75.1353	      15.3	   2.10881	7.78561e+06	   75.0228	      15.3	   2.05871	7.88455e+06	       N/A	       N/A	       N/A	        N/A	       N/A	       N/A	       N/A	        N/A	
         R10	   3450	    75.147	      15.3	   2.00057	8.00797e+06	   75.3354	      15.3	   2.10073	7.88047e+06	   75.3089	      15.3	   1.93255	8.00654e+06	   75.2412	      15.3	   2.05065	7.94418e+06	   75.3221	      15.3	   2.01664	7.94258e+06	   75.2279	      15.3	   1.96656	8.00596e+06	       N/A	       N/A	       N/A	        N/A	       N/A	       N/A	       N/A	        N/A	
         R10	   3451	   79.0225	   11.4831	       2.4	6.66745e+06	    78.625	   11.5581	       2.4	7.14844e+06	    78.625	      11.9	       2.4	7.33185e+06	   78.9896	      11.9	       2.4	7.17581e+06	   78.8237	   11.5206	       2.4	6.89742e+06	    78.625	   11.7291	       2.4	7.21944e+06	   78.8073	      11.9	       2.4	7.24801e+06	   79.0061	   11.6916	       2.4	6.92032e+06	
         R10	   3452	   79.5015	   11.4512	       2.4	7.33772e+06	   79.3845	      11.9	       2.4	7.25527e+06	   79.8095	      11.9	       2.4	 7.6513e+06	   79.7584	   11.5003	       2.4	7.24477e+06	    79.443	   11.6756	       2.4	7.29632e+06	    79.597	      11.9	       2.4	7.44488e+06	   79.7839	   11.7002	       2.4	7.44715e+06	   79.6299	   11.4758	       2.4	7.28789e+06	
         R10	   3453	   80.2646	      11.9	       2.4	7.90961e+06	     80.75	      11.9	       2.4	9.07709e+06	     80.75	     11.05	       2.4	8.67188e+06	   79.9744	     11.05	       2.4	7.84704e+06	   80.5073	      11.9	       2.4	8.44373e+06	     80.75	    11.475	       2.4	8.85232e+06	   80.3622	     11.05	       2.4	8.25133e+06	   80.1195	    11.475	       2.4	7.87624e+06	
         R10	   3454	    79.266	     11.05	       2.4	7.29089e+06	    78.625	     11.05	       2.4	7.64702e+06	    78.625	   11.5581	       2.4	6.87505e+06	   79.0225	   11.4831	       2.4	6.75312e+06	   78.9455	     11.05	       2.4	7.45274e+06	    78.625	   11.3041	       2.4	7.16635e+06	   78.8237	   11.5206	       2.4	6.77837e+06	   79.1443	   11.2666	       2.4	7.01989e+06	
         R10	   3455	    79.266	     11.05	       2.4	7.17519e+06	   79.0225	   11.4831	       2.4	6.90574e+06	   79.3845	      11.9	       2.4	 7.1066e+06	   79.5015	   11.4512	       2.4	7.05388e+06	   79.1443	   11.2666	       2.4	7.03824e+06	   79.2035	   11.6916	       2.4	7.00399e+06	    79.443	   11.6756	       2.4	7.07779e+06	   79.3838	   11.2506	       2.4	  7.109e+06	
         R10	   3456	   79.9744	     11.05	       2.4	7.85945e+06	    79.266	     11.05	       2.4	7.20795e+06	   79.5015	   11.4512	       2.4	7.39647e+06	   79.7584	   11.5003	       2.4	7.49647e+06	   79.6202	     11.05	       2.4	7.52269e+06	   79.3838	   11.2506	       2.4	7.30038e+06	   79.6299	   11.4758	       2.4	7.44056e+06	   79.8664	   11.2752	       2.4	7.67726e+06	
         R10	   3457	   79.8095	      11.9	       2.4	7.48871e+06	   80.2646	      11.9	       2.4	7.87879e+06	   79.9744	     11.05	       2.4	 7.6842e+06	   79.7584	   11.5003	       2.4	7.61579e+06	   80.0371	      11.9	       2.4	7.68267e+06	   80.1195	    11.475	       2.4	7.77857e+06	   79.8664	   11.2752	       2.4	7.63036e+06	   79.7839	   11.7002	       2.4	7.54631e+06	
         R10	   3458	   79.0225	   11.4831	       2.4	6.90397e+06	   78.9896	      11.9	       2.4	7.20604e+06	   79.3845	      11.9	       2.4	7.20517e+06	   79.0061	   11.6916	       2.4	7.05155e+06	   79.1871	      11.9	       2.4	7.20014e+06	   79.2035	   11.6916	       2.4	7.05261e+06	       N/A	       N/A	       N/A	        N/A	       N/A	       N/A	       N/A	        N/A	
         R10	   3459	   78.9896	      11.9	       2.4	7.53835e+06	    78.625	      11.9	       2.4	7.41706e+06	    78.625	   12.3654	       2.4	 6.3414e+06	   79.0214	   12.3409	       2.4	6.38767e+06	   78.8073	      11.9	       2.4	7.47037e+06	    78.625	   12.1327	       2.4	6.77461e+06	   78.8232	   12.3532	       2.4	6.33143e+06	   79.0055	   12.1205	       2.4	6.84632e+06	
         R10	   3460	   79.0214	   12.3409	       2.4	6.46744e+06	    78.625	   12.3654	       2.4	6.40067e+06	    78.625	     12.75	       2.4	7.08423e+06	   78.9289	     12.75	       2.4	7.15439e+06	   78.8232	   12.3532	       2.4	6.40431e+06	    78.625	   12.5577	       2.4	6.69944e+06	   78.7769	     12.75	       2.4	 7.1133e+06	   78.9751	   12.5455	       2.4	6.76743e+06	
         R10	   3461	    79.427	    12.366	       2.4	6.69053e+06	   79.0214	   12.3409	       2.4	6.52275e+06	   78.9289	     12.75	       2.4	7.18398e+06	   79.2529	     12.75	       2.4	7.25715e+06	   79.2242	   12.3535	       2.4	6.55567e+06	   78.9751	   12.5455	       2.4	6.79343e+06	   79.0909	     12.75	       2.4	7.21451e+06	   79.3399	    12.558	       2.4	6.95463e+06	
         R10	   3462	   79.9188	   12.3464	       2.4	6.36973e+06	   79.9612	     12.75	       2.4	 7.9423e+06	   80.3455	     12.75	       2.4	8.49145e+06	   80.3395	   12.3354	       2.4	8.49051e+06	     79.94	   12.5482	       2.4	7.12417e+06	   80.1534	     12.75	       2.4	8.20424e+06	   80.3425	   12.5427	       2.4	8.42982e+06	   80.1292	   12.3409	       2.4	7.40629e+06	
         R10	   3463	   80.3395	   12.3354	       2.4	7.63617e+06	   80.3455	     12.75	       2.4	8.32554e+06	     80.75	     12.75	       2.4	9.16911e+06	     80.75	   12.3654	       2.4	8.71717e+06	   80.3425	   12.5427	       2.4	7.93708e+06	   80.5478	     12.75	       2.4	8.69948e+06	     80.75	   12.5577	       2.4	8.93416e+06	   80.5448	   12.3504	       2.4	8.11269e+06	
         R10	   3464	   80.3395	   12.3354	       2.4	7.69569e+06	     80.75	   12.3654	       2.4	8.65422e+06	     80.75	      11.9	       2.4	8.62813e+06	   80.2646	      11.9	       2.4	8.51939e+06	   80.5448	   12.3504	       2.4	8.12427e+06	     80.75	   12.1327	       2.4	8.64008e+06	   80.5073	      11.9	       2.4	8.53161e+06	   80.3021	   12.1177	       2.4	 8.0406e+06	
         R10	   3465	   79.9188	   12.3464	       2.4	6.36892e+06	   80.3395	   12.3354	       2.4	8.50087e+06	   80.2646	      11.9	       2.4	8.49568e+06	   79.8095	      11.9	       2.4	8.15957e+06	   80.1292	   12.3409	       2.4	7.41791e+06	   80.3021	   12.1177	       2.4	8.38224e+06	   80.0371	      11.9	       2.4	8.32279e+06	   79.8642	   12.1232	       2.4	7.19432e+06	
         R10	   3466	   79.3845	      11.9	       2.4	7.77469e+06	   78.9896	      11.9	       2.4	7.55759e+06	   79.0214	   12.3409	       2.4	 6.5212e+06	    79.427	    12.366	       2.4	6.45021e+06	   79.1871	      11.9	       2.4	7.65878e+06	   79.0055	   12.1205	       2.4	6.92342e+06	   79.2242	   12.3535	       2.4	6.44374e+06	   79.4057	    12.133	       2.4	 6.9624e+06	
         R10	   3467	    79.427	    12.366	       2.4	 6.5874e+06	    79.597	     12.75	       2.4	7.47981e+06	   79.9612	     12.75	       2.4	7.96596e+06	   79.9188	   12.3464	       2.4	7.34897e+06	    79.512	    12.558	       2.4	7.00538e+06	   79.7791	     12.75	       2.4	7.71263e+06	     79.94	   12.5482	       2.4	7.59411e+06	   79.6729	   12.3562	       2.4	6.92637e+06	
         R10	   3468	   79.3845	      11.9	       2.4	7.76822e+06	    79.427	    12.366	       2.4	6.36001e+06	   79.9188	   12.3464	       2.4	 7.3601e+06	   79.8095	      11.9	       2.4	8.13423e+06	   79.4057	    12.133	       2.4	6.93243e+06	   79.6729	   12.3562	       2.4	6.81938e+06	   79.8642	   12.1232	       2.4	7.60464e+06	    79.597	      11.9	       2.4	7.94613e+06	
         R10	   3469	    79.427	    12.366	       2.4	6.55522e+06	   79.2529	     12.75	       2.4	7.20075e+06	    79.597	     12.75	       2.4	7.44899e+06	   79.3399	    12.558	       2.4	 6.8574e+06	   79.4249	     12.75	       2.4	7.31867e+06	    79.512	    12.558	       2.4	6.97384e+06	       N/A	       N/A	       N/A	        N/A	       N/A	       N/A	       N/A	        N/A	
         R10	   3470	   78.9289	     12.75	       2.4	7.20058e+06	    78.625	     12.75	       2.4	7.30968e+06	    78.625	   13.0736	       2.4	6.49922e+06	    78.914	   13.0484	       2.4	6.49078e+06	   78.7769	     12.75	       2.4	7.24675e+06	    78.625	   12.9118	       2.4	6.78613e+06	   78.7695	    13.061	       2.4	 6.4785e+06	   78.9214	   12.8992	       2.4	6.78799e+06	
         R10	   3471	    78.914	   13.0484	       2.4	6.40828e+06	    78.625	   13.0736	       2.4	6.48362e+06	    78.625	   13.3569	       2.4	6.33458e+06	   78.8797	   13.3599	       2.4	6.63652e+06	   78.7695	    13.061	       2.4	6.42221e+06	    78.625	   13.2152	       2.4	6.40879e+06	   78.7523	   13.3584	       2.4	6.47644e+06	   78.8969	   13.2042	       2.4	6.51804e+06	
         R10	   3472	   78.8797	   13.3599	       2.4	6.80911e+06	    78.625	   13.3569	       2.4	6.35508e+06	    78.625	      13.6	       2.4	6.98429e+06	   78.8806	      13.6	       2.4	6.83198e+06	   78.7523	   13.3584	       2.4	 6.5524e+06	    78.625	   13.4784	       2.4	6.60991e+06	   78.7528	      13.6	       2.4	6.90058e+06	   78.8801	   13.4799	       2.4	 6.8035e+06	
         R10	   3473	   78.8797	   13.3599	       2.4	5.73821e+06	   78.8806	      13.6	       2.4	6.88654e+06	   79.1756	      13.6	       2.4	 7.0597e+06	   79.2049	   13.2142	       2.4	 6.9591e+06	   78.8801	   13.4799	       2.4	6.30457e+06	   79.0281	      13.6	       2.4	6.96279e+06	   79.1903	   13.4071	       2.4	 6.9208e+06	   79.0423	   13.2871	       2.4	6.31849e+06	
         R10	   3474	   79.2049	   13.2142	       2.4	6.10373e+06	   79.1756	      13.6	       2.4	7.07112e+06	     79.51	      13.6	       2.4	7.22394e+06	   79.5364	   13.2022	       2.4	6.89236e+06	   79.1903	   13.4071	       2.4	6.51684e+06	   79.3428	      13.6	       2.4	7.13898e+06	   79.5232	   13.4011	       2.4	6.97997e+06	   79.3707	   13.2082	       2.4	6.47375e+06	
         R10	   3475	   79.5364	   13.2022	       2.4	6.27926e+06	     79.51	      13.6	       2.4	 7.2307e+06	   79.8839	      13.6	       2.4	7.56012e+06	   79.9076	    13.189	       2.4	7.34902e+06	   79.5232	   13.4011	       2.4	 6.6822e+06	    79.697	      13.6	       2.4	7.38249e+06	   79.8958	   13.3945	       2.4	7.38801e+06	    79.722	   13.1956	       2.4	 6.7829e+06	
         R10	   3476	   79.9076	    13.189	       2.4	6.59116e+06	   79.8839	      13.6	       2.4	 7.5944e+06	   80.2972	      13.6	       2.4	8.04111e+06	   80.3159	   13.1752	       2.4	8.06109e+06	   79.8958	   13.3945	       2.4	 7.0356e+06	   80.0906	      13.6	       2.4	7.79999e+06	   80.3065	   13.3876	       2.4	 8.0269e+06	   80.1117	   13.1821	       2.4	7.29415e+06	
         R10	   3477	   80.3159	   13.1752	       2.4	7.83651e+06	   80.2972	      13.6	       2.4	7.82317e+06	     80.75	      13.6	       2.4	9.30147e+06	     80.75	    13.175	       2.4	8.60922e+06	   80.3065	   13.3876	       2.4	7.80304e+06	   80.5236	      13.6	       2.4	8.49176e+06	     80.75	   13.3875	       2.4	8.94581e+06	   80.5329	   13.1751	       2.4	8.14445e+06	
         R10	   3478	   80.3159	   13.1752	       2.4	 7.8337e+06	     80.75	    13.175	       2.4	8.52382e+06	     80.75	     12.75	       2.4	8.60538e+06	   80.3455	     12.75	       2.4	8.36611e+06	   80.5329	   13.1751	       2.4	8.10621e+06	     80.75	   12.9625	       2.4	8.56452e+06	   80.5478	     12.75	       2.4	8.43392e+06	   80.3307	   12.9626	       2.4	8.00813e+06	
         R10	   3479	   79.9076	    13.189	       2.4	6.62719e+06	   80.3159	   13.1752	       2.4	8.09687e+06	   80.3455	     12.75	       2.4	8.54067e+06	   79.9612	     12.75	       2.4	8.17294e+06	   80.1117	   13.1821	       2.4	7.33297e+06	   80.3307	   12.9626	       2.4	 8.2299e+06	   80.1534	     12.75	       2.4	8.34527e+06	   79.9344	   12.9695	       2.4	7.25461e+06	
         R10	   3480	   79.5364	   13.2022	       2.4	6.33033e+06	   79.9076	    13.189	       2.4	7.43867e+06	   79.9612	     12.75	       2.4	8.18149e+06	    79.597	     12.75	       2.4	7.73085e+06	    79.722	   13.1956	       2.4	6.85553e+06	   79.9344	   12.9695	       2.4	 7.6515e+06	   79.7791	     12.75	       2.4	 7.9486e+06	   79.5667	   12.9761	       2.4	  6.884e+06	
         R10	   3481	   79.2049	   13.2142	       2.4	6.12977e+06	   79.5364	   13.2022	       2.4	6.96246e+06	    79.597	     12.75	       2.4	7.75383e+06	   79.2529	     12.75	       2.4	 7.3663e+06	   79.3707	   13.2082	       2.4	6.51824e+06	   79.5667	   12.9761	       2.4	7.20975e+06	   79.4249	     12.75	       2.4	7.54964e+06	   79.2289	   12.9821	       2.4	6.63023e+06	
         R10	   3482	   79.2049	   13.2142	       2.4	6.77631e+06	   79.2529	     12.75	       2.4	7.35364e+06	   78.9289	     12.75	       2.4	7.24319e+06	    78.914	   13.0484	       2.4	6.00828e+06	   79.2289	   12.9821	       2.4	6.93609e+06	   79.0909	     12.75	       2.4	7.29246e+06	   78.9214	   12.8992	       2.4	6.57211e+06	   79.0595	   13.1313	       2.4	6.34819e+06	
         R10	   3483	   78.8797	   13.3599	       2.4	5.76958e+06	   79.2049	   13.2142	       2.4	6.96709e+06	    78.914	   13.0484	       2.4	6.12702e+06	   79.0423	   13.2871	       2.4	6.33758e+06	   79.0595	   13.1313	       2.4	6.52702e+06	   78.8969	   13.2042	       2.4	5.94633e+06	       N/A	       N/A	       N/A	        N/A	       N/A	       N/A	       N/A	        N/A	
         R10	   3484	   78.8806	      13.6	       2.4	7.04073e+06	    78.625	      13.6	       2.4	7.07254e+06	    78.625	   13.8226	       2.4	6.41257e+06	   78.8837	   13.8009	       2.4	 6.6071e+06	   78.7528	      13.6	       2.4	7.05016e+06	    78.625	   13.7113	       2.4	 6.6601e+06	   78.7544	   13.8118	       2.4	6.50079e+06	   78.8821	   13.7005	       2.4	6.75934e+06	
         R10	   3485	   78.8837	   13.8009	       2.4	6.63635e+06	    78.625	   13.8226	       2.4	6.41546e+06	    78.625	   14.0385	       2.4	6.52895e+06	   78.8649	   14.0347	       2.4	6.44747e+06	   78.7544	   13.8118	       2.4	6.51521e+06	    78.625	   13.9306	       2.4	 6.4585e+06	   78.7449	   14.0366	       2.4	6.48746e+06	   78.8743	   13.9178	       2.4	6.51745e+06	
         R10	   3486	   78.8649	   14.0347	       2.4	 6.4476e+06	    78.625	   14.0385	       2.4	6.52896e+06	    78.625	   14.2476	       2.4	6.48305e+06	   78.8769	   14.2251	       2.4	6.68474e+06	   78.7449	   14.0366	       2.4	6.48564e+06	    78.625	   14.1431	       2.4	 6.4911e+06	   78.7509	   14.2364	       2.4	6.54487e+06	   78.8709	   14.1299	       2.4	6.55981e+06	
         R10	   3487	   78.8769	   14.2251	       2.4	6.71185e+06	    78.625	   14.2476	       2.4	6.47834e+06	    78.625	     14.45	       2.4	7.01524e+06	   78.8441	     14.45	       2.4	6.98095e+06	   78.7509	   14.2364	       2.4	6.56183e+06	    78.625	   14.3488	       2.4	6.69362e+06	   78.7345	     14.45	       2.4	6.99359e+06	   78.8605	   14.3375	       2.4	6.80327e+06	
         R10	   3488	   79.1034	   14.2303	       2.4	 6.6321e+06	   78.8769	   14.2251	       2.4	6.45053e+06	   78.8441	     14.45	       2.4	6.98179e+06	   79.0913	     14.45	       2.4	6.99725e+06	   78.9901	   14.2277	       2.4	6.48837e+06	   78.8605	   14.3375	       2.4	6.66502e+06	   78.9677	     14.45	       2.4	6.98632e+06	   79.0973	   14.3402	       2.4	6.75095e+06	
         R10	   3489	   79.1034	   14.2303	       2.4	7.27851e+06	   79.0913	     14.45	       2.4	7.01326e+06	   79.3667	     14.45	       2.4	6.87791e+06	   79.3931	   14.1353	       2.4	 6.1976e+06	   79.0973	   14.3402	       2.4	7.06484e+06	    79.229	     14.45	       2.4	6.93431e+06	   79.3799	   14.2926	       2.4	6.48247e+06	   79.2482	   14.1828	       2.4	 6.6107e+06	
         R10	   3490	   79.3931	   14.1353	       2.4	6.41962e+06	   79.3667	     14.45	       2.4	6.91885e+06	   79.6703	     14.45	       2.4	6.99887e+06	   79.6501	   14.0445	       2.4	6.82094e+06	   79.3799	   14.2926	       2.4	6.62581e+06	   79.5185	     14.45	       2.4	6.94964e+06	   79.6602	   14.2472	       2.4	 6.8329e+06	   79.5216	   14.0899	       2.4	 6.5404e+06	
         R10	   3491	   79.6501	   14.0445	       2.4	6.38825e+06	   79.6703	     14.45	       2.4	7.00191e+06	    80.002	     14.45	       2.4	7.28251e+06	   79.9787	   14.0175	       2.4	7.78417e+06	   79.6602	   14.2472	       2.4	6.61463e+06	   79.8361	     14.45	       2.4	7.12936e+06	   79.9904	   14.2338	       2.4	7.47618e+06	   79.8144	    14.031	       2.4	6.97733e+06	
         R10	   3492	   79.9787	   14.0175	       2.4	6.02876e+06	    80.002	     14.45	       2.4	 7.2063e+06	   80.3619	     14.45	       2.4	7.81797e+06	   80.3559	   14.0171	       2.4	9.09138e+06	   79.9904	   14.2338	       2.4	6.57218e+06	    80.182	     14.45	       2.4	7.48889e+06	   80.3589	   14.2335	       2.4	8.41345e+06	   80.1673	   14.0173	       2.4	7.49856e+06	
         R10	   3493	   80.3559	   14.0171	       2.4	7.16603e+06	   80.3619	     14.45	       2.4	7.61539e+06	     80.75	     14.45	       2.4	9.52694e+06	     80.75	   14.0452	       2.4	9.14851e+06	   80.3589	   14.2335	       2.4	7.36199e+06	    80.556	     14.45	       2.4	8.46027e+06	     80.75	   14.2476	       2.4	9.31804e+06	    80.553	   14.0312	       2.4	8.08435e+06	
         R10	   3494	   80.3559	   14.0171	       2.4	7.04113e+06	     80.75	   14.0452	       2.4	 9.0546e+06	     80.75	      13.6	       2.4	8.83076e+06	   80.2972	      13.6	       2.4	7.99095e+06	    80.553	   14.0312	       2.4	7.98838e+06	     80.75	   13.8226	       2.4	8.94265e+06	   80.5236	      13.6	       2.4	8.31527e+06	   80.3266	   13.8085	       2.4	7.44901e+06	
         R10	   3495	   79.9787	   14.0175	       2.4	6.18982e+06	   80.3559	   14.0171	       2.4	9.11791e+06	   80.2972	      13.6	       2.4	8.13642e+06	   79.8839	      13.6	       2.4	7.71353e+06	   80.1673	   14.0173	       2.4	7.61007e+06	   80.3266	   13.8085	       2.4	8.50726e+06	   80.0906	      13.6	       2.4	7.90849e+06	   79.9313	   13.8088	       2.4	6.84599e+06	
         R10	   3496	   79.6501	   14.0445	       2.4	6.54845e+06	   79.9787	   14.0175	       2.4	8.00893e+06	   79.8839	      13.6	       2.4	7.72567e+06	     79.51	      13.6	       2.4	7.15432e+06	   79.8144	    14.031	       2.4	7.15323e+06	   79.9313	   13.8088	       2.4	7.66678e+06	    79.697	      13.6	       2.4	7.42218e+06	     79.58	   13.8222	       2.4	6.82127e+06	
         R10	   3497	   79.2036	    13.907	       2.4	6.20774e+06	   79.1756	      13.6	       2.4	6.82857e+06	   78.8806	      13.6	       2.4	7.01676e+06	   78.8837	   13.8009	       2.4	6.81007e+06	   79.1896	   13.7535	       2.4	6.50499e+06	   79.0281	      13.6	       2.4	6.90225e+06	   78.8821	   13.7005	       2.4	6.85016e+06	   79.0437	    13.854	       2.4	6.49242e+06	
         R10	   3498	   79.2036	    13.907	       2.4	6.43298e+06	   78.8649	   14.0347	       2.4	  6.672e+06	   78.8769	   14.2251	       2.4	6.50141e+06	   79.1034	   14.2303	       2.4	6.73646e+06	   79.0342	   13.9709	       2.4	6.55065e+06	   78.8709	   14.1299	       2.4	6.57649e+06	   78.9901	   14.2277	       2.4	6.55159e+06	   79.1535	   14.0687	       2.4	6.56844e+06	
         R10	   3499	     79.51	      13.6	       2.4	7.02558e+06	   79.2036	    13.907	       2.4	6.52158e+06	   79.3931	   14.1353	       2.4	 6.2852e+06	   79.6501	   14.0445	       2.4	6.78031e+06	   79.3568	   13.7535	       2.4	6.71111e+06	   79.2984	   14.0212	       2.4	 6.4009e+06	   79.5216	   14.0899	       2.4	6.46502e+06	     79.58	   13.8222	       2.4	6.81644e+06	
         R10	   3500	   79.2036	    13.907	       2.4	6.43495e+06	   78.8837	   13.8009	       2.4	6.85163e+06	   78.8649	   14.0347	       2.4	6.61675e+06	   79.0437	    13.854	       2.4	6.61835e+06	   78.8743	   13.9178	       2.4	6.71181e+06	   79.0342	   13.9709	       2.4	6.48617e+06	       N/A	       N/A	       N/A	        N/A	       N/A	       N/A	       N/A	        N/A	
         R10	   3501	   79.2036	    13.907	       2.4	6.69395e+06	   79.1034	   14.2303	       2.4	7.26485e+06	   79.3931	   14.1353	       2.4	6.14857e+06	   79.1535	   14.0687	       2.4	6.94766e+06	   79.2482	   14.1828	       2.4	6.61002e+06	   79.2984	   14.0212	       2.4	6.37763e+06	       N/A	       N/A	       N/A	        N/A	       N/A	       N/A	       N/A	        N/A	
         R10	   3502	     79.51	      13.6	       2.4	6.99385e+06	   79.1756	      13.6	       2.4	6.87951e+06	   79.2036	    13.907	       2.4	6.47599e+06	   79.3428	      13.6	       2.4	6.92244e+06	   79.1896	   13.7535	       2.4	6.66098e+06	   79.3568	   13.7535	       2.4	6.70711e+06	       N/A	       N/A	       N/A	        N/A	       N/A	       N/A	       N/A	        N/A	
         R10	   3503	   78.8441	     14.45	       2.4	7.09063e+06	    78.625	     14.45	       2.4	7.08995e+06	    78.625	   14.6726	       2.4	6.74143e+06	   78.8535	   14.6701	       2.4	6.71599e+06	   78.7345	     14.45	       2.4	7.08649e+06	    78.625	   14.5613	       2.4	6.80043e+06	   78.7392	   14.6713	       2.4	6.72746e+06	   78.8488	     14.56	       2.4	6.78696e+06	
         R10	   3504	   78.8535	   14.6701	       2.4	6.71757e+06	    78.625	   14.6726	       2.4	6.74601e+06	    78.625	   14.8885	       2.4	6.88358e+06	   78.8446	   14.8886	       2.4	6.97106e+06	   78.7392	   14.6713	       2.4	6.72957e+06	    78.625	   14.7806	       2.4	6.79092e+06	   78.7348	   14.8885	       2.4	6.92041e+06	    78.849	   14.7793	       2.4	6.81741e+06	
         R10	   3505	   78.8446	   14.8886	       2.4	6.95699e+06	    78.625	   14.8885	       2.4	6.87926e+06	    78.625	   15.0976	       2.4	7.12279e+06	    78.841	   15.0957	       2.4	6.78302e+06	   78.7348	   14.8885	       2.4	6.91245e+06	    78.625	   14.9931	       2.4	6.99702e+06	    78.733	   15.0967	       2.4	6.95146e+06	   78.8428	   14.9921	       2.4	6.86623e+06	
         R10	   3506	    78.841	   15.0957	       2.4	6.77371e+06	    78.625	   15.0976	       2.4	7.13429e+06	    78.625	      15.3	       2.4	6.73287e+06	   78.8309	      15.3	       2.4	7.44411e+06	    78.733	   15.0967	       2.4	6.95096e+06	    78.625	   15.1988	       2.4	6.89696e+06	    78.728	      15.3	       2.4	7.07592e+06	   78.8359	   15.1979	       2.4	7.07596e+06	
         R10	   3507	   79.0748	   15.0994	       2.4	6.64757e+06	    78.841	   15.0957	       2.4	7.20361e+06	   78.8309	      15.3	       2.4	6.50985e+06	   79.0694	      15.3	       2.4	7.72908e+06	   78.9579	   15.0975	       2.4	6.92117e+06	   78.8359	   15.1979	       2.4	6.81379e+06	   78.9501	      15.3	       2.4	7.08145e+06	   79.0721	   15.1997	       2.4	7.15127e+06	
         R10	   3508	   79.0748	   15.0994	       2.4	7.28879e+06	   79.0694	      15.3	       2.4	6.30051e+06	   79.3404	      15.3	       2.4	7.98509e+06	   79.3449	   15.0603	       2.4	6.84618e+06	   79.0721	   15.1997	       2.4	6.73936e+06	   79.2049	      15.3	       2.4	7.07295e+06	   79.3426	   15.1802	       2.4	7.35288e+06	   79.2098	   15.0798	       2.4	7.06075e+06	
         R10	   3509	   79.3449	   15.0603	       2.4	 7.0056e+06	   79.3404	      15.3	       2.4	6.04489e+06	   79.6439	      15.3	       2.4	8.56992e+06	   79.6534	   14.9019	       2.4	7.03779e+06	   79.3426	   15.1802	       2.4	6.42981e+06	   79.4922	      15.3	       2.4	7.09405e+06	   79.6487	   15.1009	       2.4	 7.7371e+06	   79.4991	   14.9811	       2.4	7.00036e+06	
         R10	   3510	   79.6534	   14.9019	       2.4	 7.5038e+06	   79.6439	      15.3	       2.4	6.47801e+06	   79.9801	      15.3	       2.4	8.95201e+06	   79.9967	    14.894	       2.4	6.09482e+06	   79.6487	   15.1009	       2.4	6.74123e+06	    79.812	      15.3	       2.4	7.07976e+06	   79.9884	    15.097	       2.4	7.27412e+06	    79.825	    14.898	       2.4	  6.771e+06	
         R10	   3511	   79.9967	    14.894	       2.4	8.58568e+06	   79.9801	      15.3	       2.4	7.39538e+06	   80.3488	      15.3	       2.4	 9.5595e+06	   80.3633	   14.8862	       2.4	5.93077e+06	   79.9884	    15.097	       2.4	 7.4618e+06	   80.1644	      15.3	       2.4	7.12148e+06	    80.356	   15.0931	       2.4	7.06117e+06	     80.18	   14.8901	       2.4	7.08269e+06	
         R10	   3512	   80.3633	   14.8862	       2.4	  1.006e+07	   80.3488	      15.3	       2.4	8.27862e+06	     80.75	      15.3	       2.4	1.09294e+07	     80.75	    14.875	       2.4	7.83214e+06	    80.356	   15.0931	       2.4	 8.4528e+06	   80.5494	      15.3	       2.4	8.56747e+06	     80.75	   15.0875	       2.4	9.26707e+06	   80.5567	   14.8806	       2.4	  8.871e+06	
         R10	   3513	   80.3633	   14.8862	       2.4	1.01169e+07	     80.75	    14.875	       2.4	 7.1558e+06	     80.75	     14.45	       2.4	8.65283e+06	   80.3619	     14.45	       2.4	7.90635e+06	   80.5567	   14.8806	       2.4	8.59397e+06	     80.75	   14.6625	       2.4	7.86992e+06	    80.556	     14.45	       2.4	8.11833e+06	   80.3626	   14.6681	       2.4	8.74369e+06	
         R10	   3514	   79.9967	    14.894	       2.4	8.73442e+06	   80.3633	   14.8862	       2.4	6.37609e+06	   80.3619	     14.45	       2.4	8.16509e+06	    80.002	     14.45	       2.4	7.45302e+06	     80.18	   14.8901	       2.4	7.35328e+06	   80.3626	   14.6681	       2.4	6.96785e+06	    80.182	     14.45	       2.4	 7.7853e+06	   79.9993	    14.672	       2.4	7.89632e+06	
         R10	   3515	   79.6534	   14.9019	       2.4	 7.5736e+06	   79.9967	    14.894	       2.4	  6.269e+06	    80.002	     14.45	       2.4	7.46834e+06	   79.6703	     14.45	       2.4	7.08228e+06	    79.825	    14.898	       2.4	6.88514e+06	   79.9993	    14.672	       2.4	6.67813e+06	   79.8361	     14.45	       2.4	7.25958e+06	   79.6618	   14.6759	       2.4	7.17183e+06	
         R10	   3516	   79.6534	   14.9019	       2.4	6.90762e+06	   79.6703	     14.45	       2.4	7.10088e+06	   79.3667	     14.45	       2.4	7.06709e+06	   79.3731	   14.7128	       2.4	6.47143e+06	   79.6618	   14.6759	       2.4	6.83971e+06	   79.5185	     14.45	       2.4	7.07296e+06	   79.3699	   14.5814	       2.4	6.67134e+06	   79.5132	   14.8074	       2.4	6.67642e+06	
         R10	   3517	   79.3731	   14.7128	       2.4	6.72569e+06	   79.3667	     14.45	       2.4	 6.9718e+06	   79.0913	     14.45	       2.4	7.04649e+06	    79.094	   14.6771	       2.4	6.90803e+06	   79.3699	   14.5814	       2.4	6.74174e+06	    79.229	     14.45	       2.4	6.99459e+06	   79.0927	   14.5635	       2.4	6.85526e+06	   79.2336	    14.695	       2.4	6.80526e+06	
         R10	   3518	    79.094	   14.6771	       2.4	6.72334e+06	   79.0913	     14.45	       2.4	7.07387e+06	   78.8441	     14.45	       2.4	7.09974e+06	   78.8535	   14.6701	       2.4	6.81359e+06	   79.0927	   14.5635	       2.4	6.78314e+06	   78.9677	     14.45	       2.4	7.08213e+06	   78.8488	     14.56	       2.4	6.83465e+06	   78.9738	   14.6736	       2.4	6.76529e+06	
         R10	   3519	    79.094	   14.6771	       2.4	6.71439e+06	   78.8535	   14.6701	       2.4	6.81207e+06	   78.8446	   14.8886	       2.4	6.89161e+06	   79.0637	   14.8939	       2.4	7.03257e+06	   78.9738	   14.6736	       2.4	6.75684e+06	    78.849	   14.7793	       2.4	6.82043e+06	   78.9541	   14.8912	       2.4	6.95124e+06	   79.0789	   14.7855	       2.4	6.85255e+06	
         R10	   3520	   79.0637	   14.8939	       2.4	7.04745e+06	   78.8446	   14.8886	       2.4	 6.8373e+06	    78.841	   15.0957	       2.4	7.22542e+06	   79.0748	   15.0994	       2.4	6.63661e+06	   78.9541	   14.8912	       2.4	6.93257e+06	   78.8428	   14.9921	       2.4	7.02697e+06	   78.9579	   15.0975	       2.4	6.92908e+06	   79.0693	   14.9966	       2.4	6.83375e+06	
         R10	   3521	   79.2714	   14.8937	       2.4	7.44481e+06	   79.0637	   14.8939	       2.4	6.83089e+06	   79.0748	   15.0994	       2.4	7.32939e+06	   79.3449	   15.0603	       2.4	6.78522e+06	   79.1676	   14.8938	       2.4	7.12235e+06	   79.0693	   14.9966	       2.4	7.07379e+06	   79.2098	   15.0798	       2.4	7.05422e+06	   79.3082	    14.977	       2.4	7.10667e+06	
         R10	   3522	   79.2714	   14.8937	       2.4	6.50786e+06	   79.3449	   15.0603	       2.4	7.06855e+06	   79.6534	   14.9019	       2.4	6.66553e+06	   79.3731	   14.7128	       2.4	6.69793e+06	   79.3082	    14.977	       2.4	6.77175e+06	   79.4991	   14.9811	       2.4	6.85475e+06	   79.5132	   14.8074	       2.4	6.63919e+06	   79.3223	   14.8033	       2.4	6.55479e+06	
         R10	   3523	   79.2714	   14.8937	       2.4	 7.2862e+06	   79.3731	   14.7128	       2.4	6.77575e+06	    79.094	   14.6771	       2.4	6.87209e+06	   79.0637	   14.8939	       2.4	6.79398e+06	   79.3223	   14.8033	       2.4	 7.0276e+06	   79.2336	    14.695	       2.4	 6.8164e+06	   79.0789	   14.7855	       2.4	 6.8073e+06	   79.1676	   14.8938	       2.4	7.03806e+06	
         R10	   3524	      76.5	       8.5	       1.6	4.17353e+06	      76.5	       8.5	       2.4	6.52676e+06	      76.5	      9.35	       2.4	6.51081e+06	      76.5	      9.35	       1.6	2.78779e+06	      76.5	       8.5	         2	5.20736e+06	      76.5	     8.925	       2.4	6.43728e+06	      76.5	      9.35	         2	4.42569e+06	      76.5	     8.925	       1.6	3.32878e+06	
         R10	   3525	      76.5	       8.5	       0.8	4.34839e+06	      76.5	       8.5	       1.6	4.43264e+06	      76.5	      9.35	       1.6	2.64017e+06	      76.5	      9.35	       0.8	3.53457e+06	      76.5	       8.5	       1.2	3.94449e+06	      76.5	     8.925	       1.6	3.40019e+06	      76.5	      9.35	       1.2	2.45091e+06	      76.5	     8.925	       0.8	3.59376e+06	
         R10	   3526	      76.5	       8.5	         0	7.00869e+06	      76.5	       8.5	       0.8	4.52109e+06	      76.5	      9.35	       0.8	3.93491e+06	      76.5	      9.35	         0	7.69605e+06	      76.5	       8.5	       0.4	5.65664e+06	      76.5	     8.925	       0.8	3.92235e+06	      76.5	      9.35	       0.4	5.65229e+06	      76.5	     8.925	         0	6.81774e+06	
         R10	   3527	   78.8309	      15.3	       2.4	7.29353e+06	    78.625	      15.3	       2.4	6.81202e+06	    78.625	   15.4468	   2.54279	7.04537e+06	   78.8273	   15.4346	   2.53094	6.72296e+06	    78.728	      15.3	       2.4	7.04755e+06	    78.625	   15.3734	    2.4714	6.87059e+06	   78.7262	   15.4407	   2.53687	6.86935e+06	   78.8291	   15.3673	   2.46547	6.97369e+06	
         R10	   3528	   78.8273	   15.4346	   2.53094	 6.7621e+06	    78.625	   15.4468	   2.54279	7.01538e+06	    78.625	   15.5984	   2.69034	6.82862e+06	   78.8382	   15.6092	   2.70087	6.72969e+06	   78.7262	   15.4407	   2.53687	6.87443e+06	    78.625	   15.5226	   2.61657	6.91066e+06	   78.7316	   15.6038	   2.69561	6.76636e+06	   78.8328	   15.5219	   2.61591	6.74404e+06	
         R10	   3529	   78.8382	   15.6092	   2.70087	  6.759e+06	    78.625	   15.5984	   2.69034	6.82989e+06	    78.625	    15.755	   2.84265	6.72892e+06	   78.8624	    15.743	     2.831	6.57086e+06	   78.7316	   15.6038	   2.69561	6.77983e+06	    78.625	   15.6767	    2.7665	6.77631e+06	   78.7437	    15.749	   2.83683	6.60708e+06	   78.8503	   15.6761	   2.76594	6.66303e+06	
         R10	   3530	   78.8624	    15.743	     2.831	  6.549e+06	    78.625	    15.755	   2.84265	6.75593e+06	    78.625	   15.9164	   2.99973	6.19864e+06	   78.8441	   15.9164	   2.99973	6.16829e+06	   78.7437	    15.749	   2.83683	6.60425e+06	    78.625	   15.8357	   2.92119	 6.4428e+06	   78.7345	   15.9164	   2.99973	6.17932e+06	   78.8532	   15.8297	   2.91536	6.32284e+06	
         R10	   3531	    79.109	   15.7173	   2.80607	 6.9939e+06	   78.8624	    15.743	     2.831	6.44096e+06	   78.8441	   15.9164	   2.99973	6.18679e+06	   79.0913	   15.9164	   2.99973	6.16696e+06	   78.9857	   15.7302	   2.81853	6.65643e+06	   78.8532	   15.8297	   2.91536	 6.2693e+06	   78.9677	   15.9164	   2.99973	6.17004e+06	   79.1001	   15.8169	   2.90289	6.55481e+06	
         R10	   3532	    79.109	   15.7173	   2.80607	6.45392e+06	   79.0913	   15.9164	   2.99973	6.13693e+06	   79.3667	   15.9164	   2.99973	6.18492e+06	   79.3439	   15.7302	   2.81856	6.46267e+06	   79.1001	   15.8169	   2.90289	6.25186e+06	    79.229	   15.9164	   2.99973	6.14778e+06	   79.3553	   15.8233	   2.90914	6.31058e+06	   79.2264	   15.7238	   2.81231	6.36533e+06	
         R10	   3533	   79.3439	   15.7302	   2.81856	5.97707e+06	   79.3667	   15.9164	   2.99973	6.14157e+06	   79.6703	   15.9164	   2.99973	6.01883e+06	   79.6746	   15.6057	   2.69741	6.82689e+06	   79.3553	   15.8233	   2.90914	6.04884e+06	   79.5185	   15.9164	   2.99973	6.06265e+06	   79.6724	    15.761	   2.84857	6.27379e+06	   79.5092	   15.6679	   2.75799	6.28046e+06	
         R10	   3534	   79.6746	   15.6057	   2.69741	7.11789e+06	   79.6703	   15.9164	   2.99973	5.98621e+06	    80.002	   15.9164	   2.99973	5.96291e+06	   80.0107	   15.6074	   2.69907	 7.9963e+06	   79.6724	    15.761	   2.84857	6.41486e+06	   79.8361	   15.9164	   2.99973	5.95439e+06	   80.0064	   15.7619	    2.8494	6.59014e+06	   79.8426	   15.6065	   2.69824	7.35386e+06	
         R10	   3535	   80.0107	   15.6074	   2.69907	5.28264e+06	    80.002	   15.9164	   2.99973	6.00832e+06	   80.3619	   15.9164	   2.99973	5.99702e+06	   80.3731	    15.607	   2.69871	1.30131e+07	   80.0064	   15.7619	    2.8494	5.03278e+06	    80.182	   15.9164	   2.99973	5.96954e+06	   80.3675	   15.7617	   2.84922	8.72056e+06	   80.1919	   15.6072	   2.69889	9.01871e+06	
         R10	   3536	   80.3731	    15.607	   2.69871	6.52341e+06	   80.3619	   15.9164	   2.99973	5.60259e+06	     80.75	   15.9164	   2.99973	6.60062e+06	     80.75	   15.6082	   2.69986	1.07904e+07	   80.3675	   15.7617	   2.84922	3.74818e+06	    80.556	   15.9164	   2.99973	5.35269e+06	     80.75	   15.7623	   2.84979	8.63869e+06	   80.5615	   15.6076	   2.69929	7.52538e+06	
         R10	   3537	   80.3731	    15.607	   2.69871	2.35532e+06	     80.75	   15.6082	   2.69986	1.10268e+07	     80.75	      15.3	       2.4	1.31163e+07	   80.3488	      15.3	       2.4	4.11571e+06	   80.5615	   15.6076	   2.69929	6.16836e+06	     80.75	   15.4541	   2.54993	1.20463e+07	   80.5494	      15.3	       2.4	7.39144e+06	   80.3609	   15.4535	   2.54935	2.53287e+06	
         R10	   3538	   80.0107	   15.6074	   2.69907	5.27241e+06	   80.3731	    15.607	   2.69871	   1.15e+07	   80.3488	      15.3	       2.4	1.07426e+07	   79.9801	      15.3	       2.4	4.39201e+06	   80.1919	   15.6072	   2.69889	8.16883e+06	   80.3609	   15.4535	   2.54935	1.10337e+07	   80.1644	      15.3	       2.4	7.01201e+06	   79.9954	   15.4537	   2.54954	4.06235e+06	
         R10	   3539	   79.6746	   15.6057	   2.69741	7.21468e+06	   80.0107	   15.6074	   2.69907	8.24887e+06	   79.9801	      15.3	       2.4	9.56898e+06	   79.6439	      15.3	       2.4	4.97324e+06	   79.8426	   15.6065	   2.69824	 7.5648e+06	   79.9954	   15.4537	   2.54954	8.41745e+06	    79.812	      15.3	       2.4	7.10379e+06	   79.6593	   15.4528	   2.54871	5.78805e+06	
         R10	   3540	   79.6746	   15.6057	   2.69741	7.47149e+06	   79.6439	      15.3	       2.4	8.60085e+06	   79.3404	      15.3	       2.4	5.62283e+06	    79.349	   15.5007	   2.59526	6.40997e+06	   79.6593	   15.4528	   2.54871	 7.7525e+06	   79.4922	      15.3	       2.4	7.07046e+06	   79.3447	   15.4003	   2.49763	5.93718e+06	   79.5118	   15.5532	   2.64634	6.75527e+06	
         R10	   3541	    79.349	   15.5007	   2.59526	  6.489e+06	   79.3404	      15.3	       2.4	7.79514e+06	   79.0694	      15.3	       2.4	6.27281e+06	   79.0898	   15.5211	   2.61509	7.10585e+06	   79.3447	   15.4003	   2.49763	7.08165e+06	   79.2049	      15.3	       2.4	7.01775e+06	   79.0796	   15.4105	   2.50754	6.62035e+06	   79.2194	   15.5109	   2.60518	6.73108e+06	
         R10	   3542	   79.0898	   15.5211	   2.61509	6.60218e+06	   79.0694	      15.3	       2.4	 7.5684e+06	   78.8309	      15.3	       2.4	6.53415e+06	   78.8273	   15.4346	   2.53094	7.08572e+06	   79.0796	   15.4105	   2.50754	7.01375e+06	   78.9501	      15.3	       2.4	7.04314e+06	   78.8291	   15.3673	   2.46547	6.76228e+06	   78.9586	   15.4778	   2.57302	6.80613e+06	
         R10	   3543	   79.0898	   15.5211	   2.61509	6.82081e+06	   78.8382	   15.6092	   2.70087	 6.6135e+06	   78.8624	    15.743	     2.831	6.44375e+06	    79.109	   15.7173	   2.80607	7.06232e+06	    78.964	   15.5651	   2.65798	6.70259e+06	   78.8503	   15.6761	   2.76594	6.52432e+06	   78.9857	   15.7302	   2.81853	6.69279e+06	   79.0994	   15.6192	   2.71058	6.93586e+06	
         R10	   3544	    79.349	   15.5007	   2.59526	6.71192e+06	   79.0898	   15.5211	   2.61509	 7.0729e+06	    79.109	   15.7173	   2.80607	6.51106e+06	   79.3439	   15.7302	   2.81856	6.44144e+06	   79.2194	   15.5109	   2.60518	6.82553e+06	   79.0994	   15.6192	   2.71058	6.78693e+06	   79.2264	   15.7238	   2.81231	6.37627e+06	   79.3464	   15.6154	   2.70691	6.54876e+06	
         R10	   3545	   79.0898	   15.5211	   2.61509	6.65318e+06	   78.8273	   15.4346	   2.53094	7.11428e+06	   78.8382	   15.6092	   2.70087	6.70073e+06	   78.9586	   15.4778	   2.57302	6.85456e+06	   78.8328	   15.5219	   2.61591	 6.9049e+06	    78.964	   15.5651	   2.65798	6.64557e+06	       N/A	       N/A	       N/A	        N/A	       N/A	       N/A	       N/A	        N/A	
         R10	   3546	   79.6746	   15.6057	   2.69741	6.59822e+06	    79.349	   15.5007	   2.59526	6.54945e+06	   79.3439	   15.7302	   2.81856	6.03029e+06	   79.5118	   15.5532	   2.64634	6.48453e+06	   79.3464	   15.6154	   2.70691	6.26564e+06	   79.5092	   15.6679	   2.75799	6.21012e+06	       N/A	       N/A	       N/A	        N/A	       N/A	       N/A	       N/A	        N/A	
         R10	   3547	   78.8441	   15.9164	   2.99973	6.99587e+06	    78.625	   15.9164	   2.99973	 6.9493e+06	    78.625	   16.0631	   3.14252	7.11399e+06	   78.8361	   16.0514	   3.13113	6.77761e+06	   78.7345	   15.9164	   2.99973	6.96689e+06	    78.625	   15.9898	   3.07112	7.02387e+06	   78.7305	   16.0573	   3.13682	6.92381e+06	   78.8401	   15.9839	   3.06543	6.88386e+06	
         R10	   3548	   78.8361	   16.0514	   3.13113	 6.9803e+06	    78.625	   16.0631	   3.14252	7.10285e+06	    78.625	   16.2148	   3.29007	6.76379e+06	   78.8449	    16.224	   3.29901	6.22064e+06	   78.7305	   16.0573	   3.13682	7.01321e+06	    78.625	    16.139	   3.21629	6.93058e+06	    78.735	   16.2194	   3.29454	6.48696e+06	   78.8405	   16.1377	   3.21507	6.58417e+06	
         R10	   3549	   78.8449	    16.224	   3.29901	6.31613e+06	    78.625	   16.2148	   3.29007	6.75348e+06	    78.625	   16.3713	   3.44238	6.66054e+06	   78.8758	   16.3628	   3.43406	6.31783e+06	    78.735	   16.2194	   3.29454	6.52802e+06	    78.625	   16.2931	   3.36622	6.61039e+06	   78.7504	   16.3671	   3.43822	6.14963e+06	   78.8604	   16.2934	   3.36653	6.26506e+06	
         R10	   3550	   78.8758	   16.3628	   3.43406	6.26902e+06	    78.625	   16.3713	   3.44238	6.70444e+06	    78.625	   16.5328	   3.59945	5.31402e+06	   78.8806	   16.5328	   3.59945	 5.2745e+06	   78.7504	   16.3671	   3.43822	6.09612e+06	    78.625	   16.4521	   3.52092	5.84072e+06	   78.7528	   16.5328	   3.59945	5.28667e+06	   78.8782	   16.4478	   3.51675	 5.5699e+06	
         R10	   3551	   79.1666	   16.3353	   3.40728	7.34271e+06	   78.8758	   16.3628	   3.43406	5.86587e+06	   78.8806	   16.5328	   3.59945	5.28959e+06	   79.1756	   16.5328	   3.59945	5.26127e+06	   79.0212	    16.349	   3.42067	6.10593e+06	   78.8782	   16.4478	   3.51675	 5.3755e+06	   79.0281	   16.5328	   3.59945	5.26043e+06	   79.1711	    16.434	   3.50337	 6.1521e+06	
         R10	   3552	   79.1666	   16.3353	   3.40728	5.03793e+06	   79.1756	   16.5328	   3.59945	5.24947e+06	     79.51	   16.5328	   3.59945	5.24567e+06	   79.5367	    16.241	   3.31558	7.93339e+06	   79.1711	    16.434	   3.50337	4.94243e+06	   79.3428	   16.5328	   3.59945	5.23965e+06	   79.5234	   16.3869	   3.45752	6.37233e+06	   79.3517	   16.2881	   3.36143	6.11554e+06	
         R10	   3553	   79.5367	    16.241	   3.31558	6.55605e+06	     79.51	   16.5328	   3.59945	5.18407e+06	   79.8839	   16.5328	   3.59945	5.14444e+06	   79.9276	   16.2329	    3.3077	7.60533e+06	   79.5234	   16.3869	   3.45752	5.52467e+06	    79.697	   16.5328	   3.59945	5.16099e+06	   79.9058	   16.3828	   3.45358	6.00699e+06	   79.7322	    16.237	   3.31164	6.50958e+06	
         R10	   3554	   79.9276	   16.2329	    3.3077	7.60344e+06	   79.8839	   16.5328	   3.59945	5.23934e+06	   80.2972	   16.5328	   3.59945	5.56264e+06	   80.3278	   16.2295	   3.30433	 9.4658e+06	   79.9058	   16.3828	   3.45358	5.97592e+06	   80.0906	   16.5328	   3.59945	5.30783e+06	   80.3125	   16.3811	   3.45189	5.96067e+06	   80.1277	   16.2312	   3.30602	 7.8046e+06	
         R10	   3555	   80.3278	   16.2295	   3.30433	1.12367e+07	   80.2972	   16.5328	   3.59945	5.51708e+06	     80.75	   16.5328	   3.59945	6.13311e+06	     80.75	   16.2099	   3.28531	6.67119e+06	   80.3125	   16.3811	   3.45189	7.01057e+06	   80.5236	   16.5328	   3.59945	5.33272e+06	     80.75	   16.3713	   3.44238	6.17881e+06	   80.5389	   16.2197	   3.29482	7.48185e+06	
         R10	   3556	   80.3278	   16.2295	   3.30433	8.12439e+06	     80.75	   16.2099	   3.28531	6.68224e+06	     80.75	   15.9164	   2.99973	6.36485e+06	   80.3619	   15.9164	   2.99973	8.38948e+06	   80.5389	   16.2197	   3.29482	 5.9414e+06	     80.75	   16.0631	   3.14252	6.36423e+06	    80.556	   15.9164	   2.99973	7.21866e+06	   80.3449	   16.0729	   3.15203	7.54337e+06	
         R10	   3557	   79.9276	   16.2329	    3.3077	7.21145e+06	   80.3278	   16.2295	   3.30433	6.97842e+06	   80.3619	   15.9164	   2.99973	8.57354e+06	    80.002	   15.9164	   2.99973	7.67028e+06	   80.1277	   16.2312	   3.30602	5.77453e+06	   80.3449	   16.0729	   3.15203	 6.7706e+06	    80.182	   15.9164	   2.99973	 8.0856e+06	   79.9648	   16.0746	   3.15371	7.27697e+06	
         R10	   3558	   79.5367	    16.241	   3.31558	6.91461e+06	   79.9276	   16.2329	    3.3077	7.13162e+06	    80.002	   15.9164	   2.99973	 7.5286e+06	   79.6703	   15.9164	   2.99973	7.49951e+06	   79.7322	    16.237	   3.31164	6.23469e+06	   79.9648	   16.0746	   3.15371	7.07125e+06	   79.8361	   15.9164	   2.99973	 7.5043e+06	   79.6035	   16.0787	   3.15765	7.09311e+06	
         R10	   3559	   79.1151	   16.1314	    3.2089	6.86151e+06	   79.0913	   15.9164	   2.99973	7.02801e+06	   78.8441	   15.9164	   2.99973	7.13082e+06	   78.8361	   16.0514	   3.13113	7.28892e+06	   79.1032	   16.0239	   3.10431	6.90748e+06	   78.9677	   15.9164	   2.99973	 7.0764e+06	   78.8401	   15.9839	   3.06543	7.19533e+06	   78.9756	   16.0914	   3.17001	6.98456e+06	
         R10	   3560	   79.1151	   16.1314	    3.2089	6.45432e+06	   78.8449	    16.224	   3.29901	6.69315e+06	   78.8758	   16.3628	   3.43406	6.06865e+06	   79.1666	   16.3353	   3.40728	7.45055e+06	     78.98	   16.1777	   3.25395	6.56423e+06	   78.8604	   16.2934	   3.36653	6.23887e+06	   79.0212	    16.349	   3.42067	6.26917e+06	   79.1409	   16.2333	   3.30809	6.77192e+06	
         R10	   3561	   79.3352	   16.1034	   3.18167	1.11558e+07	   79.1151	   16.1314	    3.2089	6.24996e+06	   79.1666	   16.3353	   3.40728	4.97754e+06	   79.5367	    16.241	   3.31558	 7.1829e+06	   79.2251	   16.1174	   3.19528	8.35674e+06	   79.1409	   16.2333	   3.30809	5.54236e+06	   79.3517	   16.2881	   3.36143	5.49855e+06	   79.4359	   16.1722	   3.24863	8.61412e+06	
         R10	   3562	   79.3352	   16.1034	   3.18167	7.31583e+06	   79.5367	    16.241	   3.31558	7.08243e+06	   79.6703	   15.9164	   2.99973	7.41031e+06	   79.3667	   15.9164	   2.99973	7.13758e+06	   79.4359	   16.1722	   3.24863	6.64141e+06	   79.6035	   16.0787	   3.15765	7.08189e+06	   79.5185	   15.9164	   2.99973	 7.2656e+06	   79.3509	   16.0099	    3.0907	7.10484e+06	
         R10	   3563	   79.1151	   16.1314	    3.2089	6.80947e+06	   79.3352	   16.1034	   3.18167	8.14362e+06	   79.3667	   15.9164	   2.99973	6.83492e+06	   79.0913	   15.9164	   2.99973	7.04808e+06	   79.2251	   16.1174	   3.19528	7.37382e+06	   79.3509	   16.0099	    3.0907	7.46764e+06	    79.229	   15.9164	   2.99973	6.93863e+06	   79.1032	   16.0239	   3.10431	6.90207e+06	
         R10	   3564	   79.1151	   16.1314	    3.2089	5.65627e+06	   78.8361	   16.0514	   3.13113	7.37889e+06	   78.8449	    16.224	   3.29901	6.67756e+06	   78.9756	   16.0914	   3.17001	 6.4888e+06	   78.8405	   16.1377	   3.21507	7.01002e+06	     78.98	   16.1777	   3.25395	 6.1618e+06	       N/A	       N/A	       N/A	        N/A	       N/A	       N/A	       N/A	        N/A	
         R10	   3565	   78.8806	   16.5328	   3.59945	6.35646e+06	    78.625	   16.5328	   3.59945	6.18542e+06	    78.625	   16.7091	   3.77097	 7.3451e+06	   78.8978	    16.722	   3.78357	5.79533e+06	   78.7528	   16.5328	   3.59945	6.26559e+06	    78.625	   16.6209	   3.68521	6.74024e+06	   78.7614	   16.7155	   3.77727	6.43819e+06	   78.8892	   16.6274	   3.69151	6.03857e+06	
         R10	   3566	   78.8978	    16.722	   3.78357	 6.7888e+06	    78.625	   16.7091	   3.77097	7.07523e+06	    78.625	   16.9145	   3.97088	5.99249e+06	   78.9083	   16.9547	   4.00998	5.28709e+06	   78.7614	   16.7155	   3.77727	6.71418e+06	    78.625	   16.8118	   3.87093	6.52941e+06	   78.7666	   16.9346	   3.99043	5.47981e+06	    78.903	   16.8384	   3.89678	 5.8889e+06	
         R10	   3567	   78.9083	   16.9547	   4.00998	5.88746e+06	    78.625	   16.9145	   3.97088	5.79515e+06	    78.625	   17.1492	   4.19918	4.76605e+06	   78.9289	   17.1492	   4.19918	4.81396e+06	   78.7666	   16.9346	   3.99043	5.69102e+06	    78.625	   17.0318	   4.08503	 5.1682e+06	   78.7769	   17.1492	   4.19918	4.78799e+06	   78.9186	   17.0519	   4.10458	5.25753e+06	
         R10	   3568	   79.2372	   16.8439	    3.9022	6.54391e+06	   78.9083	   16.9547	   4.00998	 5.4326e+06	   78.9289	   17.1492	   4.19918	4.83845e+06	   79.2529	   17.1492	   4.19918	4.68757e+06	   79.0727	   16.8993	   3.95609	5.77417e+06	   78.9186	   17.0519	   4.10458	5.05027e+06	   79.0909	   17.1492	   4.19918	4.75255e+06	    79.245	   16.9965	   4.05069	5.40278e+06	
         R10	   3569	   79.2372	   16.8439	    3.9022	6.65459e+06	   79.2529	   17.1492	   4.19918	4.65258e+06	    79.597	   17.1492	   4.19918	4.52616e+06	   79.5806	   16.8409	   3.89926	6.93003e+06	    79.245	   16.9965	   4.05069	5.44423e+06	   79.4249	   17.1492	   4.19918	4.58441e+06	   79.5888	    16.995	   4.04922	5.40174e+06	   79.4089	   16.8424	   3.90073	6.37613e+06	
         R10	   3570	   79.5806	   16.8409	   3.89926	6.40391e+06	    79.597	   17.1492	   4.19918	4.48506e+06	   79.9612	   17.1492	   4.19918	4.51465e+06	   79.9501	    16.839	   3.89739	8.12456e+06	   79.5888	    16.995	   4.04922	 5.1134e+06	   79.7791	   17.1492	   4.19918	4.47843e+06	   79.9557	   16.9941	   4.04828	6.00221e+06	   79.7653	   16.8399	   3.89832	6.72736e+06	
         R10	   3571	   79.9501	    16.839	   3.89739	5.49119e+06	   79.9612	   17.1492	   4.19918	4.45521e+06	   80.3455	   17.1492	   4.19918	4.81398e+06	   80.3429	   16.8373	   3.89575	1.08764e+07	   79.9557	   16.9941	   4.04828	4.33729e+06	   80.1534	   17.1492	   4.19918	4.56798e+06	   80.3442	   16.9932	   4.04746	7.19342e+06	   80.1465	   16.8381	   3.89657	7.62054e+06	
         R10	   3572	   80.3429	   16.8373	   3.89575	6.99719e+06	   80.3455	   17.1492	   4.19918	4.54397e+06	     80.75	   17.1492	   4.19918	7.25946e+06	     80.75	    16.841	   3.89931	8.37606e+06	   80.3442	   16.9932	   4.04746	4.53694e+06	   80.5478	   17.1492	   4.19918	 5.4406e+06	     80.75	   16.9951	   4.04924	 7.7842e+06	   80.5464	   16.8391	   3.89753	6.35115e+06	
         R10	   3573	   80.3429	   16.8373	   3.89575	3.13709e+06	     80.75	    16.841	   3.89931	8.66394e+06	     80.75	   16.5328	   3.59945	5.87854e+06	   80.2972	   16.5328	   3.59945	7.06968e+06	   80.5464	   16.8391	   3.89753	5.05893e+06	     80.75	   16.6869	   3.74938	7.20795e+06	   80.5236	   16.5328	   3.59945	6.30786e+06	   80.3201	    16.685	    3.7476	4.69622e+06	
         R10	   3574	   79.9501	    16.839	   3.89739	4.60779e+06	   80.3429	   16.8373	   3.89575	8.71566e+06	   80.2972	   16.5328	   3.59945	7.09082e+06	   79.8839	   16.5328	   3.59945	6.37435e+06	   80.1465	   16.8381	   3.89657	5.89856e+06	   80.3201	    16.685	    3.7476	7.47892e+06	   80.0906	   16.5328	   3.59945	 6.7094e+06	    79.917	   16.6859	   3.74842	5.31849e+06	
         R10	   3575	   79.5806	   16.8409	   3.89926	6.06074e+06	   79.9501	    16.839	   3.89739	8.05901e+06	   79.8839	   16.5328	   3.59945	6.30585e+06	     79.51	   16.5328	   3.59945	6.43756e+06	   79.7653	   16.8399	   3.89832	6.52094e+06	    79.917	   16.6859	   3.74842	7.05764e+06	    79.697	   16.5328	   3.59945	6.37002e+06	   79.5453	   16.6868	   3.74936	6.13129e+06	
         R10	   3576	   79.2372	   16.8439	    3.9022	6.47185e+06	   79.5806	   16.8409	   3.89926	6.98976e+06	     79.51	   16.5328	   3.59945	6.32518e+06	   79.1756	   16.5328	   3.59945	6.39484e+06	   79.4089	   16.8424	   3.90073	6.31785e+06	   79.5453	   16.6868	   3.74936	6.56645e+06	   79.3428	   16.5328	   3.59945	6.35237e+06	   79.2064	   16.6884	   3.75083	6.35841e+06	
         R10	   3577	   79.2372	   16.8439	    3.9022	6.81402e+06	   79.1756	   16.5328	   3.59945	6.34141e+06	   78.8806	   16.5328	   3.59945	6.44287e+06	   78.8978	    16.722	   3.78357	6.26745e+06	   79.2064	   16.6884	   3.75083	6.51325e+06	   79.0281	   16.5328	   3.59945	6.38407e+06	   78.8892	   16.6274	   3.69151	6.30258e+06	   79.0675	    16.783	   3.84289	6.23338e+06	
         R10	   3578	   78.9083	   16.9547	   4.00998	5.25687e+06	   79.2372	   16.8439	    3.9022	6.13742e+06	   78.8978	    16.722	   3.78357	7.06594e+06	   79.0727	   16.8993	   3.95609	5.42904e+06	   79.0675	    16.783	   3.84289	6.40821e+06	    78.903	   16.8384	   3.89678	6.04416e+06	       N/A	       N/A	       N/A	        N/A	       N/A	       N/A	       N/A	        N/A	
         R10	   3579	   78.9289	   17.1492	   4.19918	6.99959e+06	    78.625	   17.1492	   4.19918	6.50196e+06	    78.625	   17.4281	   4.47054	5.76365e+06	   79.0451	   17.4391	   4.48126	5.89682e+06	   78.7769	   17.1492	   4.19918	6.73653e+06	    78.625	   17.2886	   4.33486	6.11156e+06	    78.835	   17.4336	    4.4759	5.72567e+06	    78.987	   17.2941	   4.34022	6.42299e+06	
         R10	   3580	   79.0451	   17.4391	   4.48126	6.54326e+06	    78.625	   17.4281	   4.47054	6.30689e+06	    78.625	   17.7655	    4.7989	 4.9611e+06	   79.0096	   17.7655	    4.7989	4.90038e+06	    78.835	   17.4336	    4.4759	6.36069e+06	    78.625	   17.5968	   4.63472	5.51138e+06	   78.8173	   17.7655	    4.7989	4.93049e+06	   79.0274	   17.6023	   4.64008	5.63633e+06	
         R10	   3581	    79.438	   17.4334	   4.47576	 6.4251e+06	   79.0451	   17.4391	   4.48126	6.76632e+06	   79.0096	   17.7655	    4.7989	 4.7784e+06	   79.4144	   17.7655	    4.7989	4.61311e+06	   79.2415	   17.4362	   4.47851	6.41289e+06	   79.0274	   17.6023	   4.64008	5.65948e+06	    79.212	   17.7655	    4.7989	4.69514e+06	   79.4262	   17.5995	   4.63733	5.34847e+06	
         R10	   3582	    79.438	   17.4334	   4.47576	7.00992e+06	   79.4144	   17.7655	    4.7989	4.58029e+06	   79.8394	   17.7655	    4.7989	4.20815e+06	   79.8553	   17.4577	   4.49937	7.14028e+06	   79.4262	   17.5995	   4.63733	5.67177e+06	   79.6269	   17.7655	    4.7989	4.36974e+06	   79.8474	   17.6116	   4.64914	5.47121e+06	   79.6466	   17.4456	   4.48757	6.71368e+06	
         R10	   3583	   79.8553	   17.4577	   4.49937	 7.1232e+06	   79.8394	   17.7655	    4.7989	4.31489e+06	   80.2846	   17.7655	    4.7989	3.97994e+06	   80.2969	    17.451	   4.49289	8.74133e+06	   79.8474	   17.6116	   4.64914	5.53639e+06	    80.062	   17.7655	    4.7989	4.09461e+06	   80.2907	   17.6083	    4.6459	6.14415e+06	   80.0761	   17.4544	   4.49613	7.48966e+06	
         R10	   3584	   80.2969	    17.451	   4.49289	8.98376e+06	   80.2846	   17.7655	    4.7989	4.01061e+06	     80.75	   17.7655	    4.7989	 9.0797e+06	     80.75	   17.4427	   4.48476	7.86099e+06	   80.2907	   17.6083	    4.6459	6.40243e+06	   80.5173	   17.7655	    4.7989	5.70994e+06	     80.75	   17.6041	   4.64183	8.44161e+06	   80.5234	   17.4468	   4.48883	7.57298e+06	
         R10	   3585	   80.2969	    17.451	   4.49289	5.52005e+06	     80.75	   17.4427	   4.48476	7.54263e+06	     80.75	   17.1492	   4.19918	7.81955e+06	   80.3455	   17.1492	   4.19918	 6.8276e+06	   80.5234	   17.4468	   4.48883	5.87698e+06	     80.75	   17.2959	   4.34197	 7.6543e+06	   80.5478	   17.1492	   4.19918	6.86759e+06	   80.3212	   17.3001	   4.34604	6.09977e+06	
         R10	   3586	   79.8553	   17.4577	   4.49937	7.10301e+06	   80.2969	    17.451	   4.49289	6.26096e+06	   80.3455	   17.1492	   4.19918	7.24648e+06	   79.9612	   17.1492	   4.19918	6.52343e+06	   80.0761	   17.4544	   4.49613	 5.9288e+06	   80.3212	   17.3001	   4.34604	6.49675e+06	   80.1534	   17.1492	   4.19918	 6.8625e+06	   79.9082	   17.3034	   4.34927	6.74157e+06	
         R10	   3587	    79.438	   17.4334	   4.47576	7.66674e+06	   79.8553	   17.4577	   4.49937	6.34043e+06	   79.9612	   17.1492	   4.19918	 6.4068e+06	    79.597	   17.1492	   4.19918	6.45618e+06	   79.6466	   17.4456	   4.48757	6.58957e+06	   79.9082	   17.3034	   4.34927	6.30614e+06	   79.7791	   17.1492	   4.19918	6.42102e+06	   79.5175	   17.2913	   4.33747	6.98034e+06	
         R10	   3588	   79.0451	   17.4391	   4.48126	6.86153e+06	    79.438	   17.4334	   4.47576	 5.9229e+06	    79.597	   17.1492	   4.19918	6.28273e+06	   79.2529	   17.1492	   4.19918	6.83958e+06	   79.2415	   17.4362	   4.47851	6.15727e+06	   79.5175	   17.2913	   4.33747	6.07905e+06	   79.4249	   17.1492	   4.19918	6.55091e+06	    79.149	   17.2941	   4.34022	6.78672e+06	
         R10	   3589	   78.9289	   17.1492	   4.19918	6.86377e+06	   79.0451	   17.4391	   4.48126	5.70376e+06	   79.2529	   17.1492	   4.19918	6.61442e+06	    78.987	   17.2941	   4.34022	  6.263e+06	    79.149	   17.2941	   4.34022	6.14282e+06	   79.0909	   17.1492	   4.19918	6.73425e+06	       N/A	       N/A	       N/A	        N/A	       N/A	       N/A	       N/A	        N/A	
         R10	   3590	   79.0096	   17.7655	    4.7989	8.35374e+06	    78.625	   17.7655	    4.7989	7.10422e+06	    78.625	   18.0444	   5.07027	6.12565e+06	   79.1166	    18.083	   5.10782	6.38528e+06	   78.8173	   17.7655	    4.7989	7.71383e+06	    78.625	    17.905	   4.93459	 6.5527e+06	   78.8708	   18.0637	   5.08905	5.92674e+06	   79.0631	   17.9243	   4.95336	7.15205e+06	
         R10	   3591	   79.1166	    18.083	   5.10782	 6.9428e+06	    78.625	   18.0444	   5.07027	6.40918e+06	    78.625	   18.3819	   5.39863	4.45721e+06	    79.131	   18.3819	   5.39863	4.23494e+06	   78.8708	   18.0637	   5.08905	6.46179e+06	    78.625	   18.2132	   5.23445	5.06875e+06	    78.878	   18.3819	   5.39863	4.34312e+06	   79.1238	   18.2325	   5.25322	5.42799e+06	
         R10	   3592	   79.1166	    18.083	   5.10782	5.62137e+06	    79.131	   18.3819	   5.39863	4.11595e+06	   79.6538	   18.3819	   5.39863	3.59035e+06	   79.6608	   18.0661	   5.09131	7.14106e+06	   79.1238	   18.2325	   5.25322	4.52118e+06	   79.3924	   18.3819	   5.39863	3.83024e+06	   79.6573	    18.224	   5.24497	4.80711e+06	   79.3887	   18.0746	   5.09957	 6.1832e+06	
         R10	   3593	   80.1935	   18.3819	   5.39863	3.23052e+06	     80.75	   18.3819	   5.39863	8.61038e+06	     80.75	   18.0591	   5.08448	  1.004e+07	   80.2281	   18.0805	   5.10536	1.16225e+07	   80.4717	   18.3819	   5.39863	3.99614e+06	     80.75	   18.2205	   5.24156	9.26074e+06	   80.4891	   18.0698	   5.09492	9.89269e+06	   80.2108	   18.2312	   5.25199	6.17145e+06	
         R10	   3594	   80.2281	   18.0805	   5.10536	 4.0358e+06	     80.75	   18.0591	   5.08448	1.00969e+07	     80.75	   17.7655	    4.7989	1.13586e+07	   80.2846	   17.7655	    4.7989	8.75328e+06	   80.4891	   18.0698	   5.09492	6.19236e+06	     80.75	   17.9123	   4.94169	 1.0712e+07	   80.5173	   17.7655	    4.7989	9.29982e+06	   80.2564	    17.923	   4.95213	6.24658e+06	
         R10	   3595	   79.4144	   17.7655	    4.7989	9.47283e+06	   79.0096	   17.7655	    4.7989	8.21645e+06	   79.1166	    18.083	   5.10782	 4.3457e+06	   79.6608	   18.0661	   5.09131	 5.4489e+06	    79.212	   17.7655	    4.7989	8.81624e+06	   79.0631	   17.9243	   4.95336	6.07295e+06	   79.3887	   18.0746	   5.09957	4.53131e+06	   79.5376	   17.9158	   4.94511	7.29307e+06	
         R10	   3596	   79.6608	   18.0661	   5.09131	7.30791e+06	   79.6538	   18.3819	   5.39863	3.75968e+06	   80.1935	   18.3819	   5.39863	2.75705e+06	   80.2281	   18.0805	   5.10536	1.16028e+07	   79.6573	    18.224	   5.24497	5.02689e+06	   79.9236	   18.3819	   5.39863	3.09908e+06	   80.2108	   18.2312	   5.25199	5.83513e+06	   79.9445	   18.0733	   5.09834	8.92381e+06	
         R10	   3597	   79.6608	   18.0661	   5.09131	7.34583e+06	   80.2281	   18.0805	   5.10536	5.54608e+06	   80.2846	   17.7655	    4.7989	9.27725e+06	   79.8394	   17.7655	    4.7989	8.16073e+06	   79.9445	   18.0733	   5.09834	5.69833e+06	   80.2564	    17.923	   4.95213	6.91408e+06	    80.062	   17.7655	    4.7989	8.67583e+06	   79.7501	   17.9158	   4.94511	7.70774e+06	
         R10	   3598	   79.4144	   17.7655	    4.7989	8.99913e+06	   79.6608	   18.0661	   5.09131	 6.1132e+06	   79.8394	   17.7655	    4.7989	7.31231e+06	   79.5376	   17.9158	   4.94511	7.32363e+06	   79.7501	   17.9158	   4.94511	6.57182e+06	   79.6269	   17.7655	    4.7989	 8.1462e+06	       N/A	       N/A	       N/A	        N/A	       N/A	       N/A	       N/A	        N/A	
         R10	   3599	    79.131	   18.3819	   5.39863	7.26899e+06	    78.625	   18.3819	   5.39863	6.61333e+06	    78.625	   18.6762	   5.68499	7.83116e+06	   79.1374	   18.6909	   5.69929	6.33622e+06	    78.878	   18.3819	   5.39863	6.92622e+06	    78.625	   18.5291	   5.54181	7.21788e+06	   78.8812	   18.6836	   5.69214	6.91587e+06	   79.1342	   18.5364	   5.54896	6.72079e+06	
         R10	   3600	   79.1374	   18.6909	   5.69929	5.65958e+06	    78.625	   18.6762	   5.68499	 8.1423e+06	    78.625	        19	         6	4.81483e+06	    79.131	        19	         6	8.38411e+06	   78.8812	   18.6836	   5.69214	 6.7813e+06	    78.625	   18.8381	    5.8425	6.36088e+06	    78.878	        19	         6	6.46149e+06	   79.1342	   18.8455	   5.84965	6.88199e+06	
         R10	   3601	   79.6598	    18.691	   5.69931	7.37296e+06	   79.1374	   18.6909	   5.69929	1.01229e+07	    79.131	        19	         6	6.32552e+06	   79.6538	        19	         6	7.56617e+06	   79.3986	   18.6909	    5.6993	6.83243e+06	   79.1342	   18.8455	   5.84965	7.75174e+06	   79.3924	        19	         6	6.78469e+06	   79.6568	   18.8455	   5.84965	6.36762e+06	
         R10	   3602	   80.1935	        19	         6	 6.6635e+06	     80.75	        19	         6	1.11344e+07	     80.75	   18.6762	   5.68499	1.19668e+07	   80.1999	    18.691	   5.69933	1.61244e+07	   80.4717	        19	         6	8.61209e+06	     80.75	   18.8381	    5.8425	1.09145e+07	    80.475	   18.6836	   5.69216	1.08467e+07	   80.1967	   18.8455	   5.84966	1.07238e+07	
         R10	   3603	   80.1999	    18.691	   5.69933	1.48585e+07	     80.75	   18.6762	   5.68499	1.08814e+07	     80.75	   18.3819	   5.39863	1.00451e+07	   80.1935	   18.3819	   5.39863	8.71705e+06	    80.475	   18.6836	   5.69216	9.49089e+06	     80.75	   18.5291	   5.54181	9.87112e+06	   80.4717	   18.3819	   5.39863	9.06256e+06	   80.1967	   18.5364	   5.54898	1.10832e+07	
         R10	   3604	   79.6538	   18.3819	   5.39863	8.39495e+06	    79.131	   18.3819	   5.39863	7.24417e+06	   79.1374	   18.6909	   5.69929	1.06485e+07	   79.6598	    18.691	   5.69931	6.74902e+06	   79.3924	   18.3819	   5.39863	7.77612e+06	   79.1342	   18.5364	   5.54896	8.83961e+06	   79.3986	   18.6909	    5.6993	6.91632e+06	   79.6568	   18.5364	   5.54897	6.86506e+06	
         R10	   3605	   79.6598	    18.691	   5.69931	 1.4843e+07	   79.6538	        19	         6	5.81417e+06	   80.1935	        19	         6	7.37441e+06	   80.1999	    18.691	   5.69933	1.17309e+07	   79.6568	   18.8455	   5.84965	9.56516e+06	   79.9236	        19	         6	6.36663e+06	   80.1967	   18.8455	   5.84966	 7.5281e+06	   79.9299	    18.691	   5.69932	8.68374e+06	
         R10	   3606	   79.6538	   18.3819	   5.39863	8.25879e+06	   79.6598	    18.691	   5.69931	1.43391e+07	   80.1999	    18.691	   5.69933	1.08589e+07	   80.1935	   18.3819	   5.39863	9.10704e+06	   79.6568	   18.5364	   5.54897	1.08168e+07	   79.9299	    18.691	   5.69932	7.64835e+06	   80.1967	   18.5364	   5.54898	8.53875e+06	   79.9236	   18.3819	   5.39863	 8.6273e+06	
         R10	   3607	   80.1935	        19	      6.85	4.61859e+06	     80.75	        19	      6.85	1.18751e+07	     80.75	        19	         6	1.53078e+07	   80.1935	        19	         6	8.42359e+06	   80.4717	        19	      6.85	8.10538e+06	     80.75	        19	     6.425	1.33091e+07	   80.4717	        19	         6	1.16924e+07	   80.1935	        19	     6.425	6.41905e+06	
         R10	   3608	   79.6538	        19	      6.85	4.41932e+06	   80.1935	        19	      6.85	5.62501e+06	   80.1935	        19	         6	8.19621e+06	   79.6538	        19	         6	6.53067e+06	   79.9236	        19	      6.85	4.98404e+06	   80.1935	        19	     6.425	6.89741e+06	   79.9236	        19	         6	7.30467e+06	   79.6538	        19	     6.425	5.42784e+06	
         R10	   3609	    79.131	        19	      6.85	 4.1145e+06	   79.6538	        19	      6.85	4.17441e+06	   79.6538	        19	         6	7.05422e+06	    79.131	        19	         6	5.57307e+06	   79.3924	        19	      6.85	 4.1266e+06	   79.6538	        19	     6.425	5.60377e+06	   79.3924	        19	         6	6.22347e+06	    79.131	        19	     6.425	  4.828e+06	
         R10	   3610	    78.625	        19	   6.40476	6.00283e+06	    78.625	        19	      6.85	3.71879e+06	    79.131	        19	      6.85	 4.2192e+06	    79.131	        19	         6	5.34301e+06	    78.625	        19	   6.62738	4.84514e+06	    78.878	        19	      6.85	3.92985e+06	    79.131	        19	     6.425	4.75259e+06	    78.878	        19	   6.20238	5.57768e+06	
         R10	   3611	    78.625	        19	   6.40476	5.51467e+06	    79.131	        19	         6	5.66482e+06	    78.625	        19	         6	5.88121e+06	    78.878	        19	   6.20238	 5.5891e+06	    78.878	        19	         6	5.59375e+06	    78.625	        19	   6.20238	5.52278e+06	       N/A	       N/A	       N/A	        N/A	       N/A	       N/A	       N/A	        N/A	
         R10	   3612	      76.5	      9.35	       1.6	3.29489e+06	      76.5	      9.35	       2.4	6.52742e+06	      76.5	      10.2	       2.4	 7.0754e+06	      76.5	      10.2	       1.6	3.77586e+06	      76.5	      9.35	         2	 4.8185e+06	      76.5	     9.775	       2.4	6.65054e+06	      76.5	      10.2	         2	5.17789e+06	      76.5	     9.775	       1.6	3.23691e+06	
         R10	   3613	      76.5	      9.35	       0.8	 2.9444e+06	      76.5	      9.35	       1.6	3.43407e+06	      76.5	      10.2	       1.6	3.79197e+06	      76.5	      10.2	       0.8	4.77344e+06	      76.5	      9.35	       1.2	2.55864e+06	      76.5	     9.775	       1.6	3.30797e+06	      76.5	      10.2	       1.2	3.71241e+06	      76.5	     9.775	       0.8	3.50497e+06	
         R10	   3614	      76.5	      9.35	         0	6.85634e+06	      76.5	      9.35	       0.8	2.37761e+06	      76.5	      10.2	       0.8	 4.9325e+06	      76.5	      10.2	         0	6.97908e+06	      76.5	      9.35	       0.4	4.27643e+06	      76.5	     9.775	       0.8	3.31508e+06	      76.5	      10.2	       0.4	5.41645e+06	      76.5	     9.775	         0	6.71022e+06	
         R10	   3615	   80.0079	        19	       7.7	4.19713e+06	     80.75	        19	       7.7	7.76738e+06	     80.75	        19	      6.85	8.52221e+06	   80.1935	        19	      6.85	8.63795e+06	    80.379	        19	       7.7	 5.7632e+06	     80.75	        19	     7.275	8.07395e+06	   80.4717	        19	      6.85	8.23076e+06	   80.1007	        19	     7.275	6.36125e+06	
         R10	   3616	   79.2996	        19	       7.7	4.04908e+06	   80.0079	        19	       7.7	3.74794e+06	   80.1935	        19	      6.85	8.41627e+06	   79.6538	        19	      6.85	6.22736e+06	   79.6538	        19	       7.7	3.84578e+06	   80.1007	        19	     7.275	6.06533e+06	   79.9236	        19	      6.85	7.29242e+06	   79.4767	        19	     7.275	5.08176e+06	
         R10	   3617	    79.131	        19	      6.85	5.33712e+06	    78.625	        19	      6.85	5.08208e+06	    78.625	        19	       7.7	4.25843e+06	   79.2996	        19	       7.7	4.24443e+06	    78.878	        19	      6.85	5.19243e+06	    78.625	        19	     7.275	4.66437e+06	   78.9623	        19	       7.7	4.23702e+06	   79.2153	        19	     7.275	4.78563e+06	
         R10	   3618	    79.131	        19	      6.85	5.46958e+06	   79.2996	        19	       7.7	4.02157e+06	   79.6538	        19	      6.85	6.29036e+06	   79.2153	        19	     7.275	4.72189e+06	   79.4767	        19	     7.275	5.11721e+06	   79.3924	        19	      6.85	 5.8639e+06	       N/A	       N/A	       N/A	        N/A	       N/A	       N/A	       N/A	        N/A	
         R10	   3619	   80.0079	        19	      8.55	3.77955e+06	     80.75	        19	      8.55	6.30627e+06	     80.75	        19	       7.7	 6.4655e+06	   80.0079	        19	       7.7	7.87223e+06	    80.379	        19	      8.55	4.63863e+06	     80.75	        19	     8.125	6.37505e+06	    80.379	        19	       7.7	7.00757e+06	   80.0079	        19	     8.125	5.65017e+06	
         R10	   3620	   79.2996	        19	      8.55	2.21188e+06	   80.0079	        19	      8.55	2.92225e+06	   80.0079	        19	       7.7	7.91568e+06	   79.2996	        19	       7.7	6.75271e+06	   79.6538	        19	      8.55	2.54452e+06	   80.0079	        19	     8.125	5.38514e+06	   79.6538	        19	       7.7	7.30142e+06	   79.2996	        19	     8.125	4.44905e+06	
         R10	   3621	    78.625	        19	      8.55	2.61366e+06	   79.2996	        19	      8.55	2.14722e+06	   79.2996	        19	       7.7	6.76295e+06	    78.625	        19	       7.7	5.81869e+06	   78.9623	        19	      8.55	2.37539e+06	   79.2996	        19	     8.125	4.43138e+06	   78.9623	        19	       7.7	6.26928e+06	    78.625	        19	     8.125	4.21299e+06	
         R10	   3622	   80.0079	        19	       9.4	3.87665e+06	     80.75	        19	       9.4	5.57232e+06	     80.75	        19	      8.55	5.47014e+06	   80.0079	        19	      8.55	8.32656e+06	    80.379	        19	       9.4	3.91919e+06	     80.75	        19	     8.975	 5.5155e+06	    80.379	        19	      8.55	6.74586e+06	   80.0079	        19	     8.975	5.79004e+06	
         R10	   3623	   79.2996	        19	       9.4	1.03659e+06	   80.0079	        19	       9.4	 2.1432e+06	   80.0079	        19	      8.55	7.93004e+06	   79.2996	        19	      8.55	8.67595e+06	   79.6538	        19	       9.4	 1.3868e+06	   80.0079	        19	     8.975	5.01701e+06	   79.6538	        19	      8.55	8.29937e+06	   79.2996	        19	     8.975	4.57169e+06	
         R10	   3624	    78.625	        19	       9.4	     574147	   79.2996	        19	       9.4	     952034	   79.2996	        19	      8.55	8.59546e+06	    78.625	        19	      8.55	7.92195e+06	   78.9623	        19	       9.4	     567257	   79.2996	        19	     8.975	4.46247e+06	   78.9623	        19	      8.55	8.25611e+06	    78.625	        19	     8.975	4.08102e+06	
         R10	   3625	      76.5	      10.2	       1.6	4.40433e+06	      76.5	      10.2	       2.4	6.91311e+06	      76.5	     11.05	       2.4	8.18737e+06	      76.5	     11.05	   1.67602	6.44408e+06	      76.5	      10.2	         2	5.42674e+06	      76.5	    10.625	       2.4	7.40764e+06	      76.5	     11.05	   2.03801	7.16525e+06	      76.5	    10.625	   1.63801	5.37893e+06	
         R10	   3626	      76.5	      10.2	       0.8	 3.5019e+06	      76.5	      10.2	       1.6	4.53004e+06	      76.5	     11.05	   1.67602	6.12708e+06	      76.5	     11.05	  0.876018	7.29242e+06	      76.5	      10.2	       1.2	3.57275e+06	      76.5	    10.625	   1.63801	5.28989e+06	      76.5	     11.05	   1.27602	6.38882e+06	      76.5	    10.625	  0.838009	5.21678e+06	
         R10	   3627	      76.5	      10.2	         0	9.10519e+06	      76.5	      10.2	       0.8	3.28799e+06	      76.5	     11.05	  0.876018	6.99804e+06	      76.5	     11.05	         0	6.38019e+06	      76.5	      10.2	       0.4	6.05078e+06	      76.5	    10.625	  0.838009	5.03627e+06	      76.5	     11.05	  0.438009	5.84582e+06	      76.5	    10.625	         0	7.41985e+06	
         R10	   3628	   80.0401	        19	     10.25	3.88997e+06	     80.75	        19	     10.25	4.73678e+06	     80.75	        19	       9.4	4.86072e+06	   80.0079	        19	       9.4	7.66385e+06	   80.3951	        19	     10.25	4.30992e+06	     80.75	        19	     9.825	4.72892e+06	    80.379	        19	       9.4	5.92399e+06	    80.024	        19	     9.825	5.72949e+06	
         R10	   3629	   79.3318	        19	     10.25	3.26503e+06	   80.0401	        19	     10.25	4.32331e+06	   80.0079	        19	       9.4	7.41655e+06	   79.2996	        19	       9.4	7.96828e+06	    79.686	        19	     10.25	3.79346e+06	    80.024	        19	     9.825	5.85409e+06	   79.6538	        19	       9.4	7.67991e+06	   79.3157	        19	     9.825	5.60097e+06	
         R10	   3630	    78.625	        19	     10.25	 1.9709e+06	   79.3318	        19	     10.25	3.40436e+06	   79.2996	        19	       9.4	8.10578e+06	    78.625	        19	       9.4	 7.6823e+06	   78.9784	        19	     10.25	2.57946e+06	   79.3157	        19	     9.825	5.74701e+06	   78.9623	        19	       9.4	7.86313e+06	    78.625	        19	     9.825	4.54609e+06	
         R10	   3631	      76.5	   11.5844	       2.4	9.37554e+06	      76.5	      11.9	       2.4	9.73119e+06	      76.5	      11.9	   1.98816	9.46844e+06	      76.5	   11.5007	   2.01504	8.34705e+06	      76.5	   11.7422	       2.4	9.51581e+06	      76.5	      11.9	   2.19408	9.58104e+06	      76.5	   11.7004	    2.0016	 8.9067e+06	      76.5	   11.5426	   2.20752	8.79253e+06	
         R10	   3632	      76.5	      11.9	   0.54816	9.41454e+06	      76.5	      11.9	         0	6.85328e+06	      76.5	     11.05	         0	1.14919e+07	      76.5	     11.05	  0.876018	5.36428e+06	      76.5	      11.9	   0.27408	7.16275e+06	      76.5	    11.475	         0	8.41531e+06	      76.5	     11.05	  0.438009	8.31633e+06	      76.5	    11.475	  0.712089	7.33045e+06	
         R10	   3633	      76.5	      11.9	   1.06224	8.91599e+06	      76.5	      11.9	   0.54816	9.61239e+06	      76.5	     11.05	  0.876018	5.66656e+06	      76.5	     11.05	   1.67602	6.66169e+06	      76.5	      11.9	    0.8052	9.19237e+06	      76.5	    11.475	  0.712089	 7.6315e+06	      76.5	     11.05	   1.27602	5.84894e+06	      76.5	    11.475	   1.36913	7.65762e+06	
         R10	   3634	      76.5	     11.05	   1.67602	 7.1421e+06	      76.5	     11.05	       2.4	7.89765e+06	      76.5	   11.5844	       2.4	8.81755e+06	      76.5	   11.5007	   2.01504	8.12361e+06	      76.5	     11.05	   2.03801	7.30096e+06	      76.5	   11.3172	       2.4	8.30771e+06	      76.5	   11.5426	   2.20752	8.43063e+06	      76.5	   11.2754	   1.84553	7.61444e+06	
         R10	   3635	      76.5	     11.05	   1.67602	6.52451e+06	      76.5	   11.5007	   2.01504	8.11468e+06	      76.5	      11.9	   1.98816	9.37679e+06	      76.5	      11.9	   1.54224	9.12222e+06	      76.5	   11.2754	   1.84553	  7.295e+06	      76.5	   11.7004	    2.0016	 8.7417e+06	      76.5	      11.9	    1.7652	9.19424e+06	      76.5	    11.475	   1.60913	7.78502e+06	
         R10	   3636	      76.5	      11.9	   1.06224	9.03909e+06	      76.5	     11.05	   1.67602	6.70306e+06	      76.5	      11.9	   1.54224	 8.7611e+06	      76.5	    11.475	   1.36913	 7.7319e+06	      76.5	    11.475	   1.60913	7.71435e+06	      76.5	      11.9	   1.30224	8.82214e+06	       N/A	       N/A	       N/A	        N/A	       N/A	       N/A	       N/A	        N/A	
         R10	   3637	      76.5	   12.3065	   1.07536	1.02773e+07	      76.5	      11.9	   1.06224	9.59546e+06	      76.5	      11.9	   1.54224	9.08122e+06	      76.5	   12.3087	   1.53963	1.03452e+07	      76.5	   12.1032	    1.0688	9.92685e+06	      76.5	      11.9	   1.30224	9.26273e+06	      76.5	   12.1044	   1.54093	9.71085e+06	      76.5	   12.3076	   1.30749	1.02866e+07	
         R10	   3638	      76.5	   12.3087	   1.53963	1.05505e+07	      76.5	      11.9	   1.54224	9.55591e+06	      76.5	      11.9	   1.98816	9.33917e+06	      76.5	   12.2999	   1.96094	1.02296e+07	      76.5	   12.1044	   1.54093	  1.005e+07	      76.5	      11.9	    1.7652	9.38429e+06	      76.5	   12.0999	   1.97455	9.76948e+06	      76.5	   12.3043	   1.75028	1.03592e+07	
         R10	   3639	      76.5	   12.2999	   1.96094	1.03589e+07	      76.5	      11.9	   1.98816	9.89923e+06	      76.5	      11.9	       2.4	9.24903e+06	      76.5	   12.2642	       2.4	 1.0125e+07	      76.5	   12.0999	   1.97455	1.01182e+07	      76.5	      11.9	   2.19408	9.49791e+06	      76.5	   12.0821	       2.4	9.64376e+06	      76.5	    12.282	   2.18047	 1.0183e+07	
         R10	   3640	      76.5	   12.5475	       2.4	1.13693e+07	      76.5	     12.75	       2.4	1.22088e+07	      76.5	     12.75	   2.18411	1.18294e+07	      76.5	    12.534	   2.18773	1.16049e+07	      76.5	   12.6488	       2.4	1.17173e+07	      76.5	     12.75	   2.29206	1.20147e+07	      76.5	    12.642	   2.18592	1.17132e+07	      76.5	   12.5408	   2.29386	1.14449e+07	
         R10	   3641	      76.5	   12.3324	  0.555547	1.10772e+07	      76.5	     12.75	  0.469829	1.12658e+07	      76.5	     12.75	         0	1.03839e+07	      76.5	   12.3452	         0	6.20895e+06	      76.5	   12.5412	  0.512688	1.09951e+07	      76.5	     12.75	  0.234915	9.67731e+06	      76.5	   12.5476	         0	6.36494e+06	      76.5	   12.3388	  0.277773	8.10361e+06	
         R10	   3642	      76.5	   12.3324	  0.555547	 9.7304e+06	      76.5	   12.3452	         0	1.48549e+07	      76.5	      11.9	         0	1.38337e+07	      76.5	      11.9	   0.54816	9.23171e+06	      76.5	   12.3388	  0.277773	1.20713e+07	      76.5	   12.1226	         0	1.35061e+07	      76.5	      11.9	   0.27408	1.13653e+07	      76.5	   12.1162	  0.551853	9.28642e+06	
         R10	   3643	      76.5	   12.3324	  0.555547	1.09515e+07	      76.5	      11.9	   0.54816	9.02884e+06	      76.5	      11.9	   1.06224	9.49271e+06	      76.5	   12.3065	   1.07536	1.01102e+07	      76.5	   12.1162	  0.551853	 9.8792e+06	      76.5	      11.9	    0.8052	9.25238e+06	      76.5	   12.1032	    1.0688	9.79409e+06	      76.5	   12.3194	  0.815455	1.03634e+07	
         R10	   3644	      76.5	   12.2999	   1.96094	 1.0486e+07	      76.5	   12.2642	       2.4	1.08771e+07	      76.5	   12.5475	       2.4	1.05319e+07	      76.5	    12.534	   2.18773	1.12307e+07	      76.5	    12.282	   2.18047	1.06151e+07	      76.5	   12.4059	       2.4	1.06952e+07	      76.5	   12.5408	   2.29386	1.08708e+07	      76.5	   12.4169	   2.07434	 1.0852e+07	
         R10	   3645	      76.5	   12.2999	   1.96094	1.04451e+07	      76.5	    12.534	   2.18773	1.12668e+07	      76.5	     12.75	   2.18411	1.16893e+07	      76.5	     12.75	   1.92591	1.17932e+07	      76.5	   12.4169	   2.07434	1.08506e+07	      76.5	    12.642	   2.18592	1.14688e+07	      76.5	     12.75	   2.05501	1.17253e+07	      76.5	   12.5249	   1.94342	1.11137e+07	
         R10	   3646	      76.5	   12.3087	   1.53963	1.04984e+07	      76.5	   12.2999	   1.96094	1.04538e+07	      76.5	     12.75	   1.92591	1.16788e+07	      76.5	     12.75	   1.62537	1.17775e+07	      76.5	   12.3043	   1.75028	1.04417e+07	      76.5	   12.5249	   1.94342	1.10622e+07	      76.5	     12.75	   1.77564	1.17184e+07	      76.5	   12.5294	    1.5825	 1.1136e+07	
         R10	   3647	      76.5	   12.3065	   1.07536	1.06079e+07	      76.5	   12.3087	   1.53963	1.03416e+07	      76.5	     12.75	   1.62537	1.18712e+07	      76.5	     12.75	   1.28252	1.14957e+07	      76.5	   12.3076	   1.30749	1.04504e+07	      76.5	   12.5294	    1.5825	1.11033e+07	      76.5	     12.75	   1.45394	1.16634e+07	      76.5	   12.5282	   1.17894	1.10479e+07	
         R10	   3648	      76.5	   12.3324	  0.555547	1.00443e+07	      76.5	   12.3065	   1.07536	1.01661e+07	      76.5	     12.75	   1.28252	1.16207e+07	      76.5	     12.75	  0.897334	1.13746e+07	      76.5	   12.3194	  0.815455	 1.0057e+07	      76.5	   12.5282	   1.17894	1.08798e+07	      76.5	     12.75	   1.08992	1.14791e+07	      76.5	   12.5412	   0.72644	1.06673e+07	
         R10	   3649	      76.5	     12.75	  0.469829	 1.0507e+07	      76.5	   12.3324	  0.555547	9.57244e+06	      76.5	     12.75	  0.897334	 1.1626e+07	      76.5	   12.5412	  0.512688	9.85163e+06	      76.5	   12.5412	   0.72644	1.04269e+07	      76.5	     12.75	  0.683582	1.10298e+07	       N/A	       N/A	       N/A	        N/A	       N/A	       N/A	       N/A	        N/A	
         R10	   3650	   79.9759	      21.5	      6.85	1.75917e+06	     80.75	      21.5	      6.85	2.55972e+06	     80.75	      21.5	         6	3.51801e+06	   80.0094	      21.5	         6	4.23834e+06	   80.3629	      21.5	      6.85	1.07617e+06	     80.75	      21.5	     6.425	2.76024e+06	   80.3797	      21.5	         6	3.76101e+06	   79.9926	      21.5	     6.425	2.52418e+06	
         R10	   3651	   79.2675	      21.5	      6.85	2.49126e+06	   79.9759	      21.5	      6.85	1.73376e+06	   80.0094	      21.5	         6	4.08509e+06	   79.3011	      21.5	         6	2.87708e+06	   79.6217	      21.5	      6.85	 1.7647e+06	   79.9926	      21.5	     6.425	1.77074e+06	   79.6553	      21.5	         6	3.46842e+06	   79.2843	      21.5	     6.425	1.30167e+06	
         R10	   3652	    78.625	      21.5	      6.85	1.75767e+06	   79.2675	      21.5	      6.85	2.22177e+06	   79.3011	      21.5	         6	2.80182e+06	    78.625	      21.5	         6	1.69262e+06	   78.9463	      21.5	      6.85	1.98877e+06	   79.2843	      21.5	     6.425	     806757	   78.9631	      21.5	         6	2.22616e+06	    78.625	      21.5	     6.425	     632931	
         R10	   3653	   79.9989	      21.5	       7.7	 2.2142e+06	     80.75	      21.5	       7.7	2.64258e+06	     80.75	      21.5	      6.85	2.78494e+06	   79.9759	      21.5	      6.85	4.73102e+06	   80.3745	      21.5	       7.7	     527549	     80.75	      21.5	     7.275	2.63023e+06	   80.3629	      21.5	      6.85	 3.2402e+06	   79.9874	      21.5	     7.275	 1.9535e+06	
         R10	   3654	   79.2906	      21.5	       7.7	 3.8608e+06	   79.9989	      21.5	       7.7	2.25508e+06	   79.9759	      21.5	      6.85	4.31045e+06	   79.2675	      21.5	      6.85	 5.9551e+06	   79.6447	      21.5	       7.7	2.91011e+06	   79.9874	      21.5	     7.275	1.43187e+06	   79.6217	      21.5	      6.85	5.06345e+06	    79.279	      21.5	     7.275	1.33829e+06	
         R10	   3655	    78.625	      21.5	       7.7	3.36518e+06	   79.2906	      21.5	       7.7	 3.8801e+06	   79.2675	      21.5	      6.85	 5.8402e+06	    78.625	      21.5	      6.85	5.18961e+06	   78.9578	      21.5	       7.7	3.60018e+06	    79.279	      21.5	     7.275	 1.0167e+06	   78.9463	      21.5	      6.85	5.51402e+06	    78.625	      21.5	     7.275	     976207	
         R10	   3656	      76.5	   13.2385	         0	 1.3317e+07	      76.5	     12.75	         0	1.86283e+07	      76.5	     12.75	  0.469829	1.11224e+07	      76.5	   13.1725	  0.442726	1.25995e+07	      76.5	   12.9942	         0	1.51839e+07	      76.5	     12.75	  0.234915	1.47034e+07	      76.5	   12.9612	  0.456278	 1.1776e+07	      76.5	   13.2055	  0.221363	1.28012e+07	
         R10	   3657	      76.5	   13.1725	  0.442726	1.40566e+07	      76.5	     12.75	  0.469829	1.21554e+07	      76.5	     12.75	  0.897334	1.20314e+07	      76.5	   13.0989	  0.880493	1.26636e+07	      76.5	   12.9612	  0.456278	1.29863e+07	      76.5	     12.75	  0.683582	 1.2075e+07	      76.5	   12.9245	  0.888914	1.23459e+07	      76.5	   13.1357	   0.66161	1.32595e+07	
         R10	   3658	      76.5	   13.0989	  0.880493	1.29317e+07	      76.5	     12.75	  0.897334	1.18578e+07	      76.5	     12.75	   1.28252	1.22253e+07	      76.5	   13.0851	   1.26205	1.28101e+07	      76.5	   12.9245	  0.888914	1.23919e+07	      76.5	     12.75	   1.08992	1.20219e+07	      76.5	   12.9176	   1.27229	1.25176e+07	      76.5	    13.092	   1.07127	1.28612e+07	
         R10	   3659	      76.5	   13.0851	   1.26205	1.32054e+07	      76.5	     12.75	   1.28252	1.20747e+07	      76.5	     12.75	   1.62537	1.22831e+07	      76.5	    13.064	   1.61015	1.29044e+07	      76.5	   12.9176	   1.27229	  1.264e+07	      76.5	     12.75	   1.45394	1.21665e+07	      76.5	    12.907	   1.61776	 1.2593e+07	      76.5	   13.0746	    1.4361	1.30447e+07	
         R10	   3660	      76.5	    13.064	   1.61015	1.31013e+07	      76.5	     12.75	   1.62537	1.22311e+07	      76.5	     12.75	   1.92591	1.21836e+07	      76.5	   13.0093	   1.92199	1.24086e+07	      76.5	    12.907	   1.61776	1.26651e+07	      76.5	     12.75	   1.77564	 1.2194e+07	      76.5	   12.8797	   1.92395	1.22943e+07	      76.5	   13.0366	   1.76607	1.27436e+07	
         R10	   3661	      76.5	   13.0093	   1.92199	1.25733e+07	      76.5	     12.75	   1.92591	1.22391e+07	      76.5	     12.75	   2.18411	1.19454e+07	      76.5	   12.9804	   2.17144	1.18202e+07	      76.5	   12.8797	   1.92395	1.24038e+07	      76.5	     12.75	   2.05501	1.20715e+07	      76.5	   12.8652	   2.17778	1.18671e+07	      76.5	   12.9948	   2.04671	 1.2192e+07	
         R10	   3662	      76.5	   12.9804	   2.17144	1.18745e+07	      76.5	     12.75	   2.18411	1.26927e+07	      76.5	     12.75	       2.4	1.02941e+07	      76.5	    12.952	       2.4	1.15051e+07	      76.5	   12.8652	   2.17778	1.22698e+07	      76.5	     12.75	   2.29206	1.14615e+07	      76.5	    12.851	       2.4	1.08213e+07	      76.5	   12.9662	   2.28572	1.16739e+07	
         R10	   3663	      76.5	   13.1987	    2.2051	1.29063e+07	      76.5	   12.9804	   2.17144	1.19527e+07	      76.5	    12.952	       2.4	1.25012e+07	      76.5	    13.138	       2.4	1.21983e+07	      76.5	   13.0895	   2.18827	1.24268e+07	      76.5	   12.9662	   2.28572	 1.2212e+07	      76.5	    13.045	       2.4	1.23464e+07	      76.5	   13.1684	   2.30255	1.25446e+07	
         R10	   3664	      76.5	   13.4354	   2.23523	1.41589e+07	      76.5	    13.462	       2.4	1.34928e+07	      76.5	      13.6	       2.4	1.48165e+07	      76.5	      13.6	   2.24677	1.41009e+07	      76.5	   13.4487	   2.31761	1.37884e+07	      76.5	    13.531	       2.4	1.40443e+07	      76.5	      13.6	   2.32339	1.44523e+07	      76.5	   13.5177	     2.241	1.41264e+07	
         R10	   3665	      76.5	   13.4354	   2.23523	1.43455e+07	      76.5	      13.6	   2.24677	1.38816e+07	      76.5	      13.6	   2.08018	1.40955e+07	      76.5	   13.4267	   2.08274	1.39103e+07	      76.5	   13.5177	     2.241	1.41025e+07	      76.5	      13.6	   2.16348	1.39864e+07	      76.5	   13.5134	   2.08146	1.40027e+07	      76.5	    13.431	   2.15898	1.41239e+07	
         R10	   3666	      76.5	   13.4267	   2.08274	1.40059e+07	      76.5	      13.6	   2.08018	1.41725e+07	      76.5	      13.6	   1.90023	1.42379e+07	      76.5	   13.4282	   1.89158	1.39965e+07	      76.5	   13.5134	   2.08146	1.40891e+07	      76.5	      13.6	   1.99021	 1.4204e+07	      76.5	   13.5141	   1.89591	1.41171e+07	      76.5	   13.4275	   1.98716	1.39998e+07	
         R10	   3667	      76.5	   13.4282	   1.89158	 1.4124e+07	      76.5	      13.6	   1.90023	1.42819e+07	      76.5	      13.6	   1.70691	1.44197e+07	      76.5	   13.3988	   1.70786	 1.4002e+07	      76.5	   13.5141	   1.89591	 1.4203e+07	      76.5	      13.6	   1.80357	 1.4349e+07	      76.5	   13.4994	   1.70739	1.42107e+07	      76.5	   13.4135	   1.79972	1.40618e+07	
         R10	   3668	      76.5	   13.3988	   1.70786	1.41252e+07	      76.5	      13.6	   1.70691	1.44199e+07	      76.5	      13.6	   1.50023	1.45088e+07	      76.5	    13.369	   1.50062	1.39832e+07	      76.5	   13.4994	   1.70739	1.42724e+07	      76.5	      13.6	   1.60357	1.44625e+07	      76.5	   13.4845	   1.50043	1.42456e+07	      76.5	   13.3839	   1.60424	1.40513e+07	
         R10	   3669	      76.5	    13.369	   1.50062	1.42284e+07	      76.5	      13.6	   1.50023	1.45238e+07	      76.5	      13.6	   1.28018	1.44951e+07	      76.5	     13.37	     1.301	  1.391e+07	      76.5	   13.4845	   1.50043	 1.4376e+07	      76.5	      13.6	   1.39021	1.45073e+07	      76.5	    13.485	   1.29059	1.42025e+07	      76.5	   13.3695	   1.40081	1.40671e+07	
         R10	   3670	      76.5	     13.37	     1.301	1.41654e+07	      76.5	      13.6	   1.28018	1.44902e+07	      76.5	      13.6	   1.04677	1.43394e+07	      76.5	   13.3711	   1.04676	1.36618e+07	      76.5	    13.485	   1.29059	1.43278e+07	      76.5	      13.6	   1.16348	1.44114e+07	      76.5	   13.4856	   1.04677	1.40006e+07	      76.5	   13.3706	   1.17388	1.39107e+07	
         R10	   3671	      76.5	   13.3711	   1.04676	1.39139e+07	      76.5	      13.6	   1.04677	1.43025e+07	      76.5	      13.6	       0.8	1.37645e+07	      76.5	   13.3646	  0.822447	1.31735e+07	      76.5	   13.4856	   1.04677	1.41081e+07	      76.5	      13.6	  0.923387	1.40307e+07	      76.5	   13.4823	  0.811224	1.34637e+07	      76.5	   13.3679	  0.934604	1.35368e+07	
         R10	   3672	      76.5	      13.6	  0.316892	1.30049e+07	      76.5	      13.6	         0	1.14206e+07	      76.5	   13.2385	         0	9.46819e+06	      76.5	   13.1725	  0.442726	1.26135e+07	      76.5	      13.6	  0.158446	1.06647e+07	      76.5	   13.4192	         0	7.04077e+06	      76.5	   13.2055	  0.221363	1.05734e+07	      76.5	   13.3862	  0.379809	1.23659e+07	
         R10	   3673	      76.5	   13.2413	   1.96962	1.32208e+07	      76.5	   13.0093	   1.92199	1.27891e+07	      76.5	   12.9804	   2.17144	1.21238e+07	      76.5	   13.1987	    2.2051	1.27788e+07	      76.5	   13.1253	    1.9458	 1.3004e+07	      76.5	   12.9948	   2.04671	1.24479e+07	      76.5	   13.0895	   2.18827	1.24494e+07	      76.5	     13.22	   2.08736	1.29905e+07	
         R10	   3674	      76.5	   13.1987	    2.2051	1.29282e+07	      76.5	    13.308	       2.4	1.30255e+07	      76.5	    13.462	       2.4	1.31702e+07	      76.5	   13.4354	   2.23523	1.36941e+07	      76.5	   13.2534	   2.30255	1.29685e+07	      76.5	    13.385	       2.4	1.30875e+07	      76.5	   13.4487	   2.31761	1.34092e+07	      76.5	    13.317	   2.22016	1.33049e+07	
         R10	   3675	      76.5	   13.2413	   1.96962	 1.3413e+07	      76.5	   13.1987	    2.2051	1.27377e+07	      76.5	   13.4354	   2.23523	 1.3708e+07	      76.5	   13.4267	   2.08274	1.38288e+07	      76.5	     13.22	   2.08736	1.30677e+07	      76.5	    13.317	   2.22016	  1.322e+07	      76.5	    13.431	   2.15898	1.37673e+07	      76.5	    13.334	   2.02618	1.36202e+07	
         R10	   3676	      76.5	   13.3938	   0.61712	1.26216e+07	      76.5	      13.6	  0.583559	1.29443e+07	      76.5	      13.6	  0.316892	    1.3e+07	      76.5	   13.1725	  0.442726	1.07669e+07	      76.5	   13.4969	  0.600339	1.27763e+07	      76.5	      13.6	  0.450225	1.29206e+07	      76.5	   13.3862	  0.379809	1.14617e+07	      76.5	   13.2831	  0.529923	 1.1531e+07	
         R10	   3677	      76.5	   13.3938	   0.61712	1.28927e+07	      76.5	   13.1725	  0.442726	1.16582e+07	      76.5	   13.0989	  0.880493	1.33108e+07	      76.5	   13.3646	  0.822447	1.32549e+07	      76.5	   13.2831	  0.529923	1.22324e+07	      76.5	   13.1357	   0.66161	1.24269e+07	      76.5	   13.2318	   0.85147	 1.3281e+07	      76.5	   13.3792	  0.719784	1.30515e+07	
         R10	   3678	      76.5	   13.3938	   0.61712	1.25776e+07	      76.5	   13.3646	  0.822447	1.32712e+07	      76.5	      13.6	       0.8	1.37844e+07	      76.5	      13.6	  0.583559	1.33447e+07	      76.5	   13.3792	  0.719784	1.29024e+07	      76.5	   13.4823	  0.811224	1.35182e+07	      76.5	      13.6	  0.691779	1.35565e+07	      76.5	   13.4969	  0.600339	1.29593e+07	
         R10	   3679	      76.5	   13.0851	   1.26205	1.28614e+07	      76.5	   13.3711	   1.04676	1.38369e+07	      76.5	   13.3646	  0.822447	1.28747e+07	      76.5	   13.0989	  0.880493	1.35685e+07	      76.5	   13.2281	   1.15441	1.33462e+07	      76.5	   13.3679	  0.934604	1.33507e+07	      76.5	   13.2318	   0.85147	1.32215e+07	      76.5	    13.092	   1.07127	1.31964e+07	
         R10	   3680	      76.5	    13.064	   1.61015	 1.3003e+07	      76.5	    13.369	   1.50062	1.39137e+07	      76.5	     13.37	     1.301	1.37982e+07	      76.5	   13.0851	   1.26205	1.32696e+07	      76.5	   13.2165	   1.55539	1.34565e+07	      76.5	   13.3695	   1.40081	1.38555e+07	      76.5	   13.2276	   1.28153	1.35292e+07	      76.5	   13.0746	    1.4361	1.31201e+07	
         R10	   3681	      76.5	   13.2413	   1.76153	1.33978e+07	      76.5	   13.3988	   1.70786	1.39665e+07	      76.5	    13.369	   1.50062	1.37825e+07	      76.5	    13.064	   1.61015	 1.3123e+07	      76.5	   13.3201	    1.7347	1.36806e+07	      76.5	   13.3839	   1.60424	1.38725e+07	      76.5	   13.2165	   1.55539	1.34519e+07	      76.5	   13.1527	   1.68584	1.32575e+07	
         R10	   3682	      76.5	   13.2413	   1.76153	1.34495e+07	      76.5	    13.064	   1.61015	1.32094e+07	      76.5	   13.0093	   1.92199	1.25718e+07	      76.5	   13.2413	   1.96962	1.31476e+07	      76.5	   13.1527	   1.68584	1.33262e+07	      76.5	   13.0366	   1.76607	  1.288e+07	      76.5	   13.1253	    1.9458	1.28581e+07	      76.5	   13.2413	   1.86557	1.32973e+07	
         R10	   3683	      76.5	   13.2413	   1.76153	  1.364e+07	      76.5	   13.2413	   1.96962	1.34488e+07	      76.5	   13.4282	   1.89158	1.39252e+07	      76.5	   13.3988	   1.70786	1.37667e+07	      76.5	   13.2413	   1.86557	1.35398e+07	      76.5	   13.3348	    1.9306	 1.3685e+07	      76.5	   13.4135	   1.79972	1.38447e+07	      76.5	   13.3201	    1.7347	1.37032e+07	
         R10	   3684	      76.5	   13.1987	    2.2051	1.30987e+07	      76.5	    13.138	       2.4	 1.2564e+07	      76.5	    13.308	       2.4	1.27158e+07	      76.5	   13.1684	   2.30255	1.28173e+07	      76.5	    13.223	       2.4	1.26362e+07	      76.5	   13.2534	   2.30255	1.29037e+07	       N/A	       N/A	       N/A	        N/A	       N/A	       N/A	       N/A	        N/A	
         R10	   3685	      76.5	   13.2413	   1.96962	1.34683e+07	      76.5	   13.4267	   2.08274	1.38123e+07	      76.5	   13.4282	   1.89158	 1.3769e+07	      76.5	    13.334	   2.02618	1.36397e+07	      76.5	   13.4275	   1.98716	1.37883e+07	      76.5	   13.3348	    1.9306	1.36177e+07	       N/A	       N/A	       N/A	        N/A	       N/A	       N/A	       N/A	        N/A	
         R10	   3686	      76.5	     13.37	     1.301	1.40634e+07	      76.5	   13.3711	   1.04676	1.35903e+07	      76.5	   13.0851	   1.26205	1.31981e+07	      76.5	   13.3706	   1.17388	1.38226e+07	      76.5	   13.2281	   1.15441	 1.3394e+07	      76.5	   13.2276	   1.28153	 1.3627e+07	       N/A	       N/A	       N/A	        N/A	       N/A	       N/A	       N/A	        N/A	
         R10	   3687	      76.5	   13.9103	         0	1.47429e+07	      76.5	      13.6	         0	2.52378e+07	      76.5	      13.6	  0.316892	1.33492e+07	      76.5	    13.869	  0.288542	1.78925e+07	      76.5	   13.7551	         0	1.91965e+07	      76.5	      13.6	  0.158446	 1.9058e+07	      76.5	   13.7345	  0.302717	1.51634e+07	      76.5	   13.8896	  0.144271	1.62423e+07	
         R10	   3688	      76.5	    13.869	  0.288542	1.65522e+07	      76.5	      13.6	  0.316892	1.52849e+07	      76.5	      13.6	  0.583559	1.45649e+07	      76.5	   13.8461	  0.560848	1.60724e+07	      76.5	   13.7345	  0.302717	1.56121e+07	      76.5	      13.6	  0.450225	1.48867e+07	      76.5	   13.7231	  0.572203	1.53153e+07	      76.5	   13.8576	  0.424695	1.61708e+07	
         R10	   3689	      76.5	   13.8461	  0.560848	1.53028e+07	      76.5	      13.6	  0.583559	 1.4284e+07	      76.5	      13.6	       0.8	1.47499e+07	      76.5	   13.8427	       0.8	1.52766e+07	      76.5	   13.7231	  0.572203	1.47851e+07	      76.5	      13.6	  0.691779	1.45131e+07	      76.5	   13.7213	       0.8	1.50128e+07	      76.5	   13.8444	  0.680424	1.52892e+07	
         R10	   3690	      76.5	   14.1522	  0.573376	1.49604e+07	      76.5	   13.8461	  0.560848	1.54829e+07	      76.5	   13.8427	       0.8	1.54073e+07	      76.5	   14.0652	       0.8	1.60091e+07	      76.5	   13.9992	  0.567112	1.52202e+07	      76.5	   13.8444	  0.680424	1.54411e+07	      76.5	    13.954	       0.8	1.57065e+07	      76.5	   14.1087	  0.686688	1.54822e+07	
         R10	   3691	      76.5	   14.1522	  0.573376	1.53284e+07	      76.5	   14.2677	       0.8	1.66366e+07	      76.5	     14.45	       0.8	1.70896e+07	      76.5	     14.45	  0.595698	1.64544e+07	      76.5	   14.2099	  0.686688	1.59779e+07	      76.5	   14.3588	       0.8	1.68626e+07	      76.5	     14.45	  0.697849	1.67678e+07	      76.5	   14.3011	  0.584537	1.58903e+07	
         R10	   3692	      76.5	   14.1673	  0.304207	1.36603e+07	      76.5	   14.1522	  0.573376	1.47034e+07	      76.5	     14.45	  0.595698	1.65972e+07	      76.5	     14.45	  0.329031	1.49727e+07	      76.5	   14.1597	  0.438792	1.40585e+07	      76.5	   14.3011	  0.584537	1.56485e+07	      76.5	     14.45	  0.462364	1.56626e+07	      76.5	   14.3086	  0.316619	1.39488e+07	
         R10	   3693	      76.5	   14.1673	  0.304207	1.19369e+07	      76.5	     14.45	  0.329031	1.79651e+07	      76.5	     14.45	         0	1.28727e+07	      76.5	   14.1936	         0	7.91105e+06	      76.5	   14.3086	  0.316619	1.45561e+07	      76.5	     14.45	  0.164515	1.37343e+07	      76.5	   14.3218	         0	  6.921e+06	      76.5	   14.1804	  0.152104	9.34885e+06	
         R10	   3694	      76.5	   14.1673	  0.304207	9.59693e+06	      76.5	   14.1936	         0	1.79993e+07	      76.5	   13.9103	         0	8.47426e+06	      76.5	    13.869	  0.288542	1.81883e+07	      76.5	   14.1804	  0.152104	1.35947e+07	      76.5	   14.0519	         0	1.31189e+07	      76.5	   13.8896	  0.144271	1.32013e+07	      76.5	   14.0181	  0.296375	1.38619e+07	
         R10	   3695	      76.5	   14.1522	  0.573376	1.47911e+07	      76.5	   14.1673	  0.304207	1.26027e+07	      76.5	    13.869	  0.288542	1.52943e+07	      76.5	   13.8461	  0.560848	1.59083e+07	      76.5	   14.1597	  0.438792	1.36934e+07	      76.5	   14.0181	  0.296375	1.39392e+07	      76.5	   13.8576	  0.424695	1.55793e+07	      76.5	   13.9992	  0.567112	1.53481e+07	
         R10	   3696	      76.5	   14.1522	  0.573376	1.53596e+07	      76.5	   14.0652	       0.8	1.62118e+07	      76.5	   14.2677	       0.8	1.63182e+07	      76.5	   14.1087	  0.686688	1.57835e+07	      76.5	   14.1665	       0.8	 1.6265e+07	      76.5	   14.2099	  0.686688	 1.5836e+07	       N/A	       N/A	       N/A	        N/A	       N/A	       N/A	       N/A	        N/A	
         R10	   3697	   79.1058	      16.9	         0	  1.567e+07	    78.625	      16.9	         0	1.69261e+07	    78.625	    17.281	         0	1.49682e+07	   79.0656	   17.2928	         0	1.33577e+07	   78.8654	      16.9	         0	1.62782e+07	    78.625	   17.0905	         0	1.09383e+07	   78.8453	   17.2869	         0	1.41454e+07	   79.0857	   17.0964	         0	1.04084e+07	
         R10	   3698	   79.0656	   17.2928	         0	1.55747e+07	    78.625	    17.281	         0	1.63664e+07	    78.625	      17.7	         0	1.62814e+07	   79.1058	      17.7	         0	1.64308e+07	   78.8453	   17.2869	         0	1.59661e+07	    78.625	   17.4905	         0	1.09392e+07	   78.8654	      17.7	         0	1.63365e+07	   79.0857	   17.4964	         0	1.04801e+07	
         R10	   3699	   79.5585	   17.3058	         0	1.14914e+07	   79.0656	   17.2928	         0	1.45401e+07	   79.1058	      17.7	         0	1.65415e+07	   79.6202	      17.7	         0	1.17301e+07	   79.3121	   17.2993	         0	1.20681e+07	   79.0857	   17.4964	         0	9.60777e+06	    79.363	      17.7	         0	1.37789e+07	   79.5893	   17.5029	         0	1.09263e+07	
         R10	   3700	   80.1683	      17.7	         0	9.81803e+06	     80.75	      17.7	         0	6.51872e+06	     80.75	      16.9	         0	6.62754e+06	   80.1683	      16.9	         0	 9.7638e+06	   80.4591	      17.7	         0	7.85513e+06	     80.75	      17.3	         0	6.55708e+06	   80.4591	      16.9	         0	8.06591e+06	   80.1683	      17.3	         0	9.07884e+06	
         R10	   3701	   79.6202	      16.9	         0	 1.1764e+07	   79.1058	      16.9	         0	1.57752e+07	   79.0656	   17.2928	         0	1.22118e+07	   79.5585	   17.3058	         0	1.19394e+07	    79.363	      16.9	         0	1.35205e+07	   79.0857	   17.0964	         0	9.61775e+06	   79.3121	   17.2993	         0	1.16737e+07	   79.5893	   17.1029	         0	1.09086e+07	
         R10	   3702	   80.1683	      16.9	         0	9.24707e+06	   79.5585	   17.3058	         0	9.50087e+06	   79.6202	      17.7	         0	1.18358e+07	   80.1683	      17.7	         0	9.68713e+06	   79.8634	   17.1029	         0	 9.1849e+06	   79.5893	   17.5029	         0	1.00037e+07	   79.8942	      17.7	         0	1.06664e+07	   80.1683	      17.3	         0	8.65739e+06	
         R10	   3703	   80.1683	      16.9	         0	9.14706e+06	   79.6202	      16.9	         0	 1.1766e+07	   79.5585	   17.3058	         0	1.10212e+07	   79.8942	      16.9	         0	1.03501e+07	   79.5893	   17.1029	         0	1.04094e+07	   79.8634	   17.1029	         0	9.68994e+06	       N/A	       N/A	       N/A	        N/A	       N/A	       N/A	       N/A	        N/A	
         R10	   3704	   79.1058	      17.7	         0	1.16243e+07	    78.625	      17.7	         0	1.51174e+07	    78.625	   18.0999	         0	1.43527e+07	   79.0744	   18.1108	         0	1.35559e+07	   78.8654	      17.7	         0	 1.3059e+07	    78.625	      17.9	         0	1.00806e+07	   78.8497	   18.1054	         0	1.36279e+07	   79.0901	   17.9054	         0	1.16597e+07	
         R10	   3705	   79.0744	   18.1108	         0	 1.2572e+07	    78.625	   18.0999	         0	1.61218e+07	    78.625	      18.5	         0	1.67452e+07	   79.1563	      18.5	         0	1.19466e+07	   78.8497	   18.1054	         0	1.35512e+07	    78.625	      18.3	         0	1.00576e+07	   78.8906	      18.5	         0	1.38653e+07	   79.1153	   18.3054	         0	 1.1578e+07	
         R10	   3706	   80.2188	      18.5	         0	1.21207e+07	     80.75	      18.5	         0	4.37624e+06	     80.75	    18.138	         0	1.22473e+07	   80.2832	   18.1085	         0	6.23763e+06	   80.4844	      18.5	         0	 8.0137e+06	     80.75	    18.319	         0	 8.3022e+06	   80.5166	   18.1232	         0	7.83356e+06	    80.251	   18.3043	         0	6.29611e+06	
         R10	   3707	   80.2832	   18.1085	         0	4.05123e+06	     80.75	    18.138	         0	1.22235e+07	     80.75	      17.7	         0	 5.8105e+06	   80.1683	      17.7	         0	9.99756e+06	   80.5166	   18.1232	         0	7.54461e+06	     80.75	    17.919	         0	8.99038e+06	   80.4591	      17.7	         0	7.82224e+06	   80.2257	   17.9043	         0	 5.8175e+06	
         R10	   3708	   79.6202	      17.7	         0	1.13663e+07	   79.0744	   18.1108	         0	1.07757e+07	   79.1563	      18.5	         0	1.19856e+07	   79.6875	      18.5	         0	1.05778e+07	   79.3473	   17.9054	         0	1.09036e+07	   79.1153	   18.3054	         0	1.07728e+07	   79.4219	      18.5	         0	1.12071e+07	   79.6538	      18.1	         0	1.05447e+07	
         R10	   3709	   79.6875	      18.5	         0	8.80446e+06	   80.2832	   18.1085	         0	1.14107e+07	   80.1683	      17.7	         0	8.40706e+06	   79.6202	      17.7	         0	1.01346e+07	   79.9853	   18.3043	         0	1.00891e+07	   80.2257	   17.9043	         0	9.02258e+06	   79.8942	      17.7	         0	9.09014e+06	   79.6538	      18.1	         0	9.14623e+06	
         R10	   3710	   79.6202	      17.7	         0	1.03046e+07	   79.1058	      17.7	         0	 1.1549e+07	   79.0744	   18.1108	         0	1.16317e+07	    79.363	      17.7	         0	1.07484e+07	   79.0901	   17.9054	         0	1.04089e+07	   79.3473	   17.9054	         0	1.05163e+07	       N/A	       N/A	       N/A	        N/A	       N/A	       N/A	       N/A	        N/A	
         R10	   3711	   79.6875	      18.5	         0	1.09225e+07	   80.2188	      18.5	         0	1.08526e+07	   80.2832	   18.1085	         0	8.89791e+06	   79.9531	      18.5	         0	1.06925e+07	    80.251	   18.3043	         0	7.15577e+06	   79.9853	   18.3043	         0	8.32652e+06	       N/A	       N/A	       N/A	        N/A	       N/A	       N/A	       N/A	        N/A	
         R10	   3712	   79.1563	      18.5	         0	1.53159e+07	    78.625	      18.5	         0	1.72409e+07	    78.625	    18.919	         0	1.93871e+07	   79.0748	   18.8873	         0	1.44485e+07	   78.8906	      18.5	         0	1.62421e+07	    78.625	   18.7095	         0	 1.1097e+07	   78.8499	   18.9032	         0	1.68863e+07	   79.1155	   18.6936	         0	1.01749e+07	
         R10	   3713	   79.0748	   18.8873	         0	1.69333e+07	    78.625	    18.919	         0	1.66024e+07	    78.625	      19.3	         0	1.19377e+07	     79.05	      19.3	         0	1.18315e+07	   78.8499	   18.9032	         0	1.67204e+07	    78.625	   19.1095	         0	1.13901e+07	   78.8375	      19.3	         0	1.18659e+07	   79.0624	   19.0936	         0	 1.0927e+07	
         R10	   3714	   79.0748	   18.8873	         0	1.68065e+07	     79.05	      19.3	         0	1.18394e+07	    79.475	      19.3	         0	1.14911e+07	   79.4621	   18.9378	         0	1.58676e+07	   79.0624	   19.0936	         0	1.09211e+07	   79.2625	      19.3	         0	1.16348e+07	   79.4686	   19.1189	         0	1.09516e+07	   79.2684	   18.9125	         0	1.62926e+07	
         R10	   3715	   79.4621	   18.9378	         0	1.57582e+07	    79.475	      19.3	         0	1.14889e+07	      79.9	      19.3	         0	1.13277e+07	   79.9116	   18.9377	         0	1.47987e+07	   79.4686	   19.1189	         0	1.09515e+07	   79.6875	      19.3	         0	1.13965e+07	   79.9058	   19.1188	         0	1.02802e+07	   79.6869	   18.9377	         0	1.51449e+07	
         R10	   3716	   79.9116	   18.9377	         0	1.22189e+07	      79.9	      19.3	         0	1.13735e+07	    80.325	      19.3	         0	1.20469e+07	   80.2991	   18.8874	         0	1.42393e+07	   79.9058	   19.1188	         0	 8.4485e+06	   80.1125	      19.3	         0	1.16396e+07	   80.3121	   19.0937	         0	 9.0168e+06	   80.1054	   18.9125	         0	1.30025e+07	
         R10	   3717	   80.2991	   18.8874	         0	 1.1305e+07	    80.325	      19.3	         0	1.36758e+07	     80.75	      19.3	         0	7.22841e+06	     80.75	    18.919	         0	1.85792e+07	   80.3121	   19.0937	         0	5.57255e+06	   80.5375	      19.3	         0	1.00775e+07	     80.75	   19.1095	         0	1.26027e+07	   80.5246	   18.9032	         0	9.19469e+06	
         R10	   3718	   80.2991	   18.8874	         0	1.02788e+07	     80.75	    18.919	         0	1.88763e+07	     80.75	      18.5	         0	4.58415e+06	   80.2188	      18.5	         0	1.49004e+07	   80.5246	   18.9032	         0	8.53804e+06	     80.75	   18.7095	         0	1.16479e+07	   80.4844	      18.5	         0	9.36825e+06	   80.2589	   18.6937	         0	3.45573e+06	
         R10	   3719	   79.9116	   18.9377	         0	8.84345e+06	   80.2991	   18.8874	         0	1.32433e+07	   80.2188	      18.5	         0	1.22763e+07	   79.6875	      18.5	         0	1.06872e+07	   80.1054	   18.9125	         0	1.10318e+07	   80.2589	   18.6937	         0	8.92963e+06	   79.9531	      18.5	         0	1.11249e+07	   79.7996	   18.7188	         0	8.26856e+06	
         R10	   3720	   79.6875	      18.5	         0	1.11532e+07	   79.1563	      18.5	         0	1.55474e+07	   79.0748	   18.8873	         0	1.41353e+07	   79.4621	   18.9378	         0	1.19311e+07	   79.4219	      18.5	         0	1.31787e+07	   79.1155	   18.6936	         0	1.04611e+07	   79.2684	   18.9125	         0	1.28716e+07	   79.5748	   18.7189	         0	1.01819e+07	
         R10	   3721	   79.9116	   18.9377	         0	1.12421e+07	   79.6875	      18.5	         0	1.25646e+07	   79.4621	   18.9378	         0	1.11709e+07	   79.7996	   18.7188	         0	1.11568e+07	   79.5748	   18.7189	         0	1.06771e+07	   79.6869	   18.9377	         0	 1.1067e+07	       N/A	       N/A	       N/A	        N/A	       N/A	       N/A	       N/A	        N/A	
         R10	   3722	   79.3034	     11.05	         0	1.10105e+07	    78.625	     11.05	         0	1.16989e+07	    78.625	      11.9	         0	1.08106e+07	   79.2698	      11.9	         0	1.06152e+07	   78.9642	     11.05	         0	1.13536e+07	    78.625	    11.475	         0	1.12028e+07	   78.9474	      11.9	         0	1.06508e+07	   79.2866	    11.475	         0	1.06842e+07	
         R10	   3723	   80.0118	     11.05	         0	 9.2631e+06	   79.3034	     11.05	         0	1.06679e+07	   79.2698	      11.9	         0	 1.0544e+07	   79.9782	      11.9	         0	1.09328e+07	   79.6576	     11.05	         0	9.89171e+06	   79.2866	    11.475	         0	1.04567e+07	    79.624	      11.9	         0	1.05055e+07	    79.995	    11.475	         0	9.05525e+06	
         R10	   3724	     80.75	     11.05	         0	7.56557e+06	   80.0118	     11.05	         0	9.84332e+06	   79.9782	      11.9	         0	1.14722e+07	     80.75	      11.9	         0	8.14765e+06	   80.3809	     11.05	         0	8.26368e+06	    79.995	    11.475	         0	9.70172e+06	   80.3641	      11.9	         0	9.68389e+06	     80.75	    11.475	         0	7.84356e+06	
         R10	   3725	   79.2698	      11.9	         0	1.06472e+07	    78.625	      11.9	         0	1.13545e+07	    78.625	     12.75	         0	1.06612e+07	   79.2327	     12.75	         0	1.07355e+07	   78.9474	      11.9	         0	1.09999e+07	    78.625	    12.325	         0	 1.0912e+07	   78.9289	     12.75	         0	1.06204e+07	   79.2513	    12.325	         0	1.05447e+07	
         R10	   3726	   79.9782	      11.9	         0	9.08234e+06	   79.2698	      11.9	         0	1.05016e+07	   79.2327	     12.75	         0	1.05094e+07	   79.9411	     12.75	         0	1.15109e+07	    79.624	      11.9	         0	9.72137e+06	   79.2513	    12.325	         0	1.03617e+07	   79.5869	     12.75	         0	1.07583e+07	   79.9596	    12.325	         0	9.20905e+06	
         R10	   3727	     80.75	      11.9	         0	7.69301e+06	   79.9782	      11.9	         0	 9.7616e+06	   79.9411	     12.75	         0	1.17688e+07	     80.75	     12.75	         0	8.26246e+06	   80.3641	      11.9	         0	8.13209e+06	   79.9596	    12.325	         0	9.75249e+06	   80.3455	     12.75	         0	9.92683e+06	     80.75	    12.325	         0	7.97061e+06	
         R10	   3728	   79.2327	     12.75	         0	1.17175e+07	    78.625	     12.75	         0	1.95738e+07	    78.625	   13.1952	         0	1.51324e+07	   79.0097	   13.2119	         0	7.91888e+06	   78.9289	     12.75	         0	1.50706e+07	    78.625	   12.9726	         0	1.08144e+07	   78.8173	   13.2036	         0	1.06679e+07	   79.1212	    12.981	         0	9.56975e+06	
         R10	   3729	   79.0097	   13.2119	         0	 9.5049e+06	    78.625	   13.1952	         0	1.35632e+07	    78.625	      13.6	         0	1.94384e+07	   79.0808	      13.6	         0	1.37655e+07	   78.8173	   13.2036	         0	1.10865e+07	    78.625	   13.3976	         0	1.12186e+07	   78.8529	      13.6	         0	1.62684e+07	   79.0452	    13.406	         0	1.05454e+07	
         R10	   3730	   79.2327	     12.75	         0	1.29765e+07	   79.0097	   13.2119	         0	1.37353e+07	   79.0808	      13.6	         0	1.27686e+07	   79.5869	      13.6	         0	1.11646e+07	   79.1212	    12.981	         0	 1.2891e+07	   79.0452	    13.406	         0	1.25372e+07	   79.3339	      13.6	         0	1.18485e+07	   79.4098	    13.175	         0	1.14975e+07	
         R10	   3731	   79.9411	     12.75	         0	9.09402e+06	   79.2327	     12.75	         0	1.03312e+07	   79.5869	      13.6	         0	1.06559e+07	   80.1433	      13.6	         0	1.10578e+07	   79.5869	     12.75	         0	9.67204e+06	   79.4098	    13.175	         0	1.02903e+07	   79.8651	      13.6	         0	1.06569e+07	   80.0422	    13.175	         0	8.98092e+06	
         R10	   3732	     80.75	     12.75	         0	7.91686e+06	   79.9411	     12.75	         0	9.43931e+06	   80.1433	      13.6	         0	1.23443e+07	     80.75	      13.6	         0	8.56305e+06	   80.3455	     12.75	         0	7.89373e+06	   80.0422	    13.175	         0	9.76401e+06	   80.4467	      13.6	         0	1.03945e+07	     80.75	    13.175	         0	8.23904e+06	
         R10	   3733	      76.5	   14.7736	         0	1.19255e+07	      76.5	     14.45	         0	2.73092e+07	      76.5	     14.45	  0.329031	1.68367e+07	      76.5	   14.7449	  0.288565	1.99364e+07	      76.5	   14.6118	         0	1.87898e+07	      76.5	     14.45	  0.164515	2.18822e+07	      76.5	   14.5974	  0.308798	1.82592e+07	      76.5	   14.7592	  0.144282	1.57243e+07	
         R10	   3734	      76.5	   14.7449	  0.288565	2.06001e+07	      76.5	     14.45	  0.329031	1.65853e+07	      76.5	     14.45	  0.595698	1.81752e+07	      76.5	   14.6661	    0.5615	 1.8682e+07	      76.5	   14.5974	  0.308798	1.83776e+07	      76.5	     14.45	  0.462364	 1.7298e+07	      76.5	    14.558	  0.578599	1.84199e+07	      76.5	   14.7055	  0.425033	 1.9601e+07	
         R10	   3735	      76.5	   14.6661	    0.5615	1.83847e+07	      76.5	     14.45	  0.595698	1.76857e+07	      76.5	     14.45	       0.8	1.79786e+07	      76.5	   14.6362	       0.8	1.82308e+07	      76.5	    14.558	  0.578599	1.80229e+07	      76.5	     14.45	  0.697849	1.78293e+07	      76.5	   14.5431	       0.8	1.81026e+07	      76.5	   14.6511	   0.68075	1.82984e+07	
         R10	   3736	      76.5	   14.8822	   0.61217	1.85192e+07	      76.5	   14.6661	    0.5615	1.93307e+07	      76.5	   14.6362	       0.8	1.83717e+07	      76.5	   14.8142	       0.8	1.85823e+07	      76.5	   14.7741	  0.586835	 1.8905e+07	      76.5	   14.6511	   0.68075	 1.8848e+07	      76.5	   14.7252	       0.8	1.84743e+07	      76.5	   14.8482	  0.706085	1.85496e+07	
         R10	   3737	      76.5	   15.1139	  0.621311	1.77845e+07	      76.5	   15.1462	       0.8	1.77885e+07	      76.5	      15.3	       0.8	1.67138e+07	      76.5	      15.3	  0.637669	1.71915e+07	      76.5	     15.13	  0.710655	1.77855e+07	      76.5	   15.2231	       0.8	1.72503e+07	      76.5	      15.3	  0.718834	1.69513e+07	      76.5	    15.207	   0.62949	1.74879e+07	
         R10	   3738	      76.5	   15.1139	  0.621311	1.78923e+07	      76.5	      15.3	  0.637669	 1.7007e+07	      76.5	      15.3	  0.450225	1.67356e+07	      76.5	   15.0849	  0.425928	1.77368e+07	      76.5	    15.207	   0.62949	1.74493e+07	      76.5	      15.3	  0.543947	1.68685e+07	      76.5	   15.1925	  0.438077	1.72342e+07	      76.5	   15.0994	   0.52362	1.78137e+07	
         R10	   3739	      76.5	   15.0849	  0.425928	1.78488e+07	      76.5	      15.3	  0.450225	1.72548e+07	      76.5	      15.3	  0.237669	1.59994e+07	      76.5	   15.0432	  0.219832	1.85912e+07	      76.5	   15.1925	  0.438077	1.75492e+07	      76.5	      15.3	  0.343947	1.66229e+07	      76.5	   15.1716	  0.228751	1.72703e+07	      76.5	    15.064	   0.32288	1.82021e+07	
         R10	   3740	      76.5	   15.0432	  0.219832	1.82678e+07	      76.5	      15.3	  0.237669	1.65572e+07	      76.5	      15.3	         0	1.79113e+07	      76.5	   15.0569	         0	1.59309e+07	      76.5	   15.1716	  0.228751	1.74036e+07	      76.5	      15.3	  0.118834	1.69118e+07	      76.5	   15.1784	         0	1.66354e+07	      76.5	     15.05	  0.109916	1.70136e+07	
         R10	   3741	      76.5	   15.0432	  0.219832	1.79558e+07	      76.5	   15.0569	         0	1.56863e+07	      76.5	   14.7736	         0	1.30597e+07	      76.5	   14.7449	  0.288565	1.88809e+07	      76.5	     15.05	  0.109916	1.67047e+07	      76.5	   14.9152	         0	1.42575e+07	      76.5	   14.7592	  0.144282	1.58764e+07	      76.5	    14.894	  0.254198	1.83112e+07	
         R10	   3742	      76.5	   14.8822	   0.61217	1.87188e+07	      76.5	   14.9842	       0.8	1.84039e+07	      76.5	   15.1462	       0.8	1.77033e+07	      76.5	   15.1139	  0.621311	 1.7691e+07	      76.5	   14.9332	  0.706085	1.85604e+07	      76.5	   15.0652	       0.8	1.80535e+07	      76.5	     15.13	  0.710655	 1.7696e+07	      76.5	   14.9981	   0.61674	1.81999e+07	
         R10	   3743	      76.5	   14.8822	   0.61217	1.85449e+07	      76.5	   15.1139	  0.621311	1.78093e+07	      76.5	   15.0849	  0.425928	 1.7832e+07	      76.5	   14.9088	  0.452798	1.85404e+07	      76.5	   14.9981	   0.61674	1.81758e+07	      76.5	   15.0994	   0.52362	1.78189e+07	      76.5	   14.9969	  0.439363	1.81757e+07	      76.5	   14.8955	  0.532484	1.85416e+07	
         R10	   3744	      76.5	   14.7449	  0.288565	1.80554e+07	      76.5	   14.6661	    0.5615	1.94621e+07	      76.5	   14.8822	   0.61217	1.87171e+07	      76.5	   14.9088	  0.452798	 1.8461e+07	      76.5	   14.7055	  0.425033	1.87243e+07	      76.5	   14.7741	  0.586835	 1.9063e+07	      76.5	   14.8955	  0.532484	1.85878e+07	      76.5	   14.8268	  0.370681	1.82567e+07	
         R10	   3745	      76.5	   15.0432	  0.219832	1.75675e+07	      76.5	   14.7449	  0.288565	1.76362e+07	      76.5	   14.9088	  0.452798	1.81162e+07	      76.5	   15.0849	  0.425928	1.80012e+07	      76.5	    14.894	  0.254198	 1.7591e+07	      76.5	   14.8268	  0.370681	1.78695e+07	      76.5	   14.9969	  0.439363	1.80566e+07	      76.5	    15.064	   0.32288	1.77772e+07	
         R10	   3746	      76.5	   14.8822	   0.61217	 1.8678e+07	      76.5	   14.8142	       0.8	1.86416e+07	      76.5	   14.9842	       0.8	1.82944e+07	      76.5	   14.8482	  0.706085	1.86584e+07	      76.5	   14.8992	       0.8	 1.8464e+07	      76.5	   14.9332	  0.706085	1.84855e+07	       N/A	       N/A	       N/A	        N/A	       N/A	       N/A	       N/A	        N/A	
         R10	   3747	   79.0808	      13.6	         0	1.65898e+07	    78.625	      13.6	         0	1.86096e+07	    78.625	   14.0452	         0	1.60593e+07	     79.05	   14.0452	         0	1.33007e+07	   78.8529	      13.6	         0	1.75835e+07	    78.625	   13.8226	         0	1.06522e+07	   78.8375	   14.0452	         0	1.46234e+07	   79.0654	   13.8226	         0	1.01985e+07	
         R10	   3748	     79.05	   14.0452	         0	1.55827e+07	    78.625	   14.0452	         0	 1.6213e+07	    78.625	     14.45	         0	1.76458e+07	   79.0808	     14.45	         0	1.70756e+07	   78.8375	   14.0452	         0	1.58867e+07	    78.625	   14.2476	         0	1.05254e+07	   78.8529	     14.45	         0	1.73153e+07	   79.0654	   14.2476	         0	 1.0293e+07	
         R10	   3749	   79.5123	   14.0436	         0	1.25794e+07	     79.05	   14.0452	         0	1.44282e+07	   79.0808	     14.45	         0	 1.7244e+07	   79.5869	     14.45	         0	1.28096e+07	   79.2811	   14.0444	         0	1.24939e+07	   79.0654	   14.2476	         0	9.30693e+06	   79.3339	     14.45	         0	 1.4527e+07	   79.5496	   14.2468	         0	1.19325e+07	
         R10	   3750	   80.1433	     14.45	         0	1.11855e+07	     80.75	     14.45	         0	1.04539e+07	     80.75	      13.6	         0	7.89236e+06	   80.1433	      13.6	         0	9.20368e+06	   80.4467	     14.45	         0	1.07621e+07	     80.75	    14.025	         0	 9.1698e+06	   80.4467	      13.6	         0	7.93695e+06	   80.1433	    14.025	         0	9.64907e+06	
         R10	   3751	   79.5869	      13.6	         0	1.13192e+07	   79.0808	      13.6	         0	1.69109e+07	     79.05	   14.0452	         0	 1.1732e+07	   79.5123	   14.0436	         0	1.20249e+07	   79.3339	      13.6	         0	1.38991e+07	   79.0654	   13.8226	         0	9.20045e+06	   79.2811	   14.0444	         0	1.10496e+07	   79.5496	   13.8218	         0	1.09493e+07	
         R10	   3752	   80.1433	      13.6	         0	7.73297e+06	   79.5123	   14.0436	         0	9.92003e+06	   79.5869	     14.45	         0	1.23975e+07	   80.1433	     14.45	         0	1.31354e+07	   79.8278	   13.8218	         0	 8.2782e+06	   79.5496	   14.2468	         0	1.04916e+07	   79.8651	     14.45	         0	1.25861e+07	   80.1433	    14.025	         0	9.24702e+06	
         R10	   3753	   80.1433	      13.6	         0	9.03566e+06	   79.5869	      13.6	         0	1.17854e+07	   79.5123	   14.0436	         0	1.06027e+07	   79.8651	      13.6	         0	1.03868e+07	   79.5496	   13.8218	         0	1.04734e+07	   79.8278	   13.8218	         0	9.38747e+06	       N/A	       N/A	       N/A	        N/A	       N/A	       N/A	       N/A	        N/A	
         R10	   3754	   79.0808	     14.45	         0	1.42294e+07	    78.625	     14.45	         0	   1.33e+07	    78.625	    14.955	         0	1.45803e+07	   79.0769	    14.872	         0	1.42357e+07	   78.8529	     14.45	         0	 1.3741e+07	    78.625	   14.7025	         0	1.07463e+07	    78.851	   14.9135	         0	1.41119e+07	   79.0789	    14.661	         0	9.54169e+06	
         R10	   3755	   79.0769	    14.872	         0	 7.6445e+06	    78.625	    14.955	         0	 1.0724e+07	    78.625	      15.3	         0	  1.346e+07	   78.9125	      15.3	         0	1.65914e+07	    78.851	   14.9135	         0	9.01593e+06	    78.625	   15.1275	         0	1.09746e+07	   78.7687	      15.3	         0	1.49097e+07	   78.9947	    15.086	         0	1.06166e+07	
         R10	   3756	   79.0769	    14.872	         0	9.08591e+06	   79.2266	      15.3	         0	1.52455e+07	   79.5674	      15.3	         0	1.67381e+07	   79.4829	   14.9087	         0	1.32443e+07	   79.1518	    15.086	         0	1.03739e+07	    79.397	      15.3	         0	1.59434e+07	   79.5252	   15.1044	         0	1.02822e+07	   79.2799	   14.8904	         0	1.08041e+07	
         R10	   3757	   79.4829	   14.9087	         0	1.32382e+07	   79.5674	      15.3	         0	1.51342e+07	   79.9349	      15.3	         0	2.02687e+07	   79.9129	   14.9069	         0	1.42219e+07	   79.5252	   15.1044	         0	9.53989e+06	   79.7512	      15.3	         0	1.76166e+07	   79.9239	   15.1034	         0	 1.0421e+07	   79.6979	   14.9078	         0	1.33256e+07	
         R10	   3758	   79.9129	   14.9069	         0	1.68629e+07	   79.9349	      15.3	         0	1.59798e+07	   80.3291	      15.3	         0	1.76598e+07	   80.2919	   14.8536	         0	 1.0101e+07	   79.9239	   15.1034	         0	8.96959e+06	    80.132	      15.3	         0	1.57497e+07	   80.3105	   15.0768	         0	1.05767e+07	   80.1024	   14.8803	         0	1.31874e+07	
         R10	   3759	   80.2919	   14.8536	         0	1.14852e+07	   80.3291	      15.3	         0	1.01936e+07	     80.75	      15.3	         0	2.00979e+07	     80.75	   14.9353	         0	1.88466e+07	   80.3105	   15.0768	         0	6.85887e+06	   80.5396	      15.3	         0	1.34353e+07	     80.75	   15.1177	         0	1.94603e+07	   80.5209	   14.8945	         0	1.30139e+07	
         R10	   3760	   80.2919	   14.8536	         0	9.36442e+06	     80.75	   14.9353	         0	1.85113e+07	     80.75	     14.45	         0	8.89938e+06	   80.1433	     14.45	         0	1.53539e+07	   80.5209	   14.8945	         0	1.20716e+07	     80.75	   14.6927	         0	1.29146e+07	   80.4467	     14.45	         0	9.23278e+06	   80.2176	   14.6518	         0	7.03123e+06	
         R10	   3761	   79.9129	   14.9069	         0	1.19615e+07	   80.2919	   14.8536	         0	1.25095e+07	   80.1433	     14.45	         0	1.18524e+07	   79.5869	     14.45	         0	1.07198e+07	   80.1024	   14.8803	         0	1.07899e+07	   80.2176	   14.6518	         0	7.66939e+06	   79.8651	     14.45	         0	1.10579e+07	   79.7499	   14.6784	         0	1.09931e+07	
         R10	   3762	   79.5869	     14.45	         0	1.08815e+07	   79.0808	     14.45	         0	1.44227e+07	   79.0769	    14.872	         0	1.43203e+07	   79.4829	   14.9087	         0	1.11852e+07	   79.3339	     14.45	         0	1.24554e+07	   79.0789	    14.661	         0	9.80525e+06	   79.2799	   14.8904	         0	1.20213e+07	   79.5349	   14.6794	         0	9.91638e+06	
         R10	   3763	   79.0769	    14.872	         0	1.47438e+07	   78.9125	      15.3	         0	1.24893e+07	   79.2266	      15.3	         0	1.49646e+07	   78.9947	    15.086	         0	1.10429e+07	   79.0695	      15.3	         0	1.35895e+07	   79.1518	    15.086	         0	1.29563e+07	       N/A	       N/A	       N/A	        N/A	       N/A	       N/A	       N/A	        N/A	
         R10	   3764	   79.9129	   14.9069	         0	9.59865e+06	   79.5869	     14.45	         0	 1.2333e+07	   79.4829	   14.9087	         0	1.19973e+07	   79.7499	   14.6784	         0	9.65084e+06	   79.5349	   14.6794	         0	 1.1284e+07	   79.6979	   14.9078	         0	1.06702e+07	       N/A	       N/A	       N/A	        N/A	       N/A	       N/A	       N/A	        N/A	
         R10	   3765	   78.9125	      15.3	         0	1.68263e+07	    78.625	      15.3	         0	1.73894e+07	    78.625	    15.662	         0	 1.0337e+07	   79.0479	   15.6893	         0	9.86083e+06	   78.7687	      15.3	         0	1.69295e+07	    78.625	    15.481	         0	1.04659e+07	   78.8365	   15.6757	         0	9.98544e+06	   78.9802	   15.4947	         0	1.18693e+07	
         R10	   3766	   79.0479	   15.6893	         0	 1.6034e+07	    78.625	    15.662	         0	1.44052e+07	    78.625	      16.1	         0	1.29618e+07	   78.9896	      16.1	         0	1.36338e+07	   78.8365	   15.6757	         0	1.51539e+07	    78.625	    15.881	         0	 1.0191e+07	   78.8073	      16.1	         0	 1.3268e+07	   79.0188	   15.8947	         0	1.04234e+07	
         R10	   3767	   79.4741	   15.7067	         0	1.42225e+07	   79.0479	   15.6893	         0	1.56946e+07	   78.9896	      16.1	         0	1.38484e+07	   79.3845	      16.1	         0	1.40006e+07	    79.261	    15.698	         0	 1.4915e+07	   79.0188	   15.8947	         0	1.03916e+07	   79.1871	      16.1	         0	1.39107e+07	   79.4293	   15.9034	         0	9.97153e+06	
         R10	   3768	   79.4741	   15.7067	         0	1.34909e+07	   79.3845	      16.1	         0	1.42232e+07	   79.8095	      16.1	         0	1.49131e+07	   79.8829	   15.7071	         0	1.39503e+07	   79.4293	   15.9034	         0	1.00882e+07	    79.597	      16.1	         0	1.45277e+07	   79.8462	   15.9036	         0	8.90452e+06	   79.6785	   15.7069	         0	 1.3659e+07	
         R10	   3769	   79.8829	   15.7071	         0	1.49314e+07	   79.8095	      16.1	         0	1.57262e+07	   80.2646	      16.1	         0	1.40563e+07	   80.3121	   15.7072	         0	1.27744e+07	   79.8462	   15.9036	         0	1.03962e+07	   80.0371	      16.1	         0	1.48591e+07	   80.2884	   15.9036	         0	8.93423e+06	   80.0975	   15.7071	         0	1.38481e+07	
         R10	   3770	   80.3121	   15.7072	         0	1.00758e+07	   80.2646	      16.1	         0	1.67644e+07	     80.75	      16.1	         0	7.27177e+06	     80.75	    15.681	         0	2.07184e+07	   80.2884	   15.9036	         0	8.07575e+06	   80.5073	      16.1	         0	1.10647e+07	     80.75	   15.8905	         0	1.39553e+07	   80.5311	   15.6941	         0	1.27919e+07	
         R10	   3771	   80.3121	   15.7072	         0	1.30406e+07	     80.75	    15.681	         0	1.97846e+07	     80.75	      15.3	         0	1.92903e+07	   80.3291	      15.3	         0	 1.1592e+07	   80.5311	   15.6941	         0	1.30959e+07	     80.75	   15.4905	         0	1.95355e+07	   80.5396	      15.3	         0	1.25233e+07	   80.3206	   15.5036	         0	3.28083e+06	
         R10	   3772	   79.8829	   15.7071	         0	1.54502e+07	   80.3121	   15.7072	         0	1.48237e+07	   80.3291	      15.3	         0	1.90716e+07	   79.9349	      15.3	         0	1.30627e+07	   80.0975	   15.7071	         0	1.50961e+07	   80.3206	   15.5036	         0	1.17683e+07	    80.132	      15.3	         0	1.56111e+07	   79.9089	   15.5036	         0	7.92873e+06	
         R10	   3773	   79.4741	   15.7067	         0	1.36999e+07	   79.8829	   15.7071	         0	1.37519e+07	   79.9349	      15.3	         0	1.78582e+07	   79.5674	      15.3	         0	1.56388e+07	   79.6785	   15.7069	         0	1.36729e+07	   79.9089	   15.5036	         0	1.02283e+07	   79.7512	      15.3	         0	1.65212e+07	   79.5208	   15.5034	         0	8.62359e+06	
         R10	   3774	   79.0479	   15.6893	         0	9.77714e+06	   79.4741	   15.7067	         0	1.37789e+07	   79.5674	      15.3	         0	1.74703e+07	   79.2266	      15.3	         0	1.54238e+07	    79.261	    15.698	         0	 1.1044e+07	   79.5208	   15.5034	         0	 9.7125e+06	    79.397	      15.3	         0	 1.6407e+07	   79.1373	   15.4947	         0	1.11874e+07	
         R10	   3775	   78.9125	      15.3	         0	1.31473e+07	   79.0479	   15.6893	         0	1.42269e+07	   79.2266	      15.3	         0	1.54208e+07	   78.9802	   15.4947	         0	1.12647e+07	   79.1373	   15.4947	         0	1.32531e+07	   79.0695	      15.3	         0	1.39953e+07	       N/A	       N/A	       N/A	        N/A	       N/A	       N/A	       N/A	        N/A	
         R10	   3776	   78.9896	      16.1	         0	1.41137e+07	    78.625	      16.1	         0	1.43038e+07	    78.625	    16.462	         0	1.44665e+07	   79.0346	   16.5155	         0	1.45393e+07	   78.8073	      16.1	         0	1.42007e+07	    78.625	    16.281	         0	1.11967e+07	   78.8298	   16.4887	         0	1.42459e+07	   79.0121	   16.3077	         0	9.27157e+06	
         R10	   3777	   79.0346	   16.5155	         0	 1.1432e+07	    78.625	    16.462	         0	1.79274e+07	    78.625	      16.9	         0	 1.5267e+07	   79.1058	      16.9	         0	1.36272e+07	   78.8298	   16.4887	         0	1.46728e+07	    78.625	    16.681	         0	1.13923e+07	   78.8654	      16.9	         0	1.43703e+07	   79.0702	   16.7077	         0	9.32015e+06	
         R10	   3778	   80.1683	      16.9	         0	1.09486e+07	     80.75	      16.9	         0	5.69516e+06	     80.75	    16.481	         0	1.66198e+07	   80.3745	   16.4631	         0	5.44713e+06	   80.4591	      16.9	         0	7.87507e+06	     80.75	   16.6905	         0	1.10555e+07	   80.5622	    16.472	         0	8.56515e+06	   80.2714	   16.6815	         0	4.89084e+06	
         R10	   3779	   80.3745	   16.4631	         0	 5.1269e+06	     80.75	    16.481	         0	1.68742e+07	     80.75	      16.1	         0	7.13442e+06	   80.2646	      16.1	         0	1.05777e+07	   80.5622	    16.472	         0	9.00922e+06	     80.75	   16.2905	         0	1.19164e+07	   80.5073	      16.1	         0	 8.5247e+06	   80.3195	   16.2815	         0	5.14254e+06	
         R10	   3780	   79.3661	   16.4659	         0	9.44694e+06	   79.3845	      16.1	         0	 1.1447e+07	   78.9896	      16.1	         0	1.44396e+07	   79.0346	   16.5155	         0	1.59091e+07	   79.3753	   16.2829	         0	9.17111e+06	   79.1871	      16.1	         0	1.27102e+07	   79.0121	   16.3077	         0	1.06041e+07	   79.2004	   16.4907	         0	1.25593e+07	
         R10	   3781	   79.3661	   16.4659	         0	8.76564e+06	   79.0346	   16.5155	         0	1.36866e+07	   79.1058	      16.9	         0	1.36233e+07	   79.6202	      16.9	         0	1.12295e+07	   79.2004	   16.4907	         0	1.10715e+07	   79.0702	   16.7077	         0	1.09304e+07	    79.363	      16.9	         0	1.18885e+07	   79.4931	   16.6829	         0	9.81039e+06	
         R10	   3782	   79.8095	      16.1	         0	1.03292e+07	   79.3845	      16.1	         0	1.10665e+07	   79.3661	   16.4659	         0	1.27856e+07	   79.6202	      16.9	         0	 1.2033e+07	    79.597	      16.1	         0	1.04979e+07	   79.3753	   16.2829	         0	1.11641e+07	   79.4931	   16.6829	         0	1.20474e+07	   79.7148	      16.5	         0	1.06615e+07	
         R10	   3783	   80.1683	      16.9	         0	6.20445e+06	   80.3745	   16.4631	         0	1.61078e+07	   80.2646	      16.1	         0	7.57239e+06	   79.8095	      16.1	         0	 9.7585e+06	   80.2714	   16.6815	         0	1.10302e+07	   80.3195	   16.2815	         0	1.13889e+07	   80.0371	      16.1	         0	8.57724e+06	   79.9889	      16.5	         0	7.70067e+06	
         R10	   3784	   79.6202	      16.9	         0	1.09348e+07	   80.1683	      16.9	         0	9.58479e+06	   79.8095	      16.1	         0	9.91475e+06	   79.8942	      16.9	         0	1.02451e+07	   79.9889	      16.5	         0	9.30191e+06	   79.7148	      16.5	         0	1.00999e+07	       N/A	       N/A	       N/A	        N/A	       N/A	       N/A	       N/A	        N/A	
         R10	   3785	      76.5	   17.6508	         2	1.75219e+07	      76.5	    17.451	         2	2.62583e+07	      76.5	    17.415	   2.19311	1.77723e+07	      76.5	   17.6349	   2.20314	1.87008e+07	      76.5	   17.5509	         2	2.17923e+07	      76.5	    17.433	   2.09655	2.20075e+07	      76.5	   17.5249	   2.19813	1.81867e+07	      76.5	   17.6428	   2.10157	1.80541e+07	
         R10	   3786	      76.5	   17.8674	    2.2369	7.79516e+06	      76.5	   18.1279	    2.0616	1.39972e+07	      76.5	   18.1431	         2	1.17845e+07	      76.5	   17.8815	         2	1.53081e+07	      76.5	    17.989	   2.13635	 1.0326e+07	      76.5	   18.1355	    2.0308	1.27602e+07	      76.5	   18.0123	         2	1.33062e+07	      76.5	   17.8745	   2.11845	1.11566e+07	
         R10	   3787	      76.5	   17.6349	   2.20314	 1.9826e+07	      76.5	   17.8674	    2.2369	9.14919e+06	      76.5	   17.8815	         2	1.56833e+07	      76.5	   17.6508	         2	1.85116e+07	      76.5	   17.7512	   2.22002	1.44328e+07	      76.5	   17.8745	   2.11845	1.23342e+07	      76.5	   17.7662	         2	1.70217e+07	      76.5	   17.6428	   2.10157	1.91347e+07	
         R10	   3788	      76.5	   17.5664	   2.36682	1.93664e+07	      76.5	   17.3778	   2.39265	1.89359e+07	      76.5	   17.3394	   2.59863	 1.9978e+07	      76.5	   17.6945	   2.49892	2.12608e+07	      76.5	   17.4721	   2.37974	 1.9071e+07	      76.5	   17.3586	   2.49564	1.92128e+07	      76.5	    17.517	   2.54878	1.83381e+07	      76.5	   17.6305	   2.43287	1.96968e+07	
         R10	   3789	      76.5	   17.5664	   2.36682	1.64005e+07	      76.5	   17.6945	   2.49892	1.99621e+07	      76.5	   17.8674	    2.2369	8.19894e+06	      76.5	   17.6349	   2.20314	1.87374e+07	      76.5	   17.6305	   2.43287	1.78292e+07	      76.5	    17.768	   2.35935	 1.3979e+07	      76.5	   17.7512	   2.22002	1.33055e+07	      76.5	   17.6007	   2.28498	1.74731e+07	
         R10	   3790	      76.5	   17.5664	   2.36682	1.86989e+07	      76.5	   17.6349	   2.20314	1.89113e+07	      76.5	    17.415	   2.19311	1.99855e+07	      76.5	   17.3778	   2.39265	1.69906e+07	      76.5	   17.6007	   2.28498	 1.8715e+07	      76.5	   17.5249	   2.19813	1.94136e+07	      76.5	   17.3964	   2.29288	1.84469e+07	      76.5	   17.4721	   2.37974	1.77933e+07	
         R10	   3791	      76.5	   17.2999	   2.81105	1.23324e+07	      76.5	   17.6357	   2.80731	3.10331e+07	      76.5	   17.6945	   2.49892	2.17652e+07	      76.5	   17.3394	   2.59863	1.86814e+07	      76.5	   17.4678	   2.80918	2.05753e+07	      76.5	   17.6498	    2.6502	2.59439e+07	      76.5	    17.517	   2.54878	  1.826e+07	      76.5	   17.3196	   2.70484	1.54232e+07	
         R10	   3792	      76.5	   17.6578	   3.15932	2.39681e+07	      76.5	   17.7001	   3.11456	3.44745e+07	      76.5	   17.6357	   2.80731	3.41296e+07	      76.5	   17.4652	   2.97188	2.00615e+07	      76.5	    17.679	   3.13694	2.89494e+07	      76.5	   17.6527	   2.96412	3.32093e+07	      76.5	   17.5504	   2.88959	2.67079e+07	      76.5	   17.5615	    3.0656	 2.1856e+07	
         R10	   3793	      76.5	   17.6578	   3.15932	3.06207e+07	      76.5	   17.8778	   3.37338	3.56328e+07	      76.5	   17.7001	   3.11456	2.93905e+07	      76.5	   17.7678	   3.26635	2.68582e+07	      76.5	   17.7761	   3.25277	2.93953e+07	      76.5	    17.679	   3.13694	 2.9356e+07	       N/A	       N/A	       N/A	        N/A	       N/A	       N/A	       N/A	        N/A	
         R10	   3794	      76.5	   18.4357	         2	1.64462e+07	      76.5	   18.1431	         2	 1.3198e+07	      76.5	   18.1279	    2.0616	1.56523e+07	      76.5	   18.2894	         2	1.40146e+07	      76.5	   18.1355	    2.0308	1.44091e+07	      76.5	   18.2787	   2.01555	1.50371e+07	       N/A	       N/A	       N/A	        N/A	       N/A	       N/A	       N/A	        N/A	
         R10	   3795	      76.5	   17.2999	   2.81105	1.35301e+07	      76.5	   17.4652	   2.97188	1.90066e+07	      76.5	   17.6357	   2.80731	 2.9089e+07	      76.5	   17.3825	   2.89147	1.61112e+07	      76.5	   17.5504	   2.88959	2.39246e+07	      76.5	   17.4678	   2.80918	2.09069e+07	       N/A	       N/A	       N/A	        N/A	       N/A	       N/A	       N/A	        N/A	
         R10	   3796	   79.7576	   20.2712	  0.135735	8.48132e+06	   79.2012	   20.2467	  0.125959	9.21279e+06	   79.1563	   20.7284	  0.396646	9.11341e+06	   79.6875	   20.7284	  0.396646	  8.415e+06	   79.4794	    20.259	  0.130807	8.83788e+06	   79.1787	    20.497	  0.244587	9.10042e+06	   79.4219	   20.7284	  0.396646	8.69889e+06	   79.7226	   20.5084	   0.25108	8.40759e+06	
         R10	   3797	   80.2601	   20.2722	  0.136157	7.74861e+06	   79.7576	   20.2712	  0.135735	9.28635e+06	   79.6875	   20.7284	  0.396646	9.03901e+06	   80.2188	   20.7284	  0.396646	8.27552e+06	   80.0089	   20.2717	  0.135946	8.49437e+06	   79.7226	   20.5084	   0.25108	9.15351e+06	   79.9531	   20.7284	  0.396646	8.58735e+06	   80.2394	   20.5089	  0.251358	7.94419e+06	
         R10	   3798	     80.75	   20.2104	   0.11214	9.31961e+06	   80.2601	   20.2722	  0.136157	8.01304e+06	   80.2188	   20.7284	  0.396646	7.98536e+06	     80.75	   20.7284	  0.396646	1.33746e+07	    80.505	   20.2414	  0.123892	8.58602e+06	   80.2394	   20.5089	  0.251358	7.83937e+06	   80.4844	   20.7284	  0.396646	 1.0108e+07	     80.75	     20.48	  0.235152	1.09527e+07	
         R10	   3799	    80.325	   19.7344	         0	6.39374e+06	   80.2601	   20.2722	  0.136157	8.61338e+06	     80.75	   20.2104	   0.11214	  9.409e+06	     80.75	   19.7344	         0	1.46256e+07	   80.2925	   20.0081	 0.0493405	7.45175e+06	    80.505	   20.2414	  0.123892	8.95445e+06	     80.75	   19.9759	  0.041468	1.19791e+07	   80.5375	   19.7344	         0	1.01987e+07	
         R10	   3800	      79.9	   19.7344	         0	9.93755e+06	   79.7576	   20.2712	  0.135735	9.31843e+06	   80.2601	   20.2722	  0.136157	7.15295e+06	    80.325	   19.7344	         0	8.39413e+06	   79.8288	   20.0075	 0.0492034	9.50624e+06	   80.0089	   20.2717	  0.135946	 8.2223e+06	   80.2925	   20.0081	 0.0493405	7.73082e+06	   80.1125	   19.7344	         0	8.96751e+06	
         R10	   3801	    79.475	   19.7344	         0	9.74251e+06	   79.2012	   20.2467	  0.125959	9.01671e+06	   79.7576	   20.2712	  0.135735	8.62777e+06	      79.9	   19.7344	         0	9.02194e+06	   79.3381	   19.9947	 0.0460147	 9.2646e+06	   79.4794	    20.259	  0.130807	8.82188e+06	   79.8288	   20.0075	 0.0492034	  8.748e+06	   79.6875	   19.7344	         0	9.31129e+06	
         R10	   3802	    78.625	   20.2104	   0.11214	9.01293e+06	   79.2012	   20.2467	  0.125959	9.08524e+06	     79.05	   19.7344	         0	1.01032e+07	    78.625	   19.7344	         0	1.00257e+07	   78.9131	   20.2286	  0.118962	9.04329e+06	   79.1256	   19.9947	 0.0460147	9.47574e+06	   78.8375	   19.7344	         0	1.00438e+07	    78.625	   19.9759	  0.041468	9.45626e+06	
         R10	   3803	    78.625	   20.7284	  0.396646	9.02702e+06	   79.1563	   20.7284	  0.396646	8.70994e+06	   79.2012	   20.2467	  0.125959	9.18203e+06	    78.625	   20.2104	   0.11214	8.91466e+06	   78.8906	   20.7284	  0.396646	8.82617e+06	   79.1787	    20.497	  0.244587	8.87367e+06	   78.9131	   20.2286	  0.118962	9.04518e+06	    78.625	     20.48	  0.235152	8.94506e+06	
         R10	   3804	     79.05	   19.7344	         0	8.92494e+06	   79.2012	   20.2467	  0.125959	8.88198e+06	    79.475	   19.7344	         0	9.98796e+06	   79.1256	   19.9947	 0.0460147	8.89511e+06	   79.3381	   19.9947	 0.0460147	 9.4152e+06	   79.2625	   19.7344	         0	9.42927e+06	       N/A	       N/A	       N/A	        N/A	       N/A	       N/A	       N/A	        N/A	
         R10	   3805	   80.0094	      21.5	         6	3.60771e+06	     80.75	      21.5	         6	 4.0744e+06	     80.75	      21.5	      5.25	4.36777e+06	   80.0323	      21.5	      5.25	6.19606e+06	   80.3797	      21.5	         6	2.96145e+06	     80.75	      21.5	     5.625	4.20633e+06	   80.3911	      21.5	      5.25	4.89779e+06	   80.0209	      21.5	     5.625	2.91856e+06	
         R10	   3806	   79.3011	      21.5	         6	3.64138e+06	   80.0094	      21.5	         6	 3.1146e+06	   80.0323	      21.5	      5.25	5.74524e+06	    79.324	      21.5	      5.25	6.50545e+06	   79.6553	      21.5	         6	3.30943e+06	   80.0209	      21.5	     5.625	2.50674e+06	   79.6781	      21.5	      5.25	6.10736e+06	   79.3125	      21.5	     5.625	2.05079e+06	
         R10	   3807	    78.625	      21.5	         6	2.92254e+06	   79.3011	      21.5	         6	3.79836e+06	    79.324	      21.5	      5.25	6.25717e+06	    78.625	      21.5	      5.25	5.28834e+06	   78.9631	      21.5	         6	3.31449e+06	   79.3125	      21.5	     5.625	1.68206e+06	   78.9745	      21.5	      5.25	5.76958e+06	    78.625	      21.5	     5.625	1.58219e+06	
         R10	   3808	      76.5	   14.6362	       0.8	1.83442e+07	      76.5	     14.45	       0.8	1.81097e+07	      76.5	     14.45	  0.970451	1.81387e+07	      76.5	   14.6305	  0.958123	1.82223e+07	      76.5	   14.5431	       0.8	1.82252e+07	      76.5	     14.45	  0.885226	1.81232e+07	      76.5	   14.5403	  0.964287	1.81791e+07	      76.5	   14.6333	  0.879061	1.82825e+07	
         R10	   3809	      76.5	   14.6305	  0.958123	1.82454e+07	      76.5	     14.45	  0.970451	1.81668e+07	      76.5	     14.45	   1.12606	1.81818e+07	      76.5	   14.6213	   1.10565	1.81962e+07	      76.5	   14.5403	  0.964287	1.82055e+07	      76.5	     14.45	   1.04825	 1.8174e+07	      76.5	   14.5356	   1.11585	1.81886e+07	      76.5	   14.6259	   1.03189	1.82205e+07	
         R10	   3810	      76.5	   14.6213	   1.10565	1.82038e+07	      76.5	     14.45	   1.12606	1.81789e+07	      76.5	     14.45	   1.26681	1.81762e+07	      76.5	    14.596	   1.24398	1.80828e+07	      76.5	   14.5356	   1.11585	1.81908e+07	      76.5	     14.45	   1.19643	1.81774e+07	      76.5	    14.523	   1.25539	1.81293e+07	      76.5	   14.6087	   1.17481	1.81433e+07	
         R10	   3811	      76.5	    14.596	   1.24398	1.80899e+07	      76.5	     14.45	   1.26681	1.81718e+07	      76.5	     14.45	   1.39272	1.81298e+07	      76.5	   14.5731	   1.37461	1.79652e+07	      76.5	    14.523	   1.25539	1.81306e+07	      76.5	     14.45	   1.32977	1.81507e+07	      76.5	   14.5115	   1.38366	1.80474e+07	      76.5	   14.5846	   1.30929	1.80275e+07	
         R10	   3812	      76.5	   14.5731	   1.37461	1.79704e+07	      76.5	     14.45	   1.39272	1.81277e+07	      76.5	     14.45	   1.50378	 1.8071e+07	      76.5	   14.5604	      1.49	1.78497e+07	      76.5	   14.5115	   1.38366	 1.8049e+07	      76.5	     14.45	   1.44825	1.80992e+07	      76.5	   14.5052	   1.49689	1.79603e+07	      76.5	   14.5668	    1.4323	  1.791e+07	
         R10	   3813	      76.5	   14.5604	      1.49	1.78519e+07	      76.5	     14.45	   1.50378	1.80715e+07	      76.5	     14.45	       1.6	1.79845e+07	      76.5	   14.5579	       1.6	1.77375e+07	      76.5	   14.5052	   1.49689	1.79617e+07	      76.5	     14.45	   1.55189	1.80279e+07	      76.5	   14.5039	       1.6	 1.7861e+07	      76.5	   14.5591	     1.545	1.77946e+07	
         R10	   3814	      76.5	   14.6527	   1.50338	1.79886e+07	      76.5	   14.5604	      1.49	1.81566e+07	      76.5	   14.5579	       1.6	1.80399e+07	      76.5	   14.6624	       1.6	1.79044e+07	      76.5	   14.6066	   1.49669	1.80726e+07	      76.5	   14.5591	     1.545	1.80982e+07	      76.5	   14.6101	       1.6	1.79721e+07	      76.5	   14.6575	   1.55169	1.79465e+07	
         R10	   3815	      76.5	   14.6527	   1.50338	1.81755e+07	      76.5	   14.6624	       1.6	 1.8094e+07	      76.5	   14.7635	       1.6	1.80326e+07	      76.5	   14.7639	   1.50448	1.81267e+07	      76.5	   14.6575	   1.55169	1.81348e+07	      76.5	   14.7129	       1.6	1.80633e+07	      76.5	   14.7637	   1.55224	1.80795e+07	      76.5	   14.7083	   1.50393	1.81511e+07	
         R10	   3816	      76.5	   14.7639	   1.50448	1.82136e+07	      76.5	   14.7635	       1.6	1.81368e+07	      76.5	   14.8613	       1.6	1.81054e+07	      76.5	   14.8483	   1.49128	1.82065e+07	      76.5	   14.7637	   1.55224	1.81752e+07	      76.5	   14.8124	       1.6	1.81211e+07	      76.5	   14.8548	   1.54564	1.81559e+07	      76.5	   14.8061	   1.49788	  1.821e+07	
         R10	   3817	      76.5	   14.8483	   1.49128	 1.8219e+07	      76.5	   14.8613	       1.6	1.81827e+07	      76.5	   14.9557	       1.6	1.81265e+07	      76.5	   14.9485	   1.49216	1.82081e+07	      76.5	   14.8548	   1.54564	1.82008e+07	      76.5	   14.9085	       1.6	1.81546e+07	      76.5	   14.9521	   1.54608	1.81673e+07	      76.5	   14.8984	   1.49172	1.82136e+07	
         R10	   3818	      76.5	   14.9485	   1.49216	1.82147e+07	      76.5	   14.9557	       1.6	1.81745e+07	      76.5	   15.0468	       1.6	   1.81e+07	      76.5	   15.0386	   1.49537	1.81744e+07	      76.5	   14.9521	   1.54608	1.81946e+07	      76.5	   15.0013	       1.6	1.81373e+07	      76.5	   15.0427	   1.54769	1.81372e+07	      76.5	   14.9936	   1.49377	1.81945e+07	
         R10	   3819	      76.5	   15.0386	   1.49537	1.81695e+07	      76.5	   15.0468	       1.6	1.81303e+07	      76.5	   15.1346	       1.6	1.80221e+07	      76.5	    15.128	   1.50259	1.81129e+07	      76.5	   15.0427	   1.54769	1.81499e+07	      76.5	   15.0907	       1.6	1.80762e+07	      76.5	   15.1313	   1.55129	1.80674e+07	      76.5	   15.0833	   1.49898	1.81412e+07	
         R10	   3820	      76.5	    15.128	   1.50259	1.81107e+07	      76.5	   15.1346	       1.6	1.80729e+07	      76.5	    15.219	       1.6	1.78272e+07	      76.5	   15.2137	   1.50938	1.81397e+07	      76.5	   15.1313	   1.55129	1.80917e+07	      76.5	   15.1768	       1.6	1.79499e+07	      76.5	   15.2163	   1.55469	1.79834e+07	      76.5	   15.1709	   1.50598	1.81251e+07	
         R10	   3821	      76.5	   15.2137	   1.50938	1.81958e+07	      76.5	    15.219	       1.6	1.76422e+07	      76.5	      15.3	       1.6	1.79712e+07	      76.5	      15.3	   1.52248	1.85838e+07	      76.5	   15.2163	   1.55469	1.79187e+07	      76.5	   15.2595	       1.6	1.78048e+07	      76.5	      15.3	   1.56124	1.82694e+07	      76.5	   15.2569	   1.51593	 1.8388e+07	
         R10	   3822	      76.5	   15.2148	   1.41622	1.79381e+07	      76.5	   15.2137	   1.50938	1.82516e+07	      76.5	      15.3	   1.52248	1.76913e+07	      76.5	      15.3	   1.43271	1.78823e+07	      76.5	   15.2143	    1.4628	1.80947e+07	      76.5	   15.2569	   1.51593	1.79711e+07	      76.5	      15.3	    1.4776	1.77867e+07	      76.5	   15.2574	   1.42447	1.79099e+07	
         R10	   3823	      76.5	   15.2148	   1.41622	1.79648e+07	      76.5	      15.3	   1.43271	1.77818e+07	      76.5	      15.3	   1.33068	1.76933e+07	      76.5	   15.2038	      1.31	1.78829e+07	      76.5	   15.2574	   1.42447	1.78732e+07	      76.5	      15.3	    1.3817	1.77374e+07	      76.5	   15.2519	   1.32034	 1.7788e+07	      76.5	   15.2093	   1.36311	1.79236e+07	
         R10	   3824	      76.5	   15.2038	      1.31	1.78939e+07	      76.5	      15.3	   1.33068	 1.7709e+07	      76.5	      15.3	    1.2164	1.75523e+07	      76.5	   15.1734	   1.19556	1.78856e+07	      76.5	   15.2519	   1.32034	1.78013e+07	      76.5	      15.3	   1.27354	1.76304e+07	      76.5	   15.2367	   1.20598	1.77189e+07	      76.5	   15.1886	   1.25278	1.78895e+07	
         R10	   3825	      76.5	   15.1734	   1.19556	1.78684e+07	      76.5	      15.3	    1.2164	1.76882e+07	      76.5	      15.3	   1.08986	1.73453e+07	      76.5	   15.1518	   1.07681	1.79364e+07	      76.5	   15.2367	   1.20598	1.77781e+07	      76.5	      15.3	   1.15313	1.75164e+07	      76.5	   15.2259	   1.08333	1.76407e+07	      76.5	   15.1626	   1.13618	1.79019e+07	
         R10	   3826	      76.5	   15.1518	   1.07681	1.78726e+07	      76.5	      15.3	   1.08986	1.76883e+07	      76.5	      15.3	  0.951056	 1.7008e+07	      76.5	   15.1432	  0.941626	1.80319e+07	      76.5	   15.2259	   1.08333	1.77801e+07	      76.5	      15.3	   1.02046	1.73475e+07	      76.5	   15.2216	  0.946341	  1.752e+07	      76.5	   15.1475	   1.00922	1.79517e+07	
         R10	   3827	      76.5	   15.1432	  0.941626	1.79206e+07	      76.5	      15.3	  0.951056	1.78364e+07	      76.5	      15.3	       0.8	1.68561e+07	      76.5	   15.1462	       0.8	1.77412e+07	      76.5	   15.2216	  0.946341	1.78782e+07	      76.5	      15.3	  0.875528	1.73457e+07	      76.5	   15.2231	       0.8	1.72979e+07	      76.5	   15.1447	  0.870813	1.78303e+07	
         R10	   3828	      76.5	   14.9759	    0.9491	1.83707e+07	      76.5	   15.1432	  0.941626	 1.7814e+07	      76.5	   15.1462	       0.8	1.77179e+07	      76.5	   14.9842	       0.8	1.83884e+07	      76.5	   15.0595	  0.945363	1.80919e+07	      76.5	   15.1447	  0.870813	1.77653e+07	      76.5	   15.0652	       0.8	1.80521e+07	      76.5	     14.98	   0.87455	1.83794e+07	
         R10	   3829	      76.5	   14.9759	    0.9491	1.82338e+07	      76.5	   14.9842	       0.8	1.82769e+07	      76.5	   14.8142	       0.8	1.86524e+07	      76.5	   14.8078	  0.957289	1.85831e+07	      76.5	     14.98	   0.87455	1.82551e+07	      76.5	   14.8992	       0.8	 1.8463e+07	      76.5	    14.811	  0.878644	1.86177e+07	      76.5	   14.8919	  0.953194	1.84072e+07	
         R10	   3830	      76.5	   14.8078	  0.957289	1.83655e+07	      76.5	   14.8142	       0.8	  1.866e+07	      76.5	   14.6362	       0.8	1.84414e+07	      76.5	   14.6305	  0.958123	1.85017e+07	      76.5	    14.811	  0.878644	1.85126e+07	      76.5	   14.7252	       0.8	1.85461e+07	      76.5	   14.6333	  0.879061	1.84707e+07	      76.5	   14.7192	  0.957706	1.84328e+07	
         R10	   3831	      76.5	   14.8152	   1.11757	1.83386e+07	      76.5	   14.8078	  0.957289	1.84293e+07	      76.5	   14.6305	  0.958123	1.85142e+07	      76.5	   14.6213	   1.10565	1.83827e+07	      76.5	   14.8115	   1.03743	1.83839e+07	      76.5	   14.7192	  0.957706	  1.847e+07	      76.5	   14.6259	   1.03189	1.84482e+07	      76.5	   14.7183	   1.11161	1.83599e+07	
         R10	   3832	      76.5	   14.8152	   1.11757	1.83819e+07	      76.5	   14.6213	   1.10565	1.84082e+07	      76.5	    14.596	   1.24398	1.83498e+07	      76.5	   14.7102	   1.26299	1.82205e+07	      76.5	   14.7183	   1.11161	1.83941e+07	      76.5	   14.6087	   1.17481	 1.8379e+07	      76.5	   14.6531	   1.25348	1.82845e+07	      76.5	   14.7627	   1.19028	1.83012e+07	
         R10	   3833	      76.5	   14.7102	   1.26299	1.82016e+07	      76.5	    14.596	   1.24398	1.83653e+07	      76.5	   14.5731	   1.37461	1.82185e+07	      76.5	   14.7073	   1.38846	1.81546e+07	      76.5	   14.6531	   1.25348	1.82832e+07	      76.5	   14.5846	   1.30929	1.82918e+07	      76.5	   14.6402	   1.38153	1.81864e+07	      76.5	   14.7087	   1.32572	 1.8178e+07	
         R10	   3834	      76.5	   14.7073	   1.38846	1.81825e+07	      76.5	   14.5731	   1.37461	 1.8225e+07	      76.5	   14.5604	      1.49	1.81582e+07	      76.5	   14.6527	   1.50338	1.79956e+07	      76.5	   14.6402	   1.38153	1.82035e+07	      76.5	   14.5668	    1.4323	1.81915e+07	      76.5	   14.6066	   1.49669	1.80767e+07	      76.5	     14.68	   1.44592	 1.8089e+07	
         R10	   3835	      76.5	   14.8316	   1.38653	1.83023e+07	      76.5	   14.8483	   1.49128	1.82138e+07	      76.5	   14.9485	   1.49216	1.82074e+07	      76.5	   14.9474	   1.37609	1.82466e+07	      76.5	   14.8399	   1.43891	1.82581e+07	      76.5	   14.8984	   1.49172	1.82106e+07	      76.5	    14.948	   1.43413	 1.8227e+07	      76.5	   14.8895	   1.38131	1.82745e+07	
         R10	   3836	      76.5	   14.9474	   1.37609	1.82843e+07	      76.5	   14.9485	   1.49216	1.82126e+07	      76.5	   15.0386	   1.49537	1.81777e+07	      76.5	   15.0347	    1.3776	1.81743e+07	      76.5	    14.948	   1.43413	1.82484e+07	      76.5	   14.9936	   1.49377	1.81952e+07	      76.5	   15.0367	   1.43649	 1.8176e+07	      76.5	   14.9911	   1.37684	1.82293e+07	
         R10	   3837	      76.5	   15.0347	    1.3776	  1.821e+07	      76.5	   15.0386	   1.49537	1.81753e+07	      76.5	    15.128	   1.50259	1.81308e+07	      76.5	   15.1242	   1.40045	1.81003e+07	      76.5	   15.0367	   1.43649	1.81926e+07	      76.5	   15.0833	   1.49898	 1.8153e+07	      76.5	   15.1261	   1.45152	1.81156e+07	      76.5	   15.0795	   1.38902	1.81551e+07	
         R10	   3838	      76.5	   15.1242	   1.40045	1.81221e+07	      76.5	    15.128	   1.50259	1.81143e+07	      76.5	   15.2137	   1.50938	1.81254e+07	      76.5	   15.2148	   1.41622	1.79465e+07	      76.5	   15.1261	   1.45152	1.81182e+07	      76.5	   15.1709	   1.50598	1.81197e+07	      76.5	   15.2143	    1.4628	1.80358e+07	      76.5	   15.1695	   1.40834	1.80342e+07	
         R10	   3839	      76.5	   15.0384	   1.23029	 1.8179e+07	      76.5	   15.1734	   1.19556	1.78892e+07	      76.5	   15.1518	   1.07681	1.79251e+07	      76.5	   14.9939	   1.08971	1.82665e+07	      76.5	   15.1059	   1.21293	 1.8034e+07	      76.5	   15.1626	   1.13618	1.79068e+07	      76.5	   15.0729	   1.08326	1.80955e+07	      76.5	   15.0162	      1.16	1.82227e+07	
         R10	   3840	      76.5	   14.9939	   1.08971	1.83011e+07	      76.5	   15.1518	   1.07681	1.78446e+07	      76.5	   15.1432	  0.941626	1.79068e+07	      76.5	   14.9759	    0.9491	1.83422e+07	      76.5	   15.0729	   1.08326	1.80727e+07	      76.5	   15.1475	   1.00922	1.78752e+07	      76.5	   15.0595	  0.945363	1.81238e+07	      76.5	   14.9849	    1.0194	1.83215e+07	
         R10	   3841	      76.5	   14.9939	   1.08971	1.82465e+07	      76.5	   14.9759	    0.9491	1.82007e+07	      76.5	   14.8078	  0.957289	1.86271e+07	      76.5	   14.8152	   1.11757	1.84399e+07	      76.5	   14.9849	    1.0194	1.82236e+07	      76.5	   14.8919	  0.953194	1.84132e+07	      76.5	   14.8115	   1.03743	1.85334e+07	      76.5	   14.9046	   1.10364	1.83425e+07	
         R10	   3842	      76.5	   14.7073	   1.38846	1.82742e+07	      76.5	   14.7639	   1.50448	1.81983e+07	      76.5	   14.8483	   1.49128	 1.8194e+07	      76.5	   14.8316	   1.38653	1.82474e+07	      76.5	   14.7356	   1.44647	1.82359e+07	      76.5	   14.8061	   1.49788	1.81961e+07	      76.5	   14.8399	   1.43891	1.82206e+07	      76.5	   14.7694	    1.3875	1.82606e+07	
         R10	   3843	      76.5	   14.8237	   1.29541	1.83983e+07	      76.5	   14.8316	   1.38653	1.82899e+07	      76.5	   14.9474	   1.37609	1.82312e+07	      76.5	   14.9386	   1.24981	1.82709e+07	      76.5	   14.8277	   1.34097	1.83441e+07	      76.5	   14.8895	   1.38131	1.82606e+07	      76.5	    14.943	   1.31295	 1.8251e+07	      76.5	   14.8811	   1.27261	1.83345e+07	
         R10	   3844	      76.5	   14.7102	   1.26299	1.84109e+07	      76.5	   14.7073	   1.38846	1.82725e+07	      76.5	   14.8316	   1.38653	 1.8262e+07	      76.5	   14.8237	   1.29541	 1.8246e+07	      76.5	   14.7087	   1.32572	1.83417e+07	      76.5	   14.7694	    1.3875	1.82672e+07	      76.5	   14.8277	   1.34097	1.82539e+07	      76.5	   14.7669	    1.2792	1.83283e+07	
         R10	   3845	      76.5	   15.1285	   1.31838	1.80502e+07	      76.5	   15.2038	      1.31	1.78916e+07	      76.5	   15.1734	   1.19556	1.79109e+07	      76.5	   15.0384	   1.23029	1.81747e+07	      76.5	   15.1662	   1.31419	1.79709e+07	      76.5	   15.1886	   1.25278	 1.7901e+07	      76.5	   15.1059	   1.21293	1.80427e+07	      76.5	   15.0835	   1.27433	1.81123e+07	
         R10	   3846	      76.5	   15.1285	   1.31838	1.80491e+07	      76.5	   15.0384	   1.23029	1.81633e+07	      76.5	   15.0347	    1.3776	 1.8222e+07	      76.5	   15.1242	   1.40045	1.80863e+07	      76.5	   15.0835	   1.27433	1.81061e+07	      76.5	   15.0365	   1.30394	1.81925e+07	      76.5	   15.0795	   1.38902	1.81541e+07	      76.5	   15.1264	   1.35941	1.80677e+07	
         R10	   3847	      76.5	   15.1285	   1.31838	1.80583e+07	      76.5	   15.1242	   1.40045	1.81049e+07	      76.5	   15.2148	   1.41622	1.79897e+07	      76.5	   15.2038	      1.31	1.78837e+07	      76.5	   15.1264	   1.35941	1.80815e+07	      76.5	   15.1695	   1.40834	1.80471e+07	      76.5	   15.2093	   1.36311	1.79365e+07	      76.5	   15.1662	   1.31419	 1.7971e+07	
         R10	   3848	      76.5	   15.0384	   1.23029	1.81647e+07	      76.5	   14.9386	   1.24981	1.83144e+07	      76.5	   14.9474	   1.37609	1.82714e+07	      76.5	   15.0347	    1.3776	1.81848e+07	      76.5	   14.9885	   1.24005	1.82395e+07	      76.5	    14.943	   1.31295	1.82928e+07	      76.5	   14.9911	   1.37684	1.82281e+07	      76.5	   15.0365	   1.30394	1.81747e+07	
         R10	   3849	      76.5	   14.9386	   1.24981	1.82899e+07	      76.5	   15.0384	   1.23029	1.81839e+07	      76.5	   14.9939	   1.08971	1.82092e+07	      76.5	   14.8152	   1.11757	1.84832e+07	      76.5	   14.9885	   1.24005	1.82368e+07	      76.5	   15.0162	      1.16	1.81964e+07	      76.5	   14.9046	   1.10364	1.83459e+07	      76.5	   14.8769	   1.18369	1.83865e+07	
         R10	   3850	      76.5	   14.7073	   1.38846	1.82744e+07	      76.5	   14.6527	   1.50338	1.81603e+07	      76.5	   14.7639	   1.50448	1.81224e+07	      76.5	     14.68	   1.44592	1.82173e+07	      76.5	   14.7083	   1.50393	1.81412e+07	      76.5	   14.7356	   1.44647	1.81982e+07	       N/A	       N/A	       N/A	        N/A	       N/A	       N/A	       N/A	        N/A	
         R10	   3851	      76.5	   14.8152	   1.11757	1.84529e+07	      76.5	   14.7102	   1.26299	1.83681e+07	      76.5	   14.8237	   1.29541	1.82519e+07	      76.5	   14.7627	   1.19028	1.84103e+07	      76.5	   14.7669	    1.2792	1.83095e+07	      76.5	   14.8195	   1.20649	1.83523e+07	       N/A	       N/A	       N/A	        N/A	       N/A	       N/A	       N/A	        N/A	
         R10	   3852	      76.5	   14.8152	   1.11757	1.83782e+07	      76.5	   14.8237	   1.29541	1.83711e+07	      76.5	   14.9386	   1.24981	1.82673e+07	      76.5	   14.8195	   1.20649	1.83744e+07	      76.5	   14.8811	   1.27261	1.83192e+07	      76.5	   14.8769	   1.18369	1.83225e+07	       N/A	       N/A	       N/A	        N/A	       N/A	       N/A	       N/A	        N/A	
         R10	   3853	   80.2188	      21.5	         3	6.54335e+06	     80.75	      21.5	         3	5.02617e+06	     80.75	      21.5	      2.25	5.82532e+06	   80.2188	      21.5	      2.25	8.21604e+06	   80.4844	      21.5	         3	5.75736e+06	     80.75	      21.5	     2.625	5.24254e+06	   80.4844	      21.5	      2.25	6.28995e+06	   80.2188	      21.5	     2.625	6.38142e+06	
         R10	   3854	   79.6875	      21.5	         3	6.94296e+06	   80.2188	      21.5	         3	6.16769e+06	   80.2188	      21.5	      2.25	8.08707e+06	   79.6875	      21.5	      2.25	  9.356e+06	   79.9531	      21.5	         3	6.54687e+06	   80.2188	      21.5	     2.625	6.11005e+06	   79.9531	      21.5	      2.25	8.64073e+06	   79.6875	      21.5	     2.625	6.33211e+06	
         R10	   3855	   79.1563	      21.5	         3	6.57993e+06	   79.6875	      21.5	         3	6.90358e+06	   79.6875	      21.5	      2.25	9.27271e+06	   79.1563	      21.5	      2.25	 9.2084e+06	   79.4219	      21.5	         3	  6.735e+06	   79.6875	      21.5	     2.625	 6.2532e+06	   79.4219	      21.5	      2.25	9.23882e+06	   79.1563	      21.5	     2.625	 6.2687e+06	
         R10	   3856	    78.625	      21.5	         3	6.25248e+06	   79.1563	      21.5	         3	6.57616e+06	   79.1563	      21.5	      2.25	9.16205e+06	    78.625	      21.5	      2.25	8.79316e+06	   78.8906	      21.5	         3	6.40793e+06	   79.1563	      21.5	     2.625	6.23431e+06	   78.8906	      21.5	      2.25	 8.9762e+06	    78.625	      21.5	     2.625	6.20862e+06	
         R10	   3857	   80.2188	      21.5	      3.75	5.72244e+06	     80.75	      21.5	      3.75	5.06823e+06	     80.75	      21.5	         3	4.84253e+06	   80.2188	      21.5	         3	   6.85e+06	   80.4844	      21.5	      3.75	5.11089e+06	     80.75	      21.5	     3.375	4.95056e+06	   80.4844	      21.5	         3	5.65683e+06	   80.2188	      21.5	     3.375	5.48263e+06	
         R10	   3858	   79.6875	      21.5	      3.75	5.08584e+06	   80.2188	      21.5	      3.75	5.29899e+06	   80.2188	      21.5	         3	6.46508e+06	   79.6875	      21.5	         3	7.66403e+06	   79.9531	      21.5	      3.75	5.18541e+06	   80.2188	      21.5	     3.375	 5.0382e+06	   79.9531	      21.5	         3	7.05052e+06	   79.6875	      21.5	     3.375	5.20804e+06	
         R10	   3859	   79.1563	      21.5	      3.75	4.55278e+06	   79.6875	      21.5	      3.75	4.96937e+06	   79.6875	      21.5	         3	7.58455e+06	   79.1563	      21.5	         3	7.24318e+06	   79.4219	      21.5	      3.75	4.72652e+06	   79.6875	      21.5	     3.375	5.08774e+06	   79.4219	      21.5	         3	 7.4102e+06	   79.1563	      21.5	     3.375	5.22678e+06	
         R10	   3860	    78.625	      21.5	      3.75	4.57906e+06	   79.1563	      21.5	      3.75	4.63187e+06	   79.1563	      21.5	         3	7.24195e+06	    78.625	      21.5	         3	6.96169e+06	   78.8906	      21.5	      3.75	4.59947e+06	   79.1563	      21.5	     3.375	5.26391e+06	   78.8906	      21.5	         3	7.09977e+06	    78.625	      21.5	     3.375	5.25997e+06	
         R10	   3861	   80.0417	      21.5	       4.5	 5.2419e+06	     80.75	      21.5	       4.5	5.00496e+06	     80.75	      21.5	      3.75	5.52368e+06	   80.2188	      21.5	      3.75	6.15881e+06	   80.3958	      21.5	       4.5	3.80119e+06	     80.75	      21.5	     4.125	5.12327e+06	   80.4844	      21.5	      3.75	5.68065e+06	   80.1302	      21.5	     4.125	4.96019e+06	
         R10	   3862	   79.3333	      21.5	       4.5	3.81826e+06	   80.0417	      21.5	       4.5	3.98349e+06	   80.2188	      21.5	      3.75	6.14431e+06	   79.6875	      21.5	      3.75	5.31183e+06	   79.6875	      21.5	       4.5	3.85274e+06	   80.1302	      21.5	     4.125	4.40283e+06	   79.9531	      21.5	      3.75	5.71807e+06	   79.5104	      21.5	     4.125	3.94345e+06	
         R10	   3863	   79.1563	      21.5	      3.75	4.86594e+06	    78.625	      21.5	      3.75	4.90692e+06	    78.625	      21.5	       4.5	3.39643e+06	   79.3333	      21.5	       4.5	3.56319e+06	   78.8906	      21.5	      3.75	4.88344e+06	    78.625	      21.5	     4.125	3.95545e+06	   78.9792	      21.5	       4.5	3.47931e+06	   79.2448	      21.5	     4.125	4.00186e+06	
         R10	   3864	   79.1563	      21.5	      3.75	4.86043e+06	   79.3333	      21.5	       4.5	3.70125e+06	   79.6875	      21.5	      3.75	5.24579e+06	   79.2448	      21.5	     4.125	4.01973e+06	   79.5104	      21.5	     4.125	4.06173e+06	   79.4219	      21.5	      3.75	5.03199e+06	       N/A	       N/A	       N/A	        N/A	       N/A	       N/A	       N/A	        N/A	
         R10	   3865	   80.0323	      21.5	      5.25	3.87248e+06	     80.75	      21.5	      5.25	4.20689e+06	     80.75	      21.5	       4.5	4.93973e+06	   80.0417	      21.5	       4.5	6.70568e+06	   80.3911	      21.5	      5.25	3.09142e+06	     80.75	      21.5	     4.875	4.56626e+06	   80.3958	      21.5	       4.5	5.21197e+06	    80.037	      21.5	     4.875	 4.1298e+06	
         R10	   3866	    79.324	      21.5	      5.25	4.10645e+06	   80.0323	      21.5	      5.25	3.33984e+06	   80.0417	      21.5	       4.5	6.15282e+06	   79.3333	      21.5	       4.5	6.22679e+06	   79.6781	      21.5	      5.25	 3.6555e+06	    80.037	      21.5	     4.875	3.46333e+06	   79.6875	      21.5	       4.5	6.14118e+06	   79.3286	      21.5	     4.875	2.92378e+06	
         R10	   3867	    78.625	      21.5	      5.25	3.25811e+06	    79.324	      21.5	      5.25	4.03989e+06	   79.3333	      21.5	       4.5	6.27749e+06	    78.625	      21.5	       4.5	5.26815e+06	   78.9745	      21.5	      5.25	3.64356e+06	   79.3286	      21.5	     4.875	2.95051e+06	   78.9792	      21.5	       4.5	5.76463e+06	    78.625	      21.5	     4.875	2.75824e+06	
         R10	   3868	   80.0326	      21.5	      8.55	1.95497e+06	     80.75	      21.5	      8.55	2.78807e+06	     80.75	      21.5	       7.7	2.46999e+06	   79.9989	      21.5	       7.7	3.38525e+06	   80.3913	      21.5	      8.55	     919073	     80.75	      21.5	     8.125	2.61069e+06	   80.3745	      21.5	       7.7	2.26154e+06	   80.0157	      21.5	     8.125	1.41305e+06	
         R10	   3869	   79.3243	      21.5	      8.55	2.40661e+06	   80.0326	      21.5	      8.55	1.47717e+06	   79.9989	      21.5	       7.7	 3.6223e+06	   79.2906	      21.5	       7.7	4.73543e+06	   79.6784	      21.5	      8.55	1.89385e+06	   80.0157	      21.5	     8.125	1.48235e+06	   79.6447	      21.5	       7.7	 4.0421e+06	   79.3074	      21.5	     8.125	1.27424e+06	
         R10	   3870	    78.625	      21.5	      8.55	2.63509e+06	   79.3243	      21.5	      8.55	2.41364e+06	   79.2906	      21.5	       7.7	4.64935e+06	    78.625	      21.5	       7.7	4.58775e+06	   78.9746	      21.5	      8.55	2.52424e+06	   79.3074	      21.5	     8.125	1.22797e+06	   78.9578	      21.5	       7.7	4.60443e+06	    78.625	      21.5	     8.125	1.09322e+06	
         R10	   3871	   79.6875	      21.5	       9.4	1.37121e+06	     80.75	      21.5	       9.4	 2.6098e+06	     80.75	      21.5	      8.55	3.01758e+06	   80.0326	      21.5	      8.55	1.46834e+06	   80.2188	      21.5	       9.4	1.52683e+06	     80.75	      21.5	     8.975	2.73314e+06	   80.3913	      21.5	      8.55	1.53242e+06	   79.8601	      21.5	     8.975	1.30143e+06	
         R10	   3872	   79.3243	      21.5	      8.55	2.36559e+06	    78.625	      21.5	      8.55	3.37504e+06	    78.625	      21.5	       9.4	2.96097e+06	   79.6875	      21.5	       9.4	 2.6917e+06	   78.9746	      21.5	      8.55	2.86914e+06	    78.625	      21.5	     8.975	1.23246e+06	   79.1563	      21.5	       9.4	2.37524e+06	   79.5059	      21.5	     8.975	1.61043e+06	
         R10	   3873	   79.3243	      21.5	      8.55	2.64982e+06	   79.6875	      21.5	       9.4	1.45975e+06	   80.0326	      21.5	      8.55	2.07315e+06	   79.5059	      21.5	     8.975	1.73442e+06	   79.8601	      21.5	     8.975	1.47502e+06	   79.6784	      21.5	      8.55	2.27744e+06	       N/A	       N/A	       N/A	        N/A	       N/A	       N/A	       N/A	        N/A	
         R10	   3874	   79.6875	      21.5	     10.25	2.42055e+06	     80.75	      21.5	     10.25	2.87644e+06	     80.75	      21.5	       9.4	2.87799e+06	   79.6875	      21.5	       9.4	1.42978e+06	   80.2188	      21.5	     10.25	2.59714e+06	     80.75	      21.5	     9.825	2.79867e+06	   80.2188	      21.5	       9.4	1.64872e+06	   79.6875	      21.5	     9.825	1.78523e+06	
         R10	   3875	    78.625	      21.5	     10.25	  2.489e+06	   79.6875	      21.5	     10.25	2.37314e+06	   79.6875	      21.5	       9.4	2.44749e+06	    78.625	      21.5	       9.4	2.86642e+06	   79.1563	      21.5	     10.25	2.36664e+06	   79.6875	      21.5	     9.825	 2.2862e+06	   79.1563	      21.5	       9.4	 2.1963e+06	    78.625	      21.5	     9.825	2.07959e+06	
         R10	   3876	      76.5	   13.8427	       0.8	1.52744e+07	      76.5	      13.6	       0.8	 1.4788e+07	      76.5	      13.6	   1.04677	1.50718e+07	      76.5	   13.8323	   1.03695	1.55932e+07	      76.5	   13.7213	       0.8	1.50301e+07	      76.5	      13.6	  0.923387	1.49265e+07	      76.5	   13.7161	   1.04186	1.53322e+07	      76.5	   13.8375	  0.918473	1.54319e+07	
         R10	   3877	      76.5	   13.8323	   1.03695	1.55783e+07	      76.5	      13.6	   1.04677	1.50798e+07	      76.5	      13.6	   1.28018	1.52785e+07	      76.5	   13.7811	   1.28003	1.56011e+07	      76.5	   13.7161	   1.04186	1.53288e+07	      76.5	      13.6	   1.16348	1.51766e+07	      76.5	   13.6905	   1.28011	1.54397e+07	      76.5	   13.8067	   1.15849	1.55877e+07	
         R10	   3878	      76.5	   13.7811	   1.28003	1.55671e+07	      76.5	      13.6	   1.28018	1.53002e+07	      76.5	      13.6	   1.50023	1.53289e+07	      76.5	   13.7727	   1.49169	1.55669e+07	      76.5	   13.6905	   1.28011	1.54336e+07	      76.5	      13.6	   1.39021	1.53124e+07	      76.5	   13.6863	   1.49596	1.54478e+07	      76.5	   13.7769	   1.38586	1.55655e+07	
         R10	   3879	      76.5	   13.7727	   1.49169	1.55335e+07	      76.5	      13.6	   1.50023	1.53225e+07	      76.5	      13.6	   1.70691	1.52227e+07	      76.5	   13.7649	   1.69543	1.53908e+07	      76.5	   13.6863	   1.49596	1.54278e+07	      76.5	      13.6	   1.60357	 1.5271e+07	      76.5	   13.6824	   1.70117	1.53066e+07	      76.5	   13.7688	   1.59356	1.54606e+07	
         R10	   3880	      76.5	   13.7649	   1.69543	1.53714e+07	      76.5	      13.6	   1.70691	1.52092e+07	      76.5	      13.6	   1.90023	1.50416e+07	      76.5	   13.7606	   1.88646	1.50607e+07	      76.5	   13.6824	   1.70117	1.52901e+07	      76.5	      13.6	   1.80357	1.51234e+07	      76.5	   13.6803	   1.89334	1.50507e+07	      76.5	   13.7628	   1.79094	1.52144e+07	
         R10	   3881	      76.5	   13.7606	   1.88646	1.50692e+07	      76.5	      13.6	   1.90023	1.50187e+07	      76.5	      13.6	   2.08018	1.48452e+07	      76.5	   13.7562	   2.06552	1.45368e+07	      76.5	   13.6803	   1.89334	1.50435e+07	      76.5	      13.6	   1.99021	1.49296e+07	      76.5	   13.6781	   2.07285	1.46902e+07	      76.5	   13.7584	   1.97599	1.47988e+07	
         R10	   3882	      76.5	   13.7562	   2.06552	1.45071e+07	      76.5	      13.6	   2.08018	1.47451e+07	      76.5	      13.6	   2.24677	 1.4558e+07	      76.5	   13.7537	   2.23641	1.36145e+07	      76.5	   13.6781	   2.07285	1.46258e+07	      76.5	      13.6	   2.16348	1.46283e+07	      76.5	   13.6768	   2.24159	1.40422e+07	      76.5	   13.7549	   2.15096	1.40583e+07	
         R10	   3883	      76.5	   13.7537	   2.23641	1.33502e+07	      76.5	      13.6	   2.24677	1.53395e+07	      76.5	      13.6	       2.4	1.15535e+07	      76.5	   13.7605	       2.4	1.33976e+07	      76.5	   13.6768	   2.24159	1.43088e+07	      76.5	      13.6	   2.32339	1.34146e+07	      76.5	   13.6802	       2.4	1.23682e+07	      76.5	   13.7571	   2.31821	1.33699e+07	
         R10	   3884	      76.5	   13.8986	     2.237	1.46705e+07	      76.5	   13.7537	   2.23641	1.35707e+07	      76.5	   13.7605	       2.4	1.47476e+07	      76.5	    13.908	       2.4	1.40484e+07	      76.5	   13.8262	    2.2367	1.41169e+07	      76.5	   13.7571	   2.31821	1.41539e+07	      76.5	   13.8342	       2.4	 1.4394e+07	      76.5	   13.9033	    2.3185	1.43578e+07	
         R10	   3885	      76.5	   13.8986	     2.237	1.48005e+07	      76.5	    13.908	       2.4	1.45272e+07	      76.5	   14.0424	       2.4	1.45192e+07	      76.5	   14.0294	   2.24985	1.50523e+07	      76.5	   13.9033	    2.3185	1.46587e+07	      76.5	   13.9752	       2.4	1.45213e+07	      76.5	   14.0359	   2.32493	 1.4784e+07	      76.5	    13.964	   2.24342	1.49263e+07	
         R10	   3886	      76.5	   14.0294	   2.24985	1.51181e+07	      76.5	   14.0424	       2.4	1.48088e+07	      76.5	   14.1639	       2.4	1.47982e+07	      76.5	   14.1475	   2.27638	1.53982e+07	      76.5	   14.0359	   2.32493	1.49603e+07	      76.5	   14.1031	       2.4	1.48026e+07	      76.5	   14.1557	   2.33819	1.50962e+07	      76.5	   14.0884	   2.26312	 1.5258e+07	
         R10	   3887	      76.5	   14.1475	   2.27638	1.55007e+07	      76.5	   14.1639	       2.4	 1.5027e+07	      76.5	   14.2723	       2.4	1.51297e+07	      76.5	    14.259	   2.29782	1.57342e+07	      76.5	   14.1557	   2.33819	1.52619e+07	      76.5	   14.2181	       2.4	1.50779e+07	      76.5	   14.2656	   2.34891	1.54296e+07	      76.5	   14.2033	    2.2871	1.56166e+07	
         R10	   3888	      76.5	    14.259	   2.29782	 1.5903e+07	      76.5	   14.2723	       2.4	1.53202e+07	      76.5	   14.3676	       2.4	1.58033e+07	      76.5	   14.3566	   2.30621	1.64441e+07	      76.5	   14.2656	   2.34891	  1.561e+07	      76.5	   14.3199	       2.4	1.55546e+07	      76.5	   14.3621	   2.35311	1.60769e+07	      76.5	   14.3078	   2.30202	1.61588e+07	
         R10	   3889	      76.5	   14.3566	   2.30621	1.71185e+07	      76.5	   14.3676	       2.4	 1.5751e+07	      76.5	     14.45	       2.4	1.81853e+07	      76.5	     14.45	   2.32373	1.63351e+07	      76.5	   14.3621	   2.35311	1.63835e+07	      76.5	   14.4088	       2.4	1.67982e+07	      76.5	     14.45	   2.36187	1.72557e+07	      76.5	   14.4033	   2.31497	1.67091e+07	
         R10	   3890	      76.5	   14.3607	   2.19553	1.66516e+07	      76.5	   14.3566	   2.30621	1.71137e+07	      76.5	     14.45	   2.32373	1.61928e+07	      76.5	     14.45	   2.24431	1.62504e+07	      76.5	   14.3586	   2.25087	1.68785e+07	      76.5	   14.4033	   2.31497	1.66208e+07	      76.5	     14.45	   2.28402	1.62149e+07	      76.5	   14.4053	   2.21992	1.64497e+07	
         R10	   3891	      76.5	   14.3479	   2.09043	1.66436e+07	      76.5	     14.45	     2.076	1.64416e+07	      76.5	     14.45	   1.98711	 1.6511e+07	      76.5	   14.3422	   1.99574	1.67393e+07	      76.5	    14.399	   2.08322	1.65422e+07	      76.5	     14.45	   2.03156	1.64762e+07	      76.5	   14.3961	   1.99143	 1.6625e+07	      76.5	   14.3451	   2.04309	1.66914e+07	
         R10	   3892	      76.5	   14.3422	   1.99574	1.67451e+07	      76.5	     14.45	   1.98711	 1.6516e+07	      76.5	     14.45	   1.89507	1.65934e+07	      76.5	    14.358	   1.90738	1.69005e+07	      76.5	   14.3961	   1.99143	1.66305e+07	      76.5	     14.45	   1.94109	1.65546e+07	      76.5	    14.404	   1.90122	1.67469e+07	      76.5	   14.3501	   1.95156	1.68227e+07	
         R10	   3893	      76.5	    14.358	   1.90738	 1.6883e+07	      76.5	     14.45	   1.89507	1.66038e+07	      76.5	     14.45	   1.79987	1.67753e+07	      76.5	    14.332	   1.79861	 1.6901e+07	      76.5	    14.404	   1.90122	1.67432e+07	      76.5	     14.45	   1.84747	1.66895e+07	      76.5	    14.391	   1.79924	 1.6838e+07	      76.5	    14.345	   1.85299	1.68919e+07	
         R10	   3894	      76.5	    14.332	   1.79861	1.69092e+07	      76.5	     14.45	   1.79987	1.67702e+07	      76.5	     14.45	   1.70151	1.68218e+07	      76.5	   14.3569	   1.70302	1.71313e+07	      76.5	    14.391	   1.79924	1.68396e+07	      76.5	     14.45	   1.75069	1.67959e+07	      76.5	   14.4035	   1.70227	1.69765e+07	      76.5	   14.3445	   1.75081	1.70201e+07	
         R10	   3895	      76.5	   14.3569	   1.70302	1.71205e+07	      76.5	     14.45	   1.70151	1.68271e+07	      76.5	     14.45	       1.6	1.69521e+07	      76.5	    14.345	    1.5985	1.71689e+07	      76.5	   14.4035	   1.70227	1.69738e+07	      76.5	     14.45	   1.65076	1.68895e+07	      76.5	   14.3975	   1.59925	1.70604e+07	      76.5	   14.3509	   1.65076	1.71445e+07	
         R10	   3896	      76.5	    14.345	    1.5985	1.71734e+07	      76.5	     14.45	       1.6	1.69529e+07	      76.5	     14.45	   1.50378	 1.7056e+07	      76.5	   14.3263	   1.50488	1.71915e+07	      76.5	   14.3975	   1.59925	1.70631e+07	      76.5	     14.45	   1.55189	1.70044e+07	      76.5	   14.3882	   1.50433	1.71237e+07	      76.5	   14.3356	   1.55169	1.71824e+07	
         R10	   3897	      76.5	   14.3263	   1.50488	1.72076e+07	      76.5	     14.45	   1.50378	1.70556e+07	      76.5	     14.45	   1.39272	1.71433e+07	      76.5	   14.3167	   1.38081	1.72182e+07	      76.5	   14.3882	   1.50433	1.71315e+07	      76.5	     14.45	   1.44825	1.70993e+07	      76.5	   14.3833	   1.38677	1.71807e+07	      76.5	   14.3215	   1.44284	1.72127e+07	
         R10	   3898	      76.5	   14.3167	   1.38081	 1.7236e+07	      76.5	     14.45	   1.39272	1.71449e+07	      76.5	     14.45	   1.26681	1.71946e+07	      76.5	   14.3003	   1.24948	1.72152e+07	      76.5	   14.3833	   1.38677	1.71904e+07	      76.5	     14.45	   1.32977	1.71696e+07	      76.5	   14.3752	   1.25815	1.72048e+07	      76.5	   14.3085	   1.31515	1.72253e+07	
         R10	   3899	      76.5	   14.3003	   1.24948	1.72405e+07	      76.5	     14.45	   1.26681	1.71996e+07	      76.5	     14.45	   1.12606	1.72214e+07	      76.5	   14.2797	   1.10619	 1.7088e+07	      76.5	   14.3752	   1.25815	  1.722e+07	      76.5	     14.45	   1.19643	1.72103e+07	      76.5	   14.3649	   1.11612	1.71545e+07	      76.5	     14.29	   1.17784	1.71638e+07	
         R10	   3900	      76.5	   14.2797	   1.10619	1.71275e+07	      76.5	     14.45	   1.12606	1.72293e+07	      76.5	     14.45	  0.970451	1.71964e+07	      76.5	   14.2641	  0.955469	1.68757e+07	      76.5	   14.3649	   1.11612	1.71781e+07	      76.5	     14.45	   1.04825	1.72124e+07	      76.5	    14.357	   0.96296	1.70356e+07	      76.5	   14.2719	   1.03083	1.70011e+07	
         R10	   3901	      76.5	   14.2641	  0.955469	1.69098e+07	      76.5	     14.45	  0.970451	1.71404e+07	      76.5	     14.45	       0.8	1.69891e+07	      76.5	   14.2677	       0.8	1.66198e+07	      76.5	    14.357	   0.96296	1.70244e+07	      76.5	     14.45	  0.885226	1.70633e+07	      76.5	   14.3588	       0.8	1.68038e+07	      76.5	   14.2659	  0.877735	1.67641e+07	
         R10	   3902	      76.5	   14.0615	  0.962639	1.63585e+07	      76.5	   14.2641	  0.955469	1.66745e+07	      76.5	   14.2677	       0.8	1.63071e+07	      76.5	   14.0652	       0.8	1.61496e+07	      76.5	   14.1628	  0.959054	1.65165e+07	      76.5	   14.2659	  0.877735	1.64905e+07	      76.5	   14.1665	       0.8	1.62282e+07	      76.5	   14.0634	   0.88132	1.62532e+07	
         R10	   3903	      76.5	   14.0615	  0.962639	1.61702e+07	      76.5	   14.0652	       0.8	1.60154e+07	      76.5	   13.8427	       0.8	1.53671e+07	      76.5	   13.8323	   1.03695	1.58168e+07	      76.5	   14.0634	   0.88132	1.60922e+07	      76.5	    13.954	       0.8	1.56909e+07	      76.5	   13.8375	  0.918473	1.55906e+07	      76.5	   13.9469	  0.999793	1.59934e+07	
         R10	   3904	      76.5	   13.9694	   1.31825	1.61882e+07	      76.5	   13.7811	   1.28003	1.57782e+07	      76.5	   13.7727	   1.49169	 1.5811e+07	      76.5	   13.9302	   1.51756	1.59401e+07	      76.5	   13.8752	   1.29914	1.59829e+07	      76.5	   13.7769	   1.38586	 1.5793e+07	      76.5	   13.8514	   1.50462	1.58753e+07	      76.5	   13.9498	    1.4179	 1.6063e+07	
         R10	   3905	      76.5	   13.9302	   1.51756	 1.5987e+07	      76.5	   13.7727	   1.49169	1.57755e+07	      76.5	   13.7649	   1.69543	1.56114e+07	      76.5	   13.9239	   1.70443	1.57701e+07	      76.5	   13.8514	   1.50462	1.58811e+07	      76.5	   13.7688	   1.59356	1.56921e+07	      76.5	   13.8444	   1.69993	1.56905e+07	      76.5	    13.927	     1.611	1.58776e+07	
         R10	   3906	      76.5	   13.9239	   1.70443	1.58102e+07	      76.5	   13.7649	   1.69543	1.55851e+07	      76.5	   13.7606	   1.88646	1.52865e+07	      76.5	   13.9134	   1.89339	1.54418e+07	      76.5	   13.8444	   1.69993	1.56973e+07	      76.5	   13.7628	   1.79094	1.54342e+07	      76.5	    13.837	   1.88993	1.53633e+07	      76.5	   13.9186	   1.79891	1.56251e+07	
         R10	   3907	      76.5	   13.9134	   1.89339	1.54659e+07	      76.5	   13.7606	   1.88646	1.52789e+07	      76.5	   13.7562	   2.06552	1.47501e+07	      76.5	   13.9054	   2.06835	1.49563e+07	      76.5	    13.837	   1.88993	1.53713e+07	      76.5	   13.7584	   1.97599	1.50131e+07	      76.5	   13.8308	   2.06693	1.48518e+07	      76.5	   13.9094	   1.98087	1.52097e+07	
         R10	   3908	      76.5	   13.9054	   2.06835	1.49987e+07	      76.5	   13.7562	   2.06552	1.47747e+07	      76.5	   13.7537	   2.23641	1.41647e+07	      76.5	   13.8986	     2.237	1.44853e+07	      76.5	   13.8308	   2.06693	1.48851e+07	      76.5	   13.7549	   2.15096	 1.4466e+07	      76.5	   13.8262	    2.2367	1.43223e+07	      76.5	    13.902	   2.15267	1.47389e+07	
         R10	   3909	      76.5	   14.0593	   2.07831	1.55182e+07	      76.5	   13.9054	   2.06835	1.52121e+07	      76.5	   13.8986	     2.237	1.45418e+07	      76.5	   14.0294	   2.24985	1.50526e+07	      76.5	   13.9824	   2.07333	1.53637e+07	      76.5	    13.902	   2.15267	1.48755e+07	      76.5	    13.964	   2.24342	1.47969e+07	      76.5	   14.0444	   2.16408	1.52826e+07	
         R10	   3910	      76.5	   14.0593	   2.07831	1.56699e+07	      76.5	   14.0294	   2.24985	1.51382e+07	      76.5	   14.1475	   2.27638	1.53477e+07	      76.5	   14.1648	   2.16587	1.57274e+07	      76.5	   14.0444	   2.16408	 1.5402e+07	      76.5	   14.0884	   2.26312	1.52426e+07	      76.5	   14.1561	   2.22112	1.55364e+07	      76.5	   14.1121	   2.12209	1.56984e+07	
         R10	   3911	      76.5	   14.1648	   2.16587	1.59458e+07	      76.5	   14.1475	   2.27638	1.54157e+07	      76.5	    14.259	   2.29782	1.57967e+07	      76.5	   14.2728	   2.20423	1.59552e+07	      76.5	   14.1561	   2.22112	1.56794e+07	      76.5	   14.2033	    2.2871	1.56056e+07	      76.5	   14.2659	   2.25102	1.58752e+07	      76.5	   14.2188	   2.18505	1.59502e+07	
         R10	   3912	      76.5	   14.2728	   2.20423	1.62834e+07	      76.5	    14.259	   2.29782	1.58705e+07	      76.5	   14.3566	   2.30621	1.62425e+07	      76.5	   14.3607	   2.19553	  1.641e+07	      76.5	   14.2659	   2.25102	1.60759e+07	      76.5	   14.3078	   2.30202	1.60545e+07	      76.5	   14.3586	   2.25087	1.63229e+07	      76.5	   14.3167	   2.19988	 1.6345e+07	
         R10	   3913	      76.5	   14.3607	   2.19553	1.66484e+07	      76.5	     14.45	   2.16173	1.63562e+07	      76.5	     14.45	     2.076	1.64507e+07	      76.5	   14.3479	   2.09043	1.66417e+07	      76.5	   14.4053	   2.17863	1.65009e+07	      76.5	     14.45	   2.11887	1.64033e+07	      76.5	    14.399	   2.08322	1.65459e+07	      76.5	   14.3543	   2.14298	1.66449e+07	
         R10	   3914	      76.5	   14.2728	   2.20423	1.63179e+07	      76.5	   14.3607	   2.19553	1.62816e+07	      76.5	   14.3479	   2.09043	1.63699e+07	      76.5	   14.2441	   2.10023	1.62878e+07	      76.5	   14.3167	   2.19988	1.62983e+07	      76.5	   14.3543	   2.14298	1.63257e+07	      76.5	    14.296	   2.09533	1.63282e+07	      76.5	   14.2585	   2.15223	1.63026e+07	
         R10	   3915	      76.5	   14.2441	   2.10023	1.62746e+07	      76.5	   14.3479	   2.09043	1.63879e+07	      76.5	   14.3422	   1.99574	1.65086e+07	      76.5	   14.1988	   2.00205	1.62729e+07	      76.5	    14.296	   2.09533	1.63307e+07	      76.5	   14.3451	   2.04309	1.64482e+07	      76.5	   14.2705	   1.99889	1.63903e+07	      76.5	   14.2215	   2.05114	1.62737e+07	
         R10	   3916	      76.5	   14.1988	   2.00205	1.62895e+07	      76.5	   14.3422	   1.99574	1.64944e+07	      76.5	    14.358	   1.90738	1.65678e+07	      76.5	   14.2569	    1.8888	1.66414e+07	      76.5	   14.2705	   1.99889	1.63917e+07	      76.5	   14.3501	   1.95156	 1.6531e+07	      76.5	   14.3075	   1.89809	1.66044e+07	      76.5	   14.2279	   1.94542	1.64646e+07	
         R10	   3917	      76.5	   14.2372	   1.76844	1.66202e+07	      76.5	    14.332	   1.79861	1.67236e+07	      76.5	   14.3569	   1.70302	1.68173e+07	      76.5	   14.2208	    1.6547	1.68154e+07	      76.5	   14.2846	   1.78352	1.66719e+07	      76.5	   14.3445	   1.75081	1.67703e+07	      76.5	   14.2889	   1.67886	1.68162e+07	      76.5	    14.229	   1.71157	1.67175e+07	
         R10	   3918	      76.5	   14.2069	   1.54193	1.68861e+07	      76.5	   14.3263	   1.50488	1.69078e+07	      76.5	   14.3167	   1.38081	1.69658e+07	      76.5	   14.1896	    1.3927	1.68824e+07	      76.5	   14.2666	   1.52341	1.68969e+07	      76.5	   14.3215	   1.44284	1.69366e+07	      76.5	   14.2531	   1.38675	1.69241e+07	      76.5	   14.1983	   1.46731	1.68839e+07	
         R10	   3919	      76.5	   14.1896	    1.3927	1.68618e+07	      76.5	   14.3167	   1.38081	1.69875e+07	      76.5	   14.3003	   1.24948	 1.6937e+07	      76.5	   14.1528	   1.26353	 1.6823e+07	      76.5	   14.2531	   1.38675	1.69247e+07	      76.5	   14.3085	   1.31515	1.69619e+07	      76.5	   14.2266	   1.25651	  1.688e+07	      76.5	   14.1712	   1.32811	1.68422e+07	
         R10	   3920	      76.5	   14.1528	   1.26353	1.68037e+07	      76.5	   14.3003	   1.24948	 1.6964e+07	      76.5	   14.2797	   1.10619	1.68856e+07	      76.5	   14.1089	   1.12081	1.66333e+07	      76.5	   14.2266	   1.25651	1.68838e+07	      76.5	     14.29	   1.17784	1.69244e+07	      76.5	   14.1943	    1.1135	1.67594e+07	      76.5	   14.1309	   1.19217	1.67181e+07	
         R10	   3921	      76.5	   14.1089	   1.12081	1.65806e+07	      76.5	   14.2797	   1.10619	1.69151e+07	      76.5	   14.2641	  0.955469	 1.6631e+07	      76.5	   14.0615	  0.962639	1.64245e+07	      76.5	   14.1943	    1.1135	1.67478e+07	      76.5	   14.2719	   1.03083	1.67723e+07	      76.5	   14.1628	  0.959054	1.65277e+07	      76.5	   14.0852	   1.04173	1.65022e+07	
         R10	   3922	      76.5	   13.8323	   1.03695	1.57741e+07	      76.5	   13.7811	   1.28003	  1.583e+07	      76.5	   13.9694	   1.31825	1.61603e+07	      76.5	   13.9747	   1.16007	1.60587e+07	      76.5	   13.8067	   1.15849	1.57996e+07	      76.5	   13.8752	   1.29914	1.59948e+07	      76.5	    13.972	   1.23916	1.61083e+07	      76.5	   13.9035	   1.09851	1.59157e+07	
         R10	   3923	      76.5	    14.073	    1.5543	1.63194e+07	      76.5	   13.9302	   1.51756	1.62202e+07	      76.5	   13.9239	   1.70443	 1.5954e+07	      76.5	   14.0747	   1.71447	1.61922e+07	      76.5	   14.0016	   1.53593	1.62697e+07	      76.5	    13.927	     1.611	1.60863e+07	      76.5	   13.9993	   1.70945	1.60728e+07	      76.5	   14.0738	   1.63438	1.62551e+07	
         R10	   3924	      76.5	   14.0747	   1.71447	1.62097e+07	      76.5	   13.9239	   1.70443	 1.6004e+07	      76.5	   13.9134	   1.89339	1.56242e+07	      76.5	   14.0399	   1.90877	1.57965e+07	      76.5	   13.9993	   1.70945	1.61067e+07	      76.5	   13.9186	   1.79891	 1.5813e+07	      76.5	   13.9766	   1.90108	1.57099e+07	      76.5	   14.0573	   1.81162	1.60016e+07	
         R10	   3925	      76.5	   14.0399	   1.90877	1.58016e+07	      76.5	   13.9134	   1.89339	  1.563e+07	      76.5	   13.9054	   2.06835	1.51494e+07	      76.5	   14.0593	   2.07831	1.55374e+07	      76.5	   13.9766	   1.90108	1.57155e+07	      76.5	   13.9094	   1.98087	1.53884e+07	      76.5	   13.9824	   2.07333	 1.5342e+07	      76.5	   14.0496	   1.99354	1.56686e+07	
         R10	   3926	      76.5	   14.1846	   1.82715	1.64393e+07	      76.5	   14.2569	    1.8888	1.65081e+07	      76.5	    14.332	   1.79861	1.67311e+07	      76.5	   14.2372	   1.76844	1.66751e+07	      76.5	   14.2208	   1.85798	1.64731e+07	      76.5	   14.2945	    1.8437	1.66187e+07	      76.5	   14.2846	   1.78352	1.67031e+07	      76.5	   14.2109	   1.79779	 1.6557e+07	
         R10	   3927	      76.5	   14.2208	    1.6547	1.68132e+07	      76.5	    14.345	    1.5985	1.69011e+07	      76.5	   14.3263	   1.50488	1.68975e+07	      76.5	   14.2069	   1.54193	1.68736e+07	      76.5	   14.2829	    1.6266	 1.6857e+07	      76.5	   14.3356	   1.55169	1.68992e+07	      76.5	   14.2666	   1.52341	1.68855e+07	      76.5	   14.2139	   1.59831	1.68432e+07	
         R10	   3928	      76.5	   14.1089	   1.12081	1.64599e+07	      76.5	   14.0615	  0.962639	1.62122e+07	      76.5	   13.8323	   1.03695	1.57687e+07	      76.5	   13.9747	   1.16007	1.61879e+07	      76.5	   14.0852	   1.04173	1.63355e+07	      76.5	   13.9469	  0.999793	1.59903e+07	      76.5	   13.9035	   1.09851	1.59755e+07	      76.5	   14.0418	   1.14044	1.63232e+07	
         R10	   3929	      76.5	   14.1528	   1.26353	1.66166e+07	      76.5	   14.1089	   1.12081	1.64658e+07	      76.5	   13.9747	   1.16007	1.63599e+07	      76.5	   13.9694	   1.31825	1.62748e+07	      76.5	   14.1309	   1.19217	1.65409e+07	      76.5	   14.0418	   1.14044	1.64127e+07	      76.5	    13.972	   1.23916	1.63161e+07	      76.5	   14.0611	   1.29089	1.64456e+07	
         R10	   3930	      76.5	   14.0842	   1.42163	1.65263e+07	      76.5	   14.1896	    1.3927	 1.6724e+07	      76.5	   14.1528	   1.26353	1.66325e+07	      76.5	   13.9694	   1.31825	1.63168e+07	      76.5	   14.1369	   1.40716	1.66247e+07	      76.5	   14.1712	   1.32811	 1.6678e+07	      76.5	   14.0611	   1.29089	1.64745e+07	      76.5	   14.0268	   1.36994	1.64203e+07	
         R10	   3931	      76.5	   14.0842	   1.42163	1.64296e+07	      76.5	   13.9694	   1.31825	1.63349e+07	      76.5	   13.9302	   1.51756	  1.617e+07	      76.5	    14.073	    1.5543	1.63074e+07	      76.5	   14.0268	   1.36994	1.63818e+07	      76.5	   13.9498	    1.4179	1.62514e+07	      76.5	   14.0016	   1.53593	1.62385e+07	      76.5	   14.0786	   1.48796	1.63681e+07	
         R10	   3932	      76.5	   14.0842	   1.42163	1.66466e+07	      76.5	    14.073	    1.5543	1.65171e+07	      76.5	   14.2069	   1.54193	 1.6654e+07	      76.5	   14.1896	    1.3927	1.67059e+07	      76.5	   14.0786	   1.48796	1.65813e+07	      76.5	     14.14	   1.54812	1.65855e+07	      76.5	   14.1983	   1.46731	1.66797e+07	      76.5	   14.1369	   1.40716	1.66762e+07	
         R10	   3933	      76.5	   14.0747	   1.71447	1.63603e+07	      76.5	   14.2208	    1.6547	1.66098e+07	      76.5	   14.2069	   1.54193	1.66483e+07	      76.5	    14.073	    1.5543	1.65497e+07	      76.5	   14.1477	   1.68458	1.64847e+07	      76.5	   14.2139	   1.59831	1.66288e+07	      76.5	     14.14	   1.54812	1.65989e+07	      76.5	   14.0738	   1.63438	1.64543e+07	
         R10	   3934	      76.5	   14.1846	   1.82715	1.63815e+07	      76.5	   14.2372	   1.76844	 1.6608e+07	      76.5	   14.2208	    1.6547	1.66297e+07	      76.5	   14.0747	   1.71447	1.63446e+07	      76.5	   14.2109	   1.79779	1.64947e+07	      76.5	    14.229	   1.71157	1.66184e+07	      76.5	   14.1477	   1.68458	1.64867e+07	      76.5	   14.1297	   1.77081	1.63628e+07	
         R10	   3935	      76.5	   14.1361	   1.91932	1.62122e+07	      76.5	   14.1988	   2.00205	1.62071e+07	      76.5	   14.2569	    1.8888	1.64396e+07	      76.5	   14.1846	   1.82715	1.64748e+07	      76.5	   14.1675	   1.96069	1.62095e+07	      76.5	   14.2279	   1.94542	1.63228e+07	      76.5	   14.2208	   1.85798	 1.6457e+07	      76.5	   14.1604	   1.87324	1.63433e+07	
         R10	   3936	      76.5	   14.1361	   1.91932	1.60594e+07	      76.5	   14.1846	   1.82715	1.63817e+07	      76.5	   14.0747	   1.71447	1.63462e+07	      76.5	   14.0399	   1.90877	 1.5964e+07	      76.5	   14.1604	   1.87324	1.62202e+07	      76.5	   14.1297	   1.77081	1.63634e+07	      76.5	   14.0573	   1.81162	1.61539e+07	      76.5	    14.088	   1.91405	1.60115e+07	
         R10	   3937	      76.5	   14.1361	   1.91932	  1.609e+07	      76.5	   14.0399	   1.90877	1.59755e+07	      76.5	   14.0593	   2.07831	1.56685e+07	      76.5	   14.1988	   2.00205	1.61798e+07	      76.5	    14.088	   1.91405	1.60325e+07	      76.5	   14.0496	   1.99354	 1.5821e+07	      76.5	   14.1291	   2.04018	1.59233e+07	      76.5	   14.1675	   1.96069	1.61343e+07	
         R10	   3938	      76.5	   14.1648	   2.16587	1.57528e+07	      76.5	   14.2441	   2.10023	1.62116e+07	      76.5	   14.1988	   2.00205	1.61766e+07	      76.5	   14.0593	   2.07831	1.56596e+07	      76.5	   14.2045	   2.13305	1.59807e+07	      76.5	   14.2215	   2.05114	 1.6194e+07	      76.5	   14.1291	   2.04018	1.59171e+07	      76.5	   14.1121	   2.12209	1.57051e+07	
         R10	   3939	      76.5	   14.3607	   2.19553	1.66397e+07	      76.5	     14.45	   2.24431	 1.6438e+07	      76.5	     14.45	   2.16173	1.63314e+07	      76.5	   14.4053	   2.21992	1.65365e+07	      76.5	     14.45	   2.20302	1.63839e+07	      76.5	   14.4053	   2.17863	1.64849e+07	       N/A	       N/A	       N/A	        N/A	       N/A	       N/A	       N/A	        N/A	
         R10	   3940	      76.5	   14.2569	    1.8888	1.66465e+07	      76.5	    14.358	   1.90738	1.65756e+07	      76.5	    14.332	   1.79861	1.66835e+07	      76.5	   14.3075	   1.89809	1.66111e+07	      76.5	    14.345	   1.85299	1.66295e+07	      76.5	   14.2945	    1.8437	1.66648e+07	       N/A	       N/A	       N/A	        N/A	       N/A	       N/A	       N/A	        N/A	
         R10	   3941	      76.5	   14.2208	    1.6547	1.67852e+07	      76.5	   14.3569	   1.70302	 1.6814e+07	      76.5	    14.345	    1.5985	 1.6892e+07	      76.5	   14.2889	   1.67886	1.67995e+07	      76.5	   14.3509	   1.65076	1.68528e+07	      76.5	   14.2829	    1.6266	1.68385e+07	       N/A	       N/A	       N/A	        N/A	       N/A	       N/A	       N/A	        N/A	
         R10	   3942	      76.5	   14.1648	   2.16587	 1.5845e+07	      76.5	   14.2728	   2.20423	1.60093e+07	      76.5	   14.2441	   2.10023	1.61723e+07	      76.5	   14.2188	   2.18505	 1.5927e+07	      76.5	   14.2585	   2.15223	1.60907e+07	      76.5	   14.2045	   2.13305	1.60082e+07	       N/A	       N/A	       N/A	        N/A	       N/A	       N/A	       N/A	        N/A	
         R10	   3943	      76.5	    17.154	         0	4.68496e+06	      76.5	      16.9	         0	2.02235e+07	      76.5	    16.834	  0.304533	9.66022e+06	      76.5	   17.1152	  0.341878	6.18665e+06	      76.5	    17.027	         0	 1.0275e+07	      76.5	    16.867	  0.152267	1.24958e+07	      76.5	   16.9746	  0.323206	6.70537e+06	      76.5	   17.1346	  0.170939	4.28757e+06	
         R10	   3944	      76.5	   17.1216	  0.574847	6.79335e+06	      76.5	   17.1358	       0.8	8.38943e+06	      76.5	   17.3612	       0.8	8.06399e+06	      76.5	   17.3688	  0.563152	6.89211e+06	      76.5	   17.1287	  0.687424	7.56321e+06	      76.5	   17.2485	       0.8	8.20022e+06	      76.5	    17.365	  0.681576	7.46471e+06	      76.5	   17.2452	     0.569	6.69684e+06	
         R10	   3945	      76.5	   17.3688	  0.563152	7.03228e+06	      76.5	   17.3612	       0.8	  8.251e+06	      76.5	   17.6004	       0.8	8.47429e+06	      76.5	   17.6304	  0.558673	7.01025e+06	      76.5	    17.365	  0.681576	7.62947e+06	      76.5	   17.4808	       0.8	8.32316e+06	      76.5	   17.6154	  0.679336	7.71707e+06	      76.5	   17.4996	  0.560912	6.98812e+06	
         R10	   3946	      76.5	   17.3652	  0.307495	3.42203e+06	      76.5	   17.3688	  0.563152	7.23606e+06	      76.5	   17.6304	  0.558673	7.03503e+06	      76.5	   17.6636	  0.292006	8.74686e+06	      76.5	    17.367	  0.435323	5.13056e+06	      76.5	   17.4996	  0.560912	 7.1191e+06	      76.5	    17.647	  0.425339	7.86556e+06	      76.5	   17.5144	   0.29975	5.97649e+06	
         R10	   3947	      76.5	   17.3652	  0.307495	4.34826e+06	      76.5	   17.6636	  0.292006	7.94214e+06	      76.5	      17.7	         0	1.44941e+07	      76.5	   17.4206	         0	4.03259e+06	      76.5	   17.5144	   0.29975	5.93913e+06	      76.5	   17.6818	  0.146003	1.07326e+07	      76.5	   17.5603	         0	7.91673e+06	      76.5	   17.3929	  0.153747	3.30352e+06	
         R10	   3948	      76.5	   17.3652	  0.307495	 5.3676e+06	      76.5	   17.4206	         0	3.55888e+06	      76.5	    17.154	         0	2.72005e+06	      76.5	   17.1152	  0.341878	6.87133e+06	      76.5	   17.3929	  0.153747	2.85566e+06	      76.5	   17.2873	         0	1.47501e+06	      76.5	   17.1346	  0.170939	2.65087e+06	      76.5	   17.2402	  0.324686	4.73306e+06	
         R10	   3949	      76.5	   16.7761	    0.5712	7.16627e+06	      76.5	   16.9242	       0.8	8.45166e+06	      76.5	   17.1358	       0.8	8.36979e+06	      76.5	   17.1216	  0.574847	7.30643e+06	      76.5	   16.8502	    0.6856	7.80556e+06	      76.5	     17.03	       0.8	8.37766e+06	      76.5	   17.1287	  0.687424	7.83187e+06	      76.5	   16.9488	  0.573023	 7.2184e+06	
         R10	   3950	      76.5	   17.1216	  0.574847	6.12791e+06	      76.5	   17.3688	  0.563152	 6.9554e+06	      76.5	   17.3652	  0.307495	3.59899e+06	      76.5	   17.1152	  0.341878	5.71023e+06	      76.5	   17.2452	     0.569	6.40244e+06	      76.5	    17.367	  0.435323	5.26248e+06	      76.5	   17.2402	  0.324686	 4.3594e+06	      76.5	   17.1184	  0.458363	 5.8826e+06	
         R10	   3951	      76.5	   16.7761	    0.5712	7.50046e+06	      76.5	   17.1216	  0.574847	7.40485e+06	      76.5	   17.1152	  0.341878	6.19356e+06	      76.5	    16.834	  0.304533	9.36236e+06	      76.5	   16.9488	  0.573023	7.41474e+06	      76.5	   17.1184	  0.458363	6.38471e+06	      76.5	   16.9746	  0.323206	7.20694e+06	      76.5	    16.805	  0.437866	8.34444e+06	
         R10	   3952	      76.5	   16.7761	    0.5712	7.43388e+06	      76.5	   16.7265	       0.8	 8.0994e+06	      76.5	   16.9242	       0.8	 8.3929e+06	      76.5	   16.7513	    0.6856	7.76253e+06	      76.5	   16.8254	       0.8	8.24085e+06	      76.5	   16.8502	    0.6856	7.91299e+06	       N/A	       N/A	       N/A	        N/A	       N/A	       N/A	       N/A	        N/A	
         R10	   3953	      76.5	    15.554	         0	6.18982e+06	      76.5	      15.3	         0	6.86036e+06	      76.5	      15.3	  0.237669	4.35355e+06	      76.5	   15.5629	  0.231698	2.26171e+06	      76.5	    15.427	         0	5.58158e+06	      76.5	      15.3	  0.118834	4.46256e+06	      76.5	   15.4315	  0.234683	2.97713e+06	      76.5	   15.5584	  0.115849	 4.0662e+06	
         R10	   3954	      76.5	   15.5629	  0.231698	 2.9596e+06	      76.5	      15.3	  0.237669	3.27685e+06	      76.5	      15.3	  0.450225	4.01072e+06	      76.5	   15.5432	  0.440834	2.51767e+06	      76.5	   15.4315	  0.234683	2.68759e+06	      76.5	      15.3	  0.343947	3.56055e+06	      76.5	   15.4216	   0.44553	  3.154e+06	      76.5	   15.5531	  0.336266	2.60132e+06	
         R10	   3955	      76.5	   15.5432	  0.440834	2.82366e+06	      76.5	      15.3	  0.450225	3.52317e+06	      76.5	      15.3	  0.637669	4.51441e+06	      76.5	   15.4981	   0.61914	3.49496e+06	      76.5	   15.4216	   0.44553	 3.0613e+06	      76.5	      15.3	  0.543947	4.00359e+06	      76.5	    15.399	  0.628404	3.93517e+06	      76.5	   15.5206	  0.529987	3.14652e+06	
         R10	   3956	      76.5	   15.4981	   0.61914	3.62589e+06	      76.5	      15.3	  0.637669	4.69778e+06	      76.5	      15.3	       0.8	4.68708e+06	      76.5	   15.4447	       0.8	4.53331e+06	      76.5	    15.399	  0.628404	 4.0979e+06	      76.5	      15.3	  0.718834	4.68913e+06	      76.5	   15.3724	       0.8	 4.5855e+06	      76.5	   15.4714	   0.70957	4.07293e+06	
         R10	   3957	      76.5	   15.6821	  0.652991	4.03093e+06	      76.5	   15.4981	   0.61914	3.54538e+06	      76.5	   15.4447	       0.8	4.60572e+06	      76.5	   15.5991	       0.8	4.64731e+06	      76.5	   15.5901	  0.636065	3.69151e+06	      76.5	   15.4714	   0.70957	4.07005e+06	      76.5	   15.5219	       0.8	4.58393e+06	      76.5	   15.6406	  0.726495	4.29981e+06	
         R10	   3958	      76.5	   15.9326	  0.640757	6.05861e+06	      76.5	   15.9365	       0.8	6.46413e+06	      76.5	   16.1196	       0.8	7.35436e+06	      76.5	   16.1125	  0.604497	 7.7486e+06	      76.5	   15.9346	  0.720379	6.24166e+06	      76.5	    16.028	       0.8	6.90496e+06	      76.5	    16.116	  0.702249	7.55031e+06	      76.5	   16.0226	  0.622627	 6.9006e+06	
         R10	   3959	      76.5	   16.1125	  0.604497	7.64365e+06	      76.5	   16.1196	       0.8	7.39221e+06	      76.5	   16.3123	       0.8	8.06157e+06	      76.5	   16.3297	  0.570973	7.73897e+06	      76.5	    16.116	  0.702249	7.51594e+06	      76.5	    16.216	       0.8	7.72574e+06	      76.5	    16.321	  0.685486	7.89652e+06	      76.5	   16.2211	  0.587735	7.68543e+06	
         R10	   3960	      76.5	   16.3297	  0.570973	7.50211e+06	      76.5	   16.3123	       0.8	7.93638e+06	      76.5	   16.5146	       0.8	8.25751e+06	      76.5	    16.552	  0.537142	6.87425e+06	      76.5	    16.321	  0.685486	7.71798e+06	      76.5	   16.4135	       0.8	8.09108e+06	      76.5	   16.5333	  0.668571	7.56115e+06	      76.5	   16.4409	  0.554057	7.17498e+06	
         R10	   3961	      76.5	    16.552	  0.537142	7.04945e+06	      76.5	   16.5146	       0.8	8.10722e+06	      76.5	   16.7265	       0.8	8.53367e+06	      76.5	   16.7761	    0.5712	7.53696e+06	      76.5	   16.5333	  0.668571	7.56841e+06	      76.5	   16.6206	       0.8	8.30967e+06	      76.5	   16.7513	    0.6856	8.02772e+06	      76.5	   16.6641	  0.554171	 7.2802e+06	
         R10	   3962	      76.5	    16.552	  0.537142	7.23736e+06	      76.5	   16.7761	    0.5712	7.24876e+06	      76.5	    16.834	  0.304533	8.32588e+06	      76.5	    16.571	  0.285904	3.45164e+06	      76.5	   16.6641	  0.554171	7.23846e+06	      76.5	    16.805	  0.437866	7.71935e+06	      76.5	   16.7025	  0.295219	 5.6905e+06	      76.5	   16.5615	  0.411523	5.25336e+06	
         R10	   3963	      76.5	    16.571	  0.285904	2.14149e+06	      76.5	    16.834	  0.304533	8.61185e+06	      76.5	      16.9	         0	1.37619e+07	      76.5	    16.608	         0	3.25768e+06	      76.5	   16.7025	  0.295219	5.31523e+06	      76.5	    16.867	  0.152267	1.02461e+07	      76.5	    16.754	         0	6.19913e+06	      76.5	   16.5895	  0.142952	1.71485e+06	
         R10	   3964	      76.5	    16.315	  0.171296	1.02383e+07	      76.5	    16.571	  0.285904	3.90093e+06	      76.5	    16.608	         0	9.02086e+06	      76.5	   16.3413	         0	4.04485e+06	      76.5	    16.443	    0.2286	6.26693e+06	      76.5	   16.5895	  0.142952	5.10921e+06	      76.5	   16.4747	         0	3.22281e+06	      76.5	   16.3282	  0.085648	3.21932e+06	
         R10	   3965	      76.5	    16.315	  0.171296	1.28793e+07	      76.5	   16.3413	         0	8.24116e+06	      76.5	      16.1	         0	3.41387e+07	      76.5	   16.0536	  0.215017	1.51895e+07	      76.5	   16.3282	  0.085648	9.09552e+06	      76.5	   16.2207	         0	1.70168e+07	      76.5	   16.0768	  0.107508	2.13525e+07	      76.5	   16.1843	  0.193157	9.32763e+06	
         R10	   3966	      76.5	   16.0536	  0.215017	1.29105e+07	      76.5	      16.1	         0	2.06315e+07	      76.5	   15.8206	         0	7.67493e+06	      76.5	   15.8108	  0.235053	1.77827e+06	      76.5	   16.0768	  0.107508	1.42605e+07	      76.5	   15.9603	         0	7.29571e+06	      76.5	   15.8157	  0.117527	3.09307e+06	      76.5	   15.9322	  0.225035	6.55433e+06	
         R10	   3967	      76.5	   15.8108	  0.235053	4.95542e+06	      76.5	   15.8206	         0	6.73708e+06	      76.5	    15.554	         0	5.46158e+06	      76.5	   15.5629	  0.231698	2.71061e+06	      76.5	   15.8157	  0.117527	4.65011e+06	      76.5	   15.6873	         0	5.75325e+06	      76.5	   15.5584	  0.115849	3.95644e+06	      76.5	   15.6868	  0.233375	3.25597e+06	
         R10	   3968	      76.5	   15.7949	  0.452914	4.37071e+06	      76.5	   15.8108	  0.235053	2.89171e+06	      76.5	   15.5629	  0.231698	3.72687e+06	      76.5	   15.5432	  0.440834	2.49153e+06	      76.5	   15.8028	  0.343984	3.59018e+06	      76.5	   15.6868	  0.233375	3.24945e+06	      76.5	   15.5531	  0.336266	3.08762e+06	      76.5	   15.6691	  0.446874	3.19296e+06	
         R10	   3969	      76.5	   15.7949	  0.452914	4.04815e+06	      76.5	   15.5432	  0.440834	2.80556e+06	      76.5	   15.4981	   0.61914	3.49797e+06	      76.5	   15.6821	  0.652991	4.13933e+06	      76.5	   15.6691	  0.446874	3.14935e+06	      76.5	   15.5206	  0.529987	3.13644e+06	      76.5	   15.5901	  0.636065	3.72757e+06	      76.5	   15.7385	  0.552952	3.96381e+06	
         R10	   3970	      76.5	   15.6821	  0.652991	4.13276e+06	      76.5	    15.763	       0.8	5.26187e+06	      76.5	   15.9365	       0.8	6.38668e+06	      76.5	   15.9326	  0.640757	6.11029e+06	      76.5	   15.7225	  0.726495	4.69578e+06	      76.5	   15.8497	       0.8	5.80553e+06	      76.5	   15.9346	  0.720379	6.23429e+06	      76.5	   15.8073	  0.646874	5.08347e+06	
         R10	   3971	      76.5	   15.7949	  0.452914	   5.03e+06	      76.5	   15.9326	  0.640757	6.21142e+06	      76.5	   16.1125	  0.604497	7.68946e+06	      76.5	   16.0746	  0.429174	7.97236e+06	      76.5	   15.8638	  0.546836	5.58921e+06	      76.5	   16.0226	  0.622627	6.94875e+06	      76.5	   16.0936	  0.516835	7.79719e+06	      76.5	   15.9348	  0.441044	6.47166e+06	
         R10	   3972	      76.5	   16.0746	  0.429174	8.09716e+06	      76.5	   16.1125	  0.604497	7.58269e+06	      76.5	   16.3297	  0.570973	7.80755e+06	      76.5	   16.3133	  0.416652	8.51919e+06	      76.5	   16.0936	  0.516835	7.83598e+06	      76.5	   16.2211	  0.587735	7.68088e+06	      76.5	   16.3215	  0.493812	8.15979e+06	      76.5	   16.1939	  0.422913	8.30114e+06	
         R10	   3973	      76.5	   16.0536	  0.215017	1.18854e+07	      76.5	   15.8108	  0.235053	3.48626e+06	      76.5	   15.7949	  0.452914	5.43412e+06	      76.5	   16.0746	  0.429174	6.95511e+06	      76.5	   15.9322	  0.225035	6.80914e+06	      76.5	   15.8028	  0.343984	3.72722e+06	      76.5	   15.9348	  0.441044	6.19097e+06	      76.5	   16.0641	  0.322095	 9.4192e+06	
         R10	   3974	      76.5	    16.315	  0.171296	1.16826e+07	      76.5	   16.0536	  0.215017	1.36914e+07	      76.5	   16.0746	  0.429174	8.74997e+06	      76.5	   16.3133	  0.416652	9.43499e+06	      76.5	   16.1843	  0.193157	1.02149e+07	      76.5	   16.0641	  0.322095	  1.106e+07	      76.5	   16.1939	  0.422913	9.06263e+06	      76.5	   16.3141	  0.293974	9.76932e+06	
         R10	   3975	      76.5	    16.571	  0.285904	3.41755e+06	      76.5	   16.3133	  0.416652	8.38444e+06	      76.5	   16.3297	  0.570973	 7.3386e+06	      76.5	    16.552	  0.537142	6.80115e+06	      76.5	   16.4421	  0.351278	5.81346e+06	      76.5	   16.3215	  0.493812	7.77476e+06	      76.5	   16.4409	  0.554057	7.05027e+06	      76.5	   16.5615	  0.411523	5.10764e+06	
         R10	   3976	      76.5	   15.6821	  0.652991	4.08737e+06	      76.5	   15.5991	       0.8	4.66146e+06	      76.5	    15.763	       0.8	5.26194e+06	      76.5	   15.6406	  0.726495	4.33649e+06	      76.5	    15.681	       0.8	 4.9146e+06	      76.5	   15.7225	  0.726495	4.67383e+06	       N/A	       N/A	       N/A	        N/A	       N/A	       N/A	       N/A	        N/A	
         R10	   3977	      76.5	   15.7949	  0.452914	4.56697e+06	      76.5	   15.6821	  0.652991	4.03083e+06	      76.5	   15.9326	  0.640757	6.25032e+06	      76.5	   15.7385	  0.552952	4.19722e+06	      76.5	   15.8073	  0.646874	5.09355e+06	      76.5	   15.8638	  0.546836	5.38793e+06	       N/A	       N/A	       N/A	        N/A	       N/A	       N/A	       N/A	        N/A	
         R10	   3978	      76.5	    16.571	  0.285904	3.53352e+06	      76.5	    16.315	  0.171296	6.14668e+06	      76.5	   16.3133	  0.416652	8.42663e+06	      76.5	    16.443	    0.2286	 4.4173e+06	      76.5	   16.3141	  0.293974	 7.2546e+06	      76.5	   16.4421	  0.351278	5.68964e+06	       N/A	       N/A	       N/A	        N/A	       N/A	       N/A	       N/A	        N/A	
         R10	   3979	    80.325	   19.7344	         0	6.61127e+06	     80.75	   19.7344	         0	1.54211e+07	     80.75	      19.3	         0	5.89521e+06	    80.325	      19.3	         0	9.65306e+06	   80.5375	   19.7344	         0	1.07224e+07	     80.75	   19.5172	         0	1.06573e+07	   80.5375	      19.3	         0	7.54187e+06	    80.325	   19.5172	         0	7.40691e+06	
         R10	   3980	      79.9	   19.7344	         0	9.48923e+06	    80.325	   19.7344	         0	9.12516e+06	    80.325	      19.3	         0	8.42827e+06	      79.9	      19.3	         0	9.50201e+06	   80.1125	   19.7344	         0	9.28255e+06	    80.325	   19.5172	         0	8.36251e+06	   80.1125	      19.3	         0	8.93724e+06	      79.9	   19.5172	         0	9.04888e+06	
         R10	   3981	    79.475	   19.7344	         0	 9.9263e+06	      79.9	   19.7344	         0	8.75202e+06	      79.9	      19.3	         0	9.56741e+06	    79.475	      19.3	         0	1.02656e+07	   79.6875	   19.7344	         0	9.29495e+06	      79.9	   19.5172	         0	8.89111e+06	   79.6875	      19.3	         0	9.91347e+06	    79.475	   19.5172	         0	9.87379e+06	
         R10	   3982	     79.05	   19.7344	         0	9.33525e+06	    79.475	   19.7344	         0	9.62161e+06	    79.475	      19.3	         0	1.03261e+07	     79.05	      19.3	         0	1.08653e+07	   79.2625	   19.7344	         0	9.42917e+06	    79.475	   19.5172	         0	9.81665e+06	   79.2625	      19.3	         0	1.05912e+07	     79.05	   19.5172	         0	9.90165e+06	
         R10	   3983	    78.625	   19.7344	         0	9.67319e+06	     79.05	   19.7344	         0	1.00024e+07	     79.05	      19.3	         0	1.08549e+07	    78.625	      19.3	         0	1.11409e+07	   78.8375	   19.7344	         0	9.83186e+06	     79.05	   19.5172	         0	1.02689e+07	   78.8375	      19.3	         0	1.09968e+07	    78.625	   19.5172	         0	 1.0166e+07	
         R10	   3984	   79.6875	   21.0994	  0.764833	8.56388e+06	   79.1563	   21.0994	  0.764835	8.33562e+06	   79.1563	   21.3636	    1.2195	6.87726e+06	   79.6875	   21.3636	    1.2195	8.48288e+06	   79.4219	   21.0994	  0.764834	8.37125e+06	   79.1563	   21.2465	  0.983449	7.60073e+06	   79.4219	   21.3636	    1.2195	7.65017e+06	   79.6875	   21.2465	  0.983448	8.52301e+06	
         R10	   3985	   80.2188	   21.0994	  0.764835	8.51484e+06	   79.6875	   21.0994	  0.764833	7.86113e+06	   79.6875	   21.3636	    1.2195	7.73211e+06	   80.2188	   21.3636	    1.2195	8.16668e+06	   79.9531	   21.0994	  0.764834	8.07389e+06	   79.6875	   21.2465	  0.983448	7.78028e+06	   79.9531	   21.3636	    1.2195	7.93147e+06	   80.2188	   21.2465	  0.983449	8.25707e+06	
         R10	   3986	     80.75	   21.0996	  0.765063	 9.1869e+06	   80.2188	   21.0994	  0.764835	6.96005e+06	   80.2188	   21.3636	    1.2195	9.57812e+06	     80.75	   21.3636	    1.2195	1.08859e+07	   80.4844	   21.0995	  0.764949	8.02113e+06	   80.2188	   21.2465	  0.983449	8.23128e+06	   80.4844	   21.3636	    1.2195	 9.8656e+06	     80.75	   21.2466	  0.983574	9.97069e+06	
         R10	   3987	   80.2188	   20.7284	  0.396646	   7.47e+06	   80.2188	   21.0994	  0.764835	6.52861e+06	     80.75	   21.0996	  0.765063	9.38242e+06	     80.75	   20.7284	  0.396646	 1.2252e+07	   80.2188	    20.926	  0.568568	6.95977e+06	   80.4844	   21.0995	  0.764949	7.89049e+06	     80.75	   20.9261	   0.56867	1.06757e+07	   80.4844	   20.7284	  0.396646	9.80564e+06	
         R10	   3988	   79.6875	   20.7284	  0.396646	8.81071e+06	   79.6875	   21.0994	  0.764833	7.84349e+06	   80.2188	   21.0994	  0.764835	8.13137e+06	   80.2188	   20.7284	  0.396646	8.45635e+06	   79.6875	    20.926	  0.568567	8.31574e+06	   79.9531	   21.0994	  0.764834	7.90456e+06	   80.2188	    20.926	  0.568568	8.26987e+06	   79.9531	   20.7284	  0.396646	8.52458e+06	
         R10	   3989	   79.1563	   20.7284	  0.396646	8.85568e+06	   79.1563	   21.0994	  0.764835	 8.2819e+06	   79.6875	   21.0994	  0.764833	8.60461e+06	   79.6875	   20.7284	  0.396646	8.61533e+06	   79.1563	    20.926	  0.568568	8.56549e+06	   79.4219	   21.0994	  0.764834	8.33852e+06	   79.6875	    20.926	  0.568567	8.58996e+06	   79.4219	   20.7284	  0.396646	8.67855e+06	
         R10	   3990	    78.625	   21.0996	  0.765063	8.56402e+06	   79.1563	   21.0994	  0.764835	8.38381e+06	   79.1563	   20.7284	  0.396646	8.84461e+06	    78.625	   20.7284	  0.396646	9.00486e+06	   78.8906	   21.0995	  0.764949	8.40603e+06	   79.1563	    20.926	  0.568568	8.60823e+06	   78.8906	   20.7284	  0.396646	8.87519e+06	    78.625	   20.9261	   0.56867	8.78324e+06	
         R10	   3991	    78.625	   21.3636	    1.2195	 7.0591e+06	   79.1563	   21.3636	    1.2195	8.14142e+06	   79.1563	   21.0994	  0.764835	8.35776e+06	    78.625	   21.0996	  0.765063	8.56416e+06	   78.8906	   21.3636	    1.2195	7.53927e+06	   79.1563	   21.2465	  0.983449	8.24585e+06	   78.8906	   21.0995	  0.764949	8.36948e+06	    78.625	   21.2466	  0.983574	7.80854e+06	
         R10	   3992	      76.5	   15.4447	       0.8	4.53365e+06	      76.5	      15.3	       0.8	4.77892e+06	      76.5	      15.3	  0.951056	6.24315e+06	      76.5	   15.4471	  0.948442	5.41115e+06	      76.5	   15.3724	       0.8	4.63462e+06	      76.5	      15.3	  0.875528	5.50928e+06	      76.5	   15.3736	  0.949749	5.79642e+06	      76.5	   15.4459	  0.874221	4.97131e+06	
         R10	   3993	      76.5	   15.4471	  0.948442	5.60917e+06	      76.5	      15.3	  0.951056	5.46879e+06	      76.5	      15.3	   1.08986	6.60022e+06	      76.5	   15.4372	   1.08661	6.11662e+06	      76.5	   15.3736	  0.949749	5.52271e+06	      76.5	      15.3	   1.02046	6.03429e+06	      76.5	   15.3686	   1.08823	6.33765e+06	      76.5	   15.4422	   1.01753	5.86281e+06	
         R10	   3994	      76.5	   15.4372	   1.08661	6.22916e+06	      76.5	      15.3	   1.08986	6.29076e+06	      76.5	      15.3	    1.2164	7.03876e+06	      76.5	   15.4238	   1.21291	6.80691e+06	      76.5	   15.3686	   1.08823	6.24415e+06	      76.5	      15.3	   1.15313	 6.6647e+06	      76.5	   15.3619	   1.21465	6.90917e+06	      76.5	   15.4305	   1.14976	6.51794e+06	
         R10	   3995	      76.5	   15.4238	   1.21291	6.85192e+06	      76.5	      15.3	    1.2164	6.91744e+06	      76.5	      15.3	   1.33068	7.51075e+06	      76.5	   15.4108	   1.32815	7.39339e+06	      76.5	   15.3619	   1.21465	6.87284e+06	      76.5	      15.3	   1.27354	7.21404e+06	      76.5	   15.3554	   1.32942	7.44239e+06	      76.5	   15.4173	   1.27053	7.12259e+06	
         R10	   3996	      76.5	   15.4108	   1.32815	7.37468e+06	      76.5	      15.3	   1.33068	7.50194e+06	      76.5	      15.3	   1.43271	7.95742e+06	      76.5	    15.399	   1.42981	7.92684e+06	      76.5	   15.3554	   1.32942	7.42927e+06	      76.5	      15.3	    1.3817	7.72961e+06	      76.5	   15.3495	   1.43126	7.93525e+06	      76.5	   15.4049	   1.37898	7.65068e+06	
         R10	   3997	      76.5	    15.399	   1.42981	7.82992e+06	      76.5	      15.3	   1.43271	8.07839e+06	      76.5	      15.3	   1.52248	8.28162e+06	      76.5	    15.387	   1.52533	8.60623e+06	      76.5	   15.3495	   1.43126	7.94716e+06	      76.5	      15.3	    1.4776	8.17968e+06	      76.5	   15.3435	   1.52391	8.43302e+06	      76.5	    15.393	   1.47757	8.21761e+06	
         R10	   3998	      76.5	    15.387	   1.52533	8.38108e+06	      76.5	      15.3	   1.52248	9.17611e+06	      76.5	      15.3	       1.6	8.31354e+06	      76.5	   15.3728	   1.62497	8.80525e+06	      76.5	   15.3435	   1.52391	8.76647e+06	      76.5	      15.3	   1.56124	8.72637e+06	      76.5	   15.3364	   1.61249	8.55519e+06	      76.5	   15.3799	   1.57515	8.59245e+06	
         R10	   3999	      76.5	   15.4773	   1.54028	 8.3116e+06	      76.5	    15.387	   1.52533	8.36549e+06	      76.5	   15.3728	   1.62497	8.78849e+06	      76.5	   15.4484	   1.65091	8.90468e+06	      76.5	   15.4321	   1.53281	8.33371e+06	      76.5	   15.3799	   1.57515	8.57627e+06	      76.5	   15.4106	   1.63794	8.83911e+06	      76.5	   15.4628	    1.5956	8.60813e+06	
         R10	   4000	      76.5	   15.4773	   1.54028	8.31941e+06	      76.5	   15.4484	   1.65091	8.91528e+06	      76.5	   15.5269	   1.67782	8.96664e+06	      76.5	   15.5552	   1.58707	8.46644e+06	      76.5	   15.4628	    1.5956	8.61733e+06	      76.5	   15.4877	   1.66437	8.93492e+06	      76.5	    15.541	   1.63244	8.71653e+06	      76.5	   15.5162	   1.56367	8.38767e+06	
         R10	   4001	      76.5	   15.5552	   1.58707	8.46684e+06	      76.5	   15.5269	   1.67782	8.97147e+06	      76.5	   15.6082	   1.70569	9.01261e+06	      76.5	   15.6383	   1.61981	8.60441e+06	      76.5	    15.541	   1.63244	8.71914e+06	      76.5	   15.5675	   1.69176	8.98746e+06	      76.5	   15.6232	   1.66275	8.80839e+06	      76.5	   15.5967	   1.60344	8.53009e+06	
         R10	   4002	      76.5	   15.6383	   1.61981	8.59462e+06	      76.5	   15.6082	   1.70569	9.00995e+06	      76.5	   15.6922	   1.73453	9.06711e+06	      76.5	   15.7227	    1.6478	8.71714e+06	      76.5	   15.6232	   1.66275	8.80216e+06	      76.5	   15.6502	   1.72011	9.03443e+06	      76.5	   15.7075	   1.69116	8.89191e+06	      76.5	   15.6805	    1.6338	8.65162e+06	
         R10	   4003	      76.5	   15.7227	    1.6478	8.70435e+06	      76.5	   15.6922	   1.73453	9.06727e+06	      76.5	   15.7791	   1.76433	9.14185e+06	      76.5	   15.8106	   1.67476	8.84855e+06	      76.5	   15.7075	   1.69116	8.88559e+06	      76.5	   15.7357	   1.74943	9.10119e+06	      76.5	   15.7949	   1.71955	8.99484e+06	      76.5	   15.7667	   1.66128	 8.7728e+06	
         R10	   4004	      76.5	   15.8106	   1.67476	8.82698e+06	      76.5	   15.7791	   1.76433	9.14066e+06	      76.5	   15.8689	    1.7951	9.23229e+06	      76.5	   15.9018	   1.70209	9.01392e+06	      76.5	   15.7949	   1.71955	8.98344e+06	      76.5	    15.824	   1.77972	 9.1838e+06	      76.5	   15.8853	   1.74859	9.12254e+06	      76.5	   15.8562	   1.68842	8.91754e+06	
         R10	   4005	      76.5	   15.9018	   1.70209	8.98381e+06	      76.5	   15.8689	    1.7951	 9.2304e+06	      76.5	   15.9614	   1.82684	9.35438e+06	      76.5	   15.9952	   1.73026	9.21511e+06	      76.5	   15.8853	   1.74859	9.10653e+06	      76.5	   15.9151	   1.81097	9.29046e+06	      76.5	   15.9783	   1.77855	9.28382e+06	      76.5	   15.9485	   1.71617	9.09719e+06	
         R10	   4006	      76.5	   15.9952	   1.73026	9.17406e+06	      76.5	   15.9614	   1.82684	9.35291e+06	      76.5	   16.0567	   1.85954	9.51844e+06	      76.5	    16.091	   1.76071	9.46271e+06	      76.5	   15.9783	   1.77855	9.26256e+06	      76.5	   16.0091	   1.84319	9.43429e+06	      76.5	   16.0739	   1.81012	9.48931e+06	      76.5	   16.0431	   1.74548	9.31683e+06	
         R10	   4007	      76.5	    16.091	   1.76071	 9.3892e+06	      76.5	   16.0567	   1.85954	9.51816e+06	      76.5	   16.1549	    1.8932	9.76607e+06	      76.5	   16.1873	   1.79422	9.75069e+06	      76.5	   16.0739	   1.81012	9.45235e+06	      76.5	   16.1058	   1.87637	9.64114e+06	      76.5	   16.1711	   1.84371	9.75661e+06	      76.5	   16.1391	   1.77747	9.56884e+06	
         R10	   4008	      76.5	   16.1873	   1.79422	9.62694e+06	      76.5	   16.1549	    1.8932	9.76733e+06	      76.5	   16.2559	   1.92784	 1.0134e+07	      76.5	   16.2882	   1.82816	1.00848e+07	      76.5	   16.1711	   1.84371	9.69504e+06	      76.5	   16.2054	   1.91052	9.94959e+06	      76.5	    16.272	     1.878	1.01072e+07	      76.5	   16.2377	   1.81119	9.85496e+06	
         R10	   4009	      76.5	   16.2882	   1.82816	9.89916e+06	      76.5	   16.2559	   1.92784	1.01248e+07	      76.5	   16.3597	   1.96344	  1.048e+07	      76.5	    16.394	   1.85418	1.06238e+07	      76.5	    16.272	     1.878	1.00087e+07	      76.5	   16.3078	   1.94564	1.03007e+07	      76.5	   16.3768	   1.90881	1.05479e+07	      76.5	   16.3411	   1.84117	1.02614e+07	
         R10	   4010	      76.5	    16.394	   1.85418	1.03999e+07	      76.5	   16.3597	   1.96344	1.05787e+07	      76.5	   16.4663	         2	1.06062e+07	      76.5	   16.4915	   1.88373	1.13816e+07	      76.5	   16.3768	   1.90881	1.04846e+07	      76.5	    16.413	   1.98172	1.05919e+07	      76.5	   16.4789	   1.94186	1.09838e+07	      76.5	   16.4427	   1.86895	1.08905e+07	
         R10	   4011	      76.5	    16.394	   1.85418	1.03977e+07	      76.5	   16.4915	   1.88373	 1.1303e+07	      76.5	   16.5207	   1.74907	1.10448e+07	      76.5	    16.385	   1.71129	1.02318e+07	      76.5	   16.4427	   1.86895	  1.085e+07	      76.5	   16.5061	    1.8164	 1.1161e+07	      76.5	   16.4528	   1.73018	1.06354e+07	      76.5	   16.3895	   1.78273	1.03108e+07	
         R10	   4012	      76.5	    16.385	   1.71129	1.02598e+07	      76.5	   16.5207	   1.74907	1.11045e+07	      76.5	   16.5539	   1.59602	 1.0826e+07	      76.5	   16.4042	   1.54963	1.00683e+07	      76.5	   16.4528	   1.73018	1.06797e+07	      76.5	   16.5373	   1.67255	1.09563e+07	      76.5	    16.479	   1.57283	1.04429e+07	      76.5	   16.3946	   1.63046	1.01585e+07	
         R10	   4013	      76.5	   16.4042	   1.54963	1.00376e+07	      76.5	   16.5539	   1.59602	1.08222e+07	      76.5	   16.5911	    1.4246	1.04462e+07	      76.5	   16.4147	   1.38067	9.68808e+06	      76.5	    16.479	   1.57283	 1.0426e+07	      76.5	   16.5725	   1.51031	1.06264e+07	      76.5	   16.5029	   1.40264	1.00616e+07	      76.5	   16.4095	   1.46515	9.85765e+06	
         R10	   4014	      76.5	   16.4147	   1.38067	9.65317e+06	      76.5	   16.5911	    1.4246	1.04358e+07	      76.5	   16.6322	   1.23478	9.89717e+06	      76.5	   16.4414	   1.19228	9.24685e+06	      76.5	   16.5029	   1.40264	 1.0039e+07	      76.5	   16.6116	   1.32969	1.01595e+07	      76.5	   16.5368	   1.21353	9.56624e+06	      76.5	   16.4281	   1.28648	9.44407e+06	
         R10	   4015	      76.5	   16.4414	   1.19228	9.22201e+06	      76.5	   16.6322	   1.23478	9.89677e+06	      76.5	   16.6774	   1.02658	 9.2377e+06	      76.5	   16.4758	  0.989053	8.70422e+06	      76.5	   16.5368	   1.21353	9.55406e+06	      76.5	   16.6548	   1.13068	9.56204e+06	      76.5	   16.5766	   1.00782	8.96563e+06	      76.5	   16.4586	   1.09067	8.95848e+06	
         R10	   4016	      76.5	   16.4758	  0.989053	8.69863e+06	      76.5	   16.6774	   1.02658	 9.2173e+06	      76.5	   16.7265	       0.8	8.52192e+06	      76.5	   16.5146	       0.8	8.02039e+06	      76.5	   16.5766	   1.00782	8.95314e+06	      76.5	   16.7019	  0.913292	8.86448e+06	      76.5	   16.6206	       0.8	8.25951e+06	      76.5	   16.4952	  0.894527	8.35816e+06	
         R10	   4017	      76.5	   16.4758	  0.989053	8.79197e+06	      76.5	   16.5146	       0.8	8.19946e+06	      76.5	   16.3123	       0.8	7.89621e+06	      76.5	   16.3016	  0.989632	8.30522e+06	      76.5	   16.4952	  0.894527	8.49416e+06	      76.5	   16.4135	       0.8	8.04202e+06	      76.5	    16.307	  0.894816	8.09982e+06	      76.5	   16.3887	  0.989343	8.54408e+06	
         R10	   4018	      76.5	   16.3016	  0.989632	8.37932e+06	      76.5	   16.3123	       0.8	8.00932e+06	      76.5	   16.1196	       0.8	7.48516e+06	      76.5	   16.1185	  0.979508	7.61668e+06	      76.5	    16.307	  0.894816	8.19286e+06	      76.5	    16.216	       0.8	7.74491e+06	      76.5	    16.119	  0.889754	7.54902e+06	      76.5	     16.21	   0.98457	7.99481e+06	
         R10	   4019	      76.5	   16.1185	  0.979508	7.66851e+06	      76.5	   16.1196	       0.8	7.49256e+06	      76.5	   15.9365	       0.8	6.40559e+06	      76.5	   15.9358	  0.973854	6.83851e+06	      76.5	    16.119	  0.889754	7.57818e+06	      76.5	    16.028	       0.8	6.94735e+06	      76.5	   15.9362	  0.886927	6.60998e+06	      76.5	   16.0272	  0.976681	7.24276e+06	
         R10	   4020	      76.5	   15.9358	  0.973854	6.85796e+06	      76.5	   15.9365	       0.8	6.34767e+06	      76.5	    15.763	       0.8	5.28275e+06	      76.5	    15.766	  0.966955	6.00069e+06	      76.5	   15.9362	  0.886927	6.59103e+06	      76.5	   15.8497	       0.8	5.79652e+06	      76.5	   15.7645	  0.883477	5.63368e+06	      76.5	   15.8509	  0.970404	 6.4119e+06	
         R10	   4021	      76.5	    15.766	  0.966955	6.02913e+06	      76.5	    15.763	       0.8	5.24608e+06	      76.5	   15.5991	       0.8	4.60335e+06	      76.5	   15.6016	  0.956263	5.51457e+06	      76.5	   15.7645	  0.883477	5.62844e+06	      76.5	    15.681	       0.8	4.87821e+06	      76.5	   15.6003	  0.878131	5.05718e+06	      76.5	   15.6838	  0.961609	 5.7402e+06	
         R10	   4022	      76.5	   15.6016	  0.956263	5.53642e+06	      76.5	   15.5991	       0.8	4.57196e+06	      76.5	   15.4447	       0.8	4.66972e+06	      76.5	   15.4471	  0.948442	5.40523e+06	      76.5	   15.6003	  0.878131	5.05241e+06	      76.5	   15.5219	       0.8	4.56865e+06	      76.5	   15.4459	  0.874221	5.03606e+06	      76.5	   15.5244	  0.952353	5.43823e+06	
         R10	   4023	      76.5	   15.5936	   1.10089	6.31122e+06	      76.5	   15.6016	  0.956263	5.47739e+06	      76.5	   15.4471	  0.948442	5.55265e+06	      76.5	   15.4372	   1.08661	6.11292e+06	      76.5	   15.5976	   1.02857	5.89284e+06	      76.5	   15.5244	  0.952353	5.47767e+06	      76.5	   15.4422	   1.01753	5.83274e+06	      76.5	   15.5154	   1.09375	6.18661e+06	
         R10	   4024	      76.5	   15.5936	   1.10089	6.25384e+06	      76.5	   15.4372	   1.08661	6.23127e+06	      76.5	   15.4238	   1.21291	6.77592e+06	      76.5	   15.5577	   1.22648	6.92324e+06	      76.5	   15.5154	   1.09375	6.21536e+06	      76.5	   15.4305	   1.14976	6.50357e+06	      76.5	   15.4908	   1.21969	6.83312e+06	      76.5	   15.5757	   1.16368	6.58614e+06	
         R10	   4025	      76.5	   15.5577	   1.22648	 6.8835e+06	      76.5	   15.4238	   1.21291	6.81507e+06	      76.5	   15.4108	   1.32815	7.38463e+06	      76.5	   15.5314	   1.34239	 7.4654e+06	      76.5	   15.4908	   1.21969	6.83207e+06	      76.5	   15.4173	   1.27053	7.09982e+06	      76.5	   15.4711	   1.33527	7.41271e+06	      76.5	   15.5446	   1.28443	7.17349e+06	
         R10	   4026	      76.5	   15.5314	   1.34239	7.42779e+06	      76.5	   15.4108	   1.32815	7.36724e+06	      76.5	    15.399	   1.42981	7.94862e+06	      76.5	   15.5038	   1.44587	7.95447e+06	      76.5	   15.4711	   1.33527	7.38478e+06	      76.5	   15.4049	   1.37898	 7.6579e+06	      76.5	   15.4514	   1.43784	7.94175e+06	      76.5	   15.5176	   1.39413	7.69068e+06	
         R10	   4027	      76.5	   15.5038	   1.44587	7.90672e+06	      76.5	    15.399	   1.42981	 7.8265e+06	      76.5	    15.387	   1.52533	8.51403e+06	      76.5	   15.4773	   1.54028	 8.4218e+06	      76.5	   15.4514	   1.43784	7.85787e+06	      76.5	    15.393	   1.47757	8.16993e+06	      76.5	   15.4321	   1.53281	 8.4597e+06	      76.5	   15.4905	   1.49307	 8.1642e+06	
         R10	   4028	      76.5	   15.6036	    1.4761	8.07035e+06	      76.5	   15.5038	   1.44587	7.92296e+06	      76.5	   15.4773	   1.54028	8.40144e+06	      76.5	   15.5552	   1.58707	8.54708e+06	      76.5	   15.5537	   1.46098	  7.988e+06	      76.5	   15.4905	   1.49307	8.16215e+06	      76.5	   15.5162	   1.56367	 8.4697e+06	      76.5	   15.5794	   1.53159	8.30761e+06	
         R10	   4029	      76.5	   15.6036	    1.4761	8.07423e+06	      76.5	   15.5552	   1.58707	8.55107e+06	      76.5	   15.6383	   1.61981	8.69199e+06	      76.5	   15.6651	   1.52806	8.28721e+06	      76.5	   15.5794	   1.53159	8.31159e+06	      76.5	   15.5967	   1.60344	8.61645e+06	      76.5	   15.6517	   1.57393	8.48937e+06	      76.5	   15.6344	   1.50208	8.17804e+06	
         R10	   4030	      76.5	   15.6651	   1.52806	8.28731e+06	      76.5	   15.6383	   1.61981	8.69479e+06	      76.5	   15.7227	    1.6478	8.81463e+06	      76.5	   15.7541	   1.55755	8.46249e+06	      76.5	   15.6517	   1.57393	8.49079e+06	      76.5	   15.6805	    1.6338	8.75044e+06	      76.5	   15.7384	   1.60268	8.63801e+06	      76.5	   15.7096	   1.54281	8.36984e+06	
         R10	   4031	      76.5	   15.7541	   1.55755	8.47901e+06	      76.5	   15.7227	    1.6478	8.79826e+06	      76.5	   15.8106	   1.67476	8.94683e+06	      76.5	    15.837	   1.57675	8.61254e+06	      76.5	   15.7384	   1.60268	8.63807e+06	      76.5	   15.7667	   1.66128	8.86888e+06	      76.5	   15.8238	   1.62576	8.77902e+06	      76.5	   15.7956	   1.56715	8.54222e+06	
         R10	   4032	      76.5	    15.837	   1.57675	8.64058e+06	      76.5	   15.8106	   1.67476	8.92549e+06	      76.5	   15.9018	   1.70209	 9.0991e+06	      76.5	    15.933	    1.6028	8.84622e+06	      76.5	   15.8238	   1.62576	8.78251e+06	      76.5	   15.8562	   1.68842	9.00943e+06	      76.5	   15.9174	   1.65244	8.97148e+06	      76.5	    15.885	   1.58978	8.73944e+06	
         R10	   4033	      76.5	    15.933	    1.6028	8.88089e+06	      76.5	   15.9018	   1.70209	9.06809e+06	      76.5	   15.9952	   1.73026	9.29082e+06	      76.5	    16.021	   1.62568	9.07017e+06	      76.5	   15.9174	   1.65244	8.97349e+06	      76.5	   15.9485	   1.71617	 9.1771e+06	      76.5	   16.0081	   1.67797	 9.1794e+06	      76.5	    15.977	   1.61424	8.97327e+06	
         R10	   4034	      76.5	    16.021	   1.62568	9.08727e+06	      76.5	   15.9952	   1.73026	9.25147e+06	      76.5	    16.091	   1.76071	 9.5211e+06	      76.5	   16.1253	   1.65386	9.41059e+06	      76.5	   16.0081	   1.67797	9.16825e+06	      76.5	   16.0431	   1.74548	9.38467e+06	      76.5	   16.1081	   1.70728	9.46374e+06	      76.5	   16.0732	   1.63977	9.24629e+06	
         R10	   4035	      76.5	   16.1253	   1.65386	9.44124e+06	      76.5	    16.091	   1.76071	 9.4408e+06	      76.5	   16.1873	   1.79422	9.83038e+06	      76.5	   16.2151	   1.67809	9.64624e+06	      76.5	   16.1081	   1.70728	9.43943e+06	      76.5	   16.1391	   1.77747	9.63454e+06	      76.5	   16.2012	   1.73616	9.73564e+06	      76.5	   16.1702	   1.66598	9.54207e+06	
         R10	   4036	      76.5	   16.2453	   1.53875	9.54062e+06	      76.5	   16.4042	   1.54963	1.01546e+07	      76.5	   16.4147	   1.38067	 9.8065e+06	      76.5	   16.2435	   1.35799	9.07071e+06	      76.5	   16.3248	   1.54419	9.84314e+06	      76.5	   16.4095	   1.46515	9.97543e+06	      76.5	   16.3291	   1.36933	9.43301e+06	      76.5	   16.2444	   1.44837	9.30196e+06	
         R10	   4037	      76.5	   16.2435	   1.35799	9.09254e+06	      76.5	   16.4147	   1.38067	9.77936e+06	      76.5	   16.4414	   1.19228	9.34923e+06	      76.5	   16.2504	   1.17397	8.61567e+06	      76.5	   16.3291	   1.36933	9.42996e+06	      76.5	   16.4281	   1.28648	 9.5587e+06	      76.5	   16.3459	   1.18313	8.97624e+06	      76.5	   16.2469	   1.26598	8.84932e+06	
         R10	   4038	      76.5	   16.2504	   1.17397	8.61866e+06	      76.5	   16.4414	   1.19228	9.32884e+06	      76.5	   16.4758	  0.989053	8.79224e+06	      76.5	   16.3016	  0.989632	8.29789e+06	      76.5	   16.3459	   1.18313	8.96657e+06	      76.5	   16.4586	   1.09067	9.05658e+06	      76.5	   16.3887	  0.989343	8.54129e+06	      76.5	    16.276	    1.0818	8.45148e+06	
         R10	   4039	      76.5	   16.0856	   1.15142	7.91329e+06	      76.5	   16.2504	   1.17397	8.71484e+06	      76.5	   16.3016	  0.989632	8.37809e+06	      76.5	   16.1185	  0.979508	 7.7191e+06	      76.5	    16.168	   1.16269	8.30941e+06	      76.5	    16.276	    1.0818	   8.54e+06	      76.5	     16.21	   0.98457	8.04278e+06	      76.5	   16.1021	   1.06546	 7.8115e+06	
         R10	   4040	      76.5	   16.0856	   1.15142	 7.9969e+06	      76.5	   16.1185	  0.979508	7.77042e+06	      76.5	   15.9358	  0.973854	6.80022e+06	      76.5	   15.9247	   1.15055	7.35886e+06	      76.5	   16.1021	   1.06546	 7.8785e+06	      76.5	   16.0272	  0.976681	7.27832e+06	      76.5	   15.9303	    1.0622	 7.0716e+06	      76.5	   16.0052	   1.15098	7.66616e+06	
         R10	   4041	      76.5	   15.9247	   1.15055	7.41185e+06	      76.5	   15.9358	  0.973854	6.83867e+06	      76.5	    15.766	  0.966955	5.98696e+06	      76.5	   15.7561	   1.13048	6.72818e+06	      76.5	   15.9303	    1.0622	7.11701e+06	      76.5	   15.8509	  0.970404	6.39413e+06	      76.5	    15.761	   1.04872	6.35243e+06	      76.5	   15.8404	   1.14051	7.05339e+06	
         R10	   4042	      76.5	   15.7561	   1.13048	6.75683e+06	      76.5	    15.766	  0.966955	  6.022e+06	      76.5	   15.6016	  0.956263	5.46378e+06	      76.5	   15.5936	   1.10089	6.29445e+06	      76.5	    15.761	   1.04872	6.38451e+06	      76.5	   15.6838	  0.961609	5.71161e+06	      76.5	   15.5976	   1.02857	5.87775e+06	      76.5	   15.6749	   1.11568	6.50109e+06	
         R10	   4043	      76.5	   15.7285	   1.27024	7.33609e+06	      76.5	   15.7561	   1.13048	6.74486e+06	      76.5	   15.5936	   1.10089	6.23018e+06	      76.5	   15.5577	   1.22648	6.89093e+06	      76.5	   15.7423	   1.20036	7.03681e+06	      76.5	   15.6749	   1.11568	 6.4631e+06	      76.5	   15.5757	   1.16368	6.55808e+06	      76.5	   15.6431	   1.24836	7.08944e+06	
         R10	   4044	      76.5	   15.7285	   1.27024	7.29781e+06	      76.5	   15.5577	   1.22648	6.85021e+06	      76.5	   15.5314	   1.34239	7.46093e+06	      76.5	   15.6542	   1.36791	7.65231e+06	      76.5	   15.6431	   1.24836	7.04974e+06	      76.5	   15.5446	   1.28443	7.15462e+06	      76.5	   15.5928	   1.35515	7.54363e+06	      76.5	   15.6913	   1.31907	7.46894e+06	
         R10	   4045	      76.5	   15.6542	   1.36791	7.61339e+06	      76.5	   15.5314	   1.34239	7.43133e+06	      76.5	   15.5038	   1.44587	7.95242e+06	      76.5	   15.6036	    1.4761	8.10664e+06	      76.5	   15.5928	   1.35515	7.50952e+06	      76.5	   15.5176	   1.39413	7.69136e+06	      76.5	   15.5537	   1.46098	8.02125e+06	      76.5	   15.6289	   1.42201	7.85763e+06	
         R10	   4046	      76.5	   15.7532	   1.42698	8.00742e+06	      76.5	   15.6542	   1.36791	7.63097e+06	      76.5	   15.6036	    1.4761	8.10208e+06	      76.5	   15.6651	   1.52806	8.33383e+06	      76.5	   15.7037	   1.39745	 7.8135e+06	      76.5	   15.6289	   1.42201	7.86423e+06	      76.5	   15.6344	   1.50208	8.21498e+06	      76.5	   15.7092	   1.47752	8.16548e+06	
         R10	   4047	      76.5	   15.7532	   1.42698	7.98198e+06	      76.5	   15.7541	   1.55755	8.53223e+06	      76.5	    15.837	   1.57675	8.68222e+06	      76.5	   15.8607	   1.48147	8.38998e+06	      76.5	   15.7537	   1.49227	8.25689e+06	      76.5	   15.7956	   1.56715	8.60354e+06	      76.5	   15.8488	   1.52911	8.53544e+06	      76.5	   15.8069	   1.45423	8.18085e+06	
         R10	   4048	      76.5	   15.8607	   1.48147	8.33761e+06	      76.5	    15.837	   1.57675	8.70336e+06	      76.5	    15.933	    1.6028	8.88538e+06	      76.5	   15.9614	   1.49047	8.65663e+06	      76.5	   15.8488	   1.52911	 8.5192e+06	      76.5	    15.885	   1.58978	8.79056e+06	      76.5	   15.9472	   1.54664	8.76966e+06	      76.5	    15.911	   1.48597	8.49321e+06	
         R10	   4049	      76.5	   15.9614	   1.49047	8.60488e+06	      76.5	    15.933	    1.6028	 8.9084e+06	      76.5	    16.021	   1.62568	9.11106e+06	      76.5	   16.0793	   1.49729	8.98307e+06	      76.5	   15.9472	   1.54664	8.75453e+06	      76.5	    15.977	   1.61424	9.00685e+06	      76.5	   16.0502	   1.56148	9.04376e+06	      76.5	   16.0204	   1.49388	8.79026e+06	
         R10	   4050	      76.5	   16.0854	   1.34952	8.53503e+06	      76.5	   16.2435	   1.35799	 9.1711e+06	      76.5	   16.2504	   1.17397	8.68883e+06	      76.5	   16.0856	   1.15142	7.99726e+06	      76.5	   16.1644	   1.35376	8.84738e+06	      76.5	   16.2469	   1.26598	8.92521e+06	      76.5	    16.168	   1.16269	8.33687e+06	      76.5	   16.0855	   1.25047	8.26247e+06	
         R10	   4051	      76.5	   16.0854	   1.34952	8.58051e+06	      76.5	   16.0856	   1.15142	8.07012e+06	      76.5	   15.9247	   1.15055	7.34228e+06	      76.5	   15.9138	   1.31243	7.93393e+06	      76.5	   16.0855	   1.25047	8.32146e+06	      76.5	   16.0052	   1.15098	7.69794e+06	      76.5	   15.9193	   1.23149	7.63373e+06	      76.5	   15.9996	   1.33097	8.24665e+06	
         R10	   4052	      76.5	   15.9138	   1.31243	7.97518e+06	      76.5	   15.9247	   1.15055	7.38339e+06	      76.5	   15.7561	   1.13048	6.70795e+06	      76.5	   15.7285	   1.27024	 7.3022e+06	      76.5	   15.9193	   1.23149	7.67523e+06	      76.5	   15.8404	   1.14051	7.02816e+06	      76.5	   15.7423	   1.20036	7.00147e+06	      76.5	   15.8212	   1.29133	7.61976e+06	
         R10	   4053	      76.5	   15.9138	   1.31243	7.93853e+06	      76.5	   15.7285	   1.27024	7.27513e+06	      76.5	   15.6542	   1.36791	7.66361e+06	      76.5	   15.7532	   1.42698	8.00759e+06	      76.5	   15.8212	   1.29133	7.58645e+06	      76.5	   15.6913	   1.31907	7.46262e+06	      76.5	   15.7037	   1.39745	7.82876e+06	      76.5	   15.8335	   1.36971	7.95113e+06	
         R10	   4054	      76.5	   16.0854	   1.34952	8.64249e+06	      76.5	   15.9138	   1.31243	7.91961e+06	      76.5	   15.9614	   1.49047	  8.641e+06	      76.5	   16.0793	   1.49729	8.97487e+06	      76.5	   15.9996	   1.33097	8.27222e+06	      76.5	   15.9376	   1.40145	8.27993e+06	      76.5	   16.0204	   1.49388	8.80328e+06	      76.5	   16.0823	   1.42341	8.80668e+06	
         R10	   4055	      76.5	   16.2453	   1.53875	9.62162e+06	      76.5	   16.2435	   1.35799	9.13722e+06	      76.5	   16.0854	   1.34952	 8.5836e+06	      76.5	   16.0793	   1.49729	8.90766e+06	      76.5	   16.2444	   1.44837	9.37558e+06	      76.5	   16.1644	   1.35376	8.85407e+06	      76.5	   16.0823	   1.42341	8.74352e+06	      76.5	   16.1623	   1.51802	9.25995e+06	
         R10	   4056	      76.5	   16.2947	   1.73752	9.97359e+06	      76.5	   16.2151	   1.67809	9.72136e+06	      76.5	   16.1873	   1.79422	9.70699e+06	      76.5	   16.2882	   1.82816	1.01432e+07	      76.5	   16.2549	   1.70781	9.84663e+06	      76.5	   16.2012	   1.73616	9.71249e+06	      76.5	   16.2377	   1.81119	 9.9247e+06	      76.5	   16.2915	   1.78284	1.00561e+07	
         R10	   4057	      76.5	   16.2947	   1.73752	1.00325e+07	      76.5	   16.2882	   1.82816	9.98691e+06	      76.5	    16.394	   1.85418	1.05995e+07	      76.5	    16.385	   1.71129	 1.0274e+07	      76.5	   16.2915	   1.78284	1.00086e+07	      76.5	   16.3411	   1.84117	1.02931e+07	      76.5	   16.3895	   1.78273	1.04312e+07	      76.5	   16.3399	    1.7244	1.01506e+07	
         R10	   4058	      76.5	   16.2947	   1.73752	1.00558e+07	      76.5	    16.385	   1.71129	 1.0422e+07	      76.5	   16.2453	   1.53875	9.46317e+06	      76.5	   16.2151	   1.67809	9.75022e+06	      76.5	   16.3399	    1.7244	1.02362e+07	      76.5	   16.3152	   1.62502	9.94146e+06	      76.5	   16.2302	   1.60842	9.60293e+06	      76.5	   16.2549	   1.70781	9.90277e+06	
         R10	   4059	      76.5	   16.0793	   1.49729	8.95034e+06	      76.5	   16.1253	   1.65386	9.42041e+06	      76.5	   16.2151	   1.67809	9.70904e+06	      76.5	   16.2453	   1.53875	9.58882e+06	      76.5	   16.1023	   1.57558	9.18453e+06	      76.5	   16.1702	   1.66598	9.56301e+06	      76.5	   16.2302	   1.60842	9.64607e+06	      76.5	   16.1623	   1.51802	9.26492e+06	
         R10	   4060	      76.5	   15.7532	   1.42698	8.01543e+06	      76.5	   15.6651	   1.52806	8.34443e+06	      76.5	   15.7541	   1.55755	8.51952e+06	      76.5	   15.7092	   1.47752	8.17453e+06	      76.5	   15.7096	   1.54281	8.42772e+06	      76.5	   15.7537	   1.49227	8.26733e+06	       N/A	       N/A	       N/A	        N/A	       N/A	       N/A	       N/A	        N/A	
         R10	   4061	      76.5	   15.9138	   1.31243	 7.8964e+06	      76.5	   15.7532	   1.42698	8.01662e+06	      76.5	   15.8607	   1.48147	8.45429e+06	      76.5	   15.8335	   1.36971	7.93623e+06	      76.5	   15.8069	   1.45423	8.22995e+06	      76.5	   15.8873	   1.39695	8.17012e+06	       N/A	       N/A	       N/A	        N/A	       N/A	       N/A	       N/A	        N/A	
         R10	   4062	      76.5	   15.9138	   1.31243	 7.9657e+06	      76.5	   15.8607	   1.48147	8.40305e+06	      76.5	   15.9614	   1.49047	 8.6598e+06	      76.5	   15.8873	   1.39695	8.18003e+06	      76.5	    15.911	   1.48597	8.52812e+06	      76.5	   15.9376	   1.40145	 8.3124e+06	       N/A	       N/A	       N/A	        N/A	       N/A	       N/A	       N/A	        N/A	
         R10	   4063	      76.5	   16.0793	   1.49729	8.98329e+06	      76.5	    16.021	   1.62568	9.13128e+06	      76.5	   16.1253	   1.65386	9.40454e+06	      76.5	   16.0502	   1.56148	9.05414e+06	      76.5	   16.0732	   1.63977	9.26553e+06	      76.5	   16.1023	   1.57558	9.19329e+06	       N/A	       N/A	       N/A	        N/A	       N/A	       N/A	       N/A	        N/A	
         R10	   4064	      76.5	    16.385	   1.71129	1.03956e+07	      76.5	   16.4042	   1.54963	1.01856e+07	      76.5	   16.2453	   1.53875	9.48955e+06	      76.5	   16.3946	   1.63046	 1.0285e+07	      76.5	   16.3248	   1.54419	9.83359e+06	      76.5	   16.3152	   1.62502	 9.9421e+06	       N/A	       N/A	       N/A	        N/A	       N/A	       N/A	       N/A	        N/A	
         R10	   4065	      76.5	   16.4719	   2.23625	1.04583e+07	      76.5	   16.3535	     2.205	1.02158e+07	      76.5	   16.2993	   2.30363	9.47464e+06	      76.5	    16.412	   2.34672	9.54208e+06	      76.5	   16.4127	   2.22063	 1.0337e+07	      76.5	   16.3264	   2.25431	9.84398e+06	      76.5	   16.3556	   2.32517	9.50805e+06	      76.5	   16.4419	   2.29148	9.99756e+06	
         R10	   4066	      76.5	    16.412	   2.34672	9.53859e+06	      76.5	   16.2993	   2.30363	9.46949e+06	      76.5	   16.2464	   2.39967	8.74162e+06	      76.5	   16.3458	   2.45114	8.64265e+06	      76.5	   16.3556	   2.32517	9.50369e+06	      76.5	   16.2729	   2.35165	9.10517e+06	      76.5	   16.2961	   2.42541	8.69127e+06	      76.5	   16.3789	   2.39893	9.08928e+06	
         R10	   4067	      76.5	   16.3458	   2.45114	8.66795e+06	      76.5	   16.2464	   2.39967	8.74139e+06	      76.5	    16.195	   2.49314	8.04928e+06	      76.5	   16.2928	   2.54344	7.91637e+06	      76.5	   16.2961	   2.42541	8.70384e+06	      76.5	   16.2207	    2.4464	8.39506e+06	      76.5	   16.2439	   2.51829	7.98139e+06	      76.5	   16.3193	   2.49729	8.29179e+06	
         R10	   4068	      76.5	   16.2928	   2.54344	7.92485e+06	      76.5	    16.195	   2.49314	  8.046e+06	      76.5	    16.145	   2.58402	7.41857e+06	      76.5	    16.244	   2.63689	7.19793e+06	      76.5	   16.2439	   2.51829	7.98407e+06	      76.5	     16.17	   2.53858	7.73124e+06	      76.5	   16.1945	   2.61046	 7.3062e+06	      76.5	   16.2684	   2.59016	7.56056e+06	
         R10	   4069	      76.5	    16.244	   2.63689	7.20446e+06	      76.5	    16.145	   2.58402	7.41774e+06	      76.5	   16.0965	   2.67232	6.89924e+06	      76.5	   16.1955	   2.72176	6.51851e+06	      76.5	   16.1945	   2.61046	7.30908e+06	      76.5	   16.1208	   2.62817	7.15515e+06	      76.5	    16.146	   2.69704	6.70577e+06	      76.5	   16.2198	   2.67933	6.85907e+06	
         R10	   4070	      76.5	   16.1955	   2.72176	6.52345e+06	      76.5	   16.0965	   2.67232	6.90349e+06	      76.5	   16.0493	   2.75805	6.50919e+06	      76.5	   16.1435	   2.80872	5.81583e+06	      76.5	    16.146	   2.69704	 6.7104e+06	      76.5	   16.0729	   2.71519	6.69677e+06	      76.5	   16.0964	   2.78338	6.15718e+06	      76.5	   16.1695	   2.76524	6.16341e+06	
         R10	   4071	      76.5	   16.1435	   2.80872	5.83622e+06	      76.5	   16.0493	   2.75805	6.51899e+06	      76.5	   16.0036	   2.84119	6.22684e+06	      76.5	   16.0944	   2.89592	5.04263e+06	      76.5	   16.0964	   2.78338	6.17228e+06	      76.5	   16.0265	   2.79962	6.35293e+06	      76.5	    16.049	   2.86855	5.62829e+06	      76.5	   16.1189	   2.85232	5.42662e+06	
         R10	   4072	      76.5	   16.0944	   2.89592	4.99942e+06	      76.5	   16.0036	   2.84119	6.13056e+06	      76.5	   15.9593	   2.92175	5.83571e+06	      76.5	   16.0432	   2.97903	4.89514e+06	      76.5	    16.049	   2.86855	5.55852e+06	      76.5	   15.9814	   2.88147	5.85444e+06	      76.5	   16.0012	   2.95039	5.11326e+06	      76.5	   16.0688	   2.93748	4.93011e+06	
         R10	   4073	      76.5	   16.0432	   2.97903	4.03759e+06	      76.5	   15.9593	   2.92175	7.21162e+06	      76.5	   15.9164	   2.99973	6.28955e+06	      76.5	   15.9761	   3.05784	3.53422e+06	      76.5	   16.0012	   2.95039	5.32403e+06	      76.5	   15.9378	   2.96074	6.17172e+06	      76.5	   15.9462	   3.02878	4.67292e+06	      76.5	   16.0097	   3.01843	3.73963e+06	
         R10	   4074	      76.5	   16.1238	   3.04399	5.43873e+06	      76.5	   16.0432	   2.97903	3.86745e+06	      76.5	   15.9761	   3.05784	6.02943e+06	      76.5	   16.0453	   3.12513	5.20932e+06	      76.5	   16.0835	   3.01151	4.62438e+06	      76.5	   16.0097	   3.01843	4.86437e+06	      76.5	   16.0107	   3.09148	5.61859e+06	      76.5	   16.0845	   3.08456	 5.2861e+06	
         R10	   4075	      76.5	   16.1238	   3.04399	5.25317e+06	      76.5	   16.0453	   3.12513	5.23538e+06	      76.5	   16.1239	   3.20162	5.30079e+06	      76.5	   16.2126	   3.11834	5.31919e+06	      76.5	   16.0845	   3.08456	5.20203e+06	      76.5	   16.0846	   3.16338	 5.2632e+06	      76.5	   16.1683	   3.15998	5.27507e+06	      76.5	   16.1682	   3.08117	5.27978e+06	
         R10	   4076	      76.5	   16.2126	   3.11834	5.18163e+06	      76.5	   16.1239	   3.20162	5.24006e+06	      76.5	   16.2119	    3.2873	5.49615e+06	      76.5	   16.3122	   3.19848	5.42193e+06	      76.5	   16.1683	   3.15998	5.16546e+06	      76.5	   16.1679	   3.24446	5.36354e+06	      76.5	   16.2621	   3.24289	5.42014e+06	      76.5	   16.2624	   3.15841	5.29449e+06	
         R10	   4077	      76.5	   16.3122	   3.19848	5.33381e+06	      76.5	   16.2119	    3.2873	5.16558e+06	      76.5	   16.3094	   3.38216	5.98741e+06	      76.5	   16.4214	   3.28461	   5.78e+06	      76.5	   16.2621	   3.24289	5.19673e+06	      76.5	   16.2607	   3.33473	5.57311e+06	      76.5	   16.3654	   3.33338	5.84539e+06	      76.5	   16.3668	   3.24154	5.54295e+06	
         R10	   4078	      76.5	   16.4214	   3.28461	5.67497e+06	      76.5	   16.3094	   3.38216	5.19504e+06	      76.5	   16.4164	   3.48621	7.42406e+06	      76.5	    16.534	   3.37969	6.18361e+06	      76.5	   16.3654	   3.33338	5.36486e+06	      76.5	   16.3629	   3.43418	6.30664e+06	      76.5	   16.4752	   3.43295	6.73807e+06	      76.5	   16.4777	   3.33215	5.91678e+06	
         R10	   4079	      76.5	    16.534	   3.37969	6.19808e+06	      76.5	   16.4164	   3.48621	4.92643e+06	      76.5	   16.5328	   3.59945	7.97041e+06	      76.5	   16.6425	   3.48671	9.06718e+06	      76.5	   16.4752	   3.43295	5.46297e+06	      76.5	   16.4746	   3.54283	6.44134e+06	      76.5	   16.5876	   3.54308	8.45866e+06	      76.5	   16.5883	    3.4332	 7.6297e+06	
         R10	   4080	      76.5	   16.6485	   3.25506	6.82896e+06	      76.5	    16.534	   3.37969	6.23037e+06	      76.5	   16.6425	   3.48671	8.33411e+06	      76.5	   16.7594	    3.3665	 8.1609e+06	      76.5	   16.5913	   3.31738	6.43494e+06	      76.5	   16.5883	    3.4332	7.27602e+06	      76.5	   16.7009	   3.42661	 8.2315e+06	      76.5	   16.7039	   3.31078	7.45218e+06	
         R10	   4081	      76.5	   16.6485	   3.25506	6.80647e+06	      76.5	   16.7594	    3.3665	8.27882e+06	      76.5	   16.8836	   3.23884	9.07147e+06	      76.5	   16.7633	    3.1187	7.77224e+06	      76.5	   16.7039	   3.31078	7.49716e+06	      76.5	   16.8215	   3.30267	8.62775e+06	      76.5	   16.8235	   3.17877	8.38571e+06	      76.5	   16.7059	   3.18688	7.26758e+06	
         R10	   4082	      76.5	   16.7633	    3.1187	7.72129e+06	      76.5	   16.8836	   3.23884	9.10136e+06	      76.5	   17.0151	   3.10371	1.05912e+07	      76.5	   16.8874	   2.96713	9.29686e+06	      76.5	   16.8235	   3.17877	8.37139e+06	      76.5	   16.9494	   3.17127	9.81661e+06	      76.5	   16.9512	   3.03542	 9.9049e+06	      76.5	   16.8254	   3.04292	8.49604e+06	
         R10	   4083	      76.5	   16.8874	   2.96713	9.31688e+06	      76.5	   17.0151	   3.10371	1.06335e+07	      76.5	   17.1539	   2.96111	1.33943e+07	      76.5	   17.0151	    2.8181	1.05142e+07	      76.5	   16.9512	   3.03542	9.93543e+06	      76.5	   17.0845	   3.03241	1.20017e+07	      76.5	   17.0845	   2.88961	1.19031e+07	      76.5	   16.9512	   2.89261	9.90964e+06	
         R10	   4084	      76.5	   17.0151	    2.8181	1.06716e+07	      76.5	   17.1539	   2.96111	1.33748e+07	      76.5	   17.2999	   2.81105	1.52199e+07	      76.5	   17.1425	   2.65791	1.29306e+07	      76.5	   17.0845	   2.88961	1.20034e+07	      76.5	   17.2269	   2.88608	  1.429e+07	      76.5	   17.2212	   2.73448	1.38969e+07	      76.5	   17.0788	     2.738	1.17501e+07	
         R10	   4085	      76.5	   16.8806	   2.68278	1.03987e+07	      76.5	   17.0151	    2.8181	1.13096e+07	      76.5	   17.1425	   2.65791	1.32165e+07	      76.5	   16.9978	   2.51719	1.26563e+07	      76.5	   16.9479	   2.75044	1.08018e+07	      76.5	   17.0788	     2.738	1.22096e+07	      76.5	   17.0702	   2.58755	1.29161e+07	      76.5	   16.9392	   2.59998	1.14996e+07	
         R10	   4086	      76.5	   16.8806	   2.68278	1.06185e+07	      76.5	   16.9978	   2.51719	1.28603e+07	      76.5	    16.866	    2.3889	 1.2462e+07	      76.5	   16.7494	   2.54656	1.04364e+07	      76.5	   16.9392	   2.59998	1.17152e+07	      76.5	   16.9319	   2.45305	1.26538e+07	      76.5	   16.8077	   2.46773	1.14276e+07	      76.5	    16.815	   2.61467	1.05143e+07	
         R10	   4087	      76.5	   16.7494	   2.54656	1.06533e+07	      76.5	    16.866	    2.3889	1.24599e+07	      76.5	   16.7469	   2.27304	 1.2123e+07	      76.5	   16.6786	   2.37849	1.09408e+07	      76.5	   16.8077	   2.46773	1.15377e+07	      76.5	   16.8064	   2.33097	1.22873e+07	      76.5	   16.7128	   2.32576	 1.1524e+07	      76.5	    16.714	   2.46252	1.07835e+07	
         R10	   4088	      76.5	    16.547	   2.07859	1.12297e+07	      76.5	   16.4092	   2.10379	1.08252e+07	      76.5	   16.3535	     2.205	1.01898e+07	      76.5	   16.4719	   2.23625	1.05175e+07	      76.5	   16.4781	   2.09119	1.10169e+07	      76.5	   16.3814	   2.15439	 1.0507e+07	      76.5	   16.4127	   2.22063	1.03536e+07	      76.5	   16.5095	   2.15742	1.08597e+07	
         R10	   4089	      76.5	   16.6406	    2.1696	1.18211e+07	      76.5	    16.547	   2.07859	1.13716e+07	      76.5	   16.4719	   2.23625	1.05291e+07	      76.5	   16.5717	   2.27604	1.08027e+07	      76.5	   16.5938	   2.12409	1.15947e+07	      76.5	   16.5095	   2.15742	1.09324e+07	      76.5	   16.5218	   2.25615	1.06655e+07	      76.5	   16.6061	   2.22282	1.13029e+07	
         R10	   4090	      76.5	   16.5717	   2.27604	1.07401e+07	      76.5	   16.4719	   2.23625	1.03955e+07	      76.5	    16.412	   2.34672	9.45688e+06	      76.5	   16.5324	   2.42737	9.81251e+06	      76.5	   16.5218	   2.25615	1.05672e+07	      76.5	   16.4419	   2.29148	9.92331e+06	      76.5	   16.4722	   2.38704	9.63353e+06	      76.5	   16.5521	    2.3517	1.02643e+07	
         R10	   4091	      76.5	   16.5324	   2.42737	9.71849e+06	      76.5	    16.412	   2.34672	9.46781e+06	      76.5	   16.3458	   2.45114	8.69808e+06	      76.5	   16.4463	   2.50592	8.78716e+06	      76.5	   16.4722	   2.38704	9.59149e+06	      76.5	   16.3789	   2.39893	 9.0811e+06	      76.5	    16.396	   2.47853	8.74189e+06	      76.5	   16.4893	   2.46664	9.25197e+06	
         R10	   4092	      76.5	   16.4463	   2.50592	 8.7103e+06	      76.5	   16.3458	   2.45114	8.70282e+06	      76.5	   16.2928	   2.54344	7.90017e+06	      76.5	   16.3874	   2.60499	7.91684e+06	      76.5	    16.396	   2.47853	8.70554e+06	      76.5	   16.3193	   2.49729	8.30108e+06	      76.5	   16.3401	   2.57421	7.90745e+06	      76.5	   16.4168	   2.55546	8.31262e+06	
         R10	   4093	      76.5	   16.3874	   2.60499	7.86296e+06	      76.5	   16.2928	   2.54344	7.91197e+06	      76.5	    16.244	   2.63689	7.16093e+06	      76.5	   16.3503	   2.69142	7.20882e+06	      76.5	   16.3401	   2.57421	7.88596e+06	      76.5	   16.2684	   2.59016	7.53561e+06	      76.5	   16.2971	   2.66416	7.18324e+06	      76.5	   16.3688	   2.64821	7.53535e+06	
         R10	   4094	      76.5	   16.3503	   2.69142	7.17564e+06	      76.5	    16.244	   2.63689	7.16568e+06	      76.5	   16.1955	   2.72176	  6.515e+06	      76.5	   16.2898	   2.77208	6.42335e+06	      76.5	   16.2971	   2.66416	7.16878e+06	      76.5	   16.2198	   2.67933	6.83773e+06	      76.5	   16.2427	   2.74692	6.46586e+06	      76.5	     16.32	   2.73175	6.79802e+06	
         R10	   4095	      76.5	   16.2898	   2.77208	6.42449e+06	      76.5	   16.1955	   2.72176	6.51553e+06	      76.5	   16.1435	   2.80872	5.82422e+06	      76.5	   16.2344	   2.86806	5.70105e+06	      76.5	   16.2427	   2.74692	6.46673e+06	      76.5	   16.1695	   2.76524	6.16457e+06	      76.5	   16.1889	   2.83839	 5.7578e+06	      76.5	   16.2621	   2.82007	6.05981e+06	
         R10	   4096	      76.5	   16.2344	   2.86806	5.69043e+06	      76.5	   16.1435	   2.80872	5.81786e+06	      76.5	   16.0944	   2.89592	5.10944e+06	      76.5	   16.1861	    2.9565	5.25034e+06	      76.5	   16.1889	   2.83839	5.74904e+06	      76.5	   16.1189	   2.85232	5.45815e+06	      76.5	   16.1402	   2.92621	 5.1723e+06	      76.5	   16.2102	   2.91228	5.46787e+06	
         R10	   4097	      76.5	   16.1861	    2.9565	 5.2201e+06	      76.5	   16.0944	   2.89592	5.21957e+06	      76.5	   16.0432	   2.97903	 4.4677e+06	      76.5	   16.1238	   3.04399	4.96444e+06	      76.5	   16.1402	   2.92621	5.20925e+06	      76.5	   16.0688	   2.93748	4.83807e+06	      76.5	   16.0835	   3.01151	4.69945e+06	      76.5	   16.1549	   3.00025	5.08267e+06	
         R10	   4098	      76.5	   16.2916	   3.02067	5.55484e+06	      76.5	   16.1861	    2.9565	5.10325e+06	      76.5	   16.1238	   3.04399	4.99924e+06	      76.5	   16.2126	   3.11834	5.33182e+06	      76.5	   16.2388	   2.98858	5.32878e+06	      76.5	   16.1549	   3.00025	 5.0473e+06	      76.5	   16.1682	   3.08117	5.15537e+06	      76.5	   16.2521	   3.06951	5.41552e+06	
         R10	   4099	      76.5	   16.2916	   3.02067	  5.341e+06	      76.5	   16.2126	   3.11834	5.20863e+06	      76.5	   16.3122	   3.19848	5.41023e+06	      76.5	   16.4084	   3.08616	5.86805e+06	      76.5	   16.2521	   3.06951	5.25007e+06	      76.5	   16.2624	   3.15841	5.30252e+06	      76.5	   16.3603	   3.14232	5.59791e+06	      76.5	     16.35	   3.05342	5.60194e+06	
         R10	   4100	      76.5	   16.4084	   3.08616	5.59459e+06	      76.5	   16.3122	   3.19848	  5.311e+06	      76.5	   16.4214	   3.28461	5.65364e+06	      76.5	   16.5262	   3.16116	6.31951e+06	      76.5	   16.3603	   3.14232	5.41623e+06	      76.5	   16.3668	   3.24154	5.47134e+06	      76.5	   16.4738	   3.22288	5.93214e+06	      76.5	   16.4673	   3.12366	5.95077e+06	
         R10	   4101	      76.5	   16.5262	   3.16116	5.98576e+06	      76.5	   16.4214	   3.28461	5.60462e+06	      76.5	    16.534	   3.37969	6.46171e+06	      76.5	   16.6485	   3.25506	7.16412e+06	      76.5	   16.4738	   3.22288	5.75258e+06	      76.5	   16.4777	   3.33215	6.02544e+06	      76.5	   16.5913	   3.31738	6.77893e+06	      76.5	   16.5873	   3.20811	6.55247e+06	
         R10	   4102	      76.5	    16.629	   3.02683	6.88225e+06	      76.5	   16.5262	   3.16116	6.01386e+06	      76.5	   16.6485	   3.25506	7.03556e+06	      76.5	   16.7633	    3.1187	7.99791e+06	      76.5	   16.5776	     3.094	6.42586e+06	      76.5	   16.5873	   3.20811	 6.5057e+06	      76.5	   16.7059	   3.18688	7.48152e+06	      76.5	   16.6962	   3.07277	 7.4206e+06	
         R10	   4103	      76.5	    16.629	   3.02683	6.90924e+06	      76.5	   16.7633	    3.1187	7.93905e+06	      76.5	   16.8874	   2.96713	9.32959e+06	      76.5	   16.7503	   2.84737	8.52419e+06	      76.5	   16.6962	   3.07277	7.40884e+06	      76.5	   16.8254	   3.04292	8.62109e+06	      76.5	   16.8188	   2.90725	 8.8962e+06	      76.5	   16.6896	    2.9371	7.70247e+06	
         R10	   4104	      76.5	   16.7503	   2.84737	8.53039e+06	      76.5	   16.8874	   2.96713	9.23348e+06	      76.5	   17.0151	    2.8181	 1.1272e+07	      76.5	   16.8806	   2.68278	1.04256e+07	      76.5	   16.8188	   2.90725	8.85398e+06	      76.5	   16.9512	   2.89261	1.02451e+07	      76.5	   16.9479	   2.75044	1.08258e+07	      76.5	   16.8155	   2.76507	9.47317e+06	
         R10	   4105	      76.5	   16.6786	   2.37849	1.12332e+07	      76.5	   16.7469	   2.27304	1.21048e+07	      76.5	   16.6406	    2.1696	1.18461e+07	      76.5	   16.5717	   2.27604	1.07294e+07	      76.5	   16.7128	   2.32576	1.16621e+07	      76.5	   16.6937	   2.22132	1.19717e+07	      76.5	   16.6061	   2.22282	1.12752e+07	      76.5	   16.6252	   2.32726	1.09788e+07	
         R10	   4106	      76.5	   16.5974	    2.5288	9.59719e+06	      76.5	   16.5324	   2.42737	 9.6003e+06	      76.5	   16.4463	   2.50592	8.76581e+06	      76.5	   16.5353	    2.6252	8.51449e+06	      76.5	   16.5649	   2.47808	9.59606e+06	      76.5	   16.4893	   2.46664	9.18165e+06	      76.5	   16.4908	   2.56556	8.63709e+06	      76.5	   16.5664	     2.577	 9.0539e+06	
         R10	   4107	      76.5	   16.4558	   2.76874	7.24949e+06	      76.5	   16.3503	   2.69142	7.09353e+06	      76.5	   16.2898	   2.77208	6.44221e+06	      76.5	   16.3693	   2.82845	6.51863e+06	      76.5	    16.403	   2.73008	7.16987e+06	      76.5	     16.32	   2.73175	6.76558e+06	      76.5	   16.3296	   2.80026	6.47916e+06	      76.5	   16.4126	    2.7986	6.88327e+06	
         R10	   4108	      76.5	   16.3693	   2.82845	6.44251e+06	      76.5	   16.2898	   2.77208	6.43803e+06	      76.5	   16.2344	   2.86806	5.70647e+06	      76.5	   16.3472	   2.92205	5.96369e+06	      76.5	   16.3296	   2.80026	6.43839e+06	      76.5	   16.2621	   2.82007	6.06921e+06	      76.5	   16.2908	   2.89505	5.83382e+06	      76.5	   16.3583	   2.87525	6.20097e+06	
         R10	   4109	      76.5	   16.3472	   2.92205	5.92236e+06	      76.5	   16.2344	   2.86806	5.69833e+06	      76.5	   16.1861	    2.9565	5.12729e+06	      76.5	   16.2916	   3.02067	5.56728e+06	      76.5	   16.2908	   2.89505	 5.8095e+06	      76.5	   16.2102	   2.91228	5.40939e+06	      76.5	   16.2388	   2.98858	 5.3471e+06	      76.5	   16.3194	   2.97136	5.73682e+06	
         R10	   4110	      76.5	   16.4904	   2.95847	6.54834e+06	      76.5	   16.3472	   2.92205	5.94479e+06	      76.5	   16.2916	   3.02067	 5.3633e+06	      76.5	   16.4084	   3.08616	 5.8362e+06	      76.5	   16.4188	   2.94026	6.24561e+06	      76.5	   16.3194	   2.97136	5.64859e+06	      76.5	     16.35	   3.05342	5.59781e+06	      76.5	   16.4494	   3.02231	6.17326e+06	
         R10	   4111	      76.5	   16.4904	   2.95847	6.40554e+06	      76.5	   16.4084	   3.08616	5.57698e+06	      76.5	   16.5262	   3.16116	6.32475e+06	      76.5	    16.629	   3.02683	7.16466e+06	      76.5	   16.4494	   3.02231	5.97644e+06	      76.5	   16.4673	   3.12366	5.94443e+06	      76.5	   16.5776	     3.094	6.71855e+06	      76.5	   16.5597	   2.99265	6.78042e+06	
         R10	   4112	      76.5	   16.7494	   2.54656	1.05669e+07	      76.5	   16.6786	   2.37849	1.08223e+07	      76.5	   16.5324	   2.42737	9.60883e+06	      76.5	   16.5974	    2.5288	9.54063e+06	      76.5	    16.714	   2.46252	 1.0681e+07	      76.5	   16.6055	   2.40293	1.02143e+07	      76.5	   16.5649	   2.47808	9.57132e+06	      76.5	   16.6734	   2.53768	1.00534e+07	
         R10	   4113	      76.5	   16.7494	   2.54656	 1.0389e+07	      76.5	   16.5974	    2.5288	9.45481e+06	      76.5	   16.5353	    2.6252	8.40889e+06	      76.5	   16.6639	   2.68752	9.06476e+06	      76.5	   16.6734	   2.53768	9.92149e+06	      76.5	   16.5664	     2.577	8.92852e+06	      76.5	   16.5996	   2.65636	8.73521e+06	      76.5	   16.7066	   2.61704	9.72201e+06	
         R10	   4114	      76.5	   16.5353	    2.6252	8.49904e+06	      76.5	   16.3874	   2.60499	7.85113e+06	      76.5	   16.3503	   2.69142	7.12377e+06	      76.5	   16.4558	   2.76874	7.22036e+06	      76.5	   16.4614	    2.6151	8.17449e+06	      76.5	   16.3688	   2.64821	7.48649e+06	      76.5	    16.403	   2.73008	7.17186e+06	      76.5	   16.4956	   2.69697	7.85879e+06	
         R10	   4115	      76.5	   16.6639	   2.68752	8.99416e+06	      76.5	   16.5353	    2.6252	8.41663e+06	      76.5	   16.4558	   2.76874	 7.1673e+06	      76.5	    16.584	   2.83342	7.63511e+06	      76.5	   16.5996	   2.65636	8.70504e+06	      76.5	   16.4956	   2.69697	7.79053e+06	      76.5	   16.5199	   2.80108	7.39921e+06	      76.5	   16.6239	   2.76047	 8.3093e+06	
         R10	   4116	      76.5	   16.4558	   2.76874	7.15382e+06	      76.5	   16.3693	   2.82845	6.44472e+06	      76.5	   16.3472	   2.92205	5.88675e+06	      76.5	   16.4904	   2.95847	6.56291e+06	      76.5	   16.4126	    2.7986	6.79768e+06	      76.5	   16.3583	   2.87525	6.16343e+06	      76.5	   16.4188	   2.94026	6.22478e+06	      76.5	   16.4731	   2.86361	6.85009e+06	
         R10	   4117	      76.5	   16.7503	   2.84737	8.67148e+06	      76.5	   16.8806	   2.68278	1.06003e+07	      76.5	   16.7494	   2.54656	1.03132e+07	      76.5	   16.6639	   2.68752	8.89756e+06	      76.5	   16.8155	   2.76507	 9.6312e+06	      76.5	    16.815	   2.61467	1.04468e+07	      76.5	   16.7066	   2.61704	9.59944e+06	      76.5	   16.7071	   2.76745	8.77547e+06	
         R10	   4118	      76.5	   16.4904	   2.95847	6.40635e+06	      76.5	    16.629	   3.02683	7.17057e+06	      76.5	   16.7503	   2.84737	8.69844e+06	      76.5	    16.584	   2.83342	7.48188e+06	      76.5	   16.5597	   2.99265	6.78085e+06	      76.5	   16.6896	    2.9371	7.92117e+06	      76.5	   16.6672	    2.8404	8.08745e+06	      76.5	   16.5372	   2.89595	6.94099e+06	
         R10	   4119	      76.5	    16.547	   2.07859	1.12853e+07	      76.5	   16.4663	         2	 1.0166e+07	      76.5	   16.4092	   2.10379	1.11339e+07	      76.5	   16.5067	   2.03929	1.07197e+07	      76.5	   16.4377	   2.05189	1.06454e+07	      76.5	   16.4781	   2.09119	1.11881e+07	       N/A	       N/A	       N/A	        N/A	       N/A	       N/A	       N/A	        N/A	
         R10	   4120	      76.5	   16.6786	   2.37849	1.09829e+07	      76.5	   16.5717	   2.27604	1.06965e+07	      76.5	   16.5324	   2.42737	9.77137e+06	      76.5	   16.6252	   2.32726	1.08374e+07	      76.5	   16.5521	    2.3517	1.02262e+07	      76.5	   16.6055	   2.40293	1.03754e+07	       N/A	       N/A	       N/A	        N/A	       N/A	       N/A	       N/A	        N/A	
         R10	   4121	      76.5	   16.5353	    2.6252	8.49542e+06	      76.5	   16.4463	   2.50592	8.71775e+06	      76.5	   16.3874	   2.60499	7.87301e+06	      76.5	   16.4908	   2.56556	8.60414e+06	      76.5	   16.4168	   2.55546	8.29461e+06	      76.5	   16.4614	    2.6151	8.18298e+06	       N/A	       N/A	       N/A	        N/A	       N/A	       N/A	       N/A	        N/A	
         R10	   4122	      76.5	   16.7503	   2.84737	 8.6592e+06	      76.5	   16.6639	   2.68752	8.85689e+06	      76.5	    16.584	   2.83342	7.47975e+06	      76.5	   16.7071	   2.76745	8.74737e+06	      76.5	   16.6239	   2.76047	8.16275e+06	      76.5	   16.6672	    2.8404	8.06839e+06	       N/A	       N/A	       N/A	        N/A	       N/A	       N/A	       N/A	        N/A	
         R10	   4123	      76.5	   16.4558	   2.76874	7.15769e+06	      76.5	   16.4904	   2.95847	6.55008e+06	      76.5	    16.584	   2.83342	  7.602e+06	      76.5	   16.4731	   2.86361	6.84763e+06	      76.5	   16.5372	   2.89595	7.07318e+06	      76.5	   16.5199	   2.80108	7.37847e+06	       N/A	       N/A	       N/A	        N/A	       N/A	       N/A	       N/A	        N/A	
         R10	   4124	      76.5	   16.9242	       0.8	8.28047e+06	      76.5	   16.7265	       0.8	8.16941e+06	      76.5	   16.6774	   1.02658	8.86564e+06	      76.5	   16.8857	   1.03255	9.39715e+06	      76.5	   16.8254	       0.8	8.21381e+06	      76.5	   16.7019	  0.913292	8.51351e+06	      76.5	   16.7815	   1.02957	9.11765e+06	      76.5	    16.905	  0.916273	8.83333e+06	
         R10	   4125	      76.5	   16.8857	   1.03255	9.31296e+06	      76.5	   16.6774	   1.02658	8.86763e+06	      76.5	   16.6322	   1.23478	9.53768e+06	      76.5	   16.8499	   1.25503	1.02291e+07	      76.5	   16.7815	   1.02957	9.07292e+06	      76.5	   16.6548	   1.13068	9.19606e+06	      76.5	   16.7411	   1.24491	9.86611e+06	      76.5	   16.8678	   1.14379	9.76377e+06	
         R10	   4126	      76.5	   16.8499	   1.25503	1.01808e+07	      76.5	   16.6322	   1.23478	9.52563e+06	      76.5	   16.5911	    1.4246	1.00448e+07	      76.5	   16.7969	   1.44166	1.08164e+07	      76.5	   16.7411	   1.24491	9.83276e+06	      76.5	   16.6116	   1.32969	9.77768e+06	      76.5	    16.694	   1.43313	1.04164e+07	      76.5	   16.8234	   1.34835	1.04852e+07	
         R10	   4127	      76.5	   16.7969	   1.44166	1.07484e+07	      76.5	   16.5911	    1.4246	1.00555e+07	      76.5	   16.5539	   1.59602	1.04859e+07	      76.5	   16.7297	   1.62516	  1.137e+07	      76.5	    16.694	   1.43313	1.03835e+07	      76.5	   16.5725	   1.51031	1.02619e+07	      76.5	   16.6418	   1.61059	1.09197e+07	      76.5	   16.7633	   1.53341	1.10371e+07	
         R10	   4128	      76.5	   16.7297	   1.62516	1.11172e+07	      76.5	   16.5539	   1.59602	1.04609e+07	      76.5	   16.5207	   1.74907	1.07639e+07	      76.5	   16.6942	   1.81267	1.18641e+07	      76.5	   16.6418	   1.61059	1.07786e+07	      76.5	   16.5373	   1.67255	 1.0605e+07	      76.5	   16.6074	   1.78087	1.13098e+07	      76.5	   16.7119	   1.71892	1.14702e+07	
         R10	   4129	      76.5	   16.8707	   1.81703	1.28937e+07	      76.5	   16.8764	         2	1.39424e+07	      76.5	   17.0496	         2	1.50688e+07	      76.5	   17.0595	   1.78526	1.32582e+07	      76.5	   16.8736	   1.90851	 1.3401e+07	      76.5	    16.963	         2	1.44694e+07	      76.5	   17.0546	   1.89263	  1.413e+07	      76.5	   16.9651	   1.80114	1.30369e+07	
         R10	   4130	      76.5	   17.0595	   1.78526	1.34433e+07	      76.5	   17.0496	         2	1.50758e+07	      76.5	   17.2412	         2	1.62905e+07	      76.5	   17.2503	   1.77589	1.30737e+07	      76.5	   17.0546	   1.89263	1.42356e+07	      76.5	   17.1454	         2	1.56436e+07	      76.5	   17.2458	   1.88795	1.45998e+07	      76.5	   17.1549	   1.78058	1.31846e+07	
         R10	   4131	      76.5	   17.2503	   1.77589	1.33529e+07	      76.5	   17.2412	         2	1.67121e+07	      76.5	    17.451	         2	1.36561e+07	      76.5	   17.4766	   1.79408	1.46586e+07	      76.5	   17.2458	   1.88795	 1.4961e+07	      76.5	   17.3461	         2	1.49884e+07	      76.5	   17.4638	   1.89704	1.41332e+07	      76.5	   17.3635	   1.78499	1.39451e+07	
         R10	   4132	      76.5	   17.2558	   1.54195	1.25181e+07	      76.5	   17.2503	   1.77589	1.41335e+07	      76.5	   17.4766	   1.79408	1.45363e+07	      76.5	   17.5044	   1.57112	 1.3463e+07	      76.5	   17.2531	   1.65892	1.33016e+07	      76.5	   17.3635	   1.78499	1.42334e+07	      76.5	   17.4905	    1.6826	1.39753e+07	      76.5	   17.3801	   1.55654	 1.2915e+07	
         R10	   4133	      76.5	   17.2558	   1.54195	1.26892e+07	      76.5	   17.5044	   1.57112	1.34531e+07	      76.5	   17.5343	   1.33112	1.18427e+07	      76.5	   17.2908	   1.31056	1.14381e+07	      76.5	   17.3801	   1.55654	1.29799e+07	      76.5	   17.5193	   1.45112	1.26307e+07	      76.5	   17.4125	   1.32084	1.15788e+07	      76.5	   17.2733	   1.42625	1.20376e+07	
         R10	   4134	      76.5	   17.2908	   1.31056	1.13777e+07	      76.5	   17.5343	   1.33112	1.18361e+07	      76.5	   17.5663	   1.07408	1.00402e+07	      76.5	   17.3367	   1.04767	9.92952e+06	      76.5	   17.4125	   1.32084	1.15385e+07	      76.5	   17.5503	    1.2026	1.09229e+07	      76.5	   17.4515	   1.06088	9.94131e+06	      76.5	   17.3138	   1.17911	1.06353e+07	
         R10	   4135	      76.5	   17.3367	   1.04767	9.84234e+06	      76.5	   17.5663	   1.07408	9.99774e+06	      76.5	   17.6004	       0.8	8.45123e+06	      76.5	   17.3612	       0.8	8.30479e+06	      76.5	   17.4515	   1.06088	9.86912e+06	      76.5	   17.5833	   0.93704	 9.2145e+06	      76.5	   17.4808	       0.8	8.34437e+06	      76.5	   17.3489	  0.923835	9.06047e+06	
         R10	   4136	      76.5	   17.1045	   1.03384	9.58612e+06	      76.5	   17.3367	   1.04767	9.80906e+06	      76.5	   17.3612	       0.8	8.25026e+06	      76.5	   17.1358	       0.8	8.35747e+06	      76.5	   17.2206	   1.04076	9.66305e+06	      76.5	   17.3489	  0.923835	 9.0184e+06	      76.5	   17.2485	       0.8	8.27361e+06	      76.5	   17.1201	  0.916922	8.96652e+06	
         R10	   4137	      76.5	   17.1045	   1.03384	9.54908e+06	      76.5	   17.1358	       0.8	8.14198e+06	      76.5	   16.9242	       0.8	8.29466e+06	      76.5	   16.8857	   1.03255	 9.3033e+06	      76.5	   17.1201	  0.916922	8.84084e+06	      76.5	     17.03	       0.8	8.19116e+06	      76.5	    16.905	  0.916273	8.79552e+06	      76.5	   16.9951	    1.0332	9.39669e+06	
         R10	   4138	      76.5	   17.0655	   1.28611	1.08065e+07	      76.5	   17.1045	   1.03384	9.56823e+06	      76.5	   16.8857	   1.03255	9.26218e+06	      76.5	   16.8499	   1.25503	1.02287e+07	      76.5	    17.085	   1.15998	1.01777e+07	      76.5	   16.9951	    1.0332	9.39085e+06	      76.5	   16.8678	   1.14379	9.73693e+06	      76.5	   16.9577	   1.27057	1.04907e+07	
         R10	   4139	      76.5	   17.0217	   1.52723	1.20092e+07	      76.5	   16.7969	   1.44166	1.06584e+07	      76.5	   16.7297	   1.62516	1.12117e+07	      76.5	   16.8577	   1.66989	1.19726e+07	      76.5	   16.9093	   1.48444	1.13173e+07	      76.5	   16.7633	   1.53341	1.09162e+07	      76.5	   16.7937	   1.64753	1.15886e+07	      76.5	   16.9397	   1.59856	1.19435e+07	
         R10	   4140	      76.5	   16.6942	   1.81267	1.18612e+07	      76.5	   16.5207	   1.74907	1.07096e+07	      76.5	   16.4915	   1.88373	 1.0959e+07	      76.5	   16.5847	         2	1.21247e+07	      76.5	   16.6074	   1.78087	 1.1278e+07	      76.5	   16.5061	    1.8164	 1.0829e+07	      76.5	   16.5381	   1.94186	1.15152e+07	      76.5	   16.6395	   1.90633	1.19343e+07	
         R10	   4141	      76.5	   16.6942	   1.81267	1.17313e+07	      76.5	   16.7214	         2	1.29343e+07	      76.5	   16.8764	         2	1.39399e+07	      76.5	   16.8707	   1.81703	1.29392e+07	      76.5	   16.7078	   1.90633	1.23194e+07	      76.5	   16.7989	         2	1.34217e+07	      76.5	   16.8736	   1.90851	1.34114e+07	      76.5	   16.7825	   1.81485	1.23113e+07	
         R10	   4142	      76.5	   17.2908	   1.31056	1.13127e+07	      76.5	   17.3367	   1.04767	9.86159e+06	      76.5	   17.1045	   1.03384	9.57671e+06	      76.5	   17.0655	   1.28611	1.07615e+07	      76.5	   17.3138	   1.17911	1.05664e+07	      76.5	   17.2206	   1.04076	9.67798e+06	      76.5	    17.085	   1.15998	1.01594e+07	      76.5	   17.1781	   1.29833	1.10043e+07	
         R10	   4143	      76.5	   17.0655	   1.28611	1.07732e+07	      76.5	   16.8499	   1.25503	1.01448e+07	      76.5	   16.7969	   1.44166	1.07572e+07	      76.5	   17.0217	   1.52723	1.18559e+07	      76.5	   16.9577	   1.27057	1.04361e+07	      76.5	   16.8234	   1.34835	1.04389e+07	      76.5	   16.9093	   1.48444	1.12914e+07	      76.5	   17.0436	   1.40667	1.12929e+07	
         R10	   4144	      76.5	   16.8577	   1.66989	1.18788e+07	      76.5	   16.7297	   1.62516	1.11091e+07	      76.5	   16.6942	   1.81267	 1.1775e+07	      76.5	   16.8707	   1.81703	1.26989e+07	      76.5	   16.7937	   1.64753	1.14924e+07	      76.5	   16.7119	   1.71892	1.14087e+07	      76.5	   16.7825	   1.81485	1.22092e+07	      76.5	   16.8642	   1.74346	1.22849e+07	
         R10	   4145	      76.5	   17.2558	   1.54195	 1.2476e+07	      76.5	   17.2908	   1.31056	1.13689e+07	      76.5	   17.0655	   1.28611	 1.0792e+07	      76.5	   17.0217	   1.52723	1.18777e+07	      76.5	   17.2733	   1.42625	1.18986e+07	      76.5	   17.1781	   1.29833	1.10416e+07	      76.5	   17.0436	   1.40667	1.13147e+07	      76.5	   17.1387	   1.53459	1.21376e+07	
         R10	   4146	      76.5	   17.0595	   1.78526	 1.3412e+07	      76.5	   17.2503	   1.77589	1.42105e+07	      76.5	   17.2558	   1.54195	1.24253e+07	      76.5	   17.0217	   1.52723	1.19203e+07	      76.5	   17.1549	   1.78058	1.37614e+07	      76.5	   17.2531	   1.65892	1.32901e+07	      76.5	   17.1387	   1.53459	1.21225e+07	      76.5	   17.0406	   1.65624	1.26464e+07	
         R10	   4147	      76.5	   17.0217	   1.52723	1.18505e+07	      76.5	   16.8577	   1.66989	1.19051e+07	      76.5	   16.8707	   1.81703	 1.2777e+07	      76.5	   17.0595	   1.78526	1.32975e+07	      76.5	   16.9397	   1.59856	1.18382e+07	      76.5	   16.8642	   1.74346	1.23249e+07	      76.5	   16.9651	   1.80114	1.29941e+07	      76.5	   17.0406	   1.65624	1.25574e+07	
         R10	   4148	      76.5	   16.4915	   1.88373	1.11499e+07	      76.5	   16.4663	         2	1.08829e+07	      76.5	   16.5847	         2	1.23574e+07	      76.5	   16.4789	   1.94186	1.09944e+07	      76.5	   16.5255	         2	1.16179e+07	      76.5	   16.5381	   1.94186	1.17199e+07	       N/A	       N/A	       N/A	        N/A	       N/A	       N/A	       N/A	        N/A	
         R10	   4149	      76.5	   16.6942	   1.81267	1.19188e+07	      76.5	   16.5847	         2	1.21683e+07	      76.5	   16.7214	         2	1.29613e+07	      76.5	   16.6395	   1.90633	1.19939e+07	      76.5	   16.6531	         2	1.25562e+07	      76.5	   16.7078	   1.90633	 1.2418e+07	       N/A	       N/A	       N/A	        N/A	       N/A	       N/A	       N/A	        N/A	
         R10	   4150	      76.5	   16.6425	   3.48671	6.96107e+06	      76.5	   16.5328	   3.59945	7.73321e+06	      76.5	   16.6578	   3.72114	 7.6667e+06	      76.5	   16.8233	   3.57317	 9.1998e+06	      76.5	   16.5876	   3.54308	7.33203e+06	      76.5	   16.5953	    3.6603	7.69442e+06	      76.5	   16.7406	   3.64716	 8.4016e+06	      76.5	   16.7329	   3.52994	8.06806e+06	
         R10	   4151	      76.5	   16.8233	   3.57317	8.43816e+06	      76.5	   16.6578	   3.72114	9.03406e+06	      76.5	   16.8023	   3.86166	1.11248e+07	      76.5	   16.9663	   3.73393	1.23829e+07	      76.5	   16.7406	   3.64716	8.61719e+06	      76.5	   16.7301	    3.7914	1.00763e+07	      76.5	   16.8843	    3.7978	 1.1738e+07	      76.5	   16.8948	   3.65355	1.03674e+07	
         R10	   4152	      76.5	   16.9663	   3.73393	1.21572e+07	      76.5	   16.8023	   3.86166	1.01561e+07	      76.5	    16.966	   4.02101	1.47959e+07	      76.5	   17.1388	   3.85298	1.41718e+07	      76.5	   16.8843	    3.7978	1.10783e+07	      76.5	   16.8841	   3.94133	1.24641e+07	      76.5	   17.0524	   3.93699	1.44471e+07	      76.5	   17.0525	   3.79346	1.31639e+07	
         R10	   4153	      76.5	   17.1388	   3.85298	1.40625e+07	      76.5	    16.966	   4.02101	1.26819e+07	      76.5	   17.1492	   4.19918	1.36551e+07	      76.5	    17.314	   4.01234	1.93622e+07	      76.5	   17.0524	   3.93699	1.33158e+07	      76.5	   17.0576	   4.11009	1.30536e+07	      76.5	   17.2316	   4.10576	1.64319e+07	      76.5	   17.2264	   3.93266	1.66794e+07	
         R10	   4154	      76.5	   17.3062	   3.66701	1.60416e+07	      76.5	   17.1388	   3.85298	1.37833e+07	      76.5	    17.314	   4.01234	1.80547e+07	      76.5	   17.4904	   3.81243	1.86059e+07	      76.5	   17.2225	   3.75999	1.47955e+07	      76.5	   17.2264	   3.93266	1.59022e+07	      76.5	   17.4022	   3.91239	1.83181e+07	      76.5	   17.3983	   3.73972	1.72826e+07	
         R10	   4155	      76.5	   17.3062	   3.66701	1.52269e+07	      76.5	   17.4904	   3.81243	1.93413e+07	      76.5	   17.6783	   3.59945	2.03261e+07	      76.5	   17.4629	    3.4053	1.84055e+07	      76.5	   17.3983	   3.73972	1.72398e+07	      76.5	   17.5844	   3.70594	1.96182e+07	      76.5	   17.5706	   3.50237	1.92466e+07	      76.5	   17.3846	   3.53616	1.67592e+07	
         R10	   4156	      76.5	   17.4629	    3.4053	1.61467e+07	      76.5	   17.6783	   3.59945	2.13691e+07	      76.5	   17.8778	   3.37338	2.21613e+07	      76.5	   17.6578	   3.15932	2.87222e+07	      76.5	   17.5706	   3.50237	1.87189e+07	      76.5	   17.7781	   3.48641	2.12574e+07	      76.5	   17.7678	   3.26635	2.51112e+07	      76.5	   17.5604	   3.28231	2.22511e+07	
         R10	   4157	      76.5	   17.2856	   3.18699	  1.357e+07	      76.5	   17.4629	    3.4053	1.68488e+07	      76.5	   17.6578	   3.15932	2.68078e+07	      76.5	   17.4652	   2.97188	1.91637e+07	      76.5	   17.3743	   3.29614	1.50277e+07	      76.5	   17.5604	   3.28231	2.16679e+07	      76.5	   17.5615	    3.0656	2.29679e+07	      76.5	   17.3754	   3.07943	1.63165e+07	
         R10	   4158	      76.5	   17.2856	   3.18699	1.32632e+07	      76.5	   17.4652	   2.97188	 1.9581e+07	      76.5	   17.2999	   2.81105	1.48217e+07	      76.5	   17.1539	   2.96111	1.20217e+07	      76.5	   17.3754	   3.07943	1.63647e+07	      76.5	   17.3825	   2.89147	1.71787e+07	      76.5	   17.2269	   2.88608	1.34078e+07	      76.5	   17.2197	   3.07405	1.24957e+07	
         R10	   4159	      76.5	   17.0339	   3.35426	9.70481e+06	      76.5	   17.2856	   3.18699	1.33368e+07	      76.5	   17.1539	   2.96111	1.17181e+07	      76.5	   17.0151	   3.10371	9.29851e+06	      76.5	   17.1597	   3.27062	1.14986e+07	      76.5	   17.2197	   3.07405	1.23621e+07	      76.5	   17.0845	   3.03241	1.04994e+07	      76.5	   17.0245	   3.22898	9.34041e+06	
         R10	   4160	      76.5	   17.1116	   3.56952	1.21498e+07	      76.5	   16.9663	   3.73393	1.14948e+07	      76.5	   17.1388	   3.85298	1.45512e+07	      76.5	   17.3062	   3.66701	1.63817e+07	      76.5	   17.0389	   3.65172	1.17966e+07	      76.5	   17.0525	   3.79346	1.30052e+07	      76.5	   17.2225	   3.75999	1.54111e+07	      76.5	   17.2089	   3.61826	1.42652e+07	
         R10	   4161	      76.5	    17.189	   3.45412	1.44774e+07	      76.5	   17.1116	   3.56952	1.15719e+07	      76.5	   17.3062	   3.66701	1.51505e+07	      76.5	   17.4629	    3.4053	1.79995e+07	      76.5	   17.1503	   3.51182	1.29262e+07	      76.5	   17.2089	   3.61826	1.33375e+07	      76.5	   17.3846	   3.53616	1.64896e+07	      76.5	    17.326	   3.42971	1.62301e+07	
         R10	   4162	      76.5	    17.189	   3.45412	1.20949e+07	      76.5	   17.4629	    3.4053	1.78943e+07	      76.5	   17.2856	   3.18699	1.35951e+07	      76.5	   17.0339	   3.35426	9.59983e+06	      76.5	    17.326	   3.42971	1.49532e+07	      76.5	   17.3743	   3.29614	1.56669e+07	      76.5	   17.1597	   3.27062	1.15598e+07	      76.5	   17.1114	   3.40419	1.08256e+07	
         R10	   4163	      76.5	    17.189	   3.45412	1.36356e+07	      76.5	   17.0339	   3.35426	9.99467e+06	      76.5	   16.8233	   3.57317	8.19915e+06	      76.5	   17.1116	   3.56952	1.25752e+07	      76.5	   17.1114	   3.40419	1.18005e+07	      76.5	   16.9286	   3.46371	8.97978e+06	      76.5	   16.9674	   3.57134	1.03711e+07	      76.5	   17.1503	   3.51182	1.30843e+07	
         R10	   4164	      76.5	   17.0339	   3.35426	1.02389e+07	      76.5	   16.7594	    3.3665	6.95034e+06	      76.5	   16.6425	   3.48671	6.26601e+06	      76.5	   16.8233	   3.57317	9.23402e+06	      76.5	   16.8966	   3.36038	8.58071e+06	      76.5	   16.7009	   3.42661	6.51936e+06	      76.5	   16.7329	   3.52994	 7.7419e+06	      76.5	   16.9286	   3.46371	9.64624e+06	
         R10	   4165	      76.5	   17.0339	   3.35426	9.84485e+06	      76.5	   17.0151	   3.10371	9.51615e+06	      76.5	   16.8836	   3.23884	7.56556e+06	      76.5	   17.0245	   3.22898	9.53266e+06	      76.5	   16.9494	   3.17127	8.51338e+06	      76.5	   16.9587	   3.29655	8.66412e+06	       N/A	       N/A	       N/A	        N/A	       N/A	       N/A	       N/A	        N/A	
         R10	   4166	      76.5	   17.0339	   3.35426	1.03095e+07	      76.5	   16.8836	   3.23884	7.53066e+06	      76.5	   16.7594	    3.3665	6.97225e+06	      76.5	   16.9587	   3.29655	8.86834e+06	      76.5	   16.8215	   3.30267	7.21055e+06	      76.5	   16.8966	   3.36038	8.62422e+06	       N/A	       N/A	       N/A	        N/A	       N/A	       N/A	       N/A	        N/A	
         R10	   4167	      76.5	   16.9663	   3.73393	1.14116e+07	      76.5	   17.1116	   3.56952	 1.2633e+07	      76.5	   16.8233	   3.57317	8.92439e+06	      76.5	   17.0389	   3.65172	1.19424e+07	      76.5	   16.9674	   3.57134	1.07645e+07	      76.5	   16.8948	   3.65355	1.01463e+07	       N/A	       N/A	       N/A	        N/A	       N/A	       N/A	       N/A	        N/A	
         R10	   4168	      76.5	   16.8565	   2.16031	1.40775e+07	      76.5	   16.7469	   2.27304	1.26556e+07	      76.5	    16.866	    2.3889	1.30108e+07	      76.5	   16.9881	   2.26347	1.43918e+07	      76.5	   16.8017	   2.21667	1.33438e+07	      76.5	   16.8064	   2.33097	 1.2826e+07	      76.5	    16.927	   2.32618	1.36442e+07	      76.5	   16.9223	   2.21189	1.42334e+07	
         R10	   4169	      76.5	   16.9881	   2.26347	 1.5041e+07	      76.5	    16.866	    2.3889	1.29825e+07	      76.5	   16.9978	   2.51719	1.32301e+07	      76.5	   17.1323	   2.37892	1.51773e+07	      76.5	    16.927	   2.32618	1.39505e+07	      76.5	   16.9319	   2.45305	1.30964e+07	      76.5	   17.0651	   2.44805	1.41611e+07	      76.5	   17.0602	   2.32119	1.50953e+07	
         R10	   4170	      76.5	   17.2187	   2.15653	1.82661e+07	      76.5	    17.415	   2.19311	1.81028e+07	      76.5	    17.451	         2	2.42083e+07	      76.5	   17.2412	         2	  1.689e+07	      76.5	   17.3168	   2.17482	1.81736e+07	      76.5	    17.433	   2.09655	2.08947e+07	      76.5	   17.3461	         2	 2.0403e+07	      76.5	   17.2299	   2.07826	1.75016e+07	
         R10	   4171	      76.5	   17.1323	   2.37892	1.54732e+07	      76.5	   16.9978	   2.51719	1.33548e+07	      76.5	   17.1425	   2.65791	1.36103e+07	      76.5	   17.3394	   2.59863	1.68077e+07	      76.5	   17.0651	   2.44805	1.43422e+07	      76.5	   17.0702	   2.58755	1.34635e+07	      76.5	    17.241	   2.62827	1.50973e+07	      76.5	   17.2359	   2.48878	1.60987e+07	
         R10	   4172	      76.5	   17.1323	   2.37892	1.62399e+07	      76.5	   17.3778	   2.39265	1.81083e+07	      76.5	    17.415	   2.19311	2.01817e+07	      76.5	   17.2187	   2.15653	1.69478e+07	      76.5	   17.2551	   2.38578	1.71084e+07	      76.5	   17.3964	   2.29288	1.90117e+07	      76.5	   17.3168	   2.17482	1.85274e+07	      76.5	   17.1755	   2.26772	1.64577e+07	
         R10	   4173	      76.5	   17.0855	      2.14	1.62149e+07	      76.5	   17.2187	   2.15653	1.88176e+07	      76.5	   17.2412	         2	1.68599e+07	      76.5	   17.0496	         2	1.48287e+07	      76.5	   17.1521	   2.14826	1.74985e+07	      76.5	   17.2299	   2.07826	1.77485e+07	      76.5	   17.1454	         2	 1.5797e+07	      76.5	   17.0676	      2.07	 1.5482e+07	
         R10	   4174	      76.5	   17.0855	      2.14	1.64133e+07	      76.5	   17.0496	         2	1.51993e+07	      76.5	   16.8565	   2.16031	1.42929e+07	      76.5	   16.9881	   2.26347	1.44249e+07	      76.5	   17.0676	      2.07	1.57594e+07	      76.5	   16.9531	   2.08016	1.46058e+07	      76.5	   16.9223	   2.21189	 1.4358e+07	      76.5	   17.0368	   2.20173	1.53884e+07	
         R10	   4175	      76.5	   17.0855	      2.14	1.59893e+07	      76.5	   16.9881	   2.26347	1.51087e+07	      76.5	   17.1323	   2.37892	1.55201e+07	      76.5	   17.2187	   2.15653	1.75547e+07	      76.5	   17.0368	   2.20173	1.55209e+07	      76.5	   17.0602	   2.32119	 1.5303e+07	      76.5	   17.1755	   2.26772	 1.6405e+07	      76.5	   17.1521	   2.14826	1.67579e+07	
         R10	   4176	      76.5	   16.7395	   2.10997	1.31715e+07	      76.5	   16.6406	    2.1696	1.21494e+07	      76.5	   16.7469	   2.27304	1.25995e+07	      76.5	   16.8565	   2.16031	1.32344e+07	      76.5	     16.69	   2.13978	1.26467e+07	      76.5	   16.6937	   2.22132	1.23728e+07	      76.5	   16.8017	   2.21667	1.28883e+07	      76.5	    16.798	   2.13514	1.32015e+07	
         R10	   4177	      76.5	   16.7395	   2.10997	1.32259e+07	      76.5	   16.8565	   2.16031	1.38302e+07	      76.5	   16.8764	         2	 1.3659e+07	      76.5	   16.7214	         2	1.28363e+07	      76.5	    16.798	   2.13514	1.35137e+07	      76.5	   16.8665	   2.08016	1.37284e+07	      76.5	   16.7989	         2	1.32383e+07	      76.5	   16.7305	   2.05499	1.30126e+07	
         R10	   4178	      76.5	   16.7395	   2.10997	1.29446e+07	      76.5	   16.7214	         2	1.28322e+07	      76.5	   16.5847	         2	1.22081e+07	      76.5	   16.6406	    2.1696	1.21412e+07	      76.5	   16.7305	   2.05499	1.28728e+07	      76.5	   16.6531	         2	1.25114e+07	      76.5	   16.6126	    2.0848	1.21596e+07	      76.5	     16.69	   2.13978	 1.2533e+07	
         R10	   4179	      76.5	   17.1425	   2.65791	1.28378e+07	      76.5	   17.2999	   2.81105	1.45664e+07	      76.5	   17.3394	   2.59863	1.82405e+07	      76.5	   17.2212	   2.73448	1.36757e+07	      76.5	   17.3196	   2.70484	1.62631e+07	      76.5	    17.241	   2.62827	1.52571e+07	       N/A	       N/A	       N/A	        N/A	       N/A	       N/A	       N/A	        N/A	
         R10	   4180	      76.5	   17.1323	   2.37892	1.54845e+07	      76.5	   17.3394	   2.59863	1.70266e+07	      76.5	   17.3778	   2.39265	1.65371e+07	      76.5	   17.2359	   2.48878	1.61312e+07	      76.5	   17.3586	   2.49564	1.67528e+07	      76.5	   17.2551	   2.38578	1.59208e+07	       N/A	       N/A	       N/A	        N/A	       N/A	       N/A	       N/A	        N/A	
         R10	   4181	      76.5	   17.0496	         2	1.48767e+07	      76.5	   16.8764	         2	1.36381e+07	      76.5	   16.8565	   2.16031	 1.3999e+07	      76.5	    16.963	         2	1.42343e+07	      76.5	   16.8665	   2.08016	1.37857e+07	      76.5	   16.9531	   2.08016	1.43283e+07	       N/A	       N/A	       N/A	        N/A	       N/A	       N/A	       N/A	        N/A	
         R10	   4182	      76.5	    16.547	   2.07859	1.21727e+07	      76.5	   16.6406	    2.1696	1.23562e+07	      76.5	   16.5847	         2	1.19503e+07	      76.5	   16.5938	   2.12409	1.22613e+07	      76.5	   16.6126	    2.0848	1.21207e+07	      76.5	   16.5659	   2.03929	1.20163e+07	       N/A	       N/A	       N/A	        N/A	       N/A	       N/A	       N/A	        N/A	
         R10	   4183	      76.5	    16.547	   2.07859	1.22841e+07	      76.5	   16.5847	         2	1.24568e+07	      76.5	   16.4663	         2	1.15202e+07	      76.5	   16.5659	   2.03929	1.23295e+07	      76.5	   16.5255	         2	1.19675e+07	      76.5	   16.5067	   2.03929	1.18986e+07	       N/A	       N/A	       N/A	        N/A	       N/A	       N/A	       N/A	        N/A	
         R10	   4184	      76.5	    17.314	   4.01234	1.72257e+07	      76.5	   17.1492	   4.19918	1.84416e+07	      76.5	   17.3254	    4.3707	1.61703e+07	      76.5	   17.5528	    4.1818	1.98367e+07	      76.5	   17.2316	   4.10576	1.77891e+07	      76.5	   17.2373	   4.28494	 1.7251e+07	      76.5	   17.4391	   4.27625	1.79772e+07	      76.5	   17.4334	   4.09707	1.85295e+07	
         R10	   4185	      76.5	   17.5528	    4.1818	1.89119e+07	      76.5	   17.3254	    4.3707	1.84515e+07	      76.5	   17.5309	   4.57061	1.79169e+07	      76.5	   17.7936	   4.35121	2.09265e+07	      76.5	   17.4391	   4.27625	1.86438e+07	      76.5	   17.4282	   4.47065	 1.8158e+07	      76.5	   17.6622	   4.46091	1.94133e+07	      76.5	   17.6732	    4.2665	1.99093e+07	
         R10	   4186	      76.5	   17.7936	   4.35121	2.09186e+07	      76.5	   17.5309	   4.57061	1.77707e+07	      76.5	   17.7655	    4.7989	 2.0872e+07	      76.5	   18.0091	   4.54862	1.96094e+07	      76.5	   17.6622	   4.46091	1.93378e+07	      76.5	   17.6482	   4.68475	1.92817e+07	      76.5	   17.8873	   4.67376	2.02213e+07	      76.5	   17.9013	   4.44991	2.02637e+07	
         R10	   4187	      76.5	   18.0158	   4.03916	1.72816e+07	      76.5	   17.7936	   4.35121	2.02434e+07	      76.5	   18.0091	   4.54862	1.95514e+07	      76.5	   18.2648	   4.28582	1.56539e+07	      76.5	   17.9047	   4.19518	1.87309e+07	      76.5	   17.9013	   4.44991	1.98947e+07	      76.5	   18.1369	   4.41722	1.75923e+07	      76.5	   18.1403	   4.16249	1.63991e+07	
         R10	   4188	      76.5	   18.0158	   4.03916	1.65265e+07	      76.5	   18.2648	   4.28582	1.56752e+07	      76.5	   18.5326	    4.0105	4.88845e+06	      76.5	   18.2936	   3.77795	8.75017e+06	      76.5	   18.1403	   4.16249	 1.6028e+07	      76.5	   18.3987	   4.14816	1.02477e+07	      76.5	   18.4131	   3.89423	6.14597e+06	      76.5	   18.1547	   3.90855	1.21837e+07	
         R10	   4189	      76.5	   18.0158	   4.03916	  1.637e+07	      76.5	   18.2936	   3.77795	8.63534e+06	      76.5	   18.0753	   3.56557	1.49163e+07	      76.5	   17.9332	   3.74037	1.64271e+07	      76.5	   18.1547	   3.90855	1.19796e+07	      76.5	   18.1845	   3.67176	1.16948e+07	      76.5	   18.0043	   3.65297	 1.5223e+07	      76.5	   17.9745	   3.88976	1.60939e+07	
         R10	   4190	      76.5	   17.9332	   3.74037	1.68191e+07	      76.5	   18.0753	   3.56557	1.43688e+07	      76.5	   17.8778	   3.37338	2.46481e+07	      76.5	   17.6783	   3.59945	1.87022e+07	      76.5	   18.0043	   3.65297	1.48711e+07	      76.5	   17.9766	   3.46948	1.94086e+07	      76.5	   17.7781	   3.48641	2.07343e+07	      76.5	   17.8058	   3.66991	1.76991e+07	
         R10	   4191	      76.5	   17.4904	   3.81243	1.73157e+07	      76.5	    17.314	   4.01234	1.65138e+07	      76.5	   17.5528	    4.1818	2.05177e+07	      76.5	   17.7033	   3.97408	 1.8937e+07	      76.5	   17.4022	   3.91239	 1.6875e+07	      76.5	   17.4334	   4.09707	1.85124e+07	      76.5	    17.628	   4.07794	1.96958e+07	      76.5	   17.5968	   3.89326	1.81139e+07	
         R10	   4192	      76.5	   17.7033	   3.97408	 1.8918e+07	      76.5	   17.5528	    4.1818	1.95563e+07	      76.5	   17.7936	   4.35121	1.99373e+07	      76.5	   18.0158	   4.03916	1.75589e+07	      76.5	    17.628	   4.07794	1.91848e+07	      76.5	   17.6732	    4.2665	1.97403e+07	      76.5	   17.9047	   4.19518	1.87097e+07	      76.5	   17.8596	   4.00662	 1.8238e+07	
         R10	   4193	      76.5	   17.7033	   3.97408	 1.9177e+07	      76.5	   18.0158	   4.03916	1.63645e+07	      76.5	   17.9332	   3.74037	1.75732e+07	      76.5	   17.6783	   3.59945	1.76839e+07	      76.5	   17.8596	   4.00662	1.77638e+07	      76.5	   17.9745	   3.88976	1.66899e+07	      76.5	   17.8058	   3.66991	1.75379e+07	      76.5	   17.6908	   3.78676	 1.8341e+07	
         R10	   4194	      76.5	   17.4904	   3.81243	1.81254e+07	      76.5	   17.7033	   3.97408	1.89579e+07	      76.5	   17.6783	   3.59945	1.70295e+07	      76.5	   17.5968	   3.89326	1.85347e+07	      76.5	   17.6908	   3.78676	1.78248e+07	      76.5	   17.5844	   3.70594	1.74267e+07	       N/A	       N/A	       N/A	        N/A	       N/A	       N/A	       N/A	        N/A	
         R10	   4195	      76.5	    17.869	  0.812795	 7.6086e+06	      76.5	   17.6004	       0.8	 8.3571e+06	      76.5	   17.5663	   1.07408	9.99592e+06	      76.5	   17.8503	   1.08642	9.10769e+06	      76.5	   17.7347	  0.806398	7.93683e+06	      76.5	   17.5833	   0.93704	9.16999e+06	      76.5	   17.7083	   1.08025	9.51433e+06	      76.5	   17.8596	  0.949606	8.34132e+06	
         R10	   4196	      76.5	   17.8503	   1.08642	8.88616e+06	      76.5	   17.5663	   1.07408	1.00232e+07	      76.5	   17.5343	   1.33112	 1.1673e+07	      76.5	   17.7994	   1.31999	1.07473e+07	      76.5	   17.7083	   1.08025	9.40833e+06	      76.5	   17.5503	    1.2026	1.08373e+07	      76.5	   17.6668	   1.32556	1.11601e+07	      76.5	   17.8248	   1.20321	9.80672e+06	
         R10	   4197	      76.5	   17.7994	   1.31999	1.04607e+07	      76.5	   17.5343	   1.33112	1.17534e+07	      76.5	   17.5044	   1.57112	1.38105e+07	      76.5	     17.79	   1.61423	1.18205e+07	      76.5	   17.6668	   1.32556	1.10503e+07	      76.5	   17.5193	   1.45112	1.27593e+07	      76.5	   17.6472	   1.59267	 1.2733e+07	      76.5	   17.7947	   1.46711	1.11233e+07	
         R10	   4198	      76.5	     17.79	   1.61423	1.09568e+07	      76.5	   17.5044	   1.57112	1.38699e+07	      76.5	   17.4766	   1.79408	1.49089e+07	      76.5	   17.6866	   1.80975	1.50763e+07	      76.5	   17.6472	   1.59267	1.23309e+07	      76.5	   17.4905	    1.6826	1.43509e+07	      76.5	   17.5816	   1.80192	1.49115e+07	      76.5	   17.7383	   1.71199	1.28397e+07	
         R10	   4199	      76.5	   17.6866	   1.80975	1.39241e+07	      76.5	   17.4766	   1.79408	1.49964e+07	      76.5	    17.451	         2	1.58279e+07	      76.5	   17.6508	         2	1.71657e+07	      76.5	   17.5816	   1.80192	1.44172e+07	      76.5	   17.4638	   1.89704	1.51934e+07	      76.5	   17.5509	         2	1.63384e+07	      76.5	   17.6687	   1.90488	1.54075e+07	
         R10	   4200	      76.5	   17.9593	   1.74572	1.09423e+07	      76.5	   17.8815	         2	1.28392e+07	      76.5	   18.1431	         2	1.08553e+07	      76.5	   18.1641	   1.70362	9.54811e+06	      76.5	   17.9204	   1.87286	1.18773e+07	      76.5	   18.0123	         2	 1.1592e+07	      76.5	   18.1536	   1.85181	9.95165e+06	      76.5	   18.0617	   1.72467	1.00087e+07	
         R10	   4201	      76.5	   18.1641	   1.70362	7.87363e+06	      76.5	   18.1431	         2	1.15677e+07	      76.5	   18.4357	         2	 1.3558e+07	      76.5	   18.4454	   1.69834	9.22036e+06	      76.5	   18.1536	   1.85181	9.45892e+06	      76.5	   18.2894	         2	1.24067e+07	      76.5	   18.4405	   1.84917	1.12412e+07	      76.5	   18.3047	   1.70098	8.40504e+06	
         R10	   4202	      76.5	   18.1641	   1.70362	8.47881e+06	      76.5	   18.4454	   1.69834	9.28475e+06	      76.5	   18.4555	   1.38401	6.65313e+06	      76.5	   18.1311	   1.39263	7.85026e+06	      76.5	   18.3047	   1.70098	8.64734e+06	      76.5	   18.4504	   1.54118	7.87599e+06	      76.5	   18.2933	   1.38832	7.18096e+06	      76.5	   18.1476	   1.54813	8.14243e+06	
         R10	   4203	      76.5	   18.1311	   1.39263	7.72305e+06	      76.5	   18.4555	   1.38401	6.63044e+06	      76.5	    18.466	   1.05701	 5.5081e+06	      76.5	   18.1498	   1.05551	7.36571e+06	      76.5	   18.2933	   1.38832	7.10501e+06	      76.5	   18.4608	   1.22051	6.00187e+06	      76.5	   18.3079	   1.05626	6.41726e+06	      76.5	   18.1405	   1.22407	7.52012e+06	
         R10	   4204	      76.5	   18.1498	   1.05551	7.11759e+06	      76.5	    18.466	   1.05701	5.48811e+06	      76.5	   18.4769	  0.717345	 4.7846e+06	      76.5	   18.1671	  0.727741	6.63022e+06	      76.5	   18.3079	   1.05626	6.29052e+06	      76.5	   18.4715	  0.887179	5.08451e+06	      76.5	    18.322	  0.722543	5.69408e+06	      76.5	   18.1585	  0.891624	6.85888e+06	
         R10	   4205	      76.5	   18.1671	  0.727741	6.62786e+06	      76.5	   18.4769	  0.717345	5.08585e+06	      76.5	   18.4883	  0.365008	7.12192e+06	      76.5	   18.0962	  0.355216	5.95619e+06	      76.5	    18.322	  0.722543	5.85006e+06	      76.5	   18.4826	  0.541176	6.08307e+06	      76.5	   18.2922	  0.360112	 5.9482e+06	      76.5	   18.1317	  0.541478	5.82523e+06	
         R10	   4206	      76.5	   18.0962	  0.355216	5.12093e+06	      76.5	   18.4883	  0.365008	5.35866e+06	      76.5	      18.5	         0	1.51468e+07	      76.5	    18.081	         0	4.83394e+06	      76.5	   18.2922	  0.360112	4.80394e+06	      76.5	   18.4941	  0.182504	9.62974e+06	      76.5	   18.2905	         0	7.44347e+06	      76.5	   18.0886	  0.177608	3.42037e+06	
         R10	   4207	      76.5	   18.0962	  0.355216	3.99056e+06	      76.5	    18.081	         0	5.29419e+06	      76.5	      17.7	         0	1.30906e+07	      76.5	   17.6636	  0.292006	7.41151e+06	      76.5	   18.0886	  0.177608	1.86368e+06	      76.5	   17.8905	         0	4.32546e+06	      76.5	   17.6818	  0.146003	8.59595e+06	      76.5	   17.8799	  0.323611	5.27749e+06	
         R10	   4208	      76.5	   18.0962	  0.355216	2.79958e+06	      76.5	   17.6636	  0.292006	8.20187e+06	      76.5	   17.6304	  0.558673	7.15254e+06	      76.5	   17.8661	  0.574572	 6.5843e+06	      76.5	   17.8799	  0.323611	5.23191e+06	      76.5	    17.647	  0.425339	7.67663e+06	      76.5	   17.7483	  0.566622	 6.8538e+06	      76.5	   17.9811	  0.464894	4.40799e+06	
         R10	   4209	      76.5	   17.8661	  0.574572	7.19433e+06	      76.5	   17.6304	  0.558673	6.77363e+06	      76.5	   17.6004	       0.8	8.34657e+06	      76.5	    17.869	  0.812795	7.19269e+06	      76.5	   17.7483	  0.566622	6.97768e+06	      76.5	   17.6154	  0.679336	7.53409e+06	      76.5	   17.7347	  0.806398	7.71707e+06	      76.5	   17.8676	  0.693684	7.17704e+06	
         R10	   4210	      76.5	     17.79	   1.61423	1.13598e+07	      76.5	   17.6866	   1.80975	1.53408e+07	      76.5	   17.8815	         2	1.27855e+07	      76.5	   17.9593	   1.74572	1.15757e+07	      76.5	   17.7383	   1.71199	1.32331e+07	      76.5	   17.7841	   1.90488	1.40611e+07	      76.5	   17.9204	   1.87286	1.20964e+07	      76.5	   17.8747	   1.67998	1.14677e+07	
         R10	   4211	      76.5	   18.1671	  0.727741	6.80611e+06	      76.5	   18.0962	  0.355216	2.79491e+06	      76.5	   17.8661	  0.574572	6.83768e+06	      76.5	    17.869	  0.812795	7.50427e+06	      76.5	   18.1317	  0.541478	 4.7403e+06	      76.5	   17.9811	  0.464894	4.67686e+06	      76.5	   17.8676	  0.693684	7.14155e+06	      76.5	   18.0181	  0.770268	 7.1334e+06	
         R10	   4212	      76.5	   18.1498	   1.05551	7.12739e+06	      76.5	   18.1671	  0.727741	6.60691e+06	      76.5	    17.869	  0.812795	 7.5339e+06	      76.5	   17.8503	   1.08642	8.89407e+06	      76.5	   18.1585	  0.891624	6.82175e+06	      76.5	   18.0181	  0.770268	  7.039e+06	      76.5	   17.8596	  0.949606	 8.2112e+06	      76.5	        18	   1.07096	8.00214e+06	
         R10	   4213	      76.5	   18.1311	   1.39263	8.44101e+06	      76.5	   18.1498	   1.05551	7.50585e+06	      76.5	   17.8503	   1.08642	8.83189e+06	      76.5	   17.7994	   1.31999	1.02554e+07	      76.5	   18.1405	   1.22407	7.93507e+06	      76.5	        18	   1.07096	8.16301e+06	      76.5	   17.8248	   1.20321	9.53574e+06	      76.5	   17.9653	   1.35631	9.27463e+06	
         R10	   4214	      76.5	     17.79	   1.61423	  1.185e+07	      76.5	   17.9593	   1.74572	1.06095e+07	      76.5	   18.1641	   1.70362	9.22075e+06	      76.5	   18.1311	   1.39263	8.24037e+06	      76.5	   17.8747	   1.67998	1.12242e+07	      76.5	   18.0617	   1.72467	9.88364e+06	      76.5	   18.1476	   1.54813	 8.6634e+06	      76.5	   17.9606	   1.50343	9.97508e+06	
         R10	   4215	      76.5	   17.6866	   1.80975	1.40293e+07	      76.5	   17.6508	         2	1.64102e+07	      76.5	   17.8815	         2	1.33143e+07	      76.5	   17.6687	   1.90488	1.51325e+07	      76.5	   17.7662	         2	1.47652e+07	      76.5	   17.7841	   1.90488	1.36653e+07	       N/A	       N/A	       N/A	        N/A	       N/A	       N/A	       N/A	        N/A	
         R10	   4216	      76.5	   17.7994	   1.31999	9.90526e+06	      76.5	     17.79	   1.61423	1.20845e+07	      76.5	   18.1311	   1.39263	8.61018e+06	      76.5	   17.7947	   1.46711	1.09774e+07	      76.5	   17.9606	   1.50343	1.02432e+07	      76.5	   17.9653	   1.35631	9.20773e+06	       N/A	       N/A	       N/A	        N/A	       N/A	       N/A	       N/A	        N/A	
         R10	   4217	      76.5	   18.0091	   4.54862	2.01145e+07	      76.5	   17.7655	    4.7989	1.77887e+07	      76.5	   18.0444	   5.07027	1.68698e+07	      76.5	   18.3486	   4.81725	1.85174e+07	      76.5	   17.8873	   4.67376	1.88741e+07	      76.5	    17.905	   4.93459	1.72061e+07	      76.5	   18.1965	   4.94376	  1.757e+07	      76.5	   18.1789	   4.68293	1.93129e+07	
         R10	   4218	      76.5	   18.3486	   4.81725	2.04462e+07	      76.5	   18.0444	   5.07027	1.85068e+07	      76.5	   18.3819	   5.39863	1.97948e+07	      76.5	   18.6483	   5.16518	1.46529e+07	      76.5	   18.1965	   4.94376	1.92729e+07	      76.5	   18.2132	   5.23445	1.87476e+07	      76.5	   18.5151	    5.2819	 1.6991e+07	      76.5	   18.4985	   4.99121	1.75346e+07	
         R10	   4219	      76.5	   18.6102	   4.56092	 1.6203e+07	      76.5	   18.3486	   4.81725	2.04051e+07	      76.5	   18.6483	   5.16518	1.44015e+07	      76.5	    18.925	   4.92276	1.51421e+07	      76.5	   18.4794	   4.68908	1.78277e+07	      76.5	   18.4985	   4.99121	1.73526e+07	      76.5	   18.7867	   5.04397	1.44051e+07	      76.5	   18.7676	   4.74184	1.56322e+07	
         R10	   4220	      76.5	   18.6102	   4.56092	 1.5207e+07	      76.5	    18.925	   4.92276	 1.6164e+07	      76.5	   19.2119	   4.67137	2.33789e+07	      76.5	   18.8436	   4.31303	1.00593e+07	      76.5	   18.7676	   4.74184	1.56808e+07	      76.5	   19.0684	   4.79706	1.76603e+07	      76.5	   19.0277	    4.4922	1.66856e+07	      76.5	   18.7269	   4.43697	1.15607e+07	
         R10	   4221	      76.5	   18.6102	   4.56092	1.50204e+07	      76.5	   18.8436	   4.31303	1.08875e+07	      76.5	   18.5326	    4.0105	5.16089e+06	      76.5	   18.2648	   4.28582	 1.5974e+07	      76.5	   18.7269	   4.43697	1.19193e+07	      76.5	   18.6881	   4.16176	7.13773e+06	      76.5	   18.3987	   4.14816	1.05487e+07	      76.5	   18.4375	   4.42337	 1.5271e+07	
         R10	   4222	      76.5	   18.3486	   4.81725	1.79063e+07	      76.5	   18.6102	   4.56092	 1.5363e+07	      76.5	   18.2648	   4.28582	1.60718e+07	      76.5	   18.0091	   4.54862	1.96694e+07	      76.5	   18.4794	   4.68908	1.62796e+07	      76.5	   18.4375	   4.42337	1.54896e+07	      76.5	   18.1369	   4.41722	1.78686e+07	      76.5	   18.1789	   4.68293	1.87537e+07	
         R10	   4223	      76.5	    18.862	         0	8.85116e+06	      76.5	      18.5	         0	1.43509e+07	      76.5	   18.4883	  0.365008	6.88435e+06	      76.5	   18.9329	  0.388645	2.61058e+06	      76.5	    18.681	         0	7.47312e+06	      76.5	   18.4941	  0.182504	9.27286e+06	      76.5	   18.7106	  0.376826	4.12545e+06	      76.5	   18.8974	  0.194322	3.91015e+06	
         R10	   4224	      76.5	   18.9329	  0.388645	2.89592e+06	      76.5	   18.4883	  0.365008	6.79801e+06	      76.5	   18.4769	  0.717345	4.46681e+06	      76.5	   18.9218	  0.762062	3.96203e+06	      76.5	   18.7106	  0.376826	3.92305e+06	      76.5	   18.4826	  0.541176	5.55182e+06	      76.5	   18.6993	  0.739703	4.00053e+06	      76.5	   18.9273	  0.575353	2.66701e+06	
         R10	   4225	      76.5	   18.9218	  0.762062	 4.0036e+06	      76.5	   18.4769	  0.717345	4.56117e+06	      76.5	    18.466	   1.05701	5.55656e+06	      76.5	   18.8331	   1.04225	4.57331e+06	      76.5	   18.6993	  0.739703	4.08491e+06	      76.5	   18.4715	  0.887179	4.99668e+06	      76.5	   18.6496	   1.04963	4.91673e+06	      76.5	   18.8774	  0.902158	 4.2268e+06	
         R10	   4226	      76.5	   18.8331	   1.04225	4.56529e+06	      76.5	    18.466	   1.05701	 5.5491e+06	      76.5	   18.4555	   1.38401	6.72276e+06	      76.5	   18.7431	   1.41462	6.59159e+06	      76.5	   18.6496	   1.04963	4.89309e+06	      76.5	   18.4608	   1.22051	6.06964e+06	      76.5	   18.5993	   1.39932	6.61125e+06	      76.5	   18.7881	   1.22844	5.54549e+06	
         R10	   4227	      76.5	   18.7431	   1.41462	6.47277e+06	      76.5	   18.4555	   1.38401	 6.6424e+06	      76.5	   18.4454	   1.69834	8.80848e+06	      76.5	   18.7838	   1.69431	1.00976e+07	      76.5	   18.5993	   1.39932	6.47244e+06	      76.5	   18.4504	   1.54118	7.64377e+06	      76.5	   18.6146	   1.69633	9.42472e+06	      76.5	   18.7634	   1.55447	8.27427e+06	
         R10	   4228	      76.5	   18.7838	   1.69431	9.66036e+06	      76.5	   18.4454	   1.69834	8.31201e+06	      76.5	   18.4357	         2	 1.7059e+07	      76.5	   18.7687	         2	1.48006e+07	      76.5	   18.6146	   1.69633	8.85222e+06	      76.5	   18.4405	   1.84917	1.24493e+07	      76.5	   18.6022	         2	1.57496e+07	      76.5	   18.7762	   1.84716	1.21553e+07	
         R10	   4229	      76.5	   19.1661	   1.66259	9.51665e+06	      76.5	   18.7838	   1.69431	 1.0341e+07	      76.5	   18.7687	         2	1.50732e+07	      76.5	   19.1568	         2	1.41437e+07	      76.5	    18.975	   1.67845	9.91275e+06	      76.5	   18.7762	   1.84716	1.26556e+07	      76.5	   18.9627	         2	1.46075e+07	      76.5	   19.1615	   1.83129	1.18176e+07	
         R10	   4230	      76.5	   19.1661	   1.66259	9.09008e+06	      76.5	   19.1568	         2	1.39081e+07	      76.5	      19.6	         2	1.46287e+07	      76.5	   19.5429	   1.61905	 7.7226e+06	      76.5	   19.1615	   1.83129	1.14869e+07	      76.5	   19.3784	         2	1.41233e+07	      76.5	   19.5714	   1.80952	1.08321e+07	      76.5	   19.3545	   1.64082	8.30927e+06	
         R10	   4231	      76.5	   19.1119	   1.26138	5.76514e+06	      76.5	   19.1661	   1.66259	9.49314e+06	      76.5	   19.5429	   1.61905	7.88411e+06	      76.5	   19.4843	   1.22857	 5.8815e+06	      76.5	    19.139	   1.46199	7.58699e+06	      76.5	   19.3545	   1.64082	8.65207e+06	      76.5	   19.5136	   1.42381	6.75376e+06	      76.5	   19.2981	   1.24498	 5.7475e+06	
         R10	   4232	      76.5	   19.3629	  0.419048	7.13637e+06	      76.5	      19.3	         0	9.88476e+06	      76.5	    18.862	         0	  4.919e+06	      76.5	   18.9329	  0.388645	2.61618e+06	      76.5	   19.3314	  0.209524	6.67119e+06	      76.5	    19.081	         0	4.76171e+06	      76.5	   18.8974	  0.194322	1.89948e+06	      76.5	   19.1479	  0.403846	4.42215e+06	
         R10	   4233	      76.5	   19.4243	  0.828571	4.80795e+06	      76.5	   19.3629	  0.419048	5.96454e+06	      76.5	   18.9329	  0.388645	 1.9241e+06	      76.5	   18.9218	  0.762062	4.35779e+06	      76.5	   19.3936	   0.62381	5.29646e+06	      76.5	   19.1479	  0.403846	 3.5058e+06	      76.5	   18.9273	  0.575353	2.76231e+06	      76.5	    19.173	  0.795316	4.29141e+06	
         R10	   4234	      76.5	   18.7431	   1.41462	6.65197e+06	      76.5	   18.7838	   1.69431	1.00856e+07	      76.5	   19.1661	   1.66259	9.28804e+06	      76.5	   19.1119	   1.26138	5.72971e+06	      76.5	   18.7634	   1.55447	8.36839e+06	      76.5	    18.975	   1.67845	 9.6776e+06	      76.5	    19.139	   1.46199	7.49917e+06	      76.5	   18.9275	     1.338	6.15999e+06	
         R10	   4235	      76.5	   19.4243	  0.828571	4.64381e+06	      76.5	   18.9218	  0.762062	4.24044e+06	      76.5	   18.8331	   1.04225	4.53376e+06	      76.5	   19.1119	   1.26138	 6.0068e+06	      76.5	    19.173	  0.795316	4.19997e+06	      76.5	   18.8774	  0.902158	4.32894e+06	      76.5	   18.9725	   1.15182	5.20014e+06	      76.5	   19.2681	   1.04498	 5.0655e+06	
         R10	   4236	      76.5	   18.8331	   1.04225	4.37052e+06	      76.5	   18.7431	   1.41462	 6.9214e+06	      76.5	   19.1119	   1.26138	5.85063e+06	      76.5	   18.7881	   1.22844	5.61464e+06	      76.5	   18.9275	     1.338	6.33345e+06	      76.5	   18.9725	   1.15182	5.06464e+06	       N/A	       N/A	       N/A	        N/A	       N/A	       N/A	       N/A	        N/A	
         R10	   4237	      76.5	   19.4843	   1.22857	6.07223e+06	      76.5	   19.4243	  0.828571	4.79558e+06	      76.5	   19.1119	   1.26138	5.94486e+06	      76.5	   19.4543	   1.02857	5.35393e+06	      76.5	   19.2681	   1.04498	5.11416e+06	      76.5	   19.2981	   1.24498	5.93116e+06	       N/A	       N/A	       N/A	        N/A	       N/A	       N/A	       N/A	        N/A	
         R10	   4238	      76.5	   19.1479	   5.36211	7.73202e+06	      76.5	   19.3758	   5.02378	1.43644e+07	      76.5	   19.2119	   4.67137	2.71004e+07	      76.5	    18.925	   4.92276	1.73557e+07	      76.5	   19.2619	   5.19295	1.00774e+07	      76.5	   19.2938	   4.84757	2.05821e+07	      76.5	   19.0684	   4.79706	2.08493e+07	      76.5	   19.0365	   5.14243	1.24206e+07	
         R10	   4239	      76.5	    18.767	   5.38027	1.32222e+07	      76.5	   19.1479	   5.36211	1.10825e+07	      76.5	    18.925	   4.92276	1.53186e+07	      76.5	   18.6483	   5.16518	1.61187e+07	      76.5	   18.9574	   5.37119	1.07511e+07	      76.5	   19.0365	   5.14243	1.30786e+07	      76.5	   18.7867	   5.04397	 1.5433e+07	      76.5	   18.7076	   5.27272	1.40811e+07	
         R10	   4240	      76.5	   19.1479	   5.36211	9.29717e+06	      76.5	   19.5249	   5.34415	1.47511e+07	      76.5	   19.3758	   5.02378	1.48396e+07	      76.5	   19.3364	   5.35313	1.10992e+07	      76.5	   19.4503	   5.18396	1.41652e+07	      76.5	   19.2619	   5.19295	1.14887e+07	       N/A	       N/A	       N/A	        N/A	       N/A	       N/A	       N/A	        N/A	
         R10	   4241	      76.5	   18.3819	   5.39863	1.32561e+07	      76.5	    18.767	   5.38027	1.30746e+07	      76.5	   18.6483	   5.16518	1.53621e+07	      76.5	   18.5744	   5.38945	1.29689e+07	      76.5	   18.7076	   5.27272	1.39271e+07	      76.5	   18.5151	    5.2819	1.36139e+07	       N/A	       N/A	       N/A	        N/A	       N/A	       N/A	       N/A	        N/A	
         R10	   4242	      76.5	        19	         6	3.00102e+07	      76.5	   19.1479	   5.36211	1.04148e+07	      76.5	    18.767	   5.38027	 1.0387e+07	      76.5	   18.6649	   5.67392	1.74472e+07	      76.5	    19.074	   5.68106	1.83698e+07	      76.5	   18.9574	   5.37119	8.54118e+06	      76.5	   18.7159	   5.52709	1.34912e+07	      76.5	   18.8324	   5.83696	2.15265e+07	
         R10	   4243	      76.5	   19.4176	   5.67286	1.82548e+07	      76.5	   19.4348	         6	1.16569e+07	      76.5	     19.83	         6	1.54196e+07	      76.5	   19.6702	   5.65646	1.57606e+07	      76.5	   19.4262	   5.83643	1.45889e+07	      76.5	   19.6324	         6	1.35034e+07	      76.5	   19.7501	   5.82823	1.54358e+07	      76.5	   19.5439	   5.66466	1.68664e+07	
         R10	   4244	      76.5	   19.4176	   5.67286	1.33841e+07	      76.5	   19.6702	   5.65646	1.77771e+07	      76.5	   19.5249	   5.34415	1.49814e+07	      76.5	   19.1479	   5.36211	1.19959e+07	      76.5	   19.5439	   5.66466	1.55757e+07	      76.5	   19.5975	    5.5003	1.60945e+07	      76.5	   19.3364	   5.35313	1.21134e+07	      76.5	   19.2828	   5.51748	1.12967e+07	
         R10	   4245	      76.5	   19.4176	   5.67286	1.46356e+07	      76.5	   19.1479	   5.36211	1.23094e+07	      76.5	        19	         6	2.74045e+07	      76.5	   19.4348	         6	1.38783e+07	      76.5	   19.2828	   5.51748	1.03974e+07	      76.5	    19.074	   5.68106	1.71004e+07	      76.5	   19.2174	         6	1.94129e+07	      76.5	   19.4262	   5.83643	1.42231e+07	
         R10	   4246	      76.5	    18.767	   5.38027	1.29552e+07	      76.5	   18.3819	   5.39863	1.62894e+07	      76.5	   18.6649	   5.67392	1.09926e+07	      76.5	   18.5744	   5.38945	1.43693e+07	      76.5	   18.5234	   5.53627	1.25852e+07	      76.5	   18.7159	   5.52709	1.07405e+07	       N/A	       N/A	       N/A	        N/A	       N/A	       N/A	       N/A	        N/A	
         R10	   4247	      76.5	   19.7063	  0.419101	6.09536e+06	      76.5	   19.7344	         0	3.69935e+06	      76.5	      19.3	         0	 1.2664e+07	      76.5	   19.3629	  0.419048	5.11529e+06	      76.5	   19.7203	   0.20955	4.64988e+06	      76.5	   19.5172	         0	7.26289e+06	      76.5	   19.3314	  0.209524	8.60584e+06	      76.5	   19.5346	  0.419074	5.29082e+06	
         R10	   4248	      76.5	   19.6787	  0.828651	5.94527e+06	      76.5	   19.7063	  0.419101	6.68494e+06	      76.5	   19.3629	  0.419048	5.53992e+06	      76.5	   19.4243	  0.828571	4.99678e+06	      76.5	   19.6925	  0.623876	5.96931e+06	      76.5	   19.5346	  0.419074	5.62852e+06	      76.5	   19.3936	   0.62381	5.16649e+06	      76.5	   19.5515	  0.828611	5.47069e+06	
         R10	   4249	      76.5	   19.6518	   1.22865	6.22036e+06	      76.5	   19.6787	  0.828651	 5.8596e+06	      76.5	   19.4243	  0.828571	4.72079e+06	      76.5	   19.4843	   1.22857	6.14104e+06	      76.5	   19.6653	   1.02865	5.97054e+06	      76.5	   19.5515	  0.828611	5.27673e+06	      76.5	   19.4543	   1.02857	 5.3048e+06	      76.5	   19.5681	   1.22861	6.17626e+06	
         R10	   4250	      76.5	   19.6256	    1.6191	8.24706e+06	      76.5	   19.6518	   1.22865	6.32069e+06	      76.5	   19.4843	   1.22857	6.35775e+06	      76.5	   19.5429	   1.61905	7.74423e+06	      76.5	   19.6387	   1.42388	 7.1894e+06	      76.5	   19.5681	   1.22861	6.33333e+06	      76.5	   19.5136	   1.42381	6.89691e+06	      76.5	   19.5842	   1.61907	7.96279e+06	
         R10	   4251	      76.5	      19.6	         2	1.31444e+07	      76.5	   19.6256	    1.6191	8.22945e+06	      76.5	   19.5429	   1.61905	7.73957e+06	      76.5	   19.6128	   1.80955	1.03673e+07	      76.5	   19.5842	   1.61907	7.96449e+06	      76.5	   19.5714	   1.80952	1.02823e+07	       N/A	       N/A	       N/A	        N/A	       N/A	       N/A	       N/A	        N/A	
         R10	   4252	      76.5	   19.5249	   5.34415	1.48687e+07	      76.5	   19.9109	   5.32574	2.66752e+07	      76.5	   19.9723	   4.81453	1.97238e+07	      76.5	   19.5705	   4.85758	2.79944e+07	      76.5	   19.7179	   5.33495	2.06671e+07	      76.5	   19.9416	   5.07014	2.24315e+07	      76.5	   19.7746	   4.86568	2.29354e+07	      76.5	   19.5477	   5.10086	1.94421e+07	
         R10	   4253	      76.5	   19.5705	   4.85758	3.44221e+07	      76.5	   19.2119	   4.67137	2.58066e+07	      76.5	   19.3758	   5.02378	1.37682e+07	      76.5	   19.3774	   4.79092	3.01003e+07	      76.5	   19.2938	   4.84757	1.97649e+07	      76.5	   19.4732	   4.94068	2.40432e+07	       N/A	       N/A	       N/A	        N/A	       N/A	       N/A	       N/A	        N/A	
         R10	   4254	      76.5	   19.5705	   4.85758	2.67243e+07	      76.5	   19.3758	   5.02378	1.28421e+07	      76.5	   19.5249	   5.34415	1.31928e+07	      76.5	   19.4732	   4.94068	1.97562e+07	      76.5	   19.4503	   5.18396	1.17599e+07	      76.5	   19.5477	   5.10086	1.86268e+07	       N/A	       N/A	       N/A	        N/A	       N/A	       N/A	       N/A	        N/A	
         R10	   4255	      76.5	   19.8724	   5.64682	2.02126e+07	      76.5	   19.9109	   5.32574	2.31962e+07	      76.5	   19.5249	   5.34415	1.48266e+07	      76.5	   19.6702	   5.65646	 1.8381e+07	      76.5	   19.8917	   5.48628	2.14306e+07	      76.5	   19.7179	   5.33495	1.90037e+07	      76.5	   19.5975	    5.5003	 1.6501e+07	      76.5	   19.7713	   5.65164	1.92743e+07	
         R10	   4256	      76.5	     19.83	         6	1.55931e+07	      76.5	   19.8724	   5.64682	1.93172e+07	      76.5	   19.6702	   5.65646	1.74152e+07	      76.5	   19.8512	   5.82341	1.74316e+07	      76.5	   19.7713	   5.65164	1.83279e+07	      76.5	   19.7501	   5.82823	1.64312e+07	       N/A	       N/A	       N/A	        N/A	       N/A	       N/A	       N/A	        N/A	
         R10	   4257	      76.5	   20.0835	  0.855856	6.12701e+06	      76.5	   19.6787	  0.828651	5.41358e+06	      76.5	   19.6518	   1.22865	 5.9789e+06	      76.5	   20.0471	   1.25521	6.60796e+06	      76.5	   19.8811	  0.842253	 5.7654e+06	      76.5	   19.6653	   1.02865	5.61255e+06	      76.5	   19.8495	   1.24193	6.27976e+06	      76.5	   20.0653	   1.05553	6.27665e+06	
         R10	   4258	      76.5	   20.0471	   1.25521	6.86816e+06	      76.5	   19.6518	   1.22865	5.91219e+06	      76.5	   19.6256	    1.6191	7.69571e+06	      76.5	   20.0113	   1.64502	7.06732e+06	      76.5	   19.8495	   1.24193	6.36466e+06	      76.5	   19.6387	   1.42388	6.60672e+06	      76.5	   19.8184	   1.63206	7.29534e+06	      76.5	   20.0292	   1.45012	6.87868e+06	
         R10	   4259	      76.5	   20.0113	   1.64502	7.35293e+06	      76.5	   19.6256	    1.6191	7.50266e+06	      76.5	      19.6	         2	1.18717e+07	      76.5	    19.981	         2	8.28386e+06	      76.5	   19.8184	   1.63206	7.27423e+06	      76.5	   19.6128	   1.80955	9.43604e+06	      76.5	   19.7905	         2	1.00743e+07	      76.5	   19.9961	   1.82251	7.26128e+06	
         R10	   4260	      76.5	   20.0113	   1.64502	7.28147e+06	      76.5	    19.981	         2	7.98669e+06	      76.5	      20.4	         2	7.18445e+06	      76.5	   20.4991	    1.5164	 7.8249e+06	      76.5	   19.9961	   1.82251	7.30717e+06	      76.5	   20.1905	         2	7.39406e+06	      76.5	   20.4495	    1.7582	7.37775e+06	      76.5	   20.2552	   1.58071	7.47196e+06	
         R10	   4261	      76.5	   20.0471	   1.25521	6.73196e+06	      76.5	   20.0113	   1.64502	7.03719e+06	      76.5	   20.4991	    1.5164	7.83172e+06	      76.5	   20.6085	  0.981953	6.41271e+06	      76.5	   20.0292	   1.45012	6.72867e+06	      76.5	   20.2552	   1.58071	7.33499e+06	      76.5	   20.5538	   1.24918	 7.0743e+06	      76.5	   20.3278	   1.11858	6.53148e+06	
         R10	   4262	      76.5	   20.2104	   0.11214	3.03596e+06	      76.5	   19.7063	  0.419101	5.31015e+06	      76.5	   19.6787	  0.828651	5.55113e+06	      76.5	   20.0835	  0.855856	 6.1247e+06	      76.5	   19.9583	   0.26562	4.15876e+06	      76.5	   19.6925	  0.623876	5.28801e+06	      76.5	   19.8811	  0.842253	 5.8317e+06	      76.5	    20.147	  0.483998	4.45032e+06	
         R10	   4263	      76.5	   20.6085	  0.981953	 6.5617e+06	      76.5	   20.7284	  0.396646	4.31439e+06	      76.5	   20.2104	   0.11214	3.71096e+06	      76.5	   20.0835	  0.855856	5.56679e+06	      76.5	   20.6685	  0.689299	5.43349e+06	      76.5	     20.48	  0.235152	 3.7627e+06	      76.5	    20.147	  0.483998	4.54391e+06	      76.5	    20.346	  0.918904	6.00085e+06	
         R10	   4264	      76.5	   20.2104	   0.11214	2.49015e+06	      76.5	   19.7344	         0	3.88137e+06	      76.5	   19.7063	  0.419101	6.07614e+06	      76.5	   19.9759	  0.041468	3.11131e+06	      76.5	   19.7203	   0.20955	4.76674e+06	      76.5	   19.9583	   0.26562	4.26057e+06	       N/A	       N/A	       N/A	        N/A	       N/A	       N/A	       N/A	        N/A	
         R10	   4265	      76.5	   20.0471	   1.25521	6.47138e+06	      76.5	   20.6085	  0.981953	6.78692e+06	      76.5	   20.0835	  0.855856	5.63817e+06	      76.5	   20.3278	   1.11858	6.55727e+06	      76.5	    20.346	  0.918904	6.11552e+06	      76.5	   20.0653	   1.05553	6.02482e+06	       N/A	       N/A	       N/A	        N/A	       N/A	       N/A	       N/A	        N/A	
         R10	   4266	      76.5	   20.2721	   2.36604	3.93375e+06	      76.5	      20.4	         2	7.59708e+06	      76.5	    19.981	         2	7.46617e+06	      76.5	    19.965	   2.08814	9.35894e+06	      76.5	    20.336	   2.18302	5.56737e+06	      76.5	   20.1905	         2	7.41141e+06	      76.5	    19.973	   2.04407	8.07603e+06	      76.5	   20.1369	   2.20688	6.32727e+06	
         R10	   4267	      76.5	      20.4	   2.38095	6.43728e+06	      76.5	      20.4	         2	8.70167e+06	      76.5	   20.2721	   2.36604	4.04857e+06	      76.5	      20.4	   2.19048	7.46218e+06	      76.5	    20.336	   2.18302	6.28797e+06	      76.5	    20.336	    2.3735	5.23882e+06	       N/A	       N/A	       N/A	        N/A	       N/A	       N/A	       N/A	        N/A	
         R10	   4268	      76.5	      20.4	   2.38095	 6.7423e+06	      76.5	   20.2721	   2.36604	5.36374e+06	      76.5	      20.4	       2.8	1.06258e+07	      76.5	    20.336	    2.3735	5.99835e+06	      76.5	   20.3674	   2.57379	7.34384e+06	      76.5	      20.4	   2.59048	7.40613e+06	       N/A	       N/A	       N/A	        N/A	       N/A	       N/A	       N/A	        N/A	
         R10	   4269	      76.5	    19.981	         2	9.32959e+06	      76.5	      19.6	         2	1.30874e+07	      76.5	    19.965	   2.08814	1.03008e+07	      76.5	   19.7905	         2	1.03884e+07	      76.5	   19.7878	   2.02235	1.08695e+07	      76.5	    19.973	   2.04407	9.76857e+06	       N/A	       N/A	       N/A	        N/A	       N/A	       N/A	       N/A	        N/A	
         R10	   4270	      76.5	   20.2199	   5.31102	2.21821e+07	      76.5	   19.9109	   5.32574	2.15447e+07	      76.5	   19.8724	   5.64682	2.02183e+07	      76.5	    20.226	   5.67651	1.92477e+07	      76.5	   20.0654	   5.31838	2.15182e+07	      76.5	   19.8917	   5.48628	2.07353e+07	      76.5	   20.0492	   5.66166	1.97001e+07	      76.5	    20.223	   5.49376	 2.0433e+07	
         R10	   4271	      76.5	    20.226	   5.67651	1.90128e+07	      76.5	   19.8724	   5.64682	2.02439e+07	      76.5	     19.83	         6	1.67266e+07	      76.5	   20.2252	         6	1.68851e+07	      76.5	   20.0492	   5.66166	1.95421e+07	      76.5	   19.8512	   5.82341	1.84285e+07	      76.5	   20.0276	         6	1.67631e+07	      76.5	   20.2256	   5.83825	1.77402e+07	
         R10	   4272	      76.5	    20.226	   5.67651	1.80398e+07	      76.5	   20.2252	         6	1.54771e+07	      76.5	     20.66	         6	1.25423e+07	      76.5	   20.6075	   5.63062	1.63811e+07	      76.5	   20.2256	   5.83825	1.66255e+07	      76.5	   20.4426	         6	1.39287e+07	      76.5	   20.6338	   5.81531	1.43293e+07	      76.5	   20.4168	   5.65356	 1.7132e+07	
         R10	   4273	      76.5	   20.2199	   5.31102	2.05309e+07	      76.5	    20.226	   5.67651	1.81914e+07	      76.5	   20.6075	   5.63062	1.59454e+07	      76.5	   20.5598	   5.29481	 1.6311e+07	      76.5	    20.223	   5.49376	1.88999e+07	      76.5	   20.4168	   5.65356	1.69127e+07	      76.5	   20.5837	   5.46272	1.60944e+07	      76.5	   20.3899	   5.30292	1.83543e+07	
         R10	   4274	      76.5	   19.9723	   4.81453	1.97814e+07	      76.5	   20.2199	   5.31102	2.57867e+07	      76.5	   20.5598	   5.29481	1.57772e+07	      76.5	   20.5091	   4.93762	1.70413e+07	      76.5	   20.0961	   5.06277	 2.2732e+07	      76.5	   20.3899	   5.30292	2.06368e+07	      76.5	   20.5345	   5.11622	1.61938e+07	      76.5	   20.2407	   4.87607	1.79856e+07	
         R10	   4275	      76.5	   20.2723	   4.57268	2.73668e+07	      76.5	   19.9723	   4.81453	1.89444e+07	      76.5	   20.5091	   4.93762	1.66834e+07	      76.5	   20.4558	   4.56257	1.49811e+07	      76.5	   20.1393	   4.71466	 2.1972e+07	      76.5	   20.2407	   4.87607	1.71941e+07	      76.5	   20.4825	    4.7501	1.57283e+07	      76.5	   20.3641	   4.56763	 2.0768e+07	
         R10	   4276	      76.5	   19.9723	   4.81453	 1.8316e+07	      76.5	   19.9109	   5.32574	2.71547e+07	      76.5	   20.2199	   5.31102	2.71063e+07	      76.5	   19.9416	   5.07014	2.17414e+07	      76.5	   20.0654	   5.31838	 2.6897e+07	      76.5	   20.0961	   5.06277	2.22155e+07	       N/A	       N/A	       N/A	        N/A	       N/A	       N/A	       N/A	        N/A	
         R10	   4277	      76.5	      20.4	   4.16966	2.39785e+07	      76.5	   20.2723	   4.57268	2.96514e+07	      76.5	   20.4558	   4.56257	1.98731e+07	      76.5	   20.3673	   4.38104	2.62075e+07	      76.5	   20.3641	   4.56763	2.42847e+07	      76.5	   20.4279	   4.36612	2.09847e+07	       N/A	       N/A	       N/A	        N/A	       N/A	       N/A	       N/A	        N/A	
         R10	   4278	      76.5	   20.9224	   2.11872	7.90889e+06	      76.5	      20.4	   2.38095	7.21912e+06	      76.5	      20.4	       2.8	8.89289e+06	      76.5	   20.9224	   2.89498	1.08676e+07	      76.5	   20.6612	   2.24984	 7.5495e+06	      76.5	      20.4	   2.59048	7.63147e+06	      76.5	   20.6612	   2.84749	8.99334e+06	      76.5	   20.9224	   2.50685	9.09998e+06	
         R10	   4279	      76.5	      21.5	      2.25	7.37734e+06	      76.5	   20.9224	   2.11872	6.98497e+06	      76.5	   20.9224	   2.89498	1.06106e+07	      76.5	      21.5	         3	7.22613e+06	      76.5	   21.2112	   2.18436	6.63449e+06	      76.5	   20.9224	   2.50685	8.53871e+06	      76.5	   21.2112	   2.94749	8.73825e+06	      76.5	      21.5	     2.625	7.22765e+06	
         R10	   4280	      76.5	   20.9224	   2.11872	8.11109e+06	      76.5	      20.4	         2	6.90109e+06	      76.5	      20.4	   2.38095	7.34676e+06	      76.5	   20.6612	   2.05936	7.21765e+06	      76.5	      20.4	   2.19048	6.94978e+06	      76.5	   20.6612	   2.24984	7.70302e+06	       N/A	       N/A	       N/A	        N/A	       N/A	       N/A	       N/A	        N/A	
         R10	   4281	      76.5	   20.8752	   4.88562	6.63191e+06	      76.5	   20.5091	   4.93762	1.62288e+07	      76.5	   20.5598	   5.29481	 1.0677e+07	      76.5	   20.9852	   5.27454	  6.154e+06	      76.5	   20.6922	   4.91162	1.13376e+07	      76.5	   20.5345	   5.11622	1.32861e+07	      76.5	   20.7725	   5.28468	 8.3072e+06	      76.5	   20.9302	   5.08008	6.33799e+06	
         R10	   4282	      76.5	   20.9238	   4.32697	7.70425e+06	      76.5	   20.4558	   4.56257	 1.4684e+07	      76.5	   20.5091	   4.93762	1.39566e+07	      76.5	   20.8752	   4.88562	7.21718e+06	      76.5	   20.6898	   4.44477	1.10024e+07	      76.5	   20.4825	    4.7501	1.37048e+07	      76.5	   20.6922	   4.91162	1.04121e+07	      76.5	   20.8995	   4.60629	6.95801e+06	
         R10	   4283	      76.5	      21.5	       4.5	3.07102e+06	      76.5	   20.8752	   4.88562	6.08501e+06	      76.5	   20.9852	   5.27454	5.83072e+06	      76.5	      21.5	      5.25	1.82087e+06	      76.5	   21.1876	   4.69281	2.15887e+06	      76.5	   20.9302	   5.08008	 5.9397e+06	      76.5	   21.2426	   5.26227	2.54168e+06	      76.5	      21.5	     4.875	2.40708e+06	
         R10	   4284	      76.5	   20.9238	   4.32697	6.27413e+06	      76.5	      20.4	   4.16966	2.49078e+07	      76.5	   20.4558	   4.56257	1.69565e+07	      76.5	   20.6619	   4.24831	1.48537e+07	      76.5	   20.4279	   4.36612	2.08717e+07	      76.5	   20.6898	   4.44477	1.09326e+07	       N/A	       N/A	       N/A	        N/A	       N/A	       N/A	       N/A	        N/A	
         R10	   4285	      76.5	      21.5	       4.5	3.88795e+06	      76.5	   20.9238	   4.32697	7.52457e+06	      76.5	   20.8752	   4.88562	7.12816e+06	      76.5	   21.2119	   4.41348	4.38139e+06	      76.5	   20.8995	   4.60629	6.78771e+06	      76.5	   21.1876	   4.69281	2.79141e+06	       N/A	       N/A	       N/A	        N/A	       N/A	       N/A	       N/A	        N/A	
         R10	   4286	      76.5	   20.9224	   2.89498	9.61243e+06	      76.5	      20.4	       2.8	1.12867e+07	      76.5	      20.4	   3.48483	1.57521e+07	      76.5	   20.9238	    3.6111	1.14847e+07	      76.5	   20.6612	   2.84749	9.22175e+06	      76.5	      20.4	   3.14242	1.34709e+07	      76.5	   20.6619	   3.54797	1.30357e+07	      76.5	   20.9231	   3.25304	1.04805e+07	
         R10	   4287	      76.5	      21.5	         3	8.06814e+06	      76.5	   20.9224	   2.89498	9.51614e+06	      76.5	   20.9238	    3.6111	1.11219e+07	      76.5	      21.5	      3.75	7.41333e+06	      76.5	   21.2112	   2.94749	8.32096e+06	      76.5	   20.9231	   3.25304	1.02164e+07	      76.5	   21.2119	   3.68055	7.98889e+06	      76.5	      21.5	     3.375	7.71881e+06	
         R10	   4288	      76.5	   20.9238	    3.6111	 1.1996e+07	      76.5	      20.4	   3.48483	 1.6139e+07	      76.5	      20.4	   4.16966	2.49586e+07	      76.5	   20.9238	   4.32697	8.34173e+06	      76.5	   20.6619	   3.54797	1.28941e+07	      76.5	      20.4	   3.82725	 2.0309e+07	      76.5	   20.6619	   4.24831	1.62983e+07	      76.5	   20.9238	   3.96903	1.00869e+07	
         R10	   4289	      76.5	      21.5	      3.75	6.85811e+06	      76.5	   20.9238	    3.6111	1.18125e+07	      76.5	   20.9238	   4.32697	7.74957e+06	      76.5	      21.5	       4.5	4.98569e+06	      76.5	   21.2119	   3.68055	8.00129e+06	      76.5	   20.9238	   3.96903	9.69597e+06	      76.5	   21.2119	   4.41348	4.51156e+06	      76.5	      21.5	     4.125	 5.8755e+06	
         R10	   4290	      76.5	   20.9687	   1.65491	7.45179e+06	      76.5	   20.4991	    1.5164	6.43441e+06	      76.5	      20.4	         2	7.54322e+06	      76.5	   20.9224	   2.11872	 7.5904e+06	      76.5	   20.7339	   1.58566	6.89675e+06	      76.5	   20.4495	    1.7582	6.94325e+06	      76.5	   20.6612	   2.05936	7.14073e+06	      76.5	   20.9456	   1.88682	7.15415e+06	
         R10	   4291	      76.5	   20.9687	   1.65491	7.06433e+06	      76.5	   20.9224	   2.11872	7.46668e+06	      76.5	      21.5	      2.25	5.04356e+06	      76.5	   21.5054	   1.77096	5.91565e+06	      76.5	   20.9456	   1.88682	7.06038e+06	      76.5	   21.2112	   2.18436	5.92544e+06	      76.5	   21.5171	   2.01064	5.21734e+06	      76.5	   21.2371	   1.71293	6.36892e+06	
         R10	   4292	      76.5	   20.6085	  0.981953	5.33583e+06	      76.5	   20.4991	    1.5164	6.33924e+06	      76.5	   20.9687	   1.65491	7.09015e+06	      76.5	   21.3636	    1.2195	6.07061e+06	      76.5	   20.5538	   1.24918	5.78213e+06	      76.5	   20.7339	   1.58566	6.60496e+06	      76.5	   21.1662	    1.4372	6.55043e+06	      76.5	   20.9861	   1.10073	 5.4712e+06	
         R10	   4293	      76.5	   21.3636	    1.2195	6.37768e+06	      76.5	   21.1005	  0.766142	4.97226e+06	      76.5	   20.6085	  0.981953	5.26136e+06	      76.5	   21.2469	  0.984164	 5.6667e+06	      76.5	   20.8545	  0.874048	 5.0855e+06	      76.5	   20.9861	   1.10073	5.74188e+06	       N/A	       N/A	       N/A	        N/A	       N/A	       N/A	       N/A	        N/A	
         R10	   4294	      76.5	   20.9687	   1.65491	5.99596e+06	      76.5	   21.5054	   1.77096	6.76552e+06	      76.5	   21.3636	    1.2195	6.60534e+06	      76.5	   21.2371	   1.71293	6.35426e+06	      76.5	   21.4542	   1.49016	6.67063e+06	      76.5	   21.1662	    1.4372	6.29872e+06	       N/A	       N/A	       N/A	        N/A	       N/A	       N/A	       N/A	        N/A	
         R10	   4295	      76.5	   21.1005	  0.766142	4.65162e+06	      76.5	   20.7284	  0.396646	4.62623e+06	      76.5	   20.6085	  0.981953	5.13796e+06	      76.5	   20.9266	   0.56915	4.61148e+06	      76.5	   20.6685	  0.689299	4.87709e+06	      76.5	   20.8545	  0.874048	4.87783e+06	       N/A	       N/A	       N/A	        N/A	       N/A	       N/A	       N/A	        N/A	
         R10	   4296	      76.5	   20.9852	   5.27454	7.56203e+06	      76.5	   20.5598	   5.29481	1.29357e+07	      76.5	   20.6075	   5.63062	1.16398e+07	      76.5	   20.9926	   5.60528	7.69644e+06	      76.5	   20.7725	   5.28468	1.02463e+07	      76.5	   20.5837	   5.46272	1.22579e+07	      76.5	   20.8001	   5.61795	9.65843e+06	      76.5	   20.9889	   5.43991	7.57698e+06	
         R10	   4297	      76.5	   20.9926	   5.60528	8.54199e+06	      76.5	   20.6075	   5.63062	1.15142e+07	      76.5	     20.66	         6	9.70641e+06	      76.5	     21.06	         6	6.71176e+06	      76.5	   20.8001	   5.61795	9.94663e+06	      76.5	   20.6338	   5.81531	1.05013e+07	      76.5	     20.86	         6	8.17677e+06	      76.5	   21.0263	   5.80264	7.59987e+06	
         R10	   4298	      76.5	      21.5	      5.25	2.82078e+06	      76.5	   20.9926	   5.60528	7.82726e+06	      76.5	     21.06	         6	5.82684e+06	      76.5	      21.5	         6	7.79035e+06	      76.5	   21.2463	   5.42764	4.92483e+06	      76.5	   21.0263	   5.80264	6.71311e+06	      76.5	     21.28	         6	6.26132e+06	      76.5	      21.5	     5.625	5.22634e+06	
         R10	   4299	      76.5	      21.5	      5.25	3.94782e+06	      76.5	   20.9852	   5.27454	7.03118e+06	      76.5	   20.9926	   5.60528	6.82214e+06	      76.5	   21.2426	   5.26227	4.68432e+06	      76.5	   20.9889	   5.43991	6.89268e+06	      76.5	   21.2463	   5.42764	4.82327e+06	       N/A	       N/A	       N/A	        N/A	       N/A	       N/A	       N/A	        N/A	
         R10	   4300	      76.5	   19.4348	         6	 4.9651e+06	      76.5	        19	         6	2.39204e+07	      76.5	        19	   6.40476	1.36315e+07	      76.5	   19.5375	   6.41169	1.02831e+07	      76.5	   19.2174	         6	1.38102e+07	      76.5	        19	   6.20238	1.79199e+07	      76.5	   19.2688	   6.40822	1.06501e+07	      76.5	   19.4862	   6.20584	7.20096e+06	
         R10	   4301	      76.5	   19.5375	   6.41169	1.13152e+07	      76.5	        19	   6.40476	1.22974e+07	      76.5	        19	      6.85	8.72572e+06	      76.5	   19.4762	      6.85	8.27305e+06	      76.5	   19.2688	   6.40822	 9.8168e+06	      76.5	        19	   6.62738	1.02762e+07	      76.5	   19.2381	      6.85	8.44561e+06	      76.5	   19.5069	   6.63084	9.36789e+06	
         R10	   4302	      76.5	   20.0663	   6.43324	3.42841e+06	      76.5	   19.5375	   6.41169	7.44309e+06	      76.5	   19.4762	      6.85	 7.5464e+06	      76.5	   19.9643	      6.85	5.49495e+06	      76.5	   19.8019	   6.42247	5.43486e+06	      76.5	   19.5069	   6.63084	7.40469e+06	      76.5	   19.7202	      6.85	6.49621e+06	      76.5	   20.0153	   6.64162	4.43746e+06	
         R10	   4303	      76.5	   20.0663	   6.43324	3.80975e+06	      76.5	   19.9643	      6.85	5.86778e+06	      76.5	   20.4643	      6.85	4.34196e+06	      76.5	   20.5404	   6.43494	3.72385e+06	      76.5	   20.0153	   6.64162	4.76038e+06	      76.5	   20.2143	      6.85	5.05734e+06	      76.5	   20.5023	   6.64247	3.98272e+06	      76.5	   20.3033	   6.43409	3.65916e+06	
         R10	   4304	      76.5	   20.5404	   6.43494	3.52413e+06	      76.5	   20.4643	      6.85	4.85482e+06	      76.5	   20.9762	      6.85	3.95364e+06	      76.5	   21.0225	   6.43595	4.50801e+06	      76.5	   20.5023	   6.64247	4.11568e+06	      76.5	   20.7202	      6.85	4.37634e+06	      76.5	   20.9994	   6.64297	4.21496e+06	      76.5	   20.7814	   6.43544	3.72459e+06	
         R10	   4305	      76.5	   21.0225	   6.43595	4.24282e+06	      76.5	   20.9762	      6.85	4.43888e+06	      76.5	      21.5	      6.85	4.40346e+06	      76.5	      21.5	   6.40476	3.41183e+06	      76.5	   20.9994	   6.64297	4.32635e+06	      76.5	   21.2381	      6.85	4.24571e+06	      76.5	      21.5	   6.62738	3.71943e+06	      76.5	   21.2613	   6.42035	 3.3327e+06	
         R10	   4306	      76.5	   21.0225	   6.43595	4.26272e+06	      76.5	      21.5	   6.40476	 5.0774e+06	      76.5	      21.5	         6	5.60706e+06	      76.5	     21.06	         6	3.33024e+06	      76.5	   21.2613	   6.42035	4.32836e+06	      76.5	      21.5	   6.20238	5.19102e+06	      76.5	     21.28	         6	3.74932e+06	      76.5	   21.0413	   6.21797	3.79041e+06	
         R10	   4307	      76.5	   20.5404	   6.43494	3.55509e+06	      76.5	   21.0225	   6.43595	4.58861e+06	      76.5	     21.06	         6	 2.6595e+06	      76.5	     20.66	         6	4.98345e+06	      76.5	   20.7814	   6.43544	3.80358e+06	      76.5	   21.0413	   6.21797	3.62042e+06	      76.5	     20.86	         6	3.58642e+06	      76.5	   20.6002	   6.21747	4.25909e+06	
         R10	   4308	      76.5	   20.0663	   6.43324	2.62402e+06	      76.5	   20.5404	   6.43494	4.06625e+06	      76.5	     20.66	         6	3.19149e+06	      76.5	   20.2252	         6	 3.7784e+06	      76.5	   20.3033	   6.43409	3.20178e+06	      76.5	   20.6002	   6.21747	3.48662e+06	      76.5	   20.4426	         6	 3.4826e+06	      76.5	   20.1458	   6.21662	3.04218e+06	
         R10	   4309	      76.5	   19.5375	   6.41169	9.49672e+06	      76.5	   20.0663	   6.43324	3.32086e+06	      76.5	   20.2252	         6	3.66633e+06	      76.5	     19.83	         6	3.96229e+06	      76.5	   19.8019	   6.42247	6.35501e+06	      76.5	   20.1458	   6.21662	3.26775e+06	      76.5	   20.0276	         6	2.03202e+06	      76.5	   19.6838	   6.20584	3.47581e+06	
         R10	   4310	      76.5	   19.4348	         6	8.75172e+06	      76.5	   19.5375	   6.41169	1.14243e+07	      76.5	     19.83	         6	4.38065e+06	      76.5	   19.4862	   6.20584	9.84877e+06	      76.5	   19.6838	   6.20584	6.88095e+06	      76.5	   19.6324	         6	6.13716e+06	       N/A	       N/A	       N/A	        N/A	       N/A	       N/A	       N/A	        N/A	
         R10	   4311	      76.5	   19.4762	      6.85	 7.5532e+06	      76.5	        19	      6.85	7.35131e+06	      76.5	        19	   7.25476	8.28268e+06	      76.5	   19.3837	   7.23636	6.64293e+06	      76.5	   19.2381	      6.85	7.29175e+06	      76.5	        19	   7.05238	7.69374e+06	      76.5	   19.1918	   7.24556	 7.4128e+06	      76.5	   19.4299	   7.04318	7.07635e+06	
         R10	   4312	      76.5	   19.3837	   7.23636	7.51496e+06	      76.5	        19	   7.25476	6.98338e+06	      76.5	        19	       7.7	6.89097e+06	      76.5	   19.5952	       7.7	5.86294e+06	      76.5	   19.1918	   7.24556	7.10827e+06	      76.5	        19	   7.47738	6.83529e+06	      76.5	   19.2976	       7.7	6.27938e+06	      76.5	   19.4895	   7.46818	6.66388e+06	
         R10	   4313	      76.5	   20.8452	       7.7	4.68377e+06	      76.5	      21.5	       7.7	3.55938e+06	      76.5	      21.5	      6.85	 3.5828e+06	      76.5	   20.9762	      6.85	4.31665e+06	      76.5	   21.1726	       7.7	 3.9671e+06	      76.5	      21.5	     7.275	3.47816e+06	      76.5	   21.2381	      6.85	3.72212e+06	      76.5	   20.9107	     7.275	4.44078e+06	
         R10	   4314	      76.5	   20.2103	       7.7	5.52701e+06	      76.5	   20.8452	       7.7	 4.3987e+06	      76.5	   20.9762	      6.85	3.75406e+06	      76.5	   20.4643	      6.85	 4.7255e+06	      76.5	   20.5278	       7.7	4.92268e+06	      76.5	   20.9107	     7.275	4.01463e+06	      76.5	   20.7202	      6.85	4.06938e+06	      76.5	   20.3373	     7.275	5.12221e+06	
         R10	   4315	      76.5	   19.9643	      6.85	5.87878e+06	      76.5	   19.4762	      6.85	8.08477e+06	      76.5	   19.3837	   7.23636	7.10535e+06	      76.5	   19.5952	       7.7	6.03637e+06	      76.5	   19.7202	      6.85	 6.9388e+06	      76.5	   19.4299	   7.04318	7.56137e+06	      76.5	   19.4895	   7.46818	6.55214e+06	      76.5	   19.7798	     7.275	5.88479e+06	
         R10	   4316	      76.5	   20.4643	      6.85	4.36126e+06	      76.5	   19.9643	      6.85	5.92087e+06	      76.5	   19.5952	       7.7	6.46921e+06	      76.5	   20.2103	       7.7	5.29943e+06	      76.5	   20.2143	      6.85	5.11662e+06	      76.5	   19.7798	     7.275	6.16555e+06	      76.5	   19.9028	       7.7	5.81115e+06	      76.5	   20.3373	     7.275	4.82565e+06	
         R10	   4317	      76.5	   19.5952	       7.7	6.01291e+06	      76.5	        19	       7.7	6.36614e+06	      76.5	        19	      8.55	  6.323e+06	      76.5	   19.5952	      8.55	5.48947e+06	      76.5	   19.2976	       7.7	6.18686e+06	      76.5	        19	     8.125	6.33382e+06	      76.5	   19.2976	      8.55	5.84352e+06	      76.5	   19.5952	     8.125	5.74038e+06	
         R10	   4318	      76.5	   20.2103	       7.7	 5.1717e+06	      76.5	   19.5952	       7.7	6.19722e+06	      76.5	   19.5952	      8.55	5.64014e+06	      76.5	   20.2103	      8.55	4.73226e+06	      76.5	   19.9028	       7.7	5.63983e+06	      76.5	   19.5952	     8.125	5.90913e+06	      76.5	   19.9028	      8.55	5.14903e+06	      76.5	   20.2103	     8.125	4.94333e+06	
         R10	   4319	      76.5	   20.8452	       7.7	 3.9252e+06	      76.5	   20.2103	       7.7	5.33172e+06	      76.5	   20.2103	      8.55	5.07723e+06	      76.5	   20.8452	      8.55	4.25482e+06	      76.5	   20.5278	       7.7	4.50515e+06	      76.5	   20.2103	     8.125	5.19315e+06	      76.5	   20.5278	      8.55	4.64388e+06	      76.5	   20.8452	     8.125	4.07603e+06	
         R10	   4320	      76.5	      21.5	       7.7	 3.8065e+06	      76.5	   20.8452	       7.7	4.14868e+06	      76.5	   20.8452	      8.55	4.48099e+06	      76.5	      21.5	      8.55	3.01146e+06	      76.5	   21.1726	       7.7	3.77639e+06	      76.5	   20.8452	     8.125	4.29988e+06	      76.5	   21.1726	      8.55	3.70081e+06	      76.5	      21.5	     8.125	3.30524e+06	
         R10	   4321	      76.5	   19.5952	      8.55	 5.8431e+06	      76.5	        19	      8.55	5.22795e+06	      76.5	        19	       9.4	6.96004e+06	      76.5	   19.7937	       9.4	4.79263e+06	      76.5	   19.2976	      8.55	5.53417e+06	      76.5	        19	     8.975	6.08267e+06	      76.5	   19.3968	       9.4	5.80427e+06	      76.5	   19.6944	     8.975	5.29399e+06	
         R10	   4322	      76.5	   20.2103	      8.55	5.49284e+06	      76.5	   19.5952	      8.55	5.97407e+06	      76.5	   19.7937	       9.4	4.66461e+06	      76.5	    20.627	       9.4	4.54149e+06	      76.5	   19.9028	      8.55	5.73277e+06	      76.5	   19.6944	     8.975	5.31148e+06	      76.5	   20.2103	       9.4	4.39244e+06	      76.5	   20.4187	     8.975	4.72525e+06	
         R10	   4323	      76.5	    20.627	       9.4	5.17605e+06	      76.5	      21.5	       9.4	2.27813e+06	      76.5	      21.5	      8.55	4.35449e+06	      76.5	   20.8452	      8.55	3.77876e+06	      76.5	   21.0635	       9.4	3.68287e+06	      76.5	      21.5	     8.975	2.87749e+06	      76.5	   21.1726	      8.55	3.71531e+06	      76.5	   20.7361	     8.975	4.47302e+06	
         R10	   4324	      76.5	   20.2103	      8.55	5.54797e+06	      76.5	    20.627	       9.4	4.06523e+06	      76.5	   20.8452	      8.55	3.75469e+06	      76.5	   20.4187	     8.975	4.71777e+06	      76.5	   20.7361	     8.975	3.90125e+06	      76.5	   20.5278	      8.55	4.58581e+06	       N/A	       N/A	       N/A	        N/A	       N/A	       N/A	       N/A	        N/A	
         R10	   4325	      76.5	   19.7937	       9.4	5.59571e+06	      76.5	        19	       9.4	3.33764e+06	      76.5	        19	     10.25	7.63267e+06	      76.5	   19.7937	     10.25	4.68675e+06	      76.5	   19.3968	       9.4	4.43421e+06	      76.5	        19	     9.825	5.40251e+06	      76.5	   19.3968	     10.25	6.08767e+06	      76.5	   19.7937	     9.825	5.13037e+06	
         R10	   4326	      76.5	    20.627	       9.4	4.44686e+06	      76.5	   19.7937	       9.4	5.37963e+06	      76.5	   19.7937	     10.25	4.58448e+06	      76.5	    20.627	     10.25	4.49918e+06	      76.5	   20.2103	       9.4	4.88187e+06	      76.5	   19.7937	     9.825	4.97236e+06	      76.5	   20.2103	     10.25	 4.4667e+06	      76.5	    20.627	     9.825	4.43514e+06	
         R10	   4327	      76.5	      21.5	       9.4	5.75347e+06	      76.5	    20.627	       9.4	4.28558e+06	      76.5	    20.627	     10.25	4.00144e+06	      76.5	      21.5	     10.25	3.97277e+06	      76.5	   21.0635	       9.4	4.43482e+06	      76.5	    20.627	     9.825	4.07935e+06	      76.5	   21.0635	     10.25	3.75164e+06	      76.5	      21.5	     9.825	3.65698e+06	
         R10	   4328	      76.5	   15.3141	   2.23981	1.32341e+07	      76.5	      15.3	     2.247	1.34196e+07	      76.5	      15.3	     2.264	1.38238e+07	      76.5	   15.3153	   2.26308	1.37525e+07	      76.5	   15.3071	    2.2434	1.33254e+07	      76.5	      15.3	    2.2555	1.36216e+07	      76.5	   15.3077	   2.26354	 1.3786e+07	      76.5	   15.3147	   2.25145	1.34931e+07	
         R10	   4329	      76.5	   15.3153	   2.26308	1.37471e+07	      76.5	      15.3	     2.264	 1.3829e+07	      76.5	      15.3	     2.281	1.42874e+07	      76.5	   15.3166	   2.28111	1.42494e+07	      76.5	   15.3077	   2.26354	1.37857e+07	      76.5	      15.3	    2.2725	1.40581e+07	      76.5	   15.3083	   2.28105	 1.4265e+07	      76.5	   15.3159	    2.2721	 1.3998e+07	
         R10	   4330	      76.5	   15.3166	   2.28111	1.42433e+07	      76.5	      15.3	     2.281	1.42951e+07	      76.5	      15.3	     2.298	1.48494e+07	      76.5	   15.3171	   2.29756	1.47849e+07	      76.5	   15.3083	   2.28105	1.42658e+07	      76.5	      15.3	    2.2895	1.45722e+07	      76.5	   15.3086	   2.29778	1.48126e+07	      76.5	   15.3168	   2.28933	1.45138e+07	
         R10	   4331	      76.5	   15.3171	   2.29756	1.47766e+07	      76.5	      15.3	     2.298	1.48559e+07	      76.5	      15.3	     2.315	1.55351e+07	      76.5	    15.317	     2.315	1.54981e+07	      76.5	   15.3086	   2.29778	1.48115e+07	      76.5	      15.3	    2.3065	1.51953e+07	      76.5	   15.3085	     2.315	1.55104e+07	      76.5	   15.3171	   2.30628	 1.5137e+07	
         R10	   4332	      76.5	    15.317	     2.315	1.54886e+07	      76.5	      15.3	     2.315	  1.554e+07	      76.5	      15.3	     2.332	1.64116e+07	      76.5	    15.317	     2.332	1.63921e+07	      76.5	   15.3085	     2.315	 1.5508e+07	      76.5	      15.3	    2.3235	1.59755e+07	      76.5	   15.3085	     2.332	1.63926e+07	      76.5	    15.317	    2.3235	1.59394e+07	
         R10	   4333	      76.5	    15.317	     2.332	1.63864e+07	      76.5	      15.3	     2.332	1.64044e+07	      76.5	      15.3	     2.349	1.75878e+07	      76.5	    15.317	     2.349	1.75836e+07	      76.5	   15.3085	     2.332	1.63863e+07	      76.5	      15.3	    2.3405	1.69951e+07	      76.5	   15.3085	     2.349	1.75691e+07	      76.5	    15.317	    2.3405	 1.6982e+07	
         R10	   4334	      76.5	    15.317	     2.349	1.75945e+07	      76.5	      15.3	     2.349	1.75379e+07	      76.5	      15.3	     2.366	1.92342e+07	      76.5	   15.3169	   2.36578	1.91452e+07	      76.5	   15.3085	     2.349	1.75507e+07	      76.5	      15.3	    2.3575	1.83812e+07	      76.5	   15.3084	   2.36589	1.91579e+07	      76.5	   15.3169	   2.35739	1.83609e+07	
         R10	   4335	      76.5	   15.3169	   2.36578	1.92693e+07	      76.5	      15.3	     2.366	1.90867e+07	      76.5	      15.3	     2.383	2.18316e+07	      76.5	   15.3161	   2.38375	2.10863e+07	      76.5	   15.3084	   2.36589	1.91534e+07	      76.5	      15.3	    2.3745	2.04498e+07	      76.5	   15.3081	   2.38337	2.13321e+07	      76.5	   15.3165	   2.37477	2.01204e+07	
         R10	   4336	      76.5	   15.3161	   2.38375	2.04333e+07	      76.5	      15.3	       2.4	2.61416e+07	      76.5	   15.3122	   2.41185	1.92618e+07	      76.5	   15.3244	   2.40007	1.92347e+07	      76.5	   15.3081	   2.39187	2.32744e+07	      76.5	   15.3061	   2.40593	2.25351e+07	      76.5	   15.3183	   2.40596	1.92411e+07	      76.5	   15.3203	   2.39191	1.97421e+07	
         R10	   4337	      76.5	   15.3244	   2.40007	1.91897e+07	      76.5	   15.3122	   2.41185	2.00566e+07	      76.5	   15.3244	   2.42371	1.74228e+07	      76.5	   15.3361	   2.41077	1.70921e+07	      76.5	   15.3183	   2.40596	1.96059e+07	      76.5	   15.3183	   2.41778	1.87293e+07	      76.5	   15.3303	   2.41724	1.72557e+07	      76.5	   15.3303	   2.40542	1.81036e+07	
         R10	   4338	      76.5	   15.3361	   2.41077	 1.7044e+07	      76.5	   15.3244	   2.42371	1.75764e+07	      76.5	   15.3366	   2.43556	1.59585e+07	      76.5	   15.3484	   2.42338	1.54074e+07	      76.5	   15.3303	   2.41724	1.73079e+07	      76.5	   15.3305	   2.42964	1.67593e+07	      76.5	   15.3425	   2.42947	1.56802e+07	      76.5	   15.3423	   2.41708	1.62191e+07	
         R10	   4339	      76.5	   15.3484	   2.42338	 1.5431e+07	      76.5	   15.3366	   2.43556	1.60181e+07	      76.5	   15.3487	   2.44742	1.48595e+07	      76.5	   15.3606	   2.43524	1.43163e+07	      76.5	   15.3425	   2.42947	1.57219e+07	      76.5	   15.3426	   2.44149	1.54371e+07	      76.5	   15.3547	   2.44133	1.45864e+07	      76.5	   15.3545	   2.42931	 1.4871e+07	
         R10	   4340	      76.5	   15.3606	   2.43524	1.43249e+07	      76.5	   15.3487	   2.44742	1.48687e+07	      76.5	   15.3609	   2.45928	1.39974e+07	      76.5	   15.3728	   2.44709	1.34928e+07	      76.5	   15.3547	   2.44133	1.45952e+07	      76.5	   15.3548	   2.45335	1.44325e+07	      76.5	   15.3668	   2.45318	1.37441e+07	      76.5	   15.3667	   2.44116	 1.3908e+07	
         R10	   4341	      76.5	   15.3728	   2.44709	1.35012e+07	      76.5	   15.3609	   2.45928	1.39945e+07	      76.5	   15.3731	   2.47113	1.32966e+07	      76.5	    15.385	   2.45895	 1.2857e+07	      76.5	   15.3668	   2.45318	1.37469e+07	      76.5	    15.367	    2.4652	1.36454e+07	      76.5	    15.379	   2.46504	1.30761e+07	      76.5	   15.3789	   2.45302	1.31788e+07	
         R10	   4342	      76.5	    15.385	   2.45895	1.28608e+07	      76.5	   15.3731	   2.47113	1.32965e+07	      76.5	   15.3853	   2.48299	1.27145e+07	      76.5	   15.3971	    2.4708	1.23388e+07	      76.5	    15.379	   2.46504	 1.3078e+07	      76.5	   15.3792	   2.47706	1.30055e+07	      76.5	   15.3912	   2.47689	1.25261e+07	      76.5	   15.3911	   2.46487	1.25997e+07	
         R10	   4343	      76.5	   15.3971	    2.4708	1.23417e+07	      76.5	   15.3853	   2.48299	1.27148e+07	      76.5	   15.3975	   2.49484	1.22241e+07	      76.5	   15.4093	   2.48266	1.19016e+07	      76.5	   15.3912	   2.47689	1.25277e+07	      76.5	   15.3914	   2.48891	1.24695e+07	      76.5	   15.4034	   2.48875	1.20624e+07	      76.5	   15.4032	   2.47673	1.21216e+07	
         R10	   4344	      76.5	   15.4093	   2.48266	1.19036e+07	      76.5	   15.3975	   2.49484	1.22224e+07	      76.5	   15.4097	    2.5067	1.17985e+07	      76.5	   15.4215	   2.49451	1.15224e+07	      76.5	   15.4034	   2.48875	1.20626e+07	      76.5	   15.4036	   2.50077	1.20105e+07	      76.5	   15.4156	    2.5006	  1.166e+07	      76.5	   15.4154	   2.48858	 1.1713e+07	
         R10	   4345	      76.5	   15.4215	   2.49451	 1.1524e+07	      76.5	   15.4097	    2.5067	1.17942e+07	      76.5	   15.4218	   2.51855	 1.1422e+07	      76.5	   15.4337	   2.50637	1.11862e+07	      76.5	   15.4156	    2.5006	1.16586e+07	      76.5	   15.4158	   2.51262	1.16081e+07	      76.5	   15.4278	   2.51246	1.13037e+07	      76.5	   15.4276	   2.50044	1.13551e+07	
         R10	   4346	      76.5	   15.4334	   2.48233	1.12671e+07	      76.5	   15.4215	   2.49451	 1.1514e+07	      76.5	   15.4337	   2.50637	1.11777e+07	      76.5	   15.4456	   2.49418	1.09526e+07	      76.5	   15.4274	   2.48842	1.13902e+07	      76.5	   15.4276	   2.50044	1.13458e+07	      76.5	   15.4396	   2.50027	1.10648e+07	      76.5	   15.4395	   2.48826	1.11099e+07	
         R10	   4347	      76.5	   15.4334	   2.48233	1.12669e+07	      76.5	   15.4456	   2.49418	1.09527e+07	      76.5	   15.4574	     2.482	1.07667e+07	      76.5	   15.4452	   2.47014	1.10719e+07	      76.5	   15.4395	   2.48826	1.11098e+07	      76.5	   15.4515	   2.48809	1.08594e+07	      76.5	   15.4513	   2.47607	1.09193e+07	      76.5	   15.4393	   2.47624	 1.1169e+07	
         R10	   4348	      76.5	   15.4452	   2.47014	1.10728e+07	      76.5	   15.4574	     2.482	1.07684e+07	      76.5	   15.4693	   2.46981	1.06183e+07	      76.5	   15.4571	   2.45796	1.09188e+07	      76.5	   15.4513	   2.47607	1.09205e+07	      76.5	   15.4633	   2.47591	1.06931e+07	      76.5	   15.4632	   2.46389	1.07685e+07	      76.5	   15.4512	   2.46405	1.09955e+07	
         R10	   4349	      76.5	   15.4571	   2.45796	1.09198e+07	      76.5	   15.4693	   2.46981	1.06198e+07	      76.5	   15.4811	   2.45763	1.04962e+07	      76.5	   15.4689	   2.44577	1.07942e+07	      76.5	   15.4632	   2.46389	1.07697e+07	      76.5	   15.4752	   2.46372	1.05577e+07	      76.5	    15.475	    2.4517	1.06451e+07	      76.5	    15.463	   2.45187	1.08567e+07	
         R10	   4350	      76.5	   15.4689	   2.44577	1.07944e+07	      76.5	   15.4811	   2.45763	1.04977e+07	      76.5	    15.493	   2.44544	1.03934e+07	      76.5	   15.4808	   2.43359	1.06852e+07	      76.5	    15.475	    2.4517	 1.0646e+07	      76.5	    15.487	   2.45154	1.04453e+07	      76.5	   15.4869	   2.43952	1.05392e+07	      76.5	   15.4749	   2.43968	1.07394e+07	
         R10	   4351	      76.5	   15.4808	   2.43359	1.06854e+07	      76.5	    15.493	   2.44544	1.03938e+07	      76.5	   15.5048	   2.43326	 1.0302e+07	      76.5	    15.493	   2.42083	1.05819e+07	      76.5	   15.4869	   2.43952	1.05395e+07	      76.5	   15.4989	   2.43935	1.03476e+07	      76.5	   15.4989	   2.42704	1.04418e+07	      76.5	   15.4869	   2.42721	1.06333e+07	
         R10	   4352	      76.5	    15.493	   2.42083	1.05835e+07	      76.5	   15.5048	   2.43326	1.03013e+07	      76.5	   15.5167	   2.42108	1.02168e+07	      76.5	   15.5047	   2.41021	1.04753e+07	      76.5	   15.4989	   2.42704	1.04423e+07	      76.5	   15.5108	   2.42717	1.02588e+07	      76.5	   15.5107	   2.41564	1.03459e+07	      76.5	   15.4988	   2.41552	1.05291e+07	
         R10	   4353	      76.5	   15.5047	   2.41021	1.04749e+07	      76.5	   15.5167	   2.42108	1.02176e+07	      76.5	   15.5285	   2.40889	1.01351e+07	      76.5	   15.5174	    2.3979	1.03708e+07	      76.5	   15.5107	   2.41564	1.03462e+07	      76.5	   15.5226	   2.41498	1.01761e+07	      76.5	    15.523	   2.40339	1.02528e+07	      76.5	    15.511	   2.40405	1.04226e+07	
         R10	   4354	      76.5	   15.5174	    2.3979	1.03706e+07	      76.5	   15.5285	   2.40889	1.01354e+07	      76.5	   15.5404	   2.39671	1.00571e+07	      76.5	   15.5263	    2.3869	1.03107e+07	      76.5	    15.523	   2.40339	1.02529e+07	      76.5	   15.5345	    2.4028	 1.0096e+07	      76.5	   15.5333	    2.3918	1.01838e+07	      76.5	   15.5218	    2.3924	1.03404e+07	
         R10	   4355	      76.5	   15.5174	    2.3979	 1.0368e+07	      76.5	   15.5263	    2.3869	1.03124e+07	      76.5	   15.5121	   2.37709	1.05956e+07	      76.5	   15.5005	   2.39253	1.06794e+07	      76.5	   15.5218	    2.3924	  1.034e+07	      76.5	   15.5192	     2.382	1.04538e+07	      76.5	   15.5063	   2.38481	 1.0637e+07	      76.5	    15.509	   2.39521	1.05236e+07	
         R10	   4356	      76.5	   15.5005	   2.39253	1.06805e+07	      76.5	   15.5121	   2.37709	1.05953e+07	      76.5	    15.498	   2.36729	1.09058e+07	      76.5	   15.4878	   2.38168	1.09992e+07	      76.5	   15.5063	   2.38481	1.06374e+07	      76.5	    15.505	   2.37219	1.07503e+07	      76.5	   15.4929	   2.37449	 1.0952e+07	      76.5	   15.4942	   2.38711	1.08396e+07	
         R10	   4357	      76.5	   15.4878	   2.38168	1.09981e+07	      76.5	    15.498	   2.36729	1.09065e+07	      76.5	   15.4838	   2.35748	1.12444e+07	      76.5	    15.474	   2.37162	1.13633e+07	      76.5	   15.4929	   2.37449	1.09518e+07	      76.5	   15.4909	   2.36239	 1.1075e+07	      76.5	   15.4789	   2.36455	1.13033e+07	      76.5	   15.4809	   2.37665	1.11803e+07	
         R10	   4358	      76.5	    15.474	   2.37162	1.13624e+07	      76.5	   15.4838	   2.35748	1.12454e+07	      76.5	   15.4697	   2.34768	1.16071e+07	      76.5	   15.4599	   2.36181	 1.1768e+07	      76.5	   15.4789	   2.36455	1.13033e+07	      76.5	   15.4768	   2.35258	1.14256e+07	      76.5	   15.4648	   2.35474	1.16868e+07	      76.5	    15.467	   2.36672	1.15646e+07	
         R10	   4359	      76.5	   15.4599	   2.36181	1.17683e+07	      76.5	   15.4697	   2.34768	1.16086e+07	      76.5	   15.4555	   2.33787	1.19859e+07	      76.5	   15.4457	   2.35201	1.22013e+07	      76.5	   15.4648	   2.35474	1.16878e+07	      76.5	   15.4626	   2.34277	1.17963e+07	      76.5	   15.4506	   2.34494	1.20929e+07	      76.5	   15.4528	   2.35691	1.19838e+07	
         R10	   4360	      76.5	   15.4457	   2.35201	1.22035e+07	      76.5	   15.4555	   2.33787	1.19877e+07	      76.5	   15.4414	   2.32806	 1.2368e+07	      76.5	   15.4316	    2.3422	1.26496e+07	      76.5	   15.4506	   2.34494	1.20948e+07	      76.5	   15.4485	   2.33297	1.21764e+07	      76.5	   15.4365	   2.33513	1.25081e+07	      76.5	   15.4387	    2.3471	 1.2425e+07	
         R10	   4361	      76.5	   15.4316	    2.3422	 1.2653e+07	      76.5	   15.4414	   2.32806	1.23698e+07	      76.5	   15.4273	   2.31826	 1.2733e+07	      76.5	   15.4175	    2.3324	1.30894e+07	      76.5	   15.4365	   2.33513	1.25107e+07	      76.5	   15.4343	   2.32316	1.25493e+07	      76.5	   15.4224	   2.32533	1.29106e+07	      76.5	   15.4245	    2.3373	1.28688e+07	
         R10	   4362	      76.5	   15.4175	    2.3324	1.30935e+07	      76.5	   15.4273	   2.31826	1.27364e+07	      76.5	   15.4131	   2.30845	1.30572e+07	      76.5	   15.4033	   2.32259	1.34874e+07	      76.5	   15.4224	   2.32533	1.29143e+07	      76.5	   15.4202	   2.31335	1.28941e+07	      76.5	   15.4082	   2.31552	1.32719e+07	      76.5	   15.4104	   2.32749	 1.3287e+07	
         R10	   4363	      76.5	   15.4033	   2.32259	1.34909e+07	      76.5	   15.4131	   2.30845	1.30589e+07	      76.5	    15.399	   2.29864	1.33173e+07	      76.5	   15.3892	   2.31278	1.38053e+07	      76.5	   15.4082	   2.31552	1.32745e+07	      76.5	   15.4061	   2.30355	1.31847e+07	      76.5	   15.3941	   2.30571	1.35611e+07	      76.5	   15.3962	   2.31769	1.36437e+07	
         R10	   4364	      76.5	   15.3892	   2.31278	1.38074e+07	      76.5	    15.399	   2.29864	1.33196e+07	      76.5	   15.3848	   2.28884	1.34917e+07	      76.5	    15.375	   2.30298	1.40103e+07	      76.5	   15.3941	   2.30571	1.35633e+07	      76.5	   15.3919	   2.29374	1.34019e+07	      76.5	   15.3799	   2.29591	1.37509e+07	      76.5	   15.3821	   2.30788	1.39038e+07	
         R10	   4365	      76.5	    15.375	   2.30298	1.40133e+07	      76.5	   15.3848	   2.28884	1.34889e+07	      76.5	   15.3707	   2.27903	1.35771e+07	      76.5	   15.3615	   2.29305	1.40704e+07	      76.5	   15.3799	   2.29591	 1.3751e+07	      76.5	   15.3778	   2.28393	1.35292e+07	      76.5	   15.3661	   2.28604	1.38237e+07	      76.5	   15.3683	   2.29802	1.40369e+07	
         R10	   4366	      76.5	   15.3615	   2.29305	1.40734e+07	      76.5	   15.3707	   2.27903	 1.3571e+07	      76.5	   15.3566	   2.26923	1.35708e+07	      76.5	   15.3477	     2.283	1.40304e+07	      76.5	   15.3661	   2.28604	1.38222e+07	      76.5	   15.3636	   2.27413	1.35673e+07	      76.5	   15.3522	   2.27611	1.38005e+07	      76.5	   15.3546	   2.28803	1.40474e+07	
         R10	   4367	      76.5	   15.3477	     2.283	1.40241e+07	      76.5	   15.3566	   2.26923	1.35687e+07	      76.5	   15.3424	   2.25942	1.34973e+07	      76.5	   15.3329	   2.27525	1.39761e+07	      76.5	   15.3522	   2.27611	1.37963e+07	      76.5	   15.3495	   2.26432	1.35298e+07	      76.5	   15.3377	   2.26734	1.37365e+07	      76.5	   15.3403	   2.27913	1.39964e+07	
         R10	   4368	      76.5	   15.3327	     2.297	1.46302e+07	      76.5	   15.3171	   2.29756	1.47831e+07	      76.5	    15.317	     2.315	1.54983e+07	      76.5	   15.3338	   2.31504	1.53255e+07	      76.5	   15.3249	   2.29728	1.47027e+07	      76.5	   15.3171	   2.30628	1.51403e+07	      76.5	   15.3254	   2.31502	1.54047e+07	      76.5	   15.3332	   2.30602	1.49763e+07	
         R10	   4369	      76.5	   15.3338	   2.31504	1.53201e+07	      76.5	    15.317	     2.315	1.54961e+07	      76.5	    15.317	     2.332	1.64025e+07	      76.5	   15.3342	   2.33149	1.60838e+07	      76.5	   15.3254	   2.31502	1.54013e+07	      76.5	    15.317	    2.3235	1.59483e+07	      76.5	   15.3256	   2.33175	1.62322e+07	      76.5	    15.334	   2.32326	1.56996e+07	
         R10	   4370	      76.5	   15.3342	   2.33149	 1.6082e+07	      76.5	    15.317	     2.332	1.64002e+07	      76.5	    15.317	     2.349	1.75758e+07	      76.5	    15.334	   2.34901	1.70586e+07	      76.5	   15.3256	   2.33175	1.62303e+07	      76.5	    15.317	    2.3405	1.69851e+07	      76.5	   15.3255	   2.34901	1.72998e+07	      76.5	   15.3341	   2.34025	1.65648e+07	
         R10	   4371	      76.5	    15.334	   2.34901	1.70671e+07	      76.5	    15.317	     2.349	1.76303e+07	      76.5	   15.3169	   2.36578	 1.8997e+07	      76.5	   15.3331	   2.36463	1.80293e+07	      76.5	   15.3255	   2.34901	1.73308e+07	      76.5	   15.3169	   2.35739	 1.8304e+07	      76.5	    15.325	    2.3652	1.84917e+07	      76.5	   15.3335	   2.35682	 1.7538e+07	
         R10	   4372	      76.5	   15.3331	   2.36463	1.81314e+07	      76.5	   15.3169	   2.36578	1.91971e+07	      76.5	   15.3161	   2.38375	2.07087e+07	      76.5	   15.3356	   2.38237	1.83313e+07	      76.5	    15.325	    2.3652	 1.8635e+07	      76.5	   15.3165	   2.37477	1.99087e+07	      76.5	   15.3259	   2.38306	1.94948e+07	      76.5	   15.3343	    2.3735	 1.8199e+07	
         R10	   4373	      76.5	   15.3356	   2.38237	1.85204e+07	      76.5	   15.3244	   2.40007	1.90723e+07	      76.5	   15.3361	   2.41077	 1.7142e+07	      76.5	   15.3476	   2.39771	1.67497e+07	      76.5	     15.33	   2.39122	1.87762e+07	      76.5	   15.3303	   2.40542	1.80898e+07	      76.5	   15.3419	   2.40424	1.69411e+07	      76.5	   15.3416	   2.39004	1.75981e+07	
         R10	   4374	      76.5	   15.3476	   2.39771	 1.6646e+07	      76.5	   15.3361	   2.41077	1.71254e+07	      76.5	   15.3484	   2.42338	1.54626e+07	      76.5	   15.3603	    2.4113	1.51444e+07	      76.5	   15.3419	   2.40424	1.68812e+07	      76.5	   15.3423	   2.41708	 1.6285e+07	      76.5	   15.3544	   2.41734	1.53012e+07	      76.5	    15.354	    2.4045	1.58853e+07	
         R10	   4375	      76.5	   15.3603	    2.4113	1.51452e+07	      76.5	   15.3484	   2.42338	1.54557e+07	      76.5	   15.3606	   2.43524	1.43301e+07	      76.5	   15.3724	   2.42305	1.40264e+07	      76.5	   15.3544	   2.41734	1.52981e+07	      76.5	   15.3545	   2.42931	1.48905e+07	      76.5	   15.3665	   2.42915	1.41768e+07	      76.5	   15.3664	   2.41718	 1.4583e+07	
         R10	   4376	      76.5	   15.3724	   2.42305	1.40314e+07	      76.5	   15.3606	   2.43524	1.43397e+07	      76.5	   15.3728	   2.44709	1.34972e+07	      76.5	   15.3846	   2.43491	1.31935e+07	      76.5	   15.3665	   2.42915	 1.4184e+07	      76.5	   15.3667	   2.44116	1.39175e+07	      76.5	   15.3787	     2.441	1.33443e+07	      76.5	   15.3785	   2.42898	1.36113e+07	
         R10	   4377	      76.5	   15.3846	   2.43491	1.31985e+07	      76.5	   15.3728	   2.44709	1.35048e+07	      76.5	    15.385	   2.45895	1.28533e+07	      76.5	   15.3968	   2.44676	1.25524e+07	      76.5	   15.3787	     2.441	1.33507e+07	      76.5	   15.3789	   2.45302	1.31787e+07	      76.5	   15.3909	   2.45285	1.27022e+07	      76.5	   15.3907	   2.44084	 1.2875e+07	
         R10	   4378	      76.5	   15.3968	   2.44676	1.25565e+07	      76.5	    15.385	   2.45895	1.28587e+07	      76.5	   15.3971	    2.4708	1.23318e+07	      76.5	    15.409	   2.45862	1.20439e+07	      76.5	   15.3909	   2.45285	1.27069e+07	      76.5	   15.3911	   2.46487	1.25951e+07	      76.5	   15.4031	   2.46471	1.21873e+07	      76.5	   15.4029	   2.45269	   1.23e+07	
         R10	   4379	      76.5	    15.409	   2.45862	1.20462e+07	      76.5	   15.3971	    2.4708	1.23355e+07	      76.5	   15.4093	   2.48266	1.18927e+07	      76.5	   15.4212	   2.47047	1.16242e+07	      76.5	   15.4031	   2.46471	1.21904e+07	      76.5	   15.4032	   2.47673	1.21141e+07	      76.5	   15.4153	   2.47657	 1.1758e+07	      76.5	   15.4151	   2.46455	1.18351e+07	
         R10	   4380	      76.5	   15.4212	   2.47047	1.16253e+07	      76.5	   15.4093	   2.48266	1.18957e+07	      76.5	   15.4215	   2.49451	1.15115e+07	      76.5	   15.4334	   2.48233	1.12662e+07	      76.5	   15.4153	   2.47657	1.17601e+07	      76.5	   15.4154	   2.48858	1.17036e+07	      76.5	   15.4274	   2.48842	1.13885e+07	      76.5	   15.4273	    2.4764	1.14457e+07	
         R10	   4381	      76.5	    15.433	   2.45829	1.14236e+07	      76.5	   15.4212	   2.47047	1.16265e+07	      76.5	   15.4334	   2.48233	1.12659e+07	      76.5	   15.4452	   2.47014	1.10706e+07	      76.5	   15.4271	   2.46438	1.15246e+07	      76.5	   15.4273	    2.4764	1.14462e+07	      76.5	   15.4393	   2.47624	1.11679e+07	      76.5	   15.4391	   2.46422	 1.1247e+07	
         R10	   4382	      76.5	    15.433	   2.45829	1.14254e+07	      76.5	   15.4452	   2.47014	1.10715e+07	      76.5	   15.4571	   2.45796	1.09182e+07	      76.5	   15.4449	   2.44611	1.12679e+07	      76.5	   15.4391	   2.46422	1.12484e+07	      76.5	   15.4512	   2.46405	1.09945e+07	      76.5	    15.451	   2.45203	1.10929e+07	      76.5	    15.439	    2.4522	1.13462e+07	
         R10	   4383	      76.5	   15.4449	   2.44611	1.12694e+07	      76.5	   15.4571	   2.45796	 1.0919e+07	      76.5	   15.4689	   2.44577	1.07924e+07	      76.5	   15.4567	   2.43392	1.11389e+07	      76.5	    15.451	   2.45203	1.10941e+07	      76.5	    15.463	   2.45187	1.08554e+07	      76.5	   15.4628	   2.43985	1.09655e+07	      76.5	   15.4508	   2.44001	1.12037e+07	
         R10	   4384	      76.5	   15.4567	   2.43392	1.11408e+07	      76.5	   15.4689	   2.44577	1.07928e+07	      76.5	   15.4808	   2.43359	 1.0685e+07	      76.5	   15.4689	   2.42154	1.10115e+07	      76.5	   15.4628	   2.43985	1.09667e+07	      76.5	   15.4749	   2.43968	1.07386e+07	      76.5	   15.4749	   2.42757	1.08481e+07	      76.5	   15.4628	   2.42773	1.10757e+07	
         R10	   4385	      76.5	   15.4689	   2.42154	1.10122e+07	      76.5	   15.4808	   2.43359	1.06859e+07	      76.5	    15.493	   2.42083	1.05817e+07	      76.5	   15.4822	   2.40874	 1.0881e+07	      76.5	   15.4749	   2.42757	1.08489e+07	      76.5	   15.4869	   2.42721	1.06334e+07	      76.5	   15.4876	   2.41478	1.07311e+07	      76.5	   15.4756	   2.41514	1.09461e+07	
         R10	   4386	      76.5	   15.4774	   2.39584	1.10877e+07	      76.5	   15.4878	   2.38168	1.09982e+07	      76.5	    15.474	   2.37162	1.13634e+07	      76.5	   15.4635	   2.38556	1.14873e+07	      76.5	   15.4826	   2.38876	1.10424e+07	      76.5	   15.4809	   2.37665	1.11804e+07	      76.5	   15.4688	   2.37859	1.14247e+07	      76.5	   15.4705	    2.3907	1.12871e+07	
         R10	   4387	      76.5	   15.4635	   2.38556	1.14903e+07	      76.5	    15.474	   2.37162	1.13635e+07	      76.5	   15.4599	   2.36181	1.17691e+07	      76.5	   15.4503	   2.37692	1.19031e+07	      76.5	   15.4688	   2.37859	1.14262e+07	      76.5	    15.467	   2.36672	1.15657e+07	      76.5	   15.4551	   2.36937	1.18351e+07	      76.5	   15.4569	   2.38124	1.16963e+07	
         R10	   4388	      76.5	   15.4503	   2.37692	1.19087e+07	      76.5	   15.4599	   2.36181	1.17687e+07	      76.5	   15.4457	   2.35201	1.22027e+07	      76.5	   15.4359	   2.36614	1.24125e+07	      76.5	   15.4551	   2.36937	1.18377e+07	      76.5	   15.4528	   2.35691	1.19846e+07	      76.5	   15.4408	   2.35907	1.23066e+07	      76.5	   15.4431	   2.37153	1.21595e+07	
         R10	   4389	      76.5	   15.4359	   2.36614	1.24151e+07	      76.5	   15.4457	   2.35201	 1.2205e+07	      76.5	   15.4316	    2.3422	1.26508e+07	      76.5	   15.4218	   2.35634	 1.2941e+07	      76.5	   15.4408	   2.35907	1.23091e+07	      76.5	   15.4387	    2.3471	1.24263e+07	      76.5	   15.4267	   2.34927	1.27949e+07	      76.5	   15.4289	   2.36124	1.26763e+07	
         R10	   4390	      76.5	   15.4218	   2.35634	1.29465e+07	      76.5	   15.4316	    2.3422	 1.2654e+07	      76.5	   15.4175	    2.3324	1.30905e+07	      76.5	   15.4077	   2.34653	1.34763e+07	      76.5	   15.4267	   2.34927	1.27992e+07	      76.5	   15.4245	    2.3373	1.28698e+07	      76.5	   15.4126	   2.33946	1.32824e+07	      76.5	   15.4147	   2.35144	1.32085e+07	
         R10	   4391	      76.5	   15.4077	   2.34653	1.34825e+07	      76.5	   15.4175	    2.3324	1.30942e+07	      76.5	   15.4033	   2.32259	1.34868e+07	      76.5	   15.3935	   2.33673	1.39748e+07	      76.5	   15.4126	   2.33946	1.32874e+07	      76.5	   15.4104	   2.32749	1.32871e+07	      76.5	   15.3984	   2.32966	1.37302e+07	      76.5	   15.4006	   2.34163	1.37244e+07	
         R10	   4392	      76.5	   15.3935	   2.33673	1.39824e+07	      76.5	   15.4033	   2.32259	 1.3491e+07	      76.5	   15.3892	   2.31278	1.38046e+07	      76.5	     15.38	   2.32681	1.43535e+07	      76.5	   15.3984	   2.32966	 1.3736e+07	      76.5	   15.3962	   2.31769	1.36434e+07	      76.5	   15.3846	    2.3198	1.40787e+07	      76.5	   15.3867	   2.33177	1.41623e+07	
         R10	   4393	      76.5	     15.38	   2.32681	1.43579e+07	      76.5	   15.3892	   2.31278	1.38074e+07	      76.5	    15.375	   2.30298	1.40083e+07	      76.5	   15.3661	   2.31684	1.46017e+07	      76.5	   15.3846	    2.3198	1.40823e+07	      76.5	   15.3821	   2.30788	1.39027e+07	      76.5	   15.3706	   2.30991	1.43049e+07	      76.5	    15.373	   2.32183	 1.4473e+07	
         R10	   4394	      76.5	   15.3661	   2.31684	 1.4593e+07	      76.5	    15.375	   2.30298	1.40087e+07	      76.5	   15.3615	   2.29305	1.40696e+07	      76.5	    15.351	   2.30909	1.47603e+07	      76.5	   15.3706	   2.30991	1.43007e+07	      76.5	   15.3683	   2.29802	1.40343e+07	      76.5	   15.3563	   2.30107	1.44149e+07	      76.5	   15.3586	   2.31296	1.46698e+07	
         R10	   4395	      76.5	     15.35	   2.33092	1.55735e+07	      76.5	   15.3342	   2.33149	1.60786e+07	      76.5	    15.334	   2.34901	1.70209e+07	      76.5	   15.3509	   2.34878	1.62146e+07	      76.5	   15.3421	    2.3312	1.58188e+07	      76.5	   15.3341	   2.34025	1.65442e+07	      76.5	   15.3424	    2.3489	1.66066e+07	      76.5	   15.3504	   2.33985	 1.5886e+07	
         R10	   4396	      76.5	   15.3509	   2.34878	1.62402e+07	      76.5	    15.334	   2.34901	1.70384e+07	      76.5	   15.3331	   2.36463	1.80016e+07	      76.5	   15.3519	   2.36771	1.66733e+07	      76.5	   15.3424	    2.3489	1.66283e+07	      76.5	   15.3335	   2.35682	1.75099e+07	      76.5	   15.3425	   2.36617	1.73172e+07	      76.5	   15.3514	   2.35824	1.64404e+07	
         R10	   4397	      76.5	   15.3519	   2.36771	1.66204e+07	      76.5	   15.3356	   2.38237	1.84065e+07	      76.5	   15.3476	   2.39771	1.67447e+07	      76.5	   15.3601	   2.38663	1.60176e+07	      76.5	   15.3437	   2.37504	1.75103e+07	      76.5	   15.3416	   2.39004	1.75392e+07	      76.5	   15.3539	   2.39217	1.63773e+07	      76.5	    15.356	   2.37717	1.62933e+07	
         R10	   4398	      76.5	   15.3601	   2.38663	1.59622e+07	      76.5	   15.3476	   2.39771	1.66615e+07	      76.5	   15.3603	    2.4113	1.51511e+07	      76.5	   15.3723	   2.39946	1.47852e+07	      76.5	   15.3539	   2.39217	1.63081e+07	      76.5	    15.354	    2.4045	1.58971e+07	      76.5	   15.3663	   2.40538	1.49656e+07	      76.5	   15.3662	   2.39304	1.53642e+07	
         R10	   4399	      76.5	   15.3723	   2.39946	1.47639e+07	      76.5	   15.3603	    2.4113	1.51401e+07	      76.5	   15.3724	   2.42305	1.40435e+07	      76.5	   15.3843	   2.41087	1.37927e+07	      76.5	   15.3663	   2.40538	1.49495e+07	      76.5	   15.3664	   2.41718	 1.4589e+07	      76.5	   15.3784	   2.41696	1.39164e+07	      76.5	   15.3783	   2.40516	1.42754e+07	
         R10	   4400	      76.5	   15.3843	   2.41087	1.37987e+07	      76.5	   15.3724	   2.42305	1.40421e+07	      76.5	   15.3846	   2.43491	1.32029e+07	      76.5	   15.3965	   2.42273	1.29873e+07	      76.5	   15.3784	   2.41696	1.39187e+07	      76.5	   15.3785	   2.42898	1.36214e+07	      76.5	   15.3906	   2.42882	 1.3094e+07	      76.5	   15.3904	    2.4168	1.33916e+07	
         R10	   4401	      76.5	   15.3965	   2.42273	1.29904e+07	      76.5	   15.3846	   2.43491	1.32061e+07	      76.5	   15.3968	   2.44676	1.25581e+07	      76.5	   15.4087	   2.43458	1.23493e+07	      76.5	   15.3906	   2.42882	1.30972e+07	      76.5	   15.3907	   2.44084	1.28816e+07	      76.5	   15.4027	   2.44067	 1.2453e+07	      76.5	   15.4026	   2.42865	1.26692e+07	
         R10	   4402	      76.5	   15.4087	   2.43458	1.23525e+07	      76.5	   15.3968	   2.44676	1.25613e+07	      76.5	    15.409	   2.45862	1.20465e+07	      76.5	   15.4209	   2.44644	 1.1839e+07	      76.5	   15.4027	   2.44067	1.24562e+07	      76.5	   15.4029	   2.45269	1.23037e+07	      76.5	   15.4149	   2.45253	1.19423e+07	      76.5	   15.4148	   2.44051	1.20955e+07	
         R10	   4403	      76.5	   15.4209	   2.44644	1.18418e+07	      76.5	    15.409	   2.45862	1.20488e+07	      76.5	   15.4212	   2.47047	1.16251e+07	      76.5	    15.433	   2.45829	1.14215e+07	      76.5	   15.4149	   2.45253	1.19448e+07	      76.5	   15.4151	   2.46455	1.18368e+07	      76.5	   15.4271	   2.46438	1.15229e+07	      76.5	   15.4269	   2.45237	1.16315e+07	
         R10	   4404	      76.5	   15.4327	   2.43426	1.16827e+07	      76.5	   15.4209	   2.44644	1.18446e+07	      76.5	    15.433	   2.45829	1.14235e+07	      76.5	   15.4449	   2.44611	1.12669e+07	      76.5	   15.4268	   2.44035	1.17631e+07	      76.5	   15.4269	   2.45237	1.16339e+07	      76.5	    15.439	    2.4522	1.13448e+07	      76.5	   15.4388	   2.44018	1.14746e+07	
         R10	   4405	      76.5	   15.4327	   2.43426	 1.1684e+07	      76.5	   15.4449	   2.44611	1.12686e+07	      76.5	   15.4567	   2.43392	1.11351e+07	      76.5	   15.4444	    2.4213	1.15574e+07	      76.5	   15.4388	   2.44018	1.14761e+07	      76.5	   15.4508	   2.44001	1.12015e+07	      76.5	   15.4506	   2.42761	 1.1346e+07	      76.5	   15.4386	   2.42778	  1.162e+07	
         R10	   4406	      76.5	   15.4444	    2.4213	1.15583e+07	      76.5	   15.4567	   2.43392	1.11361e+07	      76.5	   15.4689	   2.42154	1.10181e+07	      76.5	   15.4563	   2.40744	 1.1428e+07	      76.5	   15.4506	   2.42761	1.13469e+07	      76.5	   15.4628	   2.42773	1.10767e+07	      76.5	   15.4626	   2.41449	1.12227e+07	      76.5	   15.4503	   2.41437	1.14924e+07	
         R10	   4407	      76.5	   15.4822	   2.40874	1.08761e+07	      76.5	    15.493	   2.42083	1.05824e+07	      76.5	   15.5047	   2.41021	1.04789e+07	      76.5	   15.5005	   2.39253	 1.0682e+07	      76.5	   15.4876	   2.41478	 1.0729e+07	      76.5	   15.4988	   2.41552	1.05304e+07	      76.5	   15.5026	   2.40137	  1.058e+07	      76.5	   15.4914	   2.40063	1.07783e+07	
         R10	   4408	      76.5	   15.4822	   2.40874	1.08858e+07	      76.5	   15.5005	   2.39253	1.06774e+07	      76.5	   15.4878	   2.38168	1.10011e+07	      76.5	   15.4774	   2.39584	1.10848e+07	      76.5	   15.4914	   2.40063	1.07808e+07	      76.5	   15.4942	   2.38711	 1.0839e+07	      76.5	   15.4826	   2.38876	1.10424e+07	      76.5	   15.4798	   2.40229	1.09849e+07	
         R10	   4409	      76.5	   15.4408	   2.39174	1.20194e+07	      76.5	   15.4503	   2.37692	1.19083e+07	      76.5	   15.4359	   2.36614	1.24154e+07	      76.5	   15.4263	   2.38085	1.25962e+07	      76.5	   15.4455	   2.38433	1.19627e+07	      76.5	   15.4431	   2.37153	1.21607e+07	      76.5	   15.4311	    2.3735	1.25045e+07	      76.5	   15.4335	    2.3863	1.23067e+07	
         R10	   4410	      76.5	   15.4263	   2.38085	1.26006e+07	      76.5	   15.4359	   2.36614	1.24177e+07	      76.5	   15.4218	   2.35634	1.29423e+07	      76.5	   15.4115	   2.37097	1.32462e+07	      76.5	   15.4311	    2.3735	1.25078e+07	      76.5	   15.4289	   2.36124	1.26782e+07	      76.5	   15.4166	   2.36365	1.30927e+07	      76.5	   15.4189	   2.37591	1.29217e+07	
         R10	   4411	      76.5	   15.4115	   2.37097	1.32439e+07	      76.5	   15.4218	   2.35634	1.29469e+07	      76.5	   15.4077	   2.34653	1.34792e+07	      76.5	   15.3971	   2.36244	1.39166e+07	      76.5	   15.4166	   2.36365	1.30939e+07	      76.5	   15.4147	   2.35144	1.32102e+07	      76.5	   15.4024	   2.35449	 1.3696e+07	      76.5	   15.4043	   2.36671	1.35776e+07	
         R10	   4412	      76.5	   15.3971	   2.36244	1.39153e+07	      76.5	   15.4077	   2.34653	1.34886e+07	      76.5	   15.3935	   2.33673	1.39772e+07	      76.5	   15.3838	   2.35305	1.45361e+07	      76.5	   15.4024	   2.35449	   1.37e+07	      76.5	   15.4006	   2.34163	1.37285e+07	      76.5	   15.3887	   2.34489	1.42547e+07	      76.5	   15.3905	   2.35774	1.42209e+07	
         R10	   4413	      76.5	   15.3838	   2.35305	1.45505e+07	      76.5	   15.3935	   2.33673	1.39816e+07	      76.5	     15.38	   2.32681	1.43529e+07	      76.5	   15.3692	   2.34329	1.51138e+07	      76.5	   15.3887	   2.34489	1.42641e+07	      76.5	   15.3867	   2.33177	1.41616e+07	      76.5	   15.3746	   2.33505	1.47323e+07	      76.5	   15.3765	   2.34817	1.48237e+07	
         R10	   4414	      76.5	   15.3668	    2.3625	1.55457e+07	      76.5	   15.3519	   2.36771	1.66383e+07	      76.5	   15.3601	   2.38663	 1.6009e+07	      76.5	   15.3747	   2.37474	1.50805e+07	      76.5	   15.3594	   2.36511	1.60909e+07	      76.5	    15.356	   2.37717	1.62961e+07	      76.5	   15.3674	   2.38068	1.55424e+07	      76.5	   15.3708	   2.36862	1.53051e+07	
         R10	   4415	      76.5	   15.3747	   2.37474	1.50305e+07	      76.5	   15.3601	   2.38663	1.59423e+07	      76.5	   15.3723	   2.39946	1.47886e+07	      76.5	   15.3856	   2.38415	1.43265e+07	      76.5	   15.3674	   2.38068	1.54845e+07	      76.5	   15.3662	   2.39304	1.53565e+07	      76.5	    15.379	    2.3918	1.45533e+07	      76.5	   15.3802	   2.37944	1.46744e+07	
         R10	   4416	      76.5	   15.3856	   2.38415	1.43339e+07	      76.5	   15.3723	   2.39946	1.47663e+07	      76.5	   15.3843	   2.41087	1.37989e+07	      76.5	   15.3956	    2.3999	1.35383e+07	      76.5	    15.379	    2.3918	1.45462e+07	      76.5	   15.3783	   2.40516	1.42797e+07	      76.5	     15.39	   2.40538	1.36672e+07	      76.5	   15.3906	   2.39202	1.39308e+07	
         R10	   4417	      76.5	   15.3956	    2.3999	1.35164e+07	      76.5	   15.3843	   2.41087	   1.38e+07	      76.5	   15.3965	   2.42273	1.29925e+07	      76.5	   15.4082	    2.4103	1.28043e+07	      76.5	     15.39	   2.40538	1.36569e+07	      76.5	   15.3904	    2.4168	1.33949e+07	      76.5	   15.4023	   2.41651	1.28972e+07	      76.5	   15.4019	    2.4051	1.31592e+07	
         R10	   4418	      76.5	   15.4082	    2.4103	1.28063e+07	      76.5	   15.3965	   2.42273	1.29934e+07	      76.5	   15.4087	   2.43458	 1.2354e+07	      76.5	   15.4204	   2.42201	1.21921e+07	      76.5	   15.4023	   2.41651	1.28986e+07	      76.5	   15.4026	   2.42865	1.26731e+07	      76.5	   15.4145	    2.4283	1.22723e+07	      76.5	   15.4143	   2.41616	1.24985e+07	
         R10	   4419	      76.5	   15.4204	   2.42201	1.21941e+07	      76.5	   15.4087	   2.43458	1.23556e+07	      76.5	   15.4209	   2.44644	 1.1842e+07	      76.5	   15.4327	   2.43426	1.16809e+07	      76.5	   15.4145	    2.4283	 1.2274e+07	      76.5	   15.4148	   2.44051	1.20985e+07	      76.5	   15.4268	   2.44035	1.17609e+07	      76.5	   15.4265	   2.42814	1.19371e+07	
         R10	   4420	      76.5	   15.4319	   2.40885	1.20543e+07	      76.5	   15.4204	   2.42201	 1.2197e+07	      76.5	   15.4327	   2.43426	1.16833e+07	      76.5	   15.4444	    2.4213	1.15526e+07	      76.5	   15.4261	   2.41543	1.21248e+07	      76.5	   15.4265	   2.42814	1.19398e+07	      76.5	   15.4386	   2.42778	1.16173e+07	      76.5	   15.4381	   2.41508	1.18029e+07	
         R10	   4421	      76.5	   15.4563	   2.40744	1.14353e+07	      76.5	   15.4689	   2.42154	1.10129e+07	      76.5	   15.4822	   2.40874	1.08753e+07	      76.5	   15.4774	   2.39584	1.10861e+07	      76.5	   15.4626	   2.41449	1.12237e+07	      76.5	   15.4756	   2.41514	1.09436e+07	      76.5	   15.4798	   2.40229	1.09803e+07	      76.5	   15.4669	   2.40164	1.12601e+07	
         R10	   4422	      76.5	   15.4563	   2.40744	 1.1436e+07	      76.5	   15.4635	   2.38556	1.14918e+07	      76.5	   15.4503	   2.37692	1.19078e+07	      76.5	   15.4408	   2.39174	1.20168e+07	      76.5	   15.4599	    2.3965	1.14622e+07	      76.5	   15.4569	   2.38124	1.16993e+07	      76.5	   15.4455	   2.38433	1.19611e+07	      76.5	   15.4485	   2.39959	1.17254e+07	
         R10	   4423	      76.5	   15.4172	   2.39518	1.27331e+07	      76.5	   15.4263	   2.38085	1.26028e+07	      76.5	   15.4115	   2.37097	1.32422e+07	      76.5	   15.4035	   2.38458	1.34394e+07	      76.5	   15.4217	   2.38802	1.26663e+07	      76.5	   15.4189	   2.37591	1.29209e+07	      76.5	   15.4075	   2.37778	1.33391e+07	      76.5	   15.4103	   2.38988	1.30844e+07	
         R10	   4424	      76.5	   15.4319	   2.40885	 1.2057e+07	      76.5	   15.4444	    2.4213	1.15532e+07	      76.5	   15.4563	   2.40744	1.14359e+07	      76.5	   15.4408	   2.39174	1.20167e+07	      76.5	   15.4381	   2.41508	1.18046e+07	      76.5	   15.4503	   2.41437	1.14938e+07	      76.5	   15.4485	   2.39959	1.17253e+07	      76.5	   15.4363	    2.4003	1.20354e+07	
         R10	   4425	      76.5	   15.4319	   2.40885	 1.2054e+07	      76.5	   15.4408	   2.39174	1.20206e+07	      76.5	   15.4263	   2.38085	1.25996e+07	      76.5	   15.4172	   2.39518	1.27347e+07	      76.5	   15.4363	    2.4003	1.20358e+07	      76.5	   15.4335	    2.3863	 1.2309e+07	      76.5	   15.4217	   2.38802	1.26656e+07	      76.5	   15.4245	   2.40202	1.23932e+07	
         R10	   4426	      76.5	   15.4082	    2.4103	1.28079e+07	      76.5	   15.4204	   2.42201	1.21944e+07	      76.5	   15.4319	   2.40885	1.20505e+07	      76.5	   15.4172	   2.39518	 1.2733e+07	      76.5	   15.4143	   2.41616	1.25004e+07	      76.5	   15.4261	   2.41543	1.21215e+07	      76.5	   15.4245	   2.40202	1.23905e+07	      76.5	   15.4127	   2.40274	1.27688e+07	
         R10	   4427	      76.5	   15.3956	    2.3999	1.35199e+07	      76.5	   15.4082	    2.4103	1.28103e+07	      76.5	   15.4172	   2.39518	1.27344e+07	      76.5	   15.4035	   2.38458	1.34486e+07	      76.5	   15.4019	    2.4051	 1.3164e+07	      76.5	   15.4127	   2.40274	1.27706e+07	      76.5	   15.4103	   2.38988	1.30898e+07	      76.5	   15.3995	   2.39224	1.34815e+07	
         R10	   4428	      76.5	   15.3258	   2.26194	1.36661e+07	      76.5	   15.3329	   2.27525	1.39706e+07	      76.5	   15.3424	   2.25942	1.34897e+07	      76.5	   15.3283	   2.24961	1.33851e+07	      76.5	   15.3293	   2.26859	 1.3817e+07	      76.5	   15.3377	   2.26734	1.37299e+07	      76.5	   15.3354	   2.25452	1.34349e+07	      76.5	    15.327	   2.25577	1.35256e+07	
         R10	   4429	      76.5	   15.3258	   2.26194	1.36881e+07	      76.5	   15.3283	   2.24961	1.33818e+07	      76.5	   15.3141	   2.23981	1.32261e+07	      76.5	   15.3153	   2.26308	1.37425e+07	      76.5	    15.327	   2.25577	1.35349e+07	      76.5	   15.3212	   2.24471	1.33019e+07	      76.5	   15.3147	   2.25145	 1.3484e+07	      76.5	   15.3206	   2.26251	1.37141e+07	
         R10	   4430	      76.5	   15.3258	   2.26194	1.36709e+07	      76.5	   15.3153	   2.26308	1.37618e+07	      76.5	   15.3166	   2.28111	1.42436e+07	      76.5	   15.3329	   2.27525	1.39725e+07	      76.5	   15.3206	   2.26251	1.37153e+07	      76.5	   15.3159	    2.2721	1.40025e+07	      76.5	   15.3247	   2.27818	1.41052e+07	      76.5	   15.3293	   2.26859	1.38204e+07	
         R10	   4431	      76.5	   15.3329	   2.27525	1.39738e+07	      76.5	   15.3166	   2.28111	1.42329e+07	      76.5	   15.3171	   2.29756	1.47922e+07	      76.5	   15.3327	     2.297	 1.4632e+07	      76.5	   15.3247	   2.27818	1.41006e+07	      76.5	   15.3168	   2.28933	1.45123e+07	      76.5	   15.3249	   2.29728	1.47081e+07	      76.5	   15.3328	   2.28613	1.43022e+07	
         R10	   4432	      76.5	   15.3437	   2.29581	1.44725e+07	      76.5	   15.3477	     2.283	1.40311e+07	      76.5	   15.3329	   2.27525	1.39646e+07	      76.5	   15.3327	     2.297	1.46144e+07	      76.5	   15.3457	   2.28941	1.42517e+07	      76.5	   15.3403	   2.27913	 1.3994e+07	      76.5	   15.3328	   2.28613	1.42888e+07	      76.5	   15.3382	    2.2964	1.45414e+07	
         R10	   4433	      76.5	   15.3437	   2.29581	1.44589e+07	      76.5	   15.3327	     2.297	1.46461e+07	      76.5	   15.3338	   2.31504	1.53099e+07	      76.5	    15.351	   2.30909	1.47548e+07	      76.5	   15.3382	    2.2964	1.45506e+07	      76.5	   15.3332	   2.30602	1.49765e+07	      76.5	   15.3424	   2.31206	1.50279e+07	      76.5	   15.3474	   2.30245	1.46033e+07	
         R10	   4434	      76.5	   15.3437	   2.29581	1.44448e+07	      76.5	    15.351	   2.30909	1.47516e+07	      76.5	   15.3615	   2.29305	1.40644e+07	      76.5	   15.3477	     2.283	1.40345e+07	      76.5	   15.3474	   2.30245	1.45946e+07	      76.5	   15.3563	   2.30107	1.44079e+07	      76.5	   15.3546	   2.28803	1.40451e+07	      76.5	   15.3457	   2.28941	1.42397e+07	
         R10	   4435	      76.5	    15.351	   2.30909	1.47662e+07	      76.5	   15.3338	   2.31504	1.52926e+07	      76.5	   15.3342	   2.33149	1.60737e+07	      76.5	     15.35	   2.33092	1.55589e+07	      76.5	   15.3424	   2.31206	 1.5025e+07	      76.5	    15.334	   2.32326	1.56808e+07	      76.5	   15.3421	    2.3312	1.58095e+07	      76.5	   15.3505	      2.32	1.51587e+07	
         R10	   4436	      76.5	   15.3616	   2.32967	1.51079e+07	      76.5	   15.3692	   2.34329	1.51196e+07	      76.5	     15.38	   2.32681	1.43527e+07	      76.5	   15.3661	   2.31684	1.46013e+07	      76.5	   15.3654	   2.33648	1.51055e+07	      76.5	   15.3746	   2.33505	1.47352e+07	      76.5	    15.373	   2.32183	1.44704e+07	      76.5	   15.3639	   2.32326	1.48541e+07	
         R10	   4437	      76.5	   15.3616	   2.32967	1.51165e+07	      76.5	   15.3661	   2.31684	1.46066e+07	      76.5	    15.351	   2.30909	1.47619e+07	      76.5	     15.35	   2.33092	1.55258e+07	      76.5	   15.3639	   2.32326	1.48606e+07	      76.5	   15.3586	   2.31296	 1.4677e+07	      76.5	   15.3505	      2.32	1.51399e+07	      76.5	   15.3558	    2.3303	1.53182e+07	
         R10	   4438	      76.5	   15.3616	   2.32967	1.51157e+07	      76.5	     15.35	   2.33092	1.55918e+07	      76.5	   15.3509	   2.34878	1.61689e+07	      76.5	   15.3692	   2.34329	1.51131e+07	      76.5	   15.3558	    2.3303	1.53508e+07	      76.5	   15.3504	   2.33985	1.58724e+07	      76.5	   15.3601	   2.34604	1.56375e+07	      76.5	   15.3654	   2.33648	1.51065e+07	
         R10	   4439	      76.5	   15.3692	   2.34329	1.51398e+07	      76.5	   15.3509	   2.34878	1.61694e+07	      76.5	   15.3519	   2.36771	1.66708e+07	      76.5	   15.3668	    2.3625	1.55027e+07	      76.5	   15.3601	   2.34604	1.56511e+07	      76.5	   15.3514	   2.35824	1.64039e+07	      76.5	   15.3594	   2.36511	1.60856e+07	      76.5	    15.368	    2.3529	1.53131e+07	
         R10	   4440	      76.5	   15.3747	   2.37474	1.50841e+07	      76.5	   15.3838	   2.35305	1.45637e+07	      76.5	   15.3692	   2.34329	1.51421e+07	      76.5	   15.3668	    2.3625	1.56001e+07	      76.5	   15.3793	   2.36389	1.48162e+07	      76.5	   15.3765	   2.34817	1.48446e+07	      76.5	    15.368	    2.3529	1.53631e+07	      76.5	   15.3708	   2.36862	1.53335e+07	
         R10	   4441	      76.5	   15.3856	   2.38415	1.43426e+07	      76.5	   15.3971	   2.36244	1.39391e+07	      76.5	   15.3838	   2.35305	1.45502e+07	      76.5	   15.3747	   2.37474	 1.5082e+07	      76.5	   15.3914	   2.37329	1.41348e+07	      76.5	   15.3905	   2.35774	1.42395e+07	      76.5	   15.3793	   2.36389	 1.4808e+07	      76.5	   15.3802	   2.37944	1.47081e+07	
         R10	   4442	      76.5	   15.3856	   2.38415	1.43114e+07	      76.5	   15.4035	   2.38458	1.34222e+07	      76.5	   15.4115	   2.37097	1.32546e+07	      76.5	   15.3971	   2.36244	1.39314e+07	      76.5	   15.3945	   2.38436	1.38662e+07	      76.5	   15.4075	   2.37778	1.33366e+07	      76.5	   15.4043	   2.36671	1.35902e+07	      76.5	   15.3914	   2.37329	1.41151e+07	
         R10	   4443	      76.5	   15.3141	   2.23981	1.32391e+07	      76.5	      15.3	      2.23	1.30736e+07	      76.5	      15.3	     2.247	1.34208e+07	      76.5	   15.3071	    2.2349	1.31545e+07	      76.5	      15.3	    2.2385	1.32472e+07	      76.5	   15.3071	    2.2434	1.33286e+07	       N/A	       N/A	       N/A	        N/A	       N/A	       N/A	       N/A	        N/A	
         R10	   4444	      76.5	   15.3161	   2.38375	 2.2142e+07	      76.5	      15.3	     2.383	2.21256e+07	      76.5	      15.3	       2.4	2.29184e+07	      76.5	   15.3081	   2.38337	2.19604e+07	      76.5	      15.3	    2.3915	2.24777e+07	      76.5	   15.3081	   2.39187	 2.2427e+07	       N/A	       N/A	       N/A	        N/A	       N/A	       N/A	       N/A	        N/A	
         R10	   4445	      76.5	   15.3356	   2.38237	1.83836e+07	      76.5	   15.3161	   2.38375	2.07337e+07	      76.5	   15.3244	   2.40007	1.99881e+07	      76.5	   15.3259	   2.38306	1.95265e+07	      76.5	   15.3203	   2.39191	2.02245e+07	      76.5	     15.33	   2.39122	1.91486e+07	       N/A	       N/A	       N/A	        N/A	       N/A	       N/A	       N/A	        N/A	
         R10	   4446	      76.5	   15.5047	   2.41021	1.04803e+07	      76.5	   15.5174	    2.3979	1.03675e+07	      76.5	   15.5005	   2.39253	1.06806e+07	      76.5	    15.511	   2.40405	1.04236e+07	      76.5	    15.509	   2.39521	1.05239e+07	      76.5	   15.5026	   2.40137	  1.058e+07	       N/A	       N/A	       N/A	        N/A	       N/A	       N/A	       N/A	        N/A	
         R10	   4447	      76.5	   15.3519	   2.36771	1.66257e+07	      76.5	   15.3331	   2.36463	1.80441e+07	      76.5	   15.3356	   2.38237	1.82637e+07	      76.5	   15.3425	   2.36617	1.73139e+07	      76.5	   15.3343	    2.3735	1.81231e+07	      76.5	   15.3437	   2.37504	1.74431e+07	       N/A	       N/A	       N/A	        N/A	       N/A	       N/A	       N/A	        N/A	
         R10	   4448	      76.5	   15.4563	   2.40744	1.14374e+07	      76.5	   15.4774	   2.39584	1.10884e+07	      76.5	   15.4635	   2.38556	1.14895e+07	      76.5	   15.4669	   2.40164	1.12623e+07	      76.5	   15.4705	    2.3907	1.12886e+07	      76.5	   15.4599	    2.3965	1.14617e+07	       N/A	       N/A	       N/A	        N/A	       N/A	       N/A	       N/A	        N/A	
         R10	   4449	      76.5	   15.3856	   2.38415	1.43122e+07	      76.5	   15.3956	    2.3999	1.35457e+07	      76.5	   15.4035	   2.38458	 1.3418e+07	      76.5	   15.3906	   2.39202	1.39242e+07	      76.5	   15.3995	   2.39224	1.34789e+07	      76.5	   15.3945	   2.38436	1.38647e+07	       N/A	       N/A	       N/A	        N/A	       N/A	       N/A	       N/A	        N/A	
         R10	   4450	   80.2188	   21.3636	    1.2195	 1.0709e+07	   80.2188	   21.5054	   1.77096	1.32601e+07	     80.75	   21.5054	   1.77096	3.30812e+06	     80.75	   21.3636	    1.2195	9.20218e+06	   80.2188	   21.4542	   1.49016	1.17158e+07	   80.4844	   21.5054	   1.77096	8.02104e+06	     80.75	   21.4542	   1.49016	6.13658e+06	   80.4844	   21.3636	    1.2195	9.69092e+06	
         R10	   4451	   79.6875	   21.3636	    1.2195	7.87141e+06	   79.6875	   21.5054	   1.77096	9.06446e+06	   80.2188	   21.5054	   1.77096	4.57584e+06	   80.2188	   21.3636	    1.2195	8.32777e+06	   79.6875	   21.4542	   1.49016	8.42083e+06	   79.9531	   21.5054	   1.77096	6.80791e+06	   80.2188	   21.4542	   1.49016	6.30282e+06	   79.9531	   21.3636	    1.2195	7.99011e+06	
         R10	   4452	   79.1563	   21.3636	    1.2195	7.03946e+06	   79.1563	   21.5054	   1.77096	7.63764e+06	   79.6875	   21.5054	   1.77096	5.55443e+06	   79.6875	   21.3636	    1.2195	8.21747e+06	   79.1563	   21.4542	   1.49016	7.31211e+06	   79.4219	   21.5054	   1.77096	 6.5924e+06	   79.6875	   21.4542	   1.49016	6.85971e+06	   79.4219	   21.3636	    1.2195	 7.6054e+06	
         R10	   4453	    78.625	   21.3636	    1.2195	7.15758e+06	    78.625	   21.5054	   1.77096	6.68819e+06	   79.1563	   21.5054	   1.77096	6.37034e+06	   79.1563	   21.3636	    1.2195	7.85818e+06	    78.625	   21.4542	   1.49016	6.89307e+06	   78.8906	   21.5054	   1.77096	6.52708e+06	   79.1563	   21.4542	   1.49016	7.08447e+06	   78.8906	   21.3636	    1.2195	7.47466e+06	
         R10	   4454	   80.2188	   21.5054	   1.77096	1.38759e+07	   80.2188	      21.5	      2.25	7.21154e+06	     80.75	      21.5	      2.25	6.73177e+06	     80.75	   21.5054	   1.77096	4.88302e+06	   80.2188	   21.5171	   2.01064	1.03307e+07	   80.4844	      21.5	      2.25	6.20217e+06	     80.75	   21.5171	   2.01064	5.65993e+06	   80.4844	   21.5054	   1.77096	8.26021e+06	
         R10	   4455	   79.6875	   21.5054	   1.77096	9.28432e+06	   79.6875	      21.5	      2.25	6.61229e+06	   80.2188	      21.5	      2.25	6.95801e+06	   80.2188	   21.5054	   1.77096	5.14491e+06	   79.6875	   21.5171	   2.01064	7.94639e+06	   79.9531	      21.5	      2.25	6.68573e+06	   80.2188	   21.5171	   2.01064	5.60125e+06	   79.9531	   21.5054	   1.77096	6.99665e+06	
         R10	   4456	   79.1563	   21.5054	   1.77096	7.50413e+06	   79.1563	      21.5	      2.25	6.35753e+06	   79.6875	      21.5	      2.25	6.50661e+06	   79.6875	   21.5054	   1.77096	5.68292e+06	   79.1563	   21.5171	   2.01064	6.93061e+06	   79.4219	      21.5	      2.25	6.43076e+06	   79.6875	   21.5171	   2.01064	6.07218e+06	   79.4219	   21.5054	   1.77096	6.56234e+06	
         R10	   4457	    78.625	   21.5054	   1.77096	6.61632e+06	    78.625	      21.5	      2.25	6.25458e+06	   79.1563	      21.5	      2.25	6.34424e+06	   79.1563	   21.5054	   1.77096	6.55639e+06	    78.625	   21.5171	   2.01064	6.41352e+06	   78.8906	      21.5	      2.25	6.29482e+06	   79.1563	   21.5171	   2.01064	6.44948e+06	   78.8906	   21.5054	   1.77096	  6.578e+06	
         R10	   4458	   79.6875	       8.5	         0	7.80283e+06	    78.625	       8.5	         0	7.58357e+06	    78.625	      9.35	         0	1.77235e+07	   79.6875	      9.35	         0	1.40541e+07	   79.1563	       8.5	         0	7.42662e+06	    78.625	     8.925	         0	1.07644e+07	   79.1563	      9.35	         0	1.57798e+07	   79.6875	     8.925	         0	1.01033e+07	
         R10	   4459	     80.75	       8.5	         0	1.05394e+07	   79.6875	       8.5	         0	8.76558e+06	   79.6875	      9.35	         0	 1.4549e+07	     80.75	      9.35	         0	7.70984e+06	   80.2188	       8.5	         0	9.37326e+06	   79.6875	     8.925	         0	1.08555e+07	   80.2188	      9.35	         0	1.11215e+07	     80.75	     8.925	         0	 9.0125e+06	
         R10	   4460	   79.6875	      9.35	         0	 9.1019e+06	    78.625	      9.35	         0	9.65866e+06	    78.625	      10.2	         0	1.26216e+07	   79.6875	      10.2	         0	1.20576e+07	   79.1563	      9.35	         0	8.90882e+06	    78.625	     9.775	         0	1.01825e+07	   79.1563	      10.2	         0	1.20946e+07	   79.6875	     9.775	         0	 9.2919e+06	
         R10	   4461	     80.75	      9.35	         0	8.12688e+06	   79.6875	      9.35	         0	1.08516e+07	   79.6875	      10.2	         0	1.23825e+07	     80.75	      10.2	         0	8.07636e+06	   80.2188	      9.35	         0	8.60018e+06	   79.6875	     9.775	         0	1.02896e+07	   80.2188	      10.2	         0	1.00802e+07	     80.75	     9.775	         0	8.09716e+06	
         R10	   4462	   79.6875	      10.2	         0	1.07021e+07	    78.625	      10.2	         0	1.16796e+07	    78.625	     11.05	         0	1.03705e+07	   79.3034	     11.05	         0	 1.0489e+07	   79.1563	      10.2	         0	1.11004e+07	    78.625	    10.625	         0	1.09603e+07	   78.9642	     11.05	         0	1.02795e+07	   79.4955	    10.625	         0	1.01565e+07	
         R10	   4463	   79.6875	      10.2	         0	1.10069e+07	   80.0118	     11.05	         0	1.10026e+07	     80.75	     11.05	         0	 7.9631e+06	     80.75	      10.2	         0	7.68564e+06	   79.8496	    10.625	         0	 9.9031e+06	   80.3809	     11.05	         0	9.27276e+06	     80.75	    10.625	         0	7.81742e+06	   80.2188	      10.2	         0	8.86143e+06	
         R10	   4464	   79.6875	      10.2	         0	 8.8518e+06	   79.3034	     11.05	         0	1.13799e+07	   80.0118	     11.05	         0	1.10075e+07	   79.4955	    10.625	         0	9.41203e+06	   79.6576	     11.05	         0	1.10911e+07	   79.8496	    10.625	         0	8.87688e+06	       N/A	       N/A	       N/A	        N/A	       N/A	       N/A	       N/A	        N/A	
         R10	   4465	     75.65	      9.35	         0	1.28927e+07	      76.5	      9.35	         0	8.75681e+06	      76.5	       8.5	         0	9.90595e+06	     75.65	       8.5	         0	9.70218e+06	    76.075	      9.35	         0	1.05634e+07	      76.5	     8.925	         0	9.07834e+06	    76.075	       8.5	         0	9.65902e+06	     75.65	     8.925	         0	 1.0537e+07	
         R10	   4466	      74.8	      9.35	         0	1.27786e+07	     75.65	      9.35	         0	1.24511e+07	     75.65	       8.5	         0	 7.7635e+06	      74.8	       8.5	         0	9.70028e+06	    75.225	      9.35	         0	1.24966e+07	     75.65	     8.925	         0	9.23103e+06	    75.225	       8.5	         0	8.50586e+06	      74.8	     8.925	         0	1.09184e+07	
         R10	   4467	     73.95	      9.35	         0	1.29101e+07	      74.8	      9.35	         0	1.30881e+07	      74.8	       8.5	         0	1.00445e+07	     73.95	       8.5	         0	1.00688e+07	    74.375	      9.35	         0	1.29775e+07	      74.8	     8.925	         0	1.12573e+07	    74.375	       8.5	         0	1.00343e+07	     73.95	     8.925	         0	1.12052e+07	
         R10	   4468	      73.1	      9.35	         0	1.23358e+07	     73.95	      9.35	         0	1.25851e+07	     73.95	       8.5	         0	9.77798e+06	      73.1	       8.5	         0	7.44489e+06	    73.525	      9.35	         0	1.23384e+07	     73.95	     8.925	         0	1.08822e+07	    73.525	       8.5	         0	8.40588e+06	      73.1	     8.925	         0	9.02796e+06	
         R10	   4469	     72.25	      9.35	         0	7.65776e+06	      73.1	      9.35	         0	 1.2759e+07	      73.1	       8.5	         0	9.23135e+06	     72.25	       8.5	         0	1.03106e+07	    72.675	      9.35	         0	1.01199e+07	      73.1	     8.925	         0	1.02857e+07	    72.675	       8.5	         0	9.58122e+06	     72.25	     8.925	         0	8.90301e+06	
         R10	   4470	     75.65	      10.2	         0	1.18898e+07	      76.5	      10.2	         0	8.22188e+06	      76.5	      9.35	         0	8.19584e+06	     75.65	      9.35	         0	1.11244e+07	    76.075	      10.2	         0	9.82629e+06	      76.5	     9.775	         0	8.20422e+06	    76.075	      9.35	         0	9.09085e+06	     75.65	     9.775	         0	1.02877e+07	
         R10	   4471	      74.8	      10.2	         0	1.12594e+07	     75.65	      10.2	         0	1.12124e+07	     75.65	      9.35	         0	1.03004e+07	      74.8	      9.35	         0	9.91187e+06	    75.225	      10.2	         0	 1.0981e+07	     75.65	     9.775	         0	9.49067e+06	    75.225	      9.35	         0	9.85822e+06	      74.8	     9.775	         0	1.05229e+07	
         R10	   4472	     73.95	      10.2	         0	1.13879e+07	      74.8	      10.2	         0	1.14375e+07	      74.8	      9.35	         0	 1.0524e+07	     73.95	      9.35	         0	1.05005e+07	    74.375	      10.2	         0	1.13735e+07	      74.8	     9.775	         0	1.09074e+07	    74.375	      9.35	         0	1.04867e+07	     73.95	     9.775	         0	 1.0875e+07	
         R10	   4473	      73.1	      10.2	         0	1.12081e+07	     73.95	      10.2	         0	 1.1205e+07	     73.95	      9.35	         0	9.90869e+06	      73.1	      9.35	         0	9.86519e+06	    73.525	      10.2	         0	1.09641e+07	     73.95	     9.775	         0	1.04998e+07	    73.525	      9.35	         0	9.68645e+06	      73.1	     9.775	         0	9.36917e+06	
         R10	   4474	     72.25	      10.2	         0	8.08705e+06	      73.1	      10.2	         0	1.17363e+07	      73.1	      9.35	         0	1.08891e+07	     72.25	      9.35	         0	7.87535e+06	    72.675	      10.2	         0	9.73237e+06	      73.1	     9.775	         0	1.01175e+07	    72.675	      9.35	         0	8.82946e+06	     72.25	     9.775	         0	7.97184e+06	
         R10	   4475	   75.6646	     11.05	         0	1.13179e+07	      76.5	     11.05	         0	8.62494e+06	      76.5	      10.2	         0	7.74622e+06	     75.65	      10.2	         0	1.08477e+07	   76.0823	     11.05	         0	9.75675e+06	      76.5	    10.625	         0	8.16934e+06	    76.075	      10.2	         0	8.95328e+06	   75.6573	    10.625	         0	1.01212e+07	
         R10	   4476	   74.8218	     11.05	         0	1.07017e+07	   75.6646	     11.05	         0	1.08402e+07	     75.65	      10.2	         0	1.04016e+07	      74.8	      10.2	         0	1.14125e+07	   75.2432	     11.05	         0	1.04809e+07	   75.6573	    10.625	         0	9.61086e+06	    75.225	      10.2	         0	1.07592e+07	   74.8109	    10.625	         0	1.10109e+07	
         R10	   4477	   73.9718	     11.05	         0	1.11514e+07	   74.8218	     11.05	         0	1.09985e+07	      74.8	      10.2	         0	1.14931e+07	     73.95	      10.2	         0	1.13763e+07	   74.3969	     11.05	         0	1.10074e+07	   74.8109	    10.625	         0	1.11962e+07	    74.375	      10.2	         0	1.14265e+07	   73.9609	    10.625	         0	1.12171e+07	
         R10	   4478	   73.1146	     11.05	         0	1.11387e+07	   73.9718	     11.05	         0	1.09179e+07	     73.95	      10.2	         0	1.12893e+07	      73.1	      10.2	         0	1.00123e+07	   73.5432	     11.05	         0	1.08024e+07	   73.9609	    10.625	         0	1.10574e+07	    73.525	      10.2	         0	1.05263e+07	   73.1073	    10.625	         0	9.67233e+06	
         R10	   4479	     72.25	     11.05	         0	7.99138e+06	   73.1146	     11.05	         0	1.18152e+07	      73.1	      10.2	         0	1.03109e+07	     72.25	      10.2	         0	7.78445e+06	   72.6823	     11.05	         0	9.77933e+06	   73.1073	    10.625	         0	1.02369e+07	    72.675	      10.2	         0	8.63781e+06	     72.25	    10.625	         0	7.87578e+06	
         R10	   4480	   77.5625	      9.35	         0	1.33057e+07	    78.625	      9.35	         0	1.77365e+07	    78.625	       8.5	         0	7.52857e+06	   77.5625	       8.5	         0	8.05604e+06	   78.0938	      9.35	         0	1.53598e+07	    78.625	     8.925	         0	 1.0753e+07	   78.0938	       8.5	         0	7.40775e+06	   77.5625	     8.925	         0	1.00945e+07	
         R10	   4481	      76.5	      9.35	         0	8.69162e+06	   77.5625	      9.35	         0	1.36787e+07	   77.5625	       8.5	         0	8.97071e+06	      76.5	       8.5	         0	9.61259e+06	   77.0313	      9.35	         0	1.11301e+07	   77.5625	     8.925	         0	1.07138e+07	   77.0313	       8.5	         0	9.21431e+06	      76.5	     8.925	         0	8.86724e+06	
         R10	   4482	   77.5625	      10.2	         0	1.17297e+07	    78.625	      10.2	         0	1.25792e+07	    78.625	      9.35	         0	9.73671e+06	   77.5625	      9.35	         0	9.62374e+06	   78.0938	      10.2	         0	1.19044e+07	    78.625	     9.775	         0	1.01976e+07	   78.0938	      9.35	         0	9.13375e+06	   77.5625	     9.775	         0	9.51455e+06	
         R10	   4483	      76.5	      10.2	         0	8.16768e+06	   77.5625	      10.2	         0	 1.2122e+07	   77.5625	      9.35	         0	1.08857e+07	      76.5	      9.35	         0	8.29355e+06	   77.0313	      10.2	         0	9.98292e+06	   77.5625	     9.775	         0	 1.0377e+07	   77.0313	      9.35	         0	8.93529e+06	      76.5	     9.775	         0	8.20527e+06	
         R10	   4484	   77.9344	     11.05	         0	1.05913e+07	    78.625	     11.05	         0	1.04205e+07	    78.625	      10.2	         0	1.16645e+07	   77.5625	      10.2	         0	1.08533e+07	   78.2797	     11.05	         0	1.03556e+07	    78.625	    10.625	         0	1.09773e+07	   78.0938	      10.2	         0	1.11775e+07	   77.7485	    10.625	         0	1.03301e+07	
         R10	   4485	      76.5	      10.2	         0	7.68695e+06	      76.5	     11.05	         0	8.53827e+06	   77.2261	     11.05	         0	1.09141e+07	   77.5625	      10.2	         0	1.12027e+07	      76.5	    10.625	         0	 8.1079e+06	   76.8631	     11.05	         0	9.51642e+06	   77.3943	    10.625	         0	1.01192e+07	   77.0313	      10.2	         0	9.05182e+06	
         R10	   4486	   77.2261	     11.05	         0	1.11096e+07	   77.9344	     11.05	         0	1.13735e+07	   77.5625	      10.2	         0	9.19711e+06	   77.5803	     11.05	         0	1.11442e+07	   77.7485	    10.625	         0	9.65866e+06	   77.3943	    10.625	         0	9.21203e+06	       N/A	       N/A	       N/A	        N/A	       N/A	       N/A	       N/A	        N/A	
         R10	   4487	    74.375	   15.5055	   2.59991	6.79966e+06	    74.375	      15.3	       2.4	7.53539e+06	   74.0696	      15.3	       2.4	7.13227e+06	   74.0613	   15.5773	   2.66983	7.05104e+06	    74.375	   15.4027	   2.49995	7.14286e+06	   74.2223	      15.3	       2.4	 7.3008e+06	   74.0655	   15.4387	   2.53492	7.02169e+06	   74.2181	   15.5414	   2.63487	6.89322e+06	
         R10	   4488	   74.0696	   15.9164	   2.99973	 6.4594e+06	    74.375	   15.9164	   2.99973	6.71837e+06	    74.375	   15.7109	   2.79982	7.06919e+06	   74.0613	   15.5773	   2.66983	6.69416e+06	   74.2223	   15.9164	   2.99973	6.58707e+06	    74.375	   15.8137	   2.89977	6.88058e+06	   74.2181	   15.6441	   2.73483	6.87301e+06	   74.0655	   15.7469	   2.83478	 6.5386e+06	
         R10	   4489	   73.6137	   15.9164	   2.99973	6.03876e+06	   74.0696	   15.9164	   2.99973	6.31099e+06	   74.0613	   15.5773	   2.66983	7.32282e+06	   73.6403	   15.5787	   2.67114	7.04574e+06	   73.8416	   15.9164	   2.99973	6.16351e+06	   74.0655	   15.7469	   2.83478	6.78873e+06	   73.8508	    15.578	   2.67049	 7.1594e+06	    73.627	   15.7475	   2.83543	6.41595e+06	
         R10	   4490	   73.0071	      15.3	       2.4	6.21588e+06	     72.25	      15.3	       2.4	 7.2171e+06	     72.25	   15.9164	   2.99973	6.82953e+06	   73.0071	   15.9164	   2.99973	 6.4598e+06	   72.6286	      15.3	       2.4	6.60952e+06	     72.25	   15.6082	   2.69986	7.01989e+06	   72.6286	   15.9164	   2.99973	6.00812e+06	   73.0071	   15.6082	   2.69986	5.84864e+06	
         R10	   4491	   73.6403	   15.5787	   2.67114	7.11587e+06	   74.0613	   15.5773	   2.66983	7.00905e+06	   74.0696	      15.3	       2.4	7.02017e+06	   73.6137	      15.3	       2.4	7.01506e+06	   73.8508	    15.578	   2.67049	7.04876e+06	   74.0655	   15.4387	   2.53492	 6.9347e+06	   73.8416	      15.3	       2.4	6.92031e+06	    73.627	   15.4393	   2.53557	6.85555e+06	
         R10	   4492	   73.0071	   15.9164	   2.99973	5.89695e+06	   73.6137	   15.9164	   2.99973	6.30025e+06	   73.6403	   15.5787	   2.67114	6.41009e+06	   73.0071	      15.3	       2.4	7.45755e+06	   73.3104	   15.9164	   2.99973	6.02745e+06	    73.627	   15.7475	   2.83543	6.23298e+06	   73.3237	   15.4393	   2.53557	6.92409e+06	   73.0071	   15.6082	   2.69986	6.65304e+06	
         R10	   4493	    74.375	   15.7109	   2.79982	7.25149e+06	    74.375	   15.5055	   2.59991	6.76407e+06	   74.0613	   15.5773	   2.66983	6.83748e+06	    74.375	   15.6082	   2.69986	7.00708e+06	   74.2181	   15.5414	   2.63487	6.79749e+06	   74.2181	   15.6441	   2.73483	 7.0416e+06	       N/A	       N/A	       N/A	        N/A	       N/A	       N/A	       N/A	        N/A	
         R10	   4494	   73.6403	   15.5787	   2.67114	7.40112e+06	   73.6137	      15.3	       2.4	 6.0578e+06	   73.0071	      15.3	       2.4	7.05795e+06	    73.627	   15.4393	   2.53557	6.48359e+06	   73.3104	      15.3	       2.4	6.47729e+06	   73.3237	   15.4393	   2.53557	7.15903e+06	       N/A	       N/A	       N/A	        N/A	       N/A	       N/A	       N/A	        N/A	
         R10	   4495	    73.053	     19.83	         6	9.28249e+06	     72.25	     19.83	         6	1.19361e+07	     72.25	        19	         6	1.04975e+07	   73.0267	        19	         6	9.62323e+06	   72.6515	     19.83	         6	1.05665e+07	     72.25	    19.415	         6	1.11786e+07	   72.6383	        19	         6	9.99911e+06	   73.0398	    19.415	         6	9.43543e+06	
         R10	   4496	   73.7907	     19.83	         6	5.83984e+06	    73.053	     19.83	         6	9.76491e+06	   73.0267	        19	         6	7.55174e+06	   73.7468	        19	         6	5.40506e+06	   73.4218	     19.83	         6	7.70848e+06	   73.0398	    19.415	         6	8.62851e+06	   73.3867	        19	         6	6.42103e+06	   73.7687	    19.415	         6	5.61154e+06	
         R10	   4497	   74.4631	     19.83	         6	 3.7677e+06	   73.7907	     19.83	         6	6.25592e+06	   73.7468	        19	         6	5.62649e+06	   74.4105	        19	         6	6.33275e+06	   74.1269	     19.83	         6	4.86602e+06	   73.7687	    19.415	         6	5.89812e+06	   74.0786	        19	         6	5.94876e+06	   74.4368	    19.415	         6	4.99819e+06	
         R10	   4498	   75.0702	     19.83	         6	2.97079e+06	   74.4631	     19.83	         6	4.20022e+06	   74.4105	        19	         6	5.71322e+06	   75.0176	        19	         6	6.09509e+06	   74.7667	     19.83	         6	3.37969e+06	   74.4368	    19.415	         6	4.88971e+06	    74.714	        19	         6	5.86156e+06	   75.0439	    19.415	         6	4.44061e+06	
         R10	   4499	   75.6121	     19.83	         6	4.00449e+06	   75.0702	     19.83	         6	 3.0161e+06	   75.0176	        19	         6	5.60805e+06	   75.5682	        19	         6	5.61081e+06	   75.3412	     19.83	         6	3.23014e+06	   75.0439	    19.415	         6	4.24418e+06	   75.2929	        19	         6	 5.5973e+06	   75.5902	    19.415	         6	4.61623e+06	
         R10	   4500	   76.0632	   19.4278	         6	7.23907e+06	   76.0624	        19	         6	6.68415e+06	      76.5	        19	         6	1.24321e+07	      76.5	   19.4348	         6	9.59792e+06	   76.0628	   19.2139	         6	6.72536e+06	   76.2812	        19	         6	8.05749e+06	      76.5	   19.2174	         6	1.03763e+07	   76.2816	   19.4313	         6	8.07553e+06	
         R10	   4501	   76.0632	   19.4278	         6	5.72337e+06	      76.5	   19.4348	         6	 1.0511e+07	      76.5	     19.83	         6	6.83021e+06	   76.0887	     19.83	         6	6.73266e+06	   76.2816	   19.4313	         6	7.72686e+06	      76.5	   19.6324	         6	 8.5471e+06	   76.2943	     19.83	         6	6.69734e+06	    76.076	   19.6289	         6	6.07445e+06	
         R10	   4502	   75.5682	        19	         6	5.55035e+06	   76.0632	   19.4278	         6	5.71373e+06	   76.0887	     19.83	         6	6.37871e+06	   75.6121	     19.83	         6	4.00923e+06	   75.8158	   19.2139	         6	5.40047e+06	    76.076	   19.6289	         6	5.91071e+06	   75.8504	     19.83	         6	5.02783e+06	   75.5902	    19.415	         6	4.63674e+06	
         R10	   4503	   76.0624	        19	         6	6.95201e+06	   76.0632	   19.4278	         6	6.45011e+06	   75.5682	        19	         6	4.05205e+06	   76.0628	   19.2139	         6	6.27662e+06	   75.8158	   19.2139	         6	5.10781e+06	   75.8153	        19	         6	 5.4396e+06	       N/A	       N/A	       N/A	        N/A	       N/A	       N/A	       N/A	        N/A	
         R10	   4504	    73.025	     20.66	         6	8.40445e+06	     72.25	     20.66	         6	1.05802e+07	     72.25	     19.83	         6	1.12981e+07	    73.053	     19.83	         6	7.63609e+06	   72.6375	     20.66	         6	9.39299e+06	     72.25	    20.245	         6	1.08886e+07	   72.6515	     19.83	         6	9.44775e+06	    73.039	    20.245	         6	8.01269e+06	
         R10	   4505	    73.744	     20.66	         6	5.06646e+06	    73.025	     20.66	         6	 9.8986e+06	    73.053	     19.83	         6	7.60968e+06	   73.7907	     19.83	         6	5.33516e+06	   73.3845	     20.66	         6	7.43806e+06	    73.039	    20.245	         6	8.74433e+06	   73.4218	     19.83	         6	6.37907e+06	   73.7673	    20.245	         6	5.13948e+06	
         R10	   4506	   74.4071	     20.66	         6	 2.9255e+06	    73.744	     20.66	         6	6.12951e+06	   73.7907	     19.83	         6	5.96986e+06	   74.4631	     19.83	         6	 4.3937e+06	   74.0755	     20.66	         6	 4.4493e+06	   73.7673	    20.245	         6	6.00321e+06	   74.1269	     19.83	         6	5.03762e+06	   74.4351	    20.245	         6	3.51551e+06	
         R10	   4507	   75.0142	     20.66	         6	 1.8461e+06	   74.4071	     20.66	         6	3.23839e+06	   74.4631	     19.83	         6	4.77875e+06	   75.0702	     19.83	         6	 3.8529e+06	   74.7107	     20.66	         6	2.27922e+06	   74.4351	    20.245	         6	3.89013e+06	   74.7667	     19.83	         6	4.14406e+06	   75.0422	    20.245	         6	2.68963e+06	
         R10	   4508	   75.5654	     20.66	         6	3.08037e+06	   75.0142	     20.66	         6	1.81334e+06	   75.0702	     19.83	         6	3.89264e+06	   75.6121	     19.83	         6	3.78713e+06	   75.2898	     20.66	         6	2.15546e+06	   75.0422	    20.245	         6	 2.6945e+06	   75.3412	     19.83	         6	3.64704e+06	   75.5888	    20.245	         6	3.22135e+06	
         R10	   4509	   76.0887	    20.274	         6	4.86423e+06	   76.0887	     19.83	         6	4.84406e+06	      76.5	     19.83	         6	8.82509e+06	      76.5	   20.2252	         6	7.49278e+06	   76.0887	    20.052	         6	4.52527e+06	   76.2943	     19.83	         6	6.37503e+06	      76.5	   20.0276	         6	7.82753e+06	   76.2943	   20.2496	         6	6.03974e+06	
         R10	   4510	   76.0887	    20.274	         6	4.58696e+06	      76.5	   20.2252	         6	6.87506e+06	      76.5	     20.66	         6	5.92154e+06	   76.0607	     20.66	         6	5.25379e+06	   76.2943	   20.2496	         6	5.54714e+06	      76.5	   20.4426	         6	6.32443e+06	   76.2803	     20.66	         6	5.53433e+06	   76.0747	    20.467	         6	4.84542e+06	
         R10	   4511	   75.6121	     19.83	         6	3.56578e+06	   76.0887	    20.274	         6	4.82153e+06	   76.0607	     20.66	         6	4.95256e+06	   75.5654	     20.66	         6	3.09942e+06	   75.8504	    20.052	         6	3.99795e+06	   76.0747	    20.467	         6	4.81455e+06	   75.8131	     20.66	         6	3.98831e+06	   75.5888	    20.245	         6	3.08618e+06	
         R10	   4512	   76.0887	     19.83	         6	4.97581e+06	   76.0887	    20.274	         6	5.56656e+06	   75.6121	     19.83	         6	3.85235e+06	   76.0887	    20.052	         6	 4.9847e+06	   75.8504	    20.052	         6	4.00225e+06	   75.8504	     19.83	         6	4.26807e+06	       N/A	       N/A	       N/A	        N/A	       N/A	       N/A	       N/A	        N/A	
         R10	   4513	   72.9702	      21.5	         6	9.16683e+06	     72.25	      21.5	         6	8.79857e+06	     72.25	     20.66	         6	1.02136e+07	    73.025	     20.66	         6	6.94898e+06	   72.6101	      21.5	         6	8.72891e+06	     72.25	     21.08	         6	9.30407e+06	   72.6375	     20.66	         6	8.46871e+06	   72.9976	     21.08	         6	7.80954e+06	
         R10	   4514	   73.6528	      21.5	         6	5.69349e+06	   72.9702	      21.5	         6	5.20028e+06	    73.025	     20.66	         6	9.30798e+06	    73.744	     20.66	         6	4.93383e+06	   73.3115	      21.5	         6	5.42642e+06	   72.9976	     21.08	         6	7.06138e+06	   73.3845	     20.66	         6	7.02122e+06	   73.6984	     21.08	         6	5.07183e+06	
         R10	   4515	   74.2976	      21.5	         6	3.72398e+06	   73.6528	      21.5	         6	3.31809e+06	    73.744	     20.66	         6	5.82165e+06	   74.4071	     20.66	         6	3.47642e+06	   73.9752	      21.5	         6	3.48474e+06	   73.6984	     21.08	         6	4.38073e+06	   74.0755	     20.66	         6	4.59352e+06	   74.3524	     21.08	         6	 3.4315e+06	
         R10	   4516	   74.9048	      21.5	         6	2.00951e+06	   74.2976	      21.5	         6	1.71577e+06	   74.4071	     20.66	         6	3.65509e+06	   75.0142	     20.66	         6	2.19342e+06	   74.6012	      21.5	         6	1.83997e+06	   74.3524	     21.08	         6	2.55408e+06	   74.7107	     20.66	         6	2.77906e+06	   74.9595	     21.08	         6	1.83547e+06	
         R10	   4517	   75.4742	      21.5	         6	1.01934e+06	   74.9048	      21.5	         6	     755943	   75.0142	     20.66	         6	2.23493e+06	   75.5654	     20.66	         6	2.69386e+06	   75.1895	      21.5	         6	     748041	   74.9595	     21.08	         6	1.41656e+06	   75.2898	     20.66	         6	2.21229e+06	   75.5198	     21.08	         6	1.49626e+06	
         R10	   4518	   76.0607	   21.1273	         6	3.87721e+06	   76.0607	     20.66	         6	3.82349e+06	      76.5	     20.66	         6	4.55253e+06	      76.5	     21.06	         6	4.26907e+06	   76.0607	   20.8936	         6	3.80247e+06	   76.2803	     20.66	         6	4.18479e+06	      76.5	     20.86	         6	4.29167e+06	   76.2803	   21.0936	         6	4.02612e+06	
         R10	   4519	   76.0607	   21.1273	         6	3.50287e+06	      76.5	     21.06	         6	4.52961e+06	      76.5	      21.5	         6	4.56015e+06	    76.006	      21.5	         6	3.65382e+06	   76.2803	   21.0936	         6	4.00242e+06	      76.5	     21.28	         6	4.25323e+06	    76.253	      21.5	         6	3.93674e+06	   76.0333	   21.3136	         6	3.48801e+06	
         R10	   4520	   75.5654	     20.66	         6	 2.4863e+06	   76.0607	   21.1273	         6	4.04808e+06	    76.006	      21.5	         6	2.19892e+06	   75.4742	      21.5	         6	2.04424e+06	   75.8131	   20.8936	         6	3.25004e+06	   76.0333	   21.3136	         6	2.63984e+06	   75.7401	      21.5	         6	1.65978e+06	   75.5198	     21.08	         6	2.25226e+06	
         R10	   4521	   76.0607	     20.66	         6	3.70134e+06	   76.0607	   21.1273	         6	4.06875e+06	   75.5654	     20.66	         6	2.41745e+06	   76.0607	   20.8936	         6	3.83117e+06	   75.8131	   20.8936	         6	3.07277e+06	   75.8131	     20.66	         6	2.99853e+06	       N/A	       N/A	       N/A	        N/A	       N/A	       N/A	       N/A	        N/A	
         R10	   4522	   76.9503	     19.83	         6	8.15753e+06	      76.5	     19.83	         6	1.13113e+07	      76.5	   19.4348	         6	9.72088e+06	   76.9391	     19.42	         6	8.06633e+06	   76.7251	     19.83	         6	9.63302e+06	      76.5	   19.6324	         6	 1.0465e+07	   76.7196	   19.4274	         6	8.78288e+06	   76.9447	    19.625	         6	8.05926e+06	
         R10	   4523	   76.9391	     19.42	         6	9.24974e+06	      76.5	   19.4348	         6	1.18041e+07	      76.5	        19	         6	1.28736e+07	   77.0003	        19	         6	6.56979e+06	   76.7196	   19.4274	         6	1.04445e+07	      76.5	   19.2174	         6	1.19984e+07	   76.7502	        19	         6	8.54515e+06	   76.9697	     19.21	         6	7.65555e+06	
         R10	   4524	   78.0628	        19	         6	6.28182e+06	    78.625	        19	         6	4.34331e+06	    78.625	   19.3952	         6	 4.3285e+06	   78.1582	   19.4112	         6	4.08088e+06	   78.3439	        19	         6	5.18788e+06	    78.625	   19.1976	         6	4.33506e+06	   78.3916	   19.4032	         6	4.08995e+06	   78.1105	   19.2056	         6	5.12275e+06	
         R10	   4525	   78.1582	   19.4112	         6	4.41896e+06	    78.625	   19.3952	         6	3.28395e+06	    78.625	     19.83	         6	3.93964e+06	   78.0128	     19.83	         6	3.70209e+06	   78.3916	   19.4032	         6	3.80383e+06	    78.625	   19.6126	         6	3.59808e+06	   78.3189	     19.83	         6	 3.6567e+06	   78.0855	   19.6206	         6	3.99992e+06	
         R10	   4526	   77.4545	     19.83	         6	4.81124e+06	   76.9391	     19.42	         6	8.20375e+06	   77.0003	        19	         6	6.28711e+06	   77.5212	        19	         6	4.97654e+06	   77.1968	    19.625	         6	6.46451e+06	   76.9697	     19.21	         6	6.96832e+06	   77.2608	        19	         6	5.60945e+06	   77.4879	    19.415	         6	4.87268e+06	
         R10	   4527	   77.5212	        19	         6	5.63052e+06	   78.1582	   19.4112	         6	3.57708e+06	   78.0128	     19.83	         6	 3.6286e+06	   77.4545	     19.83	         6	5.16265e+06	   77.8397	   19.2056	         6	4.59676e+06	   78.0855	   19.6206	         6	 3.5834e+06	   77.7337	     19.83	         6	4.27698e+06	   77.4879	    19.415	         6	5.21323e+06	
         R10	   4528	   77.4545	     19.83	         6	5.06215e+06	   76.9503	     19.83	         6	8.12027e+06	   76.9391	     19.42	         6	7.06049e+06	   77.2024	     19.83	         6	6.51161e+06	   76.9447	    19.625	         6	7.57576e+06	   77.1968	    19.625	         6	6.00805e+06	       N/A	       N/A	       N/A	        N/A	       N/A	       N/A	       N/A	        N/A	
         R10	   4529	   77.5212	        19	         6	6.37288e+06	   78.0628	        19	         6	5.18861e+06	   78.1582	   19.4112	         6	3.05693e+06	    77.792	        19	         6	5.72899e+06	   78.1105	   19.2056	         6	4.08041e+06	   77.8397	   19.2056	         6	4.65174e+06	       N/A	       N/A	       N/A	        N/A	       N/A	       N/A	       N/A	        N/A	
         R10	   4530	   76.9558	     20.66	         6	8.12328e+06	      76.5	     20.66	         6	6.05673e+06	      76.5	   20.2252	         6	1.00426e+07	    76.931	   20.2328	         6	5.23754e+06	   76.7279	     20.66	         6	6.85125e+06	      76.5	   20.4426	         6	7.97557e+06	   76.7155	    20.229	         6	7.50971e+06	   76.9434	   20.4464	         6	6.47102e+06	
         R10	   4531	    76.931	   20.2328	         6	 6.1629e+06	      76.5	   20.2252	         6	 8.3653e+06	      76.5	     19.83	         6	8.45849e+06	   76.9503	     19.83	         6	6.00972e+06	   76.7155	    20.229	         6	7.01005e+06	      76.5	   20.0276	         6	8.33435e+06	   76.7251	     19.83	         6	7.22551e+06	   76.9407	   20.0314	         6	 5.9714e+06	
         R10	   4532	   77.4046	   20.2384	         6	4.64811e+06	    76.931	   20.2328	         6	6.95533e+06	   76.9503	     19.83	         6	6.06031e+06	   77.4545	     19.83	         6	4.39186e+06	   77.1678	   20.2356	         6	5.76926e+06	   76.9407	   20.0314	         6	6.49865e+06	   77.2024	     19.83	         6	5.11412e+06	   77.4296	   20.0342	         6	4.44594e+06	
         R10	   4533	   78.0128	     19.83	         6	 3.3392e+06	    78.625	     19.83	         6	3.48962e+06	    78.625	     20.66	         6	2.36343e+06	   78.0183	     20.66	         6	 2.7028e+06	   78.3189	     19.83	         6	3.30832e+06	    78.625	    20.245	         6	2.91156e+06	   78.3217	     20.66	         6	2.15265e+06	   78.0155	    20.245	         6	2.95235e+06	
         R10	   4534	   77.4619	     20.66	         6	4.63578e+06	   76.9558	     20.66	         6	7.28237e+06	    76.931	   20.2328	         6	5.30189e+06	   77.4046	   20.2384	         6	4.35389e+06	   77.2089	     20.66	         6	5.93963e+06	   76.9434	   20.4464	         6	6.07418e+06	   77.1678	   20.2356	         6	4.63684e+06	   77.4333	   20.4492	         6	4.48846e+06	
         R10	   4535	   78.0128	     19.83	         6	3.46498e+06	   78.0183	     20.66	         6	2.59522e+06	   77.4619	     20.66	         6	4.57248e+06	   77.4046	   20.2384	         6	4.28785e+06	   78.0155	    20.245	         6	2.98571e+06	   77.7401	     20.66	         6	3.49399e+06	   77.4333	   20.4492	         6	4.41976e+06	   77.7087	   20.0342	         6	 3.6703e+06	
         R10	   4536	   77.4046	   20.2384	         6	4.51577e+06	   77.4545	     19.83	         6	4.50748e+06	   78.0128	     19.83	         6	3.68554e+06	   77.4296	   20.0342	         6	 4.4509e+06	   77.7337	     19.83	         6	3.93456e+06	   77.7087	   20.0342	         6	3.71842e+06	       N/A	       N/A	       N/A	        N/A	       N/A	       N/A	       N/A	        N/A	
         R10	   4537	   76.9558	      21.5	         6	5.64942e+06	      76.5	      21.5	         6	6.67796e+06	      76.5	     21.06	         6	6.19313e+06	   76.9302	    21.065	         6	5.78146e+06	   76.7279	      21.5	         6	5.86875e+06	      76.5	     21.28	         6	6.29037e+06	   76.7151	   21.0625	         6	5.81173e+06	    76.943	   21.2825	         6	5.67395e+06	
         R10	   4538	   76.9302	    21.065	         6	5.96272e+06	      76.5	     21.06	         6	6.31718e+06	      76.5	     20.66	         6	6.93425e+06	   76.9558	     20.66	         6	5.07686e+06	   76.7151	   21.0625	         6	6.03898e+06	      76.5	     20.86	         6	 6.4362e+06	   76.7279	     20.66	         6	5.90568e+06	    76.943	   20.8625	         6	5.23683e+06	
         R10	   4539	   77.4007	   21.0707	         6	4.08393e+06	   76.9302	    21.065	         6	6.46187e+06	   76.9558	     20.66	         6	5.10168e+06	   77.4619	     20.66	         6	4.03995e+06	   77.1654	   21.0678	         6	5.25608e+06	    76.943	   20.8625	         6	5.50703e+06	   77.2089	     20.66	         6	4.56072e+06	   77.4313	   20.8654	         6	3.81738e+06	
         R10	   4540	   78.0183	     20.66	         6	2.22106e+06	    78.625	     20.66	         6	2.29042e+06	    78.625	      21.5	         6	2.91404e+06	   78.0183	      21.5	         6	3.10492e+06	   78.3217	     20.66	         6	1.96372e+06	    78.625	     21.08	         6	     489044	   78.3217	      21.5	         6	     847117	   78.0183	     21.08	         6	 2.5675e+06	
         R10	   4541	   77.4619	      21.5	         6	3.63659e+06	   76.9558	      21.5	         6	3.43287e+06	   76.9302	    21.065	         6	5.80619e+06	   77.4007	   21.0707	         6	4.03461e+06	   77.2089	      21.5	         6	3.03735e+06	    76.943	   21.2825	         6	4.34464e+06	   77.1654	   21.0678	         6	4.89575e+06	   77.4313	   21.2854	         6	3.67767e+06	
         R10	   4542	   78.0183	     20.66	         6	2.37081e+06	   78.0183	      21.5	         6	3.25718e+06	   77.4619	      21.5	         6	3.32459e+06	   77.4007	   21.0707	         6	3.74578e+06	   78.0183	     21.08	         6	1.78239e+06	   77.7401	      21.5	         6	1.83412e+06	   77.4313	   21.2854	         6	3.16678e+06	   77.7095	   20.8654	         6	2.89946e+06	
         R10	   4543	   77.4007	   21.0707	         6	 4.5236e+06	   77.4619	     20.66	         6	3.99275e+06	   78.0183	     20.66	         6	2.20915e+06	   77.4313	   20.8654	         6	3.95831e+06	   77.7401	     20.66	         6	3.00273e+06	   77.7095	   20.8654	         6	 3.0103e+06	       N/A	       N/A	       N/A	        N/A	       N/A	       N/A	       N/A	        N/A	
         R10	   4544	   73.1325	        19	      6.85	7.68976e+06	     72.25	        19	      6.85	7.76355e+06	     72.25	        19	       7.7	7.29654e+06	   73.1005	        19	       7.7	3.29356e+06	   72.6913	        19	      6.85	 7.3554e+06	     72.25	        19	     7.275	7.46337e+06	   72.6752	        19	       7.7	5.05045e+06	   73.1165	        19	     7.275	5.41325e+06	
         R10	   4545	   73.9454	        19	      6.85	7.54947e+06	   73.1325	        19	      6.85	7.78461e+06	   73.1005	        19	       7.7	3.26181e+06	   73.8941	        19	       7.7	2.24608e+06	    73.539	        19	      6.85	7.58684e+06	   73.1165	        19	     7.275	5.51439e+06	   73.4973	        19	       7.7	2.39055e+06	   73.9197	        19	     7.275	4.44413e+06	
         R10	   4546	   74.6886	        19	      6.85	 7.0144e+06	   73.9454	        19	      6.85	 7.8149e+06	   73.8941	        19	       7.7	1.93534e+06	   74.6308	        19	       7.7	2.35652e+06	    74.317	        19	      6.85	7.38246e+06	   73.9197	        19	     7.275	4.54186e+06	   74.2625	        19	       7.7	2.11737e+06	   74.6597	        19	     7.275	4.52432e+06	
         R10	   4547	   75.3621	        19	      6.85	6.17015e+06	   74.6886	        19	      6.85	6.98693e+06	   74.6308	        19	       7.7	2.38047e+06	   75.3107	        19	       7.7	3.68478e+06	   75.0253	        19	      6.85	6.55434e+06	   74.6597	        19	     7.275	4.50511e+06	   74.9708	        19	       7.7	2.91211e+06	   75.3364	        19	     7.275	4.92435e+06	
         R10	   4548	   75.9659	        19	      6.85	6.99144e+06	   75.3621	        19	      6.85	6.10602e+06	   75.3107	        19	       7.7	3.71347e+06	   75.9338	        19	       7.7	4.93991e+06	    75.664	        19	      6.85	6.51431e+06	   75.3364	        19	     7.275	4.90845e+06	   75.6223	        19	       7.7	4.27076e+06	   75.9498	        19	     7.275	5.89857e+06	
         R10	   4549	   75.9659	        19	      6.85	6.84066e+06	   75.9338	        19	       7.7	5.05634e+06	      76.5	        19	       7.7	5.26961e+06	      76.5	        19	   7.25476	7.78876e+06	   75.9498	        19	     7.275	5.90572e+06	   76.2169	        19	       7.7	5.15055e+06	      76.5	        19	   7.47738	6.52191e+06	   76.2329	        19	   7.05238	7.25254e+06	
         R10	   4550	      76.5	        19	      6.85	9.65447e+06	   75.9659	        19	      6.85	7.12345e+06	      76.5	        19	   7.25476	5.44765e+06	   76.2329	        19	      6.85	8.31179e+06	   76.2329	        19	   7.05238	6.09828e+06	      76.5	        19	   7.05238	7.48935e+06	       N/A	       N/A	       N/A	        N/A	       N/A	       N/A	       N/A	        N/A	
         R10	   4551	   73.1005	        19	       7.7	7.63416e+06	     72.25	        19	       7.7	 5.9608e+06	     72.25	        19	      8.55	5.86745e+06	   73.0678	        19	      8.55	3.63554e+06	   72.6752	        19	       7.7	6.68857e+06	     72.25	        19	     8.125	5.90705e+06	   72.6589	        19	      8.55	 4.3706e+06	   73.0841	        19	     8.125	5.45851e+06	
         R10	   4552	   73.8941	        19	       7.7	8.20334e+06	   73.1005	        19	       7.7	7.55703e+06	   73.0678	        19	      8.55	 2.7232e+06	   73.8418	        19	      8.55	1.38374e+06	   73.4973	        19	       7.7	7.84418e+06	   73.0841	        19	     8.125	5.11337e+06	   73.4548	        19	      8.55	1.88759e+06	   73.8679	        19	     8.125	4.56924e+06	
         R10	   4553	   74.6308	        19	       7.7	7.62198e+06	   73.8941	        19	       7.7	8.19034e+06	   73.8418	        19	      8.55	1.30857e+06	    74.572	        19	      8.55	1.58116e+06	   74.2625	        19	       7.7	7.90338e+06	   73.8679	        19	     8.125	4.56135e+06	   74.2069	        19	      8.55	1.43683e+06	   74.6014	        19	     8.125	4.49232e+06	
         R10	   4554	   75.3107	        19	       7.7	 6.5815e+06	   74.6308	        19	       7.7	7.64041e+06	    74.572	        19	      8.55	1.59915e+06	   75.2585	        19	      8.55	2.94884e+06	   74.9708	        19	       7.7	7.11076e+06	   74.6014	        19	     8.125	4.51435e+06	   74.9152	        19	      8.55	2.20585e+06	   75.2846	        19	     8.125	4.76192e+06	
         R10	   4555	   75.9338	        19	       7.7	6.11902e+06	   75.3107	        19	       7.7	6.60733e+06	   75.2585	        19	      8.55	2.97532e+06	   75.9011	        19	      8.55	4.39416e+06	   75.6223	        19	       7.7	6.35642e+06	   75.2846	        19	     8.125	 4.7873e+06	   75.5798	        19	      8.55	3.65573e+06	   75.9175	        19	     8.125	5.23814e+06	
         R10	   4556	      76.5	        19	       7.7	6.78698e+06	   75.9338	        19	       7.7	6.17912e+06	   75.9011	        19	      8.55	4.37348e+06	      76.5	        19	      8.55	4.61693e+06	   76.2169	        19	       7.7	6.42131e+06	   75.9175	        19	     8.125	5.25477e+06	   76.2006	        19	      8.55	 4.4909e+06	      76.5	        19	     8.125	5.68429e+06	
         R10	   4557	   73.0678	        19	      8.55	7.60479e+06	     72.25	        19	      8.55	5.14308e+06	     72.25	        19	       9.4	5.21663e+06	   73.0346	        19	       9.4	4.22411e+06	   72.6589	        19	      8.55	6.26446e+06	     72.25	        19	     8.975	5.17071e+06	   72.6423	        19	       9.4	3.91726e+06	   73.0512	        19	     8.975	 5.5844e+06	
         R10	   4558	   73.8418	        19	      8.55	8.20537e+06	   73.0678	        19	      8.55	7.19379e+06	   73.0346	        19	       9.4	2.24415e+06	   73.7887	        19	       9.4	1.45442e+06	   73.4548	        19	      8.55	7.69537e+06	   73.0512	        19	     8.975	4.71162e+06	   73.4117	        19	       9.4	1.65015e+06	   73.8152	        19	     8.975	4.54973e+06	
         R10	   4559	    74.572	        19	      8.55	7.37481e+06	   73.8418	        19	      8.55	8.11558e+06	   73.7887	        19	       9.4	     922220	   74.5123	        19	       9.4	1.49044e+06	   74.2069	        19	      8.55	7.74444e+06	   73.8152	        19	     8.975	4.40285e+06	   74.1505	        19	       9.4	1.14143e+06	   74.5422	        19	     8.975	4.42979e+06	
         R10	   4560	   75.2585	        19	      8.55	5.98242e+06	    74.572	        19	      8.55	7.38064e+06	   74.5123	        19	       9.4	1.54647e+06	   75.2054	        19	       9.4	3.17936e+06	   74.9152	        19	      8.55	6.68001e+06	   74.5422	        19	     8.975	4.44284e+06	   74.8588	        19	       9.4	2.33269e+06	   75.2319	        19	     8.975	4.57938e+06	
         R10	   4561	   75.9011	        19	      8.55	5.22812e+06	   75.2585	        19	      8.55	6.02018e+06	   75.2054	        19	       9.4	 3.2047e+06	   75.8679	        19	       9.4	4.46597e+06	   75.5798	        19	      8.55	5.62257e+06	   75.2319	        19	     8.975	4.60906e+06	   75.5367	        19	       9.4	3.82616e+06	   75.8845	        19	     8.975	4.83124e+06	
         R10	   4562	      76.5	        19	      8.55	6.44726e+06	   75.9011	        19	      8.55	5.24562e+06	   75.8679	        19	       9.4	4.38199e+06	      76.5	        19	       9.4	3.98842e+06	   76.2006	        19	      8.55	5.72469e+06	   75.8845	        19	     8.975	4.78815e+06	    76.184	        19	       9.4	4.15684e+06	      76.5	        19	     8.975	5.04288e+06	
         R10	   4563	   77.0003	        19	      6.85	  7.499e+06	      76.5	        19	      6.85	9.67356e+06	      76.5	        19	   7.25476	5.27116e+06	   76.9535	        19	   7.26483	5.80921e+06	   76.7502	        19	      6.85	8.56004e+06	      76.5	        19	   7.05238	7.44218e+06	   76.7268	        19	    7.2598	5.42679e+06	   76.9769	        19	   7.05742	6.63327e+06	
         R10	   4564	   76.9535	        19	   7.26483	6.93658e+06	      76.5	        19	   7.25476	7.73014e+06	      76.5	        19	       7.7	5.41682e+06	   77.0003	        19	       7.7	4.83321e+06	   76.7268	        19	    7.2598	7.24702e+06	      76.5	        19	   7.47738	6.51058e+06	   76.7502	        19	       7.7	 5.0695e+06	   76.9769	        19	   7.48242	5.88323e+06	
         R10	   4565	   77.4514	        19	   7.27603	5.71595e+06	   76.9535	        19	   7.26483	6.76417e+06	   77.0003	        19	       7.7	4.74497e+06	   77.5212	        19	       7.7	4.83322e+06	   77.2025	        19	   7.27043	6.21317e+06	   76.9769	        19	   7.48242	5.75236e+06	   77.2608	        19	       7.7	 4.7773e+06	   77.4863	        19	   7.48801	 5.2742e+06	
         R10	   4566	   78.0628	        19	       7.7	4.69609e+06	    78.625	        19	       7.7	4.22126e+06	    78.625	        19	      6.85	5.09716e+06	   78.0628	        19	      6.85	 5.1634e+06	   78.3439	        19	       7.7	4.44933e+06	    78.625	        19	     7.275	4.64924e+06	   78.3439	        19	      6.85	5.11654e+06	   78.0628	        19	     7.275	4.89966e+06	
         R10	   4567	   77.5212	        19	      6.85	5.78578e+06	   77.0003	        19	      6.85	7.68365e+06	   76.9535	        19	   7.26483	5.52354e+06	   77.4514	        19	   7.27603	5.30191e+06	   77.2608	        19	      6.85	6.69556e+06	   76.9769	        19	   7.05742	6.59198e+06	   77.2025	        19	   7.27043	5.39515e+06	   77.4863	        19	   7.06301	5.53755e+06	
         R10	   4568	   77.4514	        19	   7.27603	5.75923e+06	   77.5212	        19	       7.7	4.99605e+06	   78.0628	        19	       7.7	4.77374e+06	   78.0628	        19	      6.85	5.23009e+06	   77.4863	        19	   7.48801	5.37595e+06	    77.792	        19	       7.7	4.87737e+06	   78.0628	        19	     7.275	 4.9616e+06	   77.7571	        19	   7.06301	5.45804e+06	
         R10	   4569	   78.0628	        19	      6.85	5.03618e+06	   77.5212	        19	      6.85	5.92826e+06	   77.4514	        19	   7.27603	 5.4469e+06	    77.792	        19	      6.85	5.45179e+06	   77.4863	        19	   7.06301	5.68131e+06	   77.7571	        19	   7.06301	5.20014e+06	       N/A	       N/A	       N/A	        N/A	       N/A	       N/A	       N/A	        N/A	
         R10	   4570	   77.0003	        19	       7.7	6.37021e+06	      76.5	        19	       7.7	 6.6704e+06	      76.5	        19	      8.55	5.14219e+06	   77.1671	        19	      8.55	4.12005e+06	   76.7502	        19	       7.7	6.51853e+06	      76.5	        19	     8.125	5.80515e+06	   76.8335	        19	      8.55	4.58756e+06	   77.0837	        19	     8.125	5.23026e+06	
         R10	   4571	   77.5212	        19	       7.7	5.38856e+06	   77.0003	        19	       7.7	6.41766e+06	   77.1671	        19	      8.55	3.95882e+06	   77.8754	        19	      8.55	3.95121e+06	   77.2608	        19	       7.7	 5.8832e+06	   77.0837	        19	     8.125	5.18629e+06	   77.5212	        19	      8.55	3.95317e+06	   77.6983	        19	     8.125	4.65659e+06	
         R10	   4572	   77.8754	        19	      8.55	3.87285e+06	    78.625	        19	      8.55	2.72587e+06	    78.625	        19	       7.7	5.83184e+06	   78.0628	        19	       7.7	5.10421e+06	   78.2502	        19	      8.55	3.29231e+06	    78.625	        19	     8.125	4.27625e+06	   78.3439	        19	       7.7	5.46621e+06	   77.9691	        19	     8.125	4.47656e+06	
         R10	   4573	   77.5212	        19	       7.7	5.32458e+06	   77.8754	        19	      8.55	3.90401e+06	   78.0628	        19	       7.7	5.08651e+06	   77.6983	        19	     8.125	4.60278e+06	   77.9691	        19	     8.125	4.48797e+06	    77.792	        19	       7.7	5.20202e+06	       N/A	       N/A	       N/A	        N/A	       N/A	       N/A	       N/A	        N/A	
         R10	   4574	   77.1671	        19	      8.55	6.66491e+06	      76.5	        19	      8.55	5.82297e+06	      76.5	        19	       9.4	5.27297e+06	   77.1671	        19	       9.4	 2.6276e+06	   76.8335	        19	      8.55	6.21657e+06	      76.5	        19	     8.975	5.13415e+06	   76.8335	        19	       9.4	3.83569e+06	   77.1671	        19	     8.975	4.64309e+06	
         R10	   4575	   77.8754	        19	      8.55	6.75562e+06	   77.1671	        19	      8.55	6.67585e+06	   77.1671	        19	       9.4	2.66489e+06	   77.8754	        19	       9.4	1.72068e+06	   77.5212	        19	      8.55	6.71148e+06	   77.1671	        19	     8.975	4.65082e+06	   77.5212	        19	       9.4	2.18925e+06	   77.8754	        19	     8.975	4.22276e+06	
         R10	   4576	    78.625	        19	      8.55	7.89391e+06	   77.8754	        19	      8.55	6.71754e+06	   77.8754	        19	       9.4	1.76192e+06	    78.625	        19	       9.4	     629753	   78.2502	        19	      8.55	7.30526e+06	   77.8754	        19	     8.975	 4.1694e+06	   78.2502	        19	       9.4	     922972	    78.625	        19	     8.975	4.04796e+06	
         R10	   4577	    75.582	    17.428	   4.47052	7.77324e+06	    75.582	   17.1492	   4.19918	7.14193e+06	   75.1652	   17.1492	   4.19918	7.00175e+06	   75.1652	   17.4678	   4.50916	7.49912e+06	    75.582	   17.2886	   4.33485	7.39883e+06	   75.3736	   17.1492	   4.19918	7.05562e+06	   75.1652	   17.3085	   4.35417	7.23787e+06	   75.3736	   17.4479	   4.48984	7.59257e+06	
         R10	   4578	   75.9434	   17.3883	   4.43188	8.61459e+06	   75.9434	   17.1492	   4.19918	7.45796e+06	    75.582	   17.1492	   4.19918	7.12529e+06	    75.582	    17.428	   4.47052	7.92085e+06	   75.9434	   17.2687	   4.31553	7.96213e+06	   75.7627	   17.1492	   4.19918	7.27606e+06	    75.582	   17.2886	   4.33485	7.47493e+06	   75.7627	   17.4082	    4.4512	8.25111e+06	
         R10	   4579	   76.2494	   17.3486	   4.39324	8.71358e+06	   76.2494	   17.1492	   4.19918	8.26084e+06	   75.9434	   17.1492	   4.19918	 7.3393e+06	   75.9434	   17.3883	   4.43188	8.40763e+06	   76.2494	   17.2489	   4.29621	8.46169e+06	   76.0964	   17.1492	   4.19918	 7.7974e+06	   75.9434	   17.2687	   4.31553	7.78729e+06	   76.0964	   17.3685	   4.41256	8.44896e+06	
         R10	   4580	      76.5	   17.3254	    4.3707	9.14748e+06	      76.5	   17.1492	   4.19918	1.00334e+07	   76.2494	   17.1492	   4.19918	8.06264e+06	   76.2494	   17.3486	   4.39324	8.64701e+06	      76.5	   17.2373	   4.28494	9.51695e+06	   76.3747	   17.1492	   4.19918	9.03668e+06	   76.2494	   17.2489	   4.29621	8.35321e+06	   76.3747	    17.337	   4.38197	8.78445e+06	
         R10	   4581	    76.193	   17.5309	   4.57061	9.20483e+06	      76.5	   17.5309	   4.57061	9.81629e+06	      76.5	   17.3254	    4.3707	9.68615e+06	   76.2494	   17.3486	   4.39324	8.52991e+06	   76.3465	   17.5309	   4.57061	9.46307e+06	      76.5	   17.4282	   4.47065	9.74202e+06	   76.3747	    17.337	   4.38197	8.99429e+06	   76.2212	   17.4398	   4.48193	8.84933e+06	
         R10	   4582	   76.1769	   17.7655	    4.7989	 8.7957e+06	      76.5	   17.7655	    4.7989	1.04101e+07	      76.5	   17.5309	   4.57061	1.00221e+07	    76.193	   17.5309	   4.57061	8.90731e+06	   76.3384	   17.7655	    4.7989	9.57882e+06	      76.5	   17.6482	   4.68475	1.02009e+07	   76.3465	   17.5309	   4.57061	9.39912e+06	   76.1849	   17.6482	   4.68475	8.83541e+06	
         R10	   4583	   72.9439	   17.1492	   4.19918	6.76212e+06	     72.25	   17.1492	   4.19918	 6.4667e+06	     72.25	   17.7655	    4.7989	6.70111e+06	   72.9894	   17.7655	    4.7989	6.63583e+06	   72.5969	   17.1492	   4.19918	5.91661e+06	     72.25	   17.4573	   4.49904	6.47734e+06	   72.6197	   17.7655	    4.7989	4.83848e+06	   72.9666	   17.4573	   4.49904	6.62574e+06	
         R10	   4584	   73.5823	   17.1492	   4.19918	 7.7475e+06	   72.9439	   17.1492	   4.19918	6.12159e+06	   72.9894	   17.7655	    4.7989	5.29935e+06	   73.6693	   17.7655	    4.7989	5.07436e+06	   73.2631	   17.1492	   4.19918	6.88223e+06	   72.9666	   17.4573	   4.49904	5.66442e+06	   73.3293	   17.7655	    4.7989	  5.064e+06	   73.6258	   17.4573	   4.49904	6.13207e+06	
         R10	   4585	   74.1653	   17.1492	   4.19918	7.63972e+06	   73.5823	   17.1492	   4.19918	7.63641e+06	   73.6693	   17.7655	    4.7989	5.13141e+06	   74.2898	   17.7655	    4.7989	5.45992e+06	   73.8738	   17.1492	   4.19918	7.61397e+06	   73.6258	   17.4573	   4.49904	6.09393e+06	   73.9795	   17.7655	    4.7989	 5.2844e+06	   74.2275	   17.4573	   4.49904	6.45317e+06	
         R10	   4586	    74.693	   17.1492	   4.19918	7.16212e+06	   74.1653	   17.1492	   4.19918	7.61286e+06	   74.2898	   17.7655	    4.7989	5.57724e+06	   74.8507	   17.7655	    4.7989	6.40761e+06	   74.4292	   17.1492	   4.19918	7.36851e+06	   74.2275	   17.4573	   4.49904	6.49279e+06	   74.5703	   17.7655	    4.7989	 5.9616e+06	   74.7719	   17.4573	   4.49904	6.78297e+06	
         R10	   4587	   75.1652	   17.4678	   4.50916	7.03972e+06	   75.1652	   17.1492	   4.19918	7.18676e+06	    74.693	   17.1492	   4.19918	7.12599e+06	   74.8507	   17.7655	    4.7989	6.51794e+06	   75.1652	   17.3085	   4.35417	7.09612e+06	   74.9291	   17.1492	   4.19918	7.13728e+06	   74.7719	   17.4573	   4.49904	6.81915e+06	    75.008	   17.6166	   4.65403	6.75502e+06	
         R10	   4588	    75.582	    17.428	   4.47052	7.38233e+06	   75.1652	   17.4678	   4.50916	7.28475e+06	   74.8507	   17.7655	    4.7989	6.44903e+06	   75.3523	   17.7655	    4.7989	6.94281e+06	   75.3736	   17.4479	   4.48984	 7.2607e+06	    75.008	   17.6166	   4.65403	6.86567e+06	   75.1015	   17.7655	    4.7989	 6.6863e+06	   75.4671	   17.5968	   4.63471	7.14407e+06	
         R10	   4589	   75.9434	   17.3883	   4.43188	8.28717e+06	    75.582	    17.428	   4.47052	  7.528e+06	   75.3523	   17.7655	    4.7989	6.87428e+06	   75.7943	   17.7655	    4.7989	7.43254e+06	   75.7627	   17.4082	    4.4512	7.87752e+06	   75.4671	   17.5968	   4.63471	7.20109e+06	   75.5733	   17.7655	    4.7989	7.13494e+06	   75.8689	   17.5769	   4.61539	7.85589e+06	
         R10	   4590	   75.7943	   17.7655	    4.7989	 7.4539e+06	   76.1769	   17.7655	    4.7989	8.80581e+06	    76.193	   17.5309	   4.57061	8.63472e+06	   75.9434	   17.3883	   4.43188	8.39007e+06	   75.9856	   17.7655	    4.7989	8.10322e+06	   76.1849	   17.6482	   4.68475	8.71875e+06	   76.0682	   17.4596	   4.50125	8.48505e+06	   75.8689	   17.5769	   4.61539	7.91913e+06	
         R10	   4591	    76.193	   17.5309	   4.57061	9.13135e+06	   76.2494	   17.3486	   4.39324	8.52844e+06	   75.9434	   17.3883	   4.43188	 7.9934e+06	   76.2212	   17.4398	   4.48193	8.82903e+06	   76.0964	   17.3685	   4.41256	8.23153e+06	   76.0682	   17.4596	   4.50125	8.53353e+06	       N/A	       N/A	       N/A	        N/A	       N/A	       N/A	       N/A	        N/A	
         R10	   4592	   75.7238	   18.0797	   5.10458	8.79574e+06	   75.7943	   17.7655	    4.7989	7.62973e+06	   75.3523	   17.7655	    4.7989	7.75692e+06	   75.3759	   18.0484	   5.07415	6.19526e+06	   75.7591	   17.9226	   4.95174	 8.1848e+06	   75.5733	   17.7655	    4.7989	7.66467e+06	   75.3641	    17.907	   4.93653	6.97487e+06	   75.5499	   18.0641	   5.08936	7.47865e+06	
         R10	   4593	   76.1261	    18.081	   5.10581	9.66313e+06	   76.1769	   17.7655	    4.7989	8.77311e+06	   75.7943	   17.7655	    4.7989	7.55326e+06	   75.7238	   18.0797	   5.10458	8.17462e+06	   76.1515	   17.9233	   4.95235	9.17511e+06	   75.9856	   17.7655	    4.7989	8.14472e+06	   75.7591	   17.9226	   4.95174	7.77936e+06	    75.925	   18.0803	   5.10519	8.80716e+06	
         R10	   4594	      76.5	   18.0444	   5.07027	1.00129e+07	      76.5	   17.7655	    4.7989	1.10936e+07	   76.1769	   17.7655	    4.7989	8.52121e+06	   76.1261	    18.081	   5.10581	9.43051e+06	      76.5	    17.905	   4.93459	1.05326e+07	   76.3384	   17.7655	    4.7989	 9.7765e+06	   76.1515	   17.9233	   4.95235	8.90844e+06	    76.313	   18.0627	   5.08804	9.55124e+06	
         R10	   4595	   76.1058	   18.3819	   5.39863	8.19717e+06	      76.5	   18.3819	   5.39863	1.14725e+07	      76.5	   18.0444	   5.07027	1.13659e+07	   76.1261	    18.081	   5.10581	9.37251e+06	   76.3029	   18.3819	   5.39863	9.75444e+06	      76.5	   18.2132	   5.23445	1.13432e+07	    76.313	   18.0627	   5.08804	1.01501e+07	   76.1159	   18.2314	   5.25222	8.72445e+06	
         R10	   4596	   75.6406	   18.3819	   5.39863	6.32535e+06	   76.1058	   18.3819	   5.39863	8.12506e+06	   76.1261	    18.081	   5.10581	9.25167e+06	   75.7238	   18.0797	   5.10458	7.74139e+06	   75.8732	   18.3819	   5.39863	7.16003e+06	   76.1159	   18.2314	   5.25222	8.63939e+06	    75.925	   18.0803	   5.10519	8.37486e+06	   75.6822	   18.2308	    5.2516	7.02612e+06	
         R10	   4597	   75.1044	   18.3819	   5.39863	6.21552e+06	   75.6406	   18.3819	   5.39863	6.35055e+06	   75.7238	   18.0797	   5.10458	7.92207e+06	   75.3759	   18.0484	   5.07415	6.66225e+06	   75.3725	   18.3819	   5.39863	6.26306e+06	   75.6822	   18.2308	    5.2516	 7.1302e+06	   75.5499	   18.0641	   5.08936	7.26818e+06	   75.2402	   18.2152	   5.23639	6.40394e+06	
         R10	   4598	   72.9894	   17.7655	    4.7989	 7.7879e+06	     72.25	   17.7655	    4.7989	9.19619e+06	     72.25	   18.3819	   5.39863	7.41263e+06	   73.0701	   18.3819	   5.39863	6.80996e+06	   72.6197	   17.7655	    4.7989	7.36101e+06	     72.25	   18.0737	   5.09876	8.14007e+06	     72.66	   18.3819	   5.39863	6.21546e+06	   73.0297	   18.0737	   5.09876	7.23721e+06	
         R10	   4599	   73.6693	   17.7655	    4.7989	8.92339e+06	   72.9894	   17.7655	    4.7989	7.29369e+06	   73.0701	   18.3819	   5.39863	5.33863e+06	   73.8192	   18.3819	   5.39863	5.39223e+06	   73.3293	   17.7655	    4.7989	8.07983e+06	   73.0297	   18.0737	   5.09876	6.27197e+06	   73.4446	   18.3819	   5.39863	5.06353e+06	   73.7442	   18.0737	   5.09876	6.58185e+06	
         R10	   4600	   74.2898	   17.7655	    4.7989	 8.0468e+06	   73.6693	   17.7655	    4.7989	8.90257e+06	   73.8192	   18.3819	   5.39863	5.21163e+06	   74.4973	   18.3819	   5.39863	5.34651e+06	   73.9795	   17.7655	    4.7989	 8.4625e+06	   73.7442	   18.0737	   5.09876	6.48856e+06	   74.1582	   18.3819	   5.39863	5.26632e+06	   74.3935	   18.0737	   5.09876	 6.3971e+06	
         R10	   4601	   74.8507	   17.7655	    4.7989	7.15013e+06	   74.2898	   17.7655	    4.7989	8.18994e+06	   74.4973	   18.3819	   5.39863	5.42609e+06	   75.1044	   18.3819	   5.39863	6.11443e+06	   74.5703	   17.7655	    4.7989	7.64328e+06	   74.3935	   18.0737	   5.09876	6.52027e+06	   74.8009	   18.3819	   5.39863	5.69512e+06	   74.9776	   18.0737	   5.09876	6.62186e+06	
         R10	   4602	   75.3523	   17.7655	    4.7989	7.55265e+06	   74.8507	   17.7655	    4.7989	6.88762e+06	   75.1044	   18.3819	   5.39863	6.34623e+06	   75.3759	   18.0484	   5.07415	6.63376e+06	   75.1015	   17.7655	    4.7989	7.20373e+06	   74.9776	   18.0737	   5.09876	6.60189e+06	   75.2402	   18.2152	   5.23639	6.43575e+06	   75.3641	    17.907	   4.93653	7.07354e+06	
         R10	   4603	   76.1004	   18.6904	   5.69873	9.66692e+06	   76.1058	   18.3819	   5.39863	8.46657e+06	   75.6406	   18.3819	   5.39863	6.64925e+06	   75.6354	   18.7348	   5.74193	8.29213e+06	   76.1031	   18.5361	   5.54868	9.01116e+06	   75.8732	   18.3819	   5.39863	7.49855e+06	    75.638	   18.5583	   5.57028	7.39813e+06	   75.8679	   18.7126	   5.72033	8.93116e+06	
         R10	   4604	      76.5	   18.6649	   5.67392	1.14594e+07	      76.5	   18.3819	   5.39863	1.27808e+07	   76.1058	   18.3819	   5.39863	8.17624e+06	   76.1004	   18.6904	   5.69873	1.02801e+07	      76.5	   18.5234	   5.53627	1.19349e+07	   76.3029	   18.3819	   5.39863	1.04168e+07	   76.1031	   18.5361	   5.54868	9.11209e+06	   76.3002	   18.6776	   5.68632	1.00317e+07	
         R10	   4605	   76.0624	        19	         6	1.21497e+07	      76.5	        19	         6	1.83183e+07	      76.5	   18.6649	   5.67392	9.09005e+06	   76.1004	   18.6904	   5.69873	9.02583e+06	   76.2812	        19	         6	1.39975e+07	      76.5	   18.8324	   5.83696	1.31052e+07	   76.3002	   18.6776	   5.68632	8.16051e+06	   76.0814	   18.8452	   5.84937	1.05663e+07	
         R10	   4606	   75.5682	        19	         6	8.87482e+06	   76.0624	        19	         6	9.89416e+06	   76.1004	   18.6904	   5.69873	8.40579e+06	   75.6354	   18.7348	   5.74193	8.47013e+06	   75.8153	        19	         6	8.93931e+06	   76.0814	   18.8452	   5.84937	9.07609e+06	   75.8679	   18.7126	   5.72033	8.39627e+06	   75.6018	   18.8674	   5.87097	8.59329e+06	
         R10	   4607	   75.0176	        19	         6	8.28323e+06	   75.5682	        19	         6	7.96298e+06	   75.6354	   18.7348	   5.74193	9.37998e+06	   75.1318	   18.7097	   5.71755	7.05095e+06	   75.2929	        19	         6	8.07686e+06	   75.6018	   18.8674	   5.87097	8.62238e+06	   75.3836	   18.7222	   5.72974	 8.1979e+06	   75.0747	   18.8549	   5.85877	7.65648e+06	
         R10	   4608	   73.0701	   18.3819	   5.39863	8.02588e+06	     72.25	   18.3819	   5.39863	9.81996e+06	     72.25	        19	         6	1.00617e+07	   73.0267	        19	         6	8.31359e+06	     72.66	   18.3819	   5.39863	8.02317e+06	     72.25	    18.691	   5.69931	9.62942e+06	   72.6383	        19	         6	8.85613e+06	   73.0484	    18.691	   5.69931	8.16535e+06	
         R10	   4609	   73.8192	   18.3819	   5.39863	8.09334e+06	   73.0701	   18.3819	   5.39863	7.04858e+06	   73.0267	        19	         6	7.40116e+06	   73.7468	        19	         6	6.27116e+06	   73.4446	   18.3819	   5.39863	7.56494e+06	   73.0484	    18.691	   5.69931	7.21866e+06	   73.3867	        19	         6	6.75049e+06	    73.783	    18.691	   5.69931	7.15363e+06	
         R10	   4610	   74.4973	   18.3819	   5.39863	7.31165e+06	   73.8192	   18.3819	   5.39863	8.06922e+06	   73.7468	        19	         6	6.19316e+06	   74.4105	        19	         6	7.11677e+06	   74.1582	   18.3819	   5.39863	7.67353e+06	    73.783	    18.691	   5.69931	7.11162e+06	   74.0786	        19	         6	6.64693e+06	   74.4539	    18.691	   5.69931	7.20419e+06	
         R10	   4611	   75.1318	   18.7097	   5.71755	7.83965e+06	   75.6354	   18.7348	   5.74193	8.94234e+06	   75.6406	   18.3819	   5.39863	6.73734e+06	   75.1044	   18.3819	   5.39863	6.06254e+06	   75.3836	   18.7222	   5.72974	8.37757e+06	    75.638	   18.5583	   5.57028	7.79862e+06	   75.3725	   18.3819	   5.39863	6.36553e+06	   75.1181	   18.5458	   5.55809	 6.8525e+06	
         R10	   4612	   74.4105	        19	         6	6.97454e+06	   75.0176	        19	         6	 8.0897e+06	   75.1318	   18.7097	   5.71755	7.52282e+06	   74.4973	   18.3819	   5.39863	7.62768e+06	    74.714	        19	         6	7.51961e+06	   75.0747	   18.8549	   5.85877	7.79662e+06	   74.8146	   18.5458	   5.55809	7.55242e+06	   74.4539	    18.691	   5.69931	7.27334e+06	
         R10	   4613	   75.1318	   18.7097	   5.71755	8.37127e+06	   75.1044	   18.3819	   5.39863	6.13239e+06	   74.4973	   18.3819	   5.39863	6.42923e+06	   75.1181	   18.5458	   5.55809	7.18872e+06	   74.8009	   18.3819	   5.39863	6.27967e+06	   74.8146	   18.5458	   5.55809	7.33945e+06	       N/A	       N/A	       N/A	        N/A	       N/A	       N/A	       N/A	        N/A	
         R10	   4614	   77.0297	   17.3281	   4.37325	6.70153e+06	   77.0353	   17.1492	   4.19918	5.97026e+06	   76.7605	   17.1492	   4.19918	6.69783e+06	   76.7765	    17.343	   4.38782	7.24879e+06	   77.0325	   17.2386	   4.28621	6.29624e+06	   76.8979	   17.1492	   4.19918	6.32315e+06	   76.7685	   17.2461	    4.2935	 6.9706e+06	   76.9031	   17.3355	   4.38053	 6.9288e+06	
         R10	   4615	   77.3455	   17.3709	   4.41498	6.67269e+06	   77.3245	   17.1492	   4.19918	5.92908e+06	   77.0353	   17.1492	   4.19918	6.06492e+06	   77.0297	   17.3281	   4.37325	7.32092e+06	    77.335	   17.2601	   4.30708	6.25413e+06	   77.1799	   17.1492	   4.19918	5.98225e+06	   77.0325	   17.2386	   4.28621	6.66203e+06	   77.1876	   17.3495	   4.39411	6.95128e+06	
         R10	   4616	   77.6103	   17.4222	   4.46488	6.38763e+06	   77.6281	   17.1492	   4.19918	5.98959e+06	   77.3245	   17.1492	   4.19918	5.99408e+06	   77.3455	   17.3709	   4.41498	7.07004e+06	   77.6192	   17.2857	   4.33203	6.14203e+06	   77.4763	   17.1492	   4.19918	5.98223e+06	    77.335	   17.2601	   4.30708	6.48644e+06	   77.4779	   17.3966	   4.43993	6.65145e+06	
         R10	   4617	   77.9312	   17.4421	   4.48424	6.56156e+06	    77.946	   17.1492	   4.19918	5.92382e+06	   77.6281	   17.1492	   4.19918	5.95308e+06	   77.6103	   17.4222	   4.46488	 6.8713e+06	   77.9386	   17.2956	   4.34171	6.21045e+06	    77.787	   17.1492	   4.19918	5.93249e+06	   77.6192	   17.2857	   4.33203	6.38237e+06	   77.7708	   17.4322	   4.47456	6.66208e+06	
         R10	   4618	   78.2739	   17.4446	    4.4866	6.74105e+06	   78.2783	   17.1492	   4.19918	6.00587e+06	    77.946	   17.1492	   4.19918	5.92599e+06	   77.9312	   17.4421	   4.48424	6.81187e+06	   78.2761	   17.2969	   4.34289	6.35641e+06	   78.1122	   17.1492	   4.19918	5.96124e+06	   77.9386	   17.2956	   4.34171	6.33971e+06	   78.1026	   17.4433	   4.48542	6.72244e+06	
         R10	   4619	    78.625	   17.4281	   4.47054	6.37975e+06	    78.625	   17.1492	   4.19918	6.54042e+06	   78.2783	   17.1492	   4.19918	6.05236e+06	   78.2739	   17.4446	    4.4866	6.75533e+06	    78.625	   17.2886	   4.33486	  6.447e+06	   78.4517	   17.1492	   4.19918	 6.2875e+06	   78.2761	   17.2969	   4.34289	6.37344e+06	   78.4495	   17.4363	   4.47857	6.48564e+06	
         R10	   4620	   78.2372	   17.7655	    4.7989	4.96081e+06	    78.625	   17.7655	    4.7989	4.97659e+06	    78.625	   17.4281	   4.47054	6.81172e+06	   78.2739	   17.4446	    4.4866	 6.8235e+06	   78.4311	   17.7655	    4.7989	4.96566e+06	    78.625	   17.5968	   4.63472	5.81955e+06	   78.4495	   17.4363	   4.47857	6.74739e+06	   78.2556	    17.605	   4.64275	5.77508e+06	
         R10	   4621	   77.8628	   17.7655	    4.7989	5.21379e+06	   78.2372	   17.7655	    4.7989	4.95725e+06	   78.2739	   17.4446	    4.4866	6.85357e+06	   77.9312	   17.4421	   4.48424	6.88912e+06	     78.05	   17.7655	    4.7989	5.07482e+06	   78.2556	    17.605	   4.64275	 5.8166e+06	   78.1026	   17.4433	   4.48542	6.80983e+06	    77.897	   17.6038	   4.64157	5.99557e+06	
         R10	   4622	   77.5019	   17.7655	    4.7989	5.88381e+06	   77.8628	   17.7655	    4.7989	5.26785e+06	   77.9312	   17.4421	   4.48424	6.54282e+06	   77.6103	   17.4222	   4.46488	6.63036e+06	   77.6824	   17.7655	    4.7989	5.55278e+06	    77.897	   17.6038	   4.64157	5.86209e+06	   77.7708	   17.4322	   4.47456	6.53376e+06	   77.5561	   17.5939	   4.63189	6.25128e+06	
         R10	   4623	   76.8148	   17.5511	   4.59022	7.20093e+06	   76.8205	   17.7655	    4.7989	7.15681e+06	   77.1545	   17.7655	    4.7989	6.41451e+06	   77.1699	   17.5385	   4.57802	6.21041e+06	   76.8177	   17.6583	   4.69456	 7.1699e+06	   76.9875	   17.7655	    4.7989	6.75429e+06	   77.1622	    17.652	   4.68846	6.30628e+06	   76.9923	   17.5448	   4.58412	6.67701e+06	
         R10	   4624	      76.5	   17.5309	   4.57061	8.20734e+06	      76.5	   17.7655	    4.7989	 8.7996e+06	   76.8205	   17.7655	    4.7989	7.15894e+06	   76.8148	   17.5511	   4.59022	7.70229e+06	      76.5	   17.6482	   4.68475	8.48915e+06	   76.6603	   17.7655	    4.7989	7.93309e+06	   76.8177	   17.6583	   4.69456	 7.4057e+06	   76.6574	    17.541	   4.58041	7.86008e+06	
         R10	   4625	   76.7765	    17.343	   4.38782	7.08167e+06	   76.7605	   17.1492	   4.19918	6.46268e+06	      76.5	   17.1492	   4.19918	7.63096e+06	      76.5	   17.3254	    4.3707	7.34997e+06	   76.7685	   17.2461	    4.2935	6.76794e+06	   76.6302	   17.1492	   4.19918	7.02817e+06	      76.5	   17.2373	   4.28494	7.38624e+06	   76.6383	   17.3342	   4.37926	7.03356e+06	
         R10	   4626	   76.7765	    17.343	   4.38782	7.12596e+06	      76.5	   17.3254	    4.3707	7.71825e+06	      76.5	   17.5309	   4.57061	7.93604e+06	   76.8148	   17.5511	   4.59022	7.90168e+06	   76.6383	   17.3342	   4.37926	7.27855e+06	      76.5	   17.4282	   4.47065	7.81648e+06	   76.6574	    17.541	   4.58041	7.83611e+06	   76.7957	    17.447	   4.48902	7.49674e+06	
         R10	   4627	   77.0297	   17.3281	   4.37325	6.90719e+06	   76.7765	    17.343	   4.38782	7.22079e+06	   76.8148	   17.5511	   4.59022	7.62955e+06	   77.1699	   17.5385	   4.57802	6.71837e+06	   76.9031	   17.3355	   4.38053	7.00634e+06	   76.7957	    17.447	   4.48902	7.41505e+06	   76.9923	   17.5448	   4.58412	7.15122e+06	   77.0998	   17.4333	   4.47563	6.80855e+06	
         R10	   4628	   77.5019	   17.7655	    4.7989	5.95955e+06	   77.6103	   17.4222	   4.46488	5.82223e+06	   77.3455	   17.3709	   4.41498	6.92819e+06	   77.1699	   17.5385	   4.57802	6.01098e+06	   77.5561	   17.5939	   4.63189	 5.8802e+06	   77.4779	   17.3966	   4.43993	6.33657e+06	   77.2577	   17.4547	    4.4965	 6.4668e+06	   77.3359	    17.652	   4.68846	5.97016e+06	
         R10	   4629	   77.1699	   17.5385	   4.57802	6.11699e+06	   77.1545	   17.7655	    4.7989	6.42587e+06	   77.5019	   17.7655	    4.7989	 6.0988e+06	   77.1622	    17.652	   4.68846	6.26713e+06	   77.3282	   17.7655	    4.7989	6.24684e+06	   77.3359	    17.652	   4.68846	6.09014e+06	       N/A	       N/A	       N/A	        N/A	       N/A	       N/A	       N/A	        N/A	
         R10	   4630	   77.3455	   17.3709	   4.41498	6.30902e+06	   77.0297	   17.3281	   4.37325	7.16498e+06	   77.1699	   17.5385	   4.57802	6.82199e+06	   77.1876	   17.3495	   4.39411	6.71163e+06	   77.0998	   17.4333	   4.47563	6.99227e+06	   77.2577	   17.4547	    4.4965	6.54899e+06	       N/A	       N/A	       N/A	        N/A	       N/A	       N/A	       N/A	        N/A	
         R10	   4631	   77.1332	   18.0433	   5.06913	7.70867e+06	   77.1545	   17.7655	    4.7989	6.20907e+06	   76.8205	   17.7655	    4.7989	7.21019e+06	   76.7895	   18.0411	   5.06703	 8.7454e+06	   77.1438	   17.9044	   4.93402	6.87616e+06	   76.9875	   17.7655	    4.7989	 6.6805e+06	    76.805	   17.9033	   4.93297	7.91424e+06	   76.9613	   18.0422	   5.06808	8.04672e+06	
         R10	   4632	   77.4414	   18.0813	   5.10609	7.03128e+06	   77.5019	   17.7655	    4.7989	6.08118e+06	   77.1545	   17.7655	    4.7989	6.28471e+06	   77.1332	   18.0433	   5.06913	8.42426e+06	   77.4717	   17.9234	    4.9525	6.49114e+06	   77.3282	   17.7655	    4.7989	6.16261e+06	   77.1438	   17.9044	   4.93402	 7.3053e+06	   77.2873	   18.0623	   5.08761	  7.595e+06	
         R10	   4633	   77.8144	   18.0803	   5.10517	6.76419e+06	   77.8628	   17.7655	    4.7989	 6.1931e+06	   77.5019	   17.7655	    4.7989	6.11511e+06	   77.4414	   18.0813	   5.10609	7.94386e+06	   77.8386	   17.9229	   4.95204	6.44459e+06	   77.6824	   17.7655	    4.7989	6.14392e+06	   77.4717	   17.9234	    4.9525	6.98005e+06	   77.6279	   18.0808	   5.10563	7.21411e+06	
         R10	   4634	   78.2154	   18.0806	   5.10545	6.82888e+06	   78.2372	   17.7655	    4.7989	 6.3653e+06	   77.8628	   17.7655	    4.7989	6.22493e+06	   77.8144	   18.0803	   5.10517	7.53863e+06	   78.2263	   17.9231	   4.95218	6.57407e+06	     78.05	   17.7655	    4.7989	6.29067e+06	   77.8386	   17.9229	   4.95204	6.84455e+06	   78.0149	   18.0805	   5.10531	7.04736e+06	
         R10	   4635	    78.625	   18.0444	   5.07027	6.92258e+06	    78.625	   17.7655	    4.7989	7.01665e+06	   78.2372	   17.7655	    4.7989	6.42464e+06	   78.2154	   18.0806	   5.10545	7.26208e+06	    78.625	    17.905	   4.93459	6.92211e+06	   78.4311	   17.7655	    4.7989	6.71576e+06	   78.2263	   17.9231	   4.95218	6.79056e+06	   78.4202	   18.0625	   5.08786	6.89653e+06	
         R10	   4636	   78.1596	   18.3819	   5.39863	4.60579e+06	    78.625	   18.3819	   5.39863	4.36595e+06	    78.625	   18.0444	   5.07027	7.11919e+06	   78.2154	   18.0806	   5.10545	6.89021e+06	   78.3923	   18.3819	   5.39863	4.46955e+06	    78.625	   18.2132	   5.23445	5.52726e+06	   78.4202	   18.0625	   5.08786	6.81475e+06	   78.1875	   18.2313	   5.25204	5.53981e+06	
         R10	   4637	   77.7144	   18.3819	   5.39863	5.03673e+06	   78.1596	   18.3819	   5.39863	4.62773e+06	   78.2154	   18.0806	   5.10545	6.40211e+06	   77.8144	   18.0803	   5.10517	7.59005e+06	    77.937	   18.3819	   5.39863	4.79449e+06	   78.1875	   18.2313	   5.25204	5.41194e+06	   78.0149	   18.0805	   5.10531	6.85322e+06	   77.7644	   18.2311	    5.2519	6.20849e+06	
         R10	   4638	   77.2894	   18.3819	   5.39863	6.14915e+06	   77.7144	   18.3819	   5.39863	5.11023e+06	   77.8144	   18.0803	   5.10517	6.58445e+06	   77.4414	   18.0813	   5.10609	7.87207e+06	   77.5019	   18.3819	   5.39863	5.56235e+06	   77.7644	   18.2311	    5.2519	  5.817e+06	   77.6279	   18.0808	   5.10563	7.10509e+06	   77.3654	   18.2316	   5.25236	6.97999e+06	
         R10	   4639	   76.8846	   18.3819	   5.39863	7.59468e+06	   77.2894	   18.3819	   5.39863	6.19283e+06	   77.4414	   18.0813	   5.10609	6.50671e+06	   77.1332	   18.0433	   5.06913	8.72222e+06	    77.087	   18.3819	   5.39863	6.84506e+06	   77.3654	   18.2316	   5.25236	6.33989e+06	   77.2873	   18.0623	   5.08761	7.48779e+06	   77.0089	   18.2126	   5.23388	 8.1424e+06	
         R10	   4640	   76.7895	   18.0411	   5.06703	8.37266e+06	   76.8205	   17.7655	    4.7989	7.02377e+06	      76.5	   17.7655	    4.7989	9.05155e+06	      76.5	   18.0444	   5.07027	9.28104e+06	    76.805	   17.9033	   4.93297	 7.6351e+06	   76.6603	   17.7655	    4.7989	8.00875e+06	      76.5	    17.905	   4.93459	9.10389e+06	   76.6447	   18.0428	   5.06865	8.53591e+06	
         R10	   4641	   76.7895	   18.0411	   5.06703	 8.5636e+06	      76.5	   18.0444	   5.07027	9.02153e+06	      76.5	   18.3819	   5.39863	1.03492e+07	   76.8846	   18.3819	   5.39863	8.26727e+06	   76.6447	   18.0428	   5.06865	8.55478e+06	      76.5	   18.2132	   5.23445	9.64673e+06	   76.6923	   18.3819	   5.39863	9.23618e+06	    76.837	   18.2115	   5.23283	8.39368e+06	
         R10	   4642	   76.7895	   18.0411	   5.06703	  8.459e+06	   76.8846	   18.3819	   5.39863	8.49965e+06	   77.1332	   18.0433	   5.06913	7.21321e+06	    76.837	   18.2115	   5.23283	 8.4333e+06	   77.0089	   18.2126	   5.23388	7.80121e+06	   76.9613	   18.0422	   5.06808	7.67604e+06	       N/A	       N/A	       N/A	        N/A	       N/A	       N/A	       N/A	        N/A	
         R10	   4643	   77.2866	   18.6626	   5.67168	8.94607e+06	   77.2894	   18.3819	   5.39863	4.90941e+06	   76.8846	   18.3819	   5.39863	6.61495e+06	   76.8561	   18.6611	   5.67031	9.98205e+06	    77.288	   18.5222	   5.53516	6.76833e+06	    77.087	   18.3819	   5.39863	5.67729e+06	   76.8704	   18.5215	   5.53447	8.25441e+06	   77.0714	   18.6619	     5.671	9.45537e+06	
         R10	   4644	   77.6703	   18.7001	   5.70822	7.78471e+06	   77.7144	   18.3819	   5.39863	5.46799e+06	   77.2894	   18.3819	   5.39863	5.08361e+06	   77.2866	   18.6626	   5.67168	9.51875e+06	   77.6923	    18.541	   5.55342	6.49764e+06	   77.5019	   18.3819	   5.39863	5.26682e+06	    77.288	   18.5222	   5.53516	7.21162e+06	   77.4785	   18.6813	   5.68995	8.64972e+06	
         R10	   4645	   78.1345	   18.6985	   5.70663	7.18575e+06	   78.1596	   18.3819	   5.39863	5.91108e+06	   77.7144	   18.3819	   5.39863	5.41433e+06	   77.6703	   18.7001	   5.70822	8.21345e+06	   78.1471	   18.5402	   5.55263	6.50182e+06	    77.937	   18.3819	   5.39863	5.66092e+06	   77.6923	    18.541	   5.55342	 6.7321e+06	   77.9024	   18.6993	   5.70742	 7.6962e+06	
         R10	   4646	    78.625	   18.6762	   5.68499	6.69891e+06	    78.625	   18.3819	   5.39863	6.53559e+06	   78.1596	   18.3819	   5.39863	5.91889e+06	   78.1345	   18.6985	   5.70663	7.58975e+06	    78.625	   18.5291	   5.54181	6.59185e+06	   78.3923	   18.3819	   5.39863	6.22048e+06	   78.1471	   18.5402	   5.55263	6.72707e+06	   78.3798	   18.6874	   5.69581	7.14045e+06	
         R10	   4647	   78.0628	        19	         6	5.56475e+06	    78.625	        19	         6	 6.8638e+06	    78.625	   18.6762	   5.68499	7.02383e+06	   78.1345	   18.6985	   5.70663	7.61901e+06	   78.3439	        19	         6	 6.0694e+06	    78.625	   18.8381	    5.8425	6.85727e+06	   78.3798	   18.6874	   5.69581	7.31621e+06	   78.0987	   18.8492	   5.85332	6.56144e+06	
         R10	   4648	   77.5212	        19	         6	6.57594e+06	   78.0628	        19	         6	7.18766e+06	   78.1345	   18.6985	   5.70663	7.27858e+06	   77.6703	   18.7001	   5.70822	7.48509e+06	    77.792	        19	         6	6.66198e+06	   78.0987	   18.8492	   5.85332	7.19529e+06	   77.9024	   18.6993	   5.70742	7.38084e+06	   77.5958	   18.8501	   5.85411	6.95796e+06	
         R10	   4649	   77.0003	        19	         6	7.84607e+06	   77.5212	        19	         6	8.46429e+06	   77.6703	   18.7001	   5.70822	 7.0428e+06	   77.2866	   18.6626	   5.67168	7.73887e+06	   77.2608	        19	         6	7.73815e+06	   77.5958	   18.8501	   5.85411	7.71105e+06	   77.4785	   18.6813	   5.68995	7.39004e+06	   77.1435	   18.8313	   5.83584	7.55699e+06	
         R10	   4650	   76.8561	   18.6611	   5.67031	9.81765e+06	   76.8846	   18.3819	   5.39863	6.37637e+06	      76.5	   18.3819	   5.39863	1.34977e+07	      76.5	   18.6649	   5.67392	 9.6177e+06	   76.8704	   18.5215	   5.53447	8.02605e+06	   76.6923	   18.3819	   5.39863	9.81248e+06	      76.5	   18.5234	   5.53627	1.12654e+07	   76.6781	    18.663	   5.67211	9.32767e+06	
         R10	   4651	   76.8561	   18.6611	   5.67031	9.86845e+06	      76.5	   18.6649	   5.67392	8.04036e+06	      76.5	        19	         6	1.81022e+07	   77.0003	        19	         6	1.00343e+07	   76.6781	    18.663	   5.67211	8.19981e+06	      76.5	   18.8324	   5.83696	1.25691e+07	   76.7502	        19	         6	 1.2797e+07	   76.9282	   18.8306	   5.83515	 9.8006e+06	
         R10	   4652	   76.8561	   18.6611	   5.67031	9.98304e+06	   77.0003	        19	         6	8.13469e+06	   77.2866	   18.6626	   5.67168	7.09697e+06	   76.9282	   18.8306	   5.83515	9.05754e+06	   77.1435	   18.8313	   5.83584	7.59624e+06	   77.0714	   18.6619	     5.671	8.52087e+06	       N/A	       N/A	       N/A	        N/A	       N/A	       N/A	       N/A	        N/A	
         R10	   4653	     75.65	      9.35	       2.4	8.09415e+06	      76.5	      9.35	       2.4	8.77436e+06	      76.5	       8.5	       2.4	8.29691e+06	     75.65	       8.5	       2.4	7.55543e+06	    76.075	      9.35	       2.4	8.43325e+06	      76.5	     8.925	       2.4	8.53185e+06	    76.075	       8.5	       2.4	7.91104e+06	     75.65	     8.925	       2.4	7.81118e+06	
         R10	   4654	      74.8	      9.35	       2.4	7.50465e+06	     75.65	      9.35	       2.4	8.01825e+06	     75.65	       8.5	       2.4	7.46434e+06	      74.8	       8.5	       2.4	6.60635e+06	    75.225	      9.35	       2.4	7.75845e+06	     75.65	     8.925	       2.4	7.72544e+06	    75.225	       8.5	       2.4	7.02093e+06	      74.8	     8.925	       2.4	7.03412e+06	
         R10	   4655	     73.95	      9.35	       2.4	7.52808e+06	      74.8	      9.35	       2.4	7.61583e+06	      74.8	       8.5	       2.4	6.71499e+06	     73.95	       8.5	       2.4	6.71754e+06	    74.375	      9.35	       2.4	7.57148e+06	      74.8	     8.925	       2.4	7.14445e+06	    74.375	       8.5	       2.4	6.71626e+06	     73.95	     8.925	       2.4	7.10117e+06	
         R10	   4656	      73.1	      9.35	       2.4	7.87455e+06	     73.95	      9.35	       2.4	7.39358e+06	     73.95	       8.5	       2.4	6.60055e+06	      73.1	       8.5	       2.4	7.15319e+06	    73.525	      9.35	       2.4	7.63059e+06	     73.95	     8.925	       2.4	6.97447e+06	    73.525	       8.5	       2.4	 6.8627e+06	      73.1	     8.925	       2.4	7.49929e+06	
         R10	   4657	     72.25	      9.35	       2.4	8.39477e+06	      73.1	      9.35	       2.4	7.95853e+06	      73.1	       8.5	       2.4	7.31394e+06	     72.25	       8.5	       2.4	8.37746e+06	    72.675	      9.35	       2.4	8.17238e+06	      73.1	     8.925	       2.4	7.62034e+06	    72.675	       8.5	       2.4	7.81832e+06	     72.25	     8.925	       2.4	8.37746e+06	
         R10	   4658	     75.65	      10.2	       2.4	7.73292e+06	      76.5	      10.2	       2.4	8.91892e+06	      76.5	      9.35	       2.4	8.79665e+06	     75.65	      9.35	       2.4	 7.4713e+06	    76.075	      10.2	       2.4	8.31307e+06	      76.5	     9.775	       2.4	8.83237e+06	    76.075	      9.35	       2.4	 8.1093e+06	     75.65	     9.775	       2.4	7.59971e+06	
         R10	   4659	      74.8	      10.2	       2.4	7.23168e+06	     75.65	      10.2	       2.4	7.82467e+06	     75.65	      9.35	       2.4	7.49909e+06	      74.8	      9.35	       2.4	6.95993e+06	    75.225	      10.2	       2.4	7.52424e+06	     75.65	     9.775	       2.4	7.66013e+06	    75.225	      9.35	       2.4	7.22518e+06	      74.8	     9.775	       2.4	7.09401e+06	
         R10	   4660	     73.95	      10.2	       2.4	7.14031e+06	      74.8	      10.2	       2.4	7.20209e+06	      74.8	      9.35	       2.4	6.96298e+06	     73.95	      9.35	       2.4	6.84087e+06	    74.375	      10.2	       2.4	7.16986e+06	      74.8	     9.775	       2.4	7.08038e+06	    74.375	      9.35	       2.4	6.90153e+06	     73.95	     9.775	       2.4	6.98724e+06	
         R10	   4661	      73.1	      10.2	       2.4	 7.5953e+06	     73.95	      10.2	       2.4	7.15744e+06	     73.95	      9.35	       2.4	6.81526e+06	      73.1	      9.35	       2.4	7.25663e+06	    73.525	      10.2	       2.4	7.37224e+06	     73.95	     9.775	       2.4	6.98346e+06	    73.525	      9.35	       2.4	7.02937e+06	      73.1	     9.775	       2.4	7.42351e+06	
         R10	   4662	     72.25	      10.2	       2.4	8.40163e+06	      73.1	      10.2	       2.4	7.56509e+06	      73.1	      9.35	       2.4	7.24119e+06	     72.25	      9.35	       2.4	8.36518e+06	    72.675	      10.2	       2.4	7.95831e+06	      73.1	     9.775	       2.4	7.40012e+06	    72.675	      9.35	       2.4	 7.7826e+06	     72.25	     9.775	       2.4	8.36194e+06	
         R10	   4663	    75.871	     11.05	       2.4	7.92101e+06	      76.5	     11.05	       2.4	8.97754e+06	      76.5	      10.2	       2.4	8.85397e+06	     75.65	      10.2	       2.4	7.72089e+06	   76.1855	     11.05	       2.4	8.42889e+06	      76.5	    10.625	       2.4	8.89548e+06	    76.075	      10.2	       2.4	8.27941e+06	   75.7605	    10.625	       2.4	7.82069e+06	
         R10	   4664	   75.2102	     11.05	       2.4	 7.1612e+06	    75.871	     11.05	       2.4	7.88087e+06	     75.65	      10.2	       2.4	7.78512e+06	      74.8	      10.2	       2.4	7.20688e+06	   75.5406	     11.05	       2.4	7.51252e+06	   75.7605	    10.625	       2.4	7.83274e+06	    75.225	      10.2	       2.4	7.48517e+06	   75.0051	    10.625	       2.4	7.17838e+06	
         R10	   4665	   74.5178	     11.05	       2.4	6.83195e+06	   75.2102	     11.05	       2.4	  7.169e+06	      74.8	      10.2	       2.4	7.18659e+06	     73.95	      10.2	       2.4	7.04962e+06	    74.864	     11.05	       2.4	6.99438e+06	   75.0051	    10.625	       2.4	 7.1721e+06	    74.375	      10.2	       2.4	 7.1117e+06	   74.2339	    10.625	       2.4	6.93089e+06	
         R10	   4666	   73.7936	     11.05	       2.4	 6.8785e+06	   74.5178	     11.05	       2.4	6.82802e+06	     73.95	      10.2	       2.4	7.06358e+06	      73.1	      10.2	       2.4	7.49025e+06	   74.1557	     11.05	       2.4	6.84701e+06	   74.2339	    10.625	       2.4	6.93653e+06	    73.525	      10.2	       2.4	7.26547e+06	   73.4468	    10.625	       2.4	7.16709e+06	
         R10	   4667	   73.0377	     11.05	       2.4	7.30443e+06	   73.7936	     11.05	       2.4	6.93804e+06	      73.1	      10.2	       2.4	 7.2905e+06	     72.25	      10.2	       2.4	 8.3477e+06	   73.4156	     11.05	       2.4	7.11139e+06	   73.4468	    10.625	       2.4	7.09945e+06	    72.675	      10.2	       2.4	 7.7997e+06	   72.6438	    10.625	       2.4	7.79307e+06	
         R10	   4668	   73.0377	     11.05	       2.4	7.09535e+06	     72.25	      10.2	       2.4	8.49145e+06	     72.25	     11.05	       2.4	8.53297e+06	   72.6438	    10.625	       2.4	7.77525e+06	     72.25	    10.625	       2.4	8.48738e+06	   72.6438	     11.05	       2.4	7.76925e+06	       N/A	       N/A	       N/A	        N/A	       N/A	       N/A	       N/A	        N/A	
         R10	   4669	   77.5625	      9.35	       2.4	8.18654e+06	    78.625	      9.35	       2.4	7.99595e+06	    78.625	       8.5	       2.4	6.64451e+06	   77.5625	       8.5	       2.4	7.41071e+06	   78.0938	      9.35	       2.4	8.08881e+06	    78.625	     8.925	       2.4	7.21065e+06	   78.0938	       8.5	       2.4	6.98712e+06	   77.5625	     8.925	       2.4	7.78768e+06	
         R10	   4670	      76.5	      9.35	       2.4	8.74061e+06	   77.5625	      9.35	       2.4	8.14575e+06	   77.5625	       8.5	       2.4	7.50484e+06	      76.5	       8.5	       2.4	8.32768e+06	   77.0313	      9.35	       2.4	8.44045e+06	   77.5625	     8.925	       2.4	7.81111e+06	   77.0313	       8.5	       2.4	7.89696e+06	      76.5	     8.925	       2.4	 8.5277e+06	
         R10	   4671	   77.5625	      10.2	       2.4	7.71544e+06	    78.625	      10.2	       2.4	7.47964e+06	    78.625	      9.35	       2.4	6.70262e+06	   77.5625	      9.35	       2.4	7.53027e+06	   78.0938	      10.2	       2.4	7.59511e+06	    78.625	     9.775	       2.4	7.07094e+06	   78.0938	      9.35	       2.4	7.10172e+06	   77.5625	     9.775	       2.4	7.62055e+06	
         R10	   4672	      76.5	      10.2	       2.4	8.80653e+06	   77.5625	      10.2	       2.4	7.64658e+06	   77.5625	      9.35	       2.4	7.50229e+06	      76.5	      9.35	       2.4	8.71474e+06	   77.0313	      10.2	       2.4	8.20529e+06	   77.5625	     9.775	       2.4	7.57153e+06	   77.0313	      9.35	       2.4	8.07925e+06	      76.5	     9.775	       2.4	8.73871e+06	
         R10	   4673	   77.9681	     11.05	       2.4	7.22134e+06	    78.625	     11.05	       2.4	7.06944e+06	    78.625	      10.2	       2.4	7.23339e+06	   77.5625	      10.2	       2.4	7.65501e+06	   78.2966	     11.05	       2.4	7.14085e+06	    78.625	    10.625	       2.4	7.15019e+06	   78.0938	      10.2	       2.4	7.42718e+06	   77.7653	    10.625	       2.4	7.43167e+06	
         R10	   4674	      76.5	      10.2	       2.4	8.77063e+06	      76.5	     11.05	       2.4	8.83298e+06	   77.2598	     11.05	       2.4	7.75891e+06	   77.5625	      10.2	       2.4	7.57497e+06	      76.5	    10.625	       2.4	8.78484e+06	   76.8799	     11.05	       2.4	8.26716e+06	   77.4111	    10.625	       2.4	7.66692e+06	   77.0313	      10.2	       2.4	8.15872e+06	
         R10	   4675	   77.2598	     11.05	       2.4	7.82059e+06	   77.9681	     11.05	       2.4	7.32066e+06	   77.5625	      10.2	       2.4	7.55389e+06	   77.6139	     11.05	       2.4	7.56021e+06	   77.7653	    10.625	       2.4	7.42758e+06	   77.4111	    10.625	       2.4	7.68716e+06	       N/A	       N/A	       N/A	        N/A	       N/A	       N/A	       N/A	        N/A	
         R10	   4676	   76.1393	   11.5062	       2.4	8.67936e+06	   76.1109	      11.9	       2.4	8.23182e+06	      76.5	      11.9	       2.4	8.81847e+06	      76.5	   11.5844	       2.4	8.56958e+06	   76.1251	   11.7031	       2.4	8.44834e+06	   76.3054	      11.9	       2.4	8.51274e+06	      76.5	   11.7422	       2.4	8.69369e+06	   76.3197	   11.5453	       2.4	8.59117e+06	
         R10	   4677	   73.0377	     11.05	       2.4	7.64336e+06	     72.25	     11.05	       2.4	 8.2788e+06	     72.25	      11.9	       2.4	8.70413e+06	   73.0751	      11.9	       2.4	6.87087e+06	   72.6438	     11.05	       2.4	7.95411e+06	     72.25	    11.475	       2.4	8.47401e+06	   72.6626	      11.9	       2.4	7.69721e+06	   73.0564	    11.475	       2.4	7.23654e+06	
         R10	   4678	   73.7936	     11.05	       2.4	6.95178e+06	   73.0377	     11.05	       2.4	7.65163e+06	   73.0751	      11.9	       2.4	6.95988e+06	   73.8276	      11.9	       2.4	6.68974e+06	   73.4156	     11.05	       2.4	7.27731e+06	   73.0564	    11.475	       2.4	7.28584e+06	   73.4514	      11.9	       2.4	6.80644e+06	   73.8106	    11.475	       2.4	6.81273e+06	
         R10	   4679	   74.5178	     11.05	       2.4	6.96608e+06	   73.7936	     11.05	       2.4	7.02826e+06	   73.8276	      11.9	       2.4	6.70535e+06	   74.5074	      11.9	       2.4	6.68501e+06	   74.1557	     11.05	       2.4	6.98065e+06	   73.8106	    11.475	       2.4	 6.8606e+06	   74.1675	      11.9	       2.4	6.68011e+06	   74.5126	    11.475	       2.4	6.81956e+06	
         R10	   4680	   75.2102	     11.05	       2.4	7.34439e+06	   74.5178	     11.05	       2.4	6.95549e+06	   74.5074	      11.9	       2.4	6.69255e+06	   75.1146	      11.9	       2.4	6.94712e+06	    74.864	     11.05	       2.4	7.13667e+06	   74.5126	    11.475	       2.4	6.81775e+06	    74.811	      11.9	       2.4	6.80887e+06	   75.1624	    11.475	       2.4	7.13771e+06	
         R10	   4681	    75.871	     11.05	       2.4	8.05921e+06	   75.2102	     11.05	       2.4	7.36674e+06	   75.1146	      11.9	       2.4	6.94948e+06	   75.6491	      11.9	       2.4	7.43917e+06	   75.5406	     11.05	       2.4	7.70059e+06	   75.1624	    11.475	       2.4	7.15025e+06	   75.3818	      11.9	       2.4	7.18532e+06	     75.76	    11.475	       2.4	7.74157e+06	
         R10	   4682	   76.1393	   11.5062	       2.4	9.10009e+06	      76.5	   11.5844	       2.4	8.91692e+06	      76.5	     11.05	       2.4	8.60429e+06	    75.871	     11.05	       2.4	7.84453e+06	   76.3197	   11.5453	       2.4	8.97441e+06	      76.5	   11.3172	       2.4	8.75301e+06	   76.1855	     11.05	       2.4	8.22017e+06	   76.0051	   11.2781	       2.4	 8.4603e+06	
         R10	   4683	   76.1109	      11.9	       2.4	8.30818e+06	   76.1393	   11.5062	       2.4	7.75938e+06	    75.871	     11.05	       2.4	8.15728e+06	   75.6491	      11.9	       2.4	7.51073e+06	   76.1251	   11.7031	       2.4	8.02763e+06	   76.0051	   11.2781	       2.4	7.95226e+06	     75.76	    11.475	       2.4	7.82732e+06	     75.88	      11.9	       2.4	7.90183e+06	
         R10	   4684	   76.1037	   12.3234	       2.4	8.06831e+06	   76.1109	      11.9	       2.4	8.70332e+06	   75.6491	      11.9	       2.4	8.28568e+06	   75.6487	   12.3873	       2.4	7.00954e+06	   76.1073	   12.1117	       2.4	8.34235e+06	     75.88	      11.9	       2.4	8.48887e+06	   75.6489	   12.1437	       2.4	7.54331e+06	   75.8762	   12.3554	       2.4	7.50544e+06	
         R10	   4685	      76.5	   12.2642	       2.4	8.81198e+06	      76.5	      11.9	       2.4	 8.4451e+06	   76.1109	      11.9	       2.4	8.65762e+06	   76.1037	   12.3234	       2.4	8.49678e+06	      76.5	   12.0821	       2.4	8.61283e+06	   76.3054	      11.9	       2.4	8.54035e+06	   76.1073	   12.1117	       2.4	8.51721e+06	   76.3019	   12.2938	       2.4	8.54647e+06	
         R10	   4686	   73.0751	      11.9	       2.4	7.33479e+06	     72.25	      11.9	       2.4	  8.305e+06	     72.25	     12.75	       2.4	8.82216e+06	    72.961	     12.75	       2.4	6.80155e+06	   72.6626	      11.9	       2.4	7.79809e+06	     72.25	    12.325	       2.4	8.54477e+06	   72.6055	     12.75	       2.4	7.69989e+06	   73.0181	    12.325	       2.4	7.04911e+06	
         R10	   4687	   73.8276	      11.9	       2.4	6.66064e+06	   73.0751	      11.9	       2.4	7.45019e+06	    72.961	     12.75	       2.4	6.90967e+06	   73.6123	     12.75	       2.4	6.59229e+06	   73.4514	      11.9	       2.4	6.99989e+06	   73.0181	    12.325	       2.4	7.16187e+06	   73.2867	     12.75	       2.4	6.73099e+06	     73.72	    12.325	       2.4	6.62113e+06	
         R10	   4688	   74.5074	      11.9	       2.4	6.64984e+06	   73.8276	      11.9	       2.4	6.65279e+06	   73.6123	     12.75	       2.4	6.58042e+06	   74.2039	     12.75	       2.4	6.45294e+06	   74.1675	      11.9	       2.4	6.62464e+06	     73.72	    12.325	       2.4	6.61173e+06	   73.9081	     12.75	       2.4	6.49372e+06	   74.3557	    12.325	       2.4	6.54083e+06	
         R10	   4689	   75.2555	   12.2934	       2.4	 7.0731e+06	   75.6487	   12.3873	       2.4	6.86883e+06	   75.6491	      11.9	       2.4	 8.2432e+06	   75.1146	      11.9	       2.4	7.54425e+06	   75.4521	   12.3404	       2.4	 6.9502e+06	   75.6489	   12.1437	       2.4	7.45064e+06	   75.3818	      11.9	       2.4	7.88142e+06	    75.185	   12.0967	       2.4	7.24267e+06	
         R10	   4690	   75.2555	   12.2934	       2.4	6.60428e+06	   75.1146	      11.9	       2.4	7.54655e+06	   74.5074	      11.9	       2.4	6.77707e+06	   74.8313	   12.3195	       2.4	6.95857e+06	    75.185	   12.0967	       2.4	7.01247e+06	    74.811	      11.9	       2.4	7.13483e+06	   74.6694	   12.1098	       2.4	 6.8526e+06	   75.0434	   12.3065	       2.4	6.76512e+06	
         R10	   4691	   74.7358	     12.75	       2.4	6.75848e+06	   75.2081	     12.75	       2.4	7.29106e+06	   75.2555	   12.2934	       2.4	6.46609e+06	   74.8313	   12.3195	       2.4	6.77439e+06	    74.972	     12.75	       2.4	7.00363e+06	   75.2318	   12.5217	       2.4	6.84393e+06	   75.0434	   12.3065	       2.4	6.59475e+06	   74.7836	   12.5348	       2.4	6.75504e+06	
         R10	   4692	   74.5074	      11.9	       2.4	6.59386e+06	   74.2039	     12.75	       2.4	6.47102e+06	   74.7358	     12.75	       2.4	6.70118e+06	   74.8313	   12.3195	       2.4	   6.23e+06	   74.3557	    12.325	       2.4	6.51462e+06	   74.4699	     12.75	       2.4	6.57586e+06	   74.7836	   12.5348	       2.4	6.45827e+06	   74.6694	   12.1098	       2.4	6.39839e+06	
         R10	   4693	   75.6487	   12.3873	       2.4	7.02197e+06	   75.2555	   12.2934	       2.4	6.86925e+06	   75.2081	     12.75	       2.4	 7.2953e+06	   75.6206	     12.75	       2.4	7.69678e+06	   75.4521	   12.3404	       2.4	6.90817e+06	   75.2318	   12.5217	       2.4	7.03528e+06	   75.4143	     12.75	       2.4	7.48519e+06	   75.6346	   12.5687	       2.4	7.35389e+06	
         R10	   4694	   75.6487	   12.3873	       2.4	7.23794e+06	   75.6206	     12.75	       2.4	7.64239e+06	   75.9734	     12.75	       2.4	8.21941e+06	   76.1037	   12.3234	       2.4	7.89168e+06	   75.6346	   12.5687	       2.4	7.43065e+06	    75.797	     12.75	       2.4	7.92256e+06	   76.0386	   12.5367	       2.4	8.03995e+06	   75.8762	   12.3554	       2.4	7.55058e+06	
         R10	   4695	   76.2666	     12.75	       2.4	 8.6898e+06	      76.5	     12.75	       2.4	8.62183e+06	      76.5	   12.5475	       2.4	8.78453e+06	   76.2912	   12.5408	       2.4	8.68272e+06	   76.3833	     12.75	       2.4	8.65297e+06	      76.5	   12.6488	       2.4	8.69329e+06	   76.3956	   12.5442	       2.4	8.67657e+06	   76.2789	   12.6454	       2.4	8.66791e+06	
         R10	   4696	   76.1037	   12.3234	       2.4	8.43885e+06	   75.9734	     12.75	       2.4	8.26929e+06	   76.2666	     12.75	       2.4	8.93815e+06	   76.2912	   12.5408	       2.4	8.03901e+06	   76.0386	   12.5367	       2.4	8.32584e+06	     76.12	     12.75	       2.4	8.59207e+06	   76.2789	   12.6454	       2.4	8.48502e+06	   76.1975	   12.4321	       2.4	8.17492e+06	
         R10	   4697	      76.5	   12.5475	       2.4	 8.7951e+06	      76.5	   12.2642	       2.4	8.31642e+06	   76.1037	   12.3234	       2.4	8.49452e+06	   76.2912	   12.5408	       2.4	9.45121e+06	      76.5	   12.4059	       2.4	8.55178e+06	   76.3019	   12.2938	       2.4	8.33303e+06	   76.1975	   12.4321	       2.4	8.92912e+06	   76.3956	   12.5442	       2.4	9.10129e+06	
         R10	   4698	   74.7244	   13.1972	       2.4	6.10286e+06	   74.7358	     12.75	       2.4	7.07009e+06	   74.2039	     12.75	       2.4	6.85821e+06	   74.2104	   13.2255	       2.4	6.29467e+06	   74.7301	   12.9736	       2.4	6.43145e+06	   74.4699	     12.75	       2.4	6.94663e+06	   74.2072	   12.9878	       2.4	6.41849e+06	   74.4674	   13.2114	       2.4	6.16345e+06	
         R10	   4699	   75.1895	   13.1621	       2.4	6.46711e+06	   75.2081	     12.75	       2.4	7.58641e+06	   74.7358	     12.75	       2.4	 7.0738e+06	   74.7244	   13.1972	       2.4	6.26103e+06	   75.1988	    12.956	       2.4	 6.8638e+06	    74.972	     12.75	       2.4	 7.3106e+06	   74.7301	   12.9736	       2.4	6.50782e+06	    74.957	   13.1796	       2.4	6.32478e+06	
         R10	   4700	   75.6063	   13.0759	       2.4	6.94961e+06	   75.6206	     12.75	       2.4	8.13035e+06	   75.2081	     12.75	       2.4	  7.574e+06	   75.1895	   13.1621	       2.4	6.71413e+06	   75.6135	   12.9129	       2.4	7.43575e+06	   75.4143	     12.75	       2.4	7.84213e+06	   75.1988	    12.956	       2.4	 6.9684e+06	   75.3979	    13.119	       2.4	6.77262e+06	
         R10	   4701	   75.9609	   13.0583	       2.4	7.81012e+06	   75.9734	     12.75	       2.4	8.67011e+06	   75.6206	     12.75	       2.4	8.13864e+06	   75.6063	   13.0759	       2.4	7.30211e+06	   75.9672	   12.9042	       2.4	 8.1532e+06	    75.797	     12.75	       2.4	8.39775e+06	   75.6135	   12.9129	       2.4	7.61051e+06	   75.7836	   13.0671	       2.4	7.54144e+06	
         R10	   4702	   76.2486	   13.0058	       2.4	8.62451e+06	   76.2666	     12.75	       2.4	8.68402e+06	   75.9734	     12.75	       2.4	8.71424e+06	   75.9609	   13.0583	       2.4	7.75673e+06	   76.2576	   12.8779	       2.4	8.64324e+06	     76.12	     12.75	       2.4	8.69114e+06	   75.9672	   12.9042	       2.4	8.14769e+06	   76.1048	   13.0321	       2.4	8.16908e+06	
         R10	   4703	      76.5	    12.952	       2.4	9.16005e+06	      76.5	     12.75	       2.4	8.21095e+06	   76.2666	     12.75	       2.4	8.55859e+06	   76.2486	   13.0058	       2.4	8.58663e+06	      76.5	    12.851	       2.4	8.62017e+06	   76.3833	     12.75	       2.4	8.34932e+06	   76.2576	   12.8779	       2.4	8.55905e+06	   76.3743	   12.9789	       2.4	8.81575e+06	
         R10	   4704	      76.5	    13.138	       2.4	 8.7544e+06	      76.5	    12.952	       2.4	8.35124e+06	   76.2486	   13.0058	       2.4	8.39469e+06	   76.3053	   13.2146	       2.4	8.85976e+06	      76.5	    13.045	       2.4	8.53573e+06	   76.3743	   12.9789	       2.4	8.33048e+06	   76.2769	   13.1102	       2.4	8.60017e+06	   76.4026	   13.1763	       2.4	8.75734e+06	
         R10	   4705	   76.3387	      13.6	       2.4	8.73155e+06	      76.5	      13.6	       2.4	8.65898e+06	      76.5	    13.462	       2.4	8.85715e+06	   76.3427	   13.4527	       2.4	8.88307e+06	   76.4194	      13.6	       2.4	8.69355e+06	      76.5	    13.531	       2.4	8.73249e+06	   76.4214	   13.4573	       2.4	8.82766e+06	   76.3407	   13.5263	       2.4	8.76337e+06	
         R10	   4706	   76.1398	   13.3588	       2.4	8.37232e+06	   76.1433	      13.6	       2.4	8.58564e+06	   76.3387	      13.6	       2.4	9.04678e+06	   76.3427	   13.4527	       2.4	8.36868e+06	   76.1415	   13.4794	       2.4	8.46711e+06	    76.241	      13.6	       2.4	8.79466e+06	   76.3407	   13.5263	       2.4	8.67438e+06	   76.2412	   13.4057	       2.4	8.33075e+06	
         R10	   4707	   75.8862	   13.3628	       2.4	7.49747e+06	   75.9137	      13.6	       2.4	8.14244e+06	   76.1433	      13.6	       2.4	8.49326e+06	   76.1398	   13.3588	       2.4	8.31302e+06	   75.8999	   13.4814	       2.4	7.78368e+06	   76.0285	      13.6	       2.4	8.31021e+06	   76.1415	   13.4794	       2.4	8.39631e+06	    76.013	   13.3608	       2.4	7.87974e+06	
         R10	   4708	   75.6525	   13.3512	       2.4	 7.1188e+06	     75.65	      13.6	       2.4	7.62034e+06	   75.9137	      13.6	       2.4	8.12587e+06	   75.8862	   13.3628	       2.4	 7.4722e+06	   75.6513	   13.4756	       2.4	7.33627e+06	   75.7819	      13.6	       2.4	7.86578e+06	   75.8999	   13.4814	       2.4	7.76902e+06	   75.7693	    13.357	       2.4	7.27093e+06	
         R10	   4709	   75.4246	   13.3797	       2.4	6.94149e+06	   75.4192	      13.6	       2.4	 7.3022e+06	     75.65	      13.6	       2.4	7.61361e+06	   75.6525	   13.3512	       2.4	 6.9104e+06	   75.4219	   13.4898	       2.4	 7.0761e+06	   75.5346	      13.6	       2.4	7.45382e+06	   75.6513	   13.4756	       2.4	7.24033e+06	   75.5385	   13.3654	       2.4	6.89421e+06	
         R10	   4710	    72.961	     12.75	       2.4	7.31951e+06	     72.25	     12.75	       2.4	 8.3573e+06	     72.25	      13.6	       2.4	 8.9609e+06	    72.986	      13.6	       2.4	6.40481e+06	   72.6055	     12.75	       2.4	7.79869e+06	     72.25	    13.175	       2.4	8.64588e+06	    72.618	      13.6	       2.4	7.51068e+06	   72.9735	    13.175	       2.4	6.81018e+06	
         R10	   4711	   73.6123	     12.75	       2.4	6.49883e+06	    72.961	     12.75	       2.4	7.46747e+06	    72.986	      13.6	       2.4	6.70884e+06	   73.5855	      13.6	       2.4	6.38634e+06	   73.2867	     12.75	       2.4	6.92392e+06	   72.9735	    13.175	       2.4	7.03683e+06	   73.2857	      13.6	       2.4	6.50079e+06	   73.5989	    13.175	       2.4	6.43151e+06	
         R10	   4712	   76.3427	   13.4527	       2.4	9.39105e+06	      76.5	    13.462	       2.4	8.63234e+06	      76.5	    13.308	       2.4	8.42383e+06	   76.3053	   13.2146	       2.4	8.63979e+06	   76.4214	   13.4573	       2.4	8.98803e+06	      76.5	    13.385	       2.4	8.52368e+06	   76.4026	   13.2613	       2.4	8.49905e+06	    76.324	   13.3336	       2.4	9.00338e+06	
         R10	   4713	   76.1398	   13.3588	       2.4	8.63211e+06	   76.3053	   13.2146	       2.4	 8.5034e+06	   76.2486	   13.0058	       2.4	8.40184e+06	   75.9609	   13.0583	       2.4	7.72999e+06	   76.2225	   13.2867	       2.4	  8.555e+06	   76.2769	   13.1102	       2.4	8.42249e+06	   76.1048	   13.0321	       2.4	8.05893e+06	   76.0503	   13.2085	       2.4	8.16395e+06	
         R10	   4714	   75.6525	   13.3512	       2.4	7.32798e+06	   75.8862	   13.3628	       2.4	7.78821e+06	   75.9609	   13.0583	       2.4	 7.6427e+06	   75.6063	   13.0759	       2.4	7.18906e+06	   75.7693	    13.357	       2.4	7.53522e+06	   75.9235	   13.2105	       2.4	7.70992e+06	   75.7836	   13.0671	       2.4	7.40077e+06	   75.6294	   13.2135	       2.4	7.25294e+06	
         R10	   4715	   75.4246	   13.3797	       2.4	7.31279e+06	   75.6525	   13.3512	       2.4	7.01792e+06	   75.6063	   13.0759	       2.4	6.89123e+06	   75.1895	   13.1621	       2.4	6.80021e+06	   75.5385	   13.3654	       2.4	7.14428e+06	   75.6294	   13.2135	       2.4	6.94622e+06	   75.3979	    13.119	       2.4	6.81955e+06	   75.3071	   13.2709	       2.4	7.03349e+06	
         R10	   4716	   75.1763	      13.6	       2.4	6.91665e+06	   75.4192	      13.6	       2.4	7.42138e+06	   75.4246	   13.3797	       2.4	6.17089e+06	   75.1895	   13.1621	       2.4	6.81501e+06	   75.2978	      13.6	       2.4	7.15936e+06	   75.4219	   13.4898	       2.4	6.78344e+06	   75.3071	   13.2709	       2.4	6.47799e+06	   75.1829	    13.381	       2.4	6.85084e+06	
         R10	   4717	   74.9213	      13.6	       2.4	  6.724e+06	   75.1763	      13.6	       2.4	6.90156e+06	   75.1895	   13.1621	       2.4	6.48146e+06	   74.7244	   13.1972	       2.4	6.38224e+06	   75.0488	      13.6	       2.4	6.80718e+06	   75.1829	    13.381	       2.4	6.67512e+06	    74.957	   13.1796	       2.4	6.40152e+06	   74.8229	   13.3986	       2.4	6.54162e+06	
         R10	   4718	    74.375	      13.6	       2.4	6.60739e+06	   74.6542	      13.6	       2.4	6.63803e+06	   74.7244	   13.1972	       2.4	6.20608e+06	   74.2104	   13.2255	       2.4	6.42235e+06	   74.5146	      13.6	       2.4	6.61577e+06	   74.6893	   13.3986	       2.4	6.41098e+06	   74.4674	   13.2114	       2.4	6.28292e+06	   74.2927	   13.4128	       2.4	6.49953e+06	
         R10	   4719	   73.5855	      13.6	       2.4	6.44779e+06	   74.0485	      13.6	       2.4	6.52823e+06	   74.2104	   13.2255	       2.4	6.31293e+06	   73.8704	    13.188	       2.4	6.33215e+06	    73.817	      13.6	       2.4	6.46143e+06	   74.1294	   13.4128	       2.4	6.41033e+06	   74.0404	   13.2067	       2.4	6.30647e+06	   73.7279	    13.394	       2.4	6.38667e+06	
         R10	   4720	   73.8704	    13.188	       2.4	6.35388e+06	   74.2104	   13.2255	       2.4	6.22574e+06	   74.2039	     12.75	       2.4	6.88695e+06	   73.6123	     12.75	       2.4	6.57314e+06	   74.0404	   13.2067	       2.4	6.24043e+06	   74.2072	   12.9878	       2.4	6.40176e+06	   73.9081	     12.75	       2.4	6.69057e+06	   73.7413	    12.969	       2.4	6.45054e+06	
         R10	   4721	      76.5	    13.308	       2.4	8.51282e+06	      76.5	    13.138	       2.4	 8.4294e+06	   76.3053	   13.2146	       2.4	9.16118e+06	      76.5	    13.223	       2.4	8.47098e+06	   76.4026	   13.1763	       2.4	8.76941e+06	   76.4026	   13.2613	       2.4	8.81136e+06	       N/A	       N/A	       N/A	        N/A	       N/A	       N/A	       N/A	        N/A	
         R10	   4722	   76.1398	   13.3588	       2.4	8.58025e+06	   76.3427	   13.4527	       2.4	9.09755e+06	   76.3053	   13.2146	       2.4	8.59702e+06	   76.2412	   13.4057	       2.4	8.81102e+06	    76.324	   13.3336	       2.4	8.82621e+06	   76.2225	   13.2867	       2.4	8.57913e+06	       N/A	       N/A	       N/A	        N/A	       N/A	       N/A	       N/A	        N/A	
         R10	   4723	   75.8862	   13.3628	       2.4	7.69513e+06	   76.1398	   13.3588	       2.4	 8.4342e+06	   75.9609	   13.0583	       2.4	7.72536e+06	    76.013	   13.3608	       2.4	8.04617e+06	   76.0503	   13.2085	       2.4	 8.0534e+06	   75.9235	   13.2105	       2.4	7.70747e+06	       N/A	       N/A	       N/A	        N/A	       N/A	       N/A	       N/A	        N/A	
         R10	   4724	   74.6542	      13.6	       2.4	 6.6177e+06	   74.9213	      13.6	       2.4	6.70736e+06	   74.7244	   13.1972	       2.4	6.24683e+06	   74.7878	      13.6	       2.4	6.65686e+06	   74.8229	   13.3986	       2.4	 6.4682e+06	   74.6893	   13.3986	       2.4	6.42354e+06	       N/A	       N/A	       N/A	        N/A	       N/A	       N/A	       N/A	        N/A	
         R10	   4725	   74.0485	      13.6	       2.4	6.53188e+06	    74.375	      13.6	       2.4	6.56346e+06	   74.2104	   13.2255	       2.4	6.16821e+06	   74.2117	      13.6	       2.4	6.54006e+06	   74.2927	   13.4128	       2.4	6.35444e+06	   74.1294	   13.4128	       2.4	6.34086e+06	       N/A	       N/A	       N/A	        N/A	       N/A	       N/A	       N/A	        N/A	
         R10	   4726	   73.8704	    13.188	       2.4	6.24593e+06	   73.6123	     12.75	       2.4	 6.2169e+06	   73.5855	      13.6	       2.4	6.35686e+06	   73.7413	    12.969	       2.4	6.21904e+06	   73.5989	    13.175	       2.4	6.27172e+06	   73.7279	    13.394	       2.4	6.29323e+06	       N/A	       N/A	       N/A	        N/A	       N/A	       N/A	       N/A	        N/A	
         R10	   4727	   78.2496	   11.4959	       2.4	 7.2452e+06	   78.2032	      11.9	       2.4	7.27093e+06	    78.625	      11.9	       2.4	7.34343e+06	    78.625	   11.5581	       2.4	6.55464e+06	   78.2264	    11.698	       2.4	 7.2387e+06	   78.4141	      11.9	       2.4	7.29781e+06	    78.625	   11.7291	       2.4	6.93844e+06	   78.4373	    11.527	       2.4	6.89396e+06	
         R10	   4728	   77.0068	   11.4484	       2.4	7.30188e+06	   76.9282	      11.9	       2.4	8.29522e+06	   77.3548	      11.9	       2.4	7.79238e+06	   77.4115	   11.4991	       2.4	 7.8883e+06	   76.9675	   11.6742	       2.4	 7.7937e+06	   77.1415	      11.9	       2.4	 8.0344e+06	   77.3831	   11.6996	       2.4	7.82028e+06	   77.2091	   11.4738	       2.4	 7.5769e+06	
         R10	   4729	      76.5	   11.5844	       2.4	8.66635e+06	      76.5	      11.9	       2.4	 8.8107e+06	   76.9282	      11.9	       2.4	8.32076e+06	   77.0068	   11.4484	       2.4	8.04545e+06	      76.5	   11.7422	       2.4	8.72816e+06	   76.7141	      11.9	       2.4	8.53781e+06	   76.9675	   11.6742	       2.4	8.16445e+06	   76.7534	   11.5164	       2.4	8.32513e+06	
         R10	   4730	   77.2598	     11.05	       2.4	8.07134e+06	      76.5	     11.05	       2.4	8.41307e+06	      76.5	   11.5844	       2.4	8.99715e+06	   77.0068	   11.4484	       2.4	 8.3308e+06	   76.8799	     11.05	       2.4	8.23913e+06	      76.5	   11.3172	       2.4	8.69981e+06	   76.7534	   11.5164	       2.4	8.62224e+06	   77.1333	   11.2492	       2.4	8.17238e+06	
         R10	   4731	   77.9681	     11.05	       2.4	7.50716e+06	   77.2598	     11.05	       2.4	8.18693e+06	   77.0068	   11.4484	       2.4	7.47187e+06	   77.4115	   11.4991	       2.4	 7.8225e+06	   77.6139	     11.05	       2.4	7.83372e+06	   77.1333	   11.2492	       2.4	7.82573e+06	   77.2091	   11.4738	       2.4	7.62238e+06	   77.6898	   11.2746	       2.4	7.61998e+06	
         R10	   4732	   78.2496	   11.4959	       2.4	7.17991e+06	    78.625	   11.5581	       2.4	6.26696e+06	    78.625	     11.05	       2.4	7.66084e+06	   77.9681	     11.05	       2.4	7.52192e+06	   78.4373	    11.527	       2.4	6.72155e+06	    78.625	   11.3041	       2.4	6.89861e+06	   78.2966	     11.05	       2.4	7.58125e+06	   78.1089	    11.273	       2.4	7.30491e+06	
         R10	   4733	   77.7798	      11.9	       2.4	 7.1339e+06	   78.2032	      11.9	       2.4	7.16775e+06	   78.2496	   11.4959	       2.4	6.52069e+06	   77.9681	     11.05	       2.4	  7.041e+06	   77.9915	      11.9	       2.4	7.14784e+06	   78.2264	    11.698	       2.4	6.83949e+06	   78.1089	    11.273	       2.4	6.76401e+06	    77.874	    11.475	       2.4	7.07345e+06	
         R10	   4734	   77.3548	      11.9	       2.4	7.71095e+06	   77.7798	      11.9	       2.4	7.11373e+06	   77.9681	     11.05	       2.4	7.18725e+06	   77.4115	   11.4991	       2.4	6.83965e+06	   77.5673	      11.9	       2.4	7.40434e+06	    77.874	    11.475	       2.4	7.14847e+06	   77.6898	   11.2746	       2.4	7.01327e+06	   77.3831	   11.6996	       2.4	7.27441e+06	
         R10	   4735	   77.3488	     12.32	       2.4	6.90811e+06	   77.3548	      11.9	       2.4	8.42716e+06	   76.9282	      11.9	       2.4	8.74932e+06	   76.9263	   12.2935	       2.4	7.91085e+06	   77.3518	     12.11	       2.4	7.53283e+06	   77.1415	      11.9	       2.4	8.58168e+06	   76.9273	   12.0967	       2.4	  8.265e+06	   77.1376	   12.3068	       2.4	7.37951e+06	
         R10	   4736	   77.8047	   12.3259	       2.4	6.65991e+06	   77.7798	      11.9	       2.4	7.93253e+06	   77.3548	      11.9	       2.4	8.43321e+06	   77.3488	     12.32	       2.4	6.95046e+06	   77.7923	   12.1129	       2.4	7.15321e+06	   77.5673	      11.9	       2.4	8.17581e+06	   77.3518	     12.11	       2.4	7.55488e+06	   77.5768	    12.323	       2.4	6.77425e+06	
         R10	   4737	   78.2286	   12.3093	       2.4	6.54726e+06	   78.2032	      11.9	       2.4	7.61203e+06	   77.7798	      11.9	       2.4	7.90417e+06	   77.8047	   12.3259	       2.4	6.41911e+06	   78.2159	   12.1046	       2.4	6.97498e+06	   77.9915	      11.9	       2.4	7.74767e+06	   77.7923	   12.1129	       2.4	7.02944e+06	   78.0167	   12.3176	       2.4	6.44684e+06	
         R10	   4738	    78.625	   12.3654	       2.4	6.33909e+06	    78.625	      11.9	       2.4	 7.4286e+06	   78.2032	      11.9	       2.4	7.58312e+06	   78.2286	   12.3093	       2.4	6.41418e+06	    78.625	   12.1327	       2.4	6.77808e+06	   78.4141	      11.9	       2.4	7.49638e+06	   78.2159	   12.1046	       2.4	6.90209e+06	   78.4268	   12.3373	       2.4	6.34218e+06	
         R10	   4739	   78.3093	     12.75	       2.4	7.04688e+06	    78.625	     12.75	       2.4	 7.0824e+06	    78.625	   12.3654	       2.4	6.39081e+06	   78.2286	   12.3093	       2.4	6.44879e+06	   78.4672	     12.75	       2.4	7.05851e+06	    78.625	   12.5577	       2.4	6.69512e+06	   78.4268	   12.3373	       2.4	6.39298e+06	    78.269	   12.5296	       2.4	6.71768e+06	
         R10	   4740	    78.008	     12.75	       2.4	7.05686e+06	   78.3093	     12.75	       2.4	7.06591e+06	   78.2286	   12.3093	       2.4	6.52819e+06	   77.8047	   12.3259	       2.4	6.62086e+06	   78.1587	     12.75	       2.4	 7.0561e+06	    78.269	   12.5296	       2.4	6.75577e+06	   78.0167	   12.3176	       2.4	6.52575e+06	   77.9063	   12.5379	       2.4	6.82996e+06	
         R10	   4741	      76.5	   12.5475	       2.4	8.68172e+06	      76.5	     12.75	       2.4	8.53001e+06	   76.7156	     12.75	       2.4	8.47379e+06	    76.709	   12.5317	       2.4	8.57169e+06	      76.5	   12.6488	       2.4	 8.5956e+06	   76.6078	     12.75	       2.4	8.49167e+06	   76.7123	   12.6408	       2.4	8.49953e+06	   76.6045	   12.5396	       2.4	8.57439e+06	
         R10	   4742	   76.9263	   12.2935	       2.4	8.20745e+06	   76.9282	      11.9	       2.4	 8.7479e+06	      76.5	      11.9	       2.4	8.06198e+06	      76.5	   12.2642	       2.4	8.89327e+06	   76.9273	   12.0967	       2.4	8.40012e+06	   76.7141	      11.9	       2.4	8.39667e+06	      76.5	   12.0821	       2.4	8.46746e+06	   76.7132	   12.2788	       2.4	8.45002e+06	
         R10	   4743	   77.4482	     12.75	       2.4	7.44881e+06	   77.7209	     12.75	       2.4	 7.2463e+06	   77.8047	   12.3259	       2.4	6.84107e+06	   77.3488	     12.32	       2.4	7.15641e+06	   77.5845	     12.75	       2.4	7.34282e+06	   77.7628	   12.5379	       2.4	7.02829e+06	   77.5768	    12.323	       2.4	6.96922e+06	   77.3985	    12.535	       2.4	 7.2987e+06	
         R10	   4744	   76.9263	   12.2935	       2.4	8.24437e+06	      76.5	   12.2642	       2.4	8.33772e+06	      76.5	   12.5475	       2.4	8.77574e+06	    76.709	   12.5317	       2.4	9.36048e+06	   76.7132	   12.2788	       2.4	 8.2365e+06	      76.5	   12.4059	       2.4	 8.5497e+06	   76.6045	   12.5396	       2.4	9.04839e+06	   76.8176	   12.4126	       2.4	8.76237e+06	
         R10	   4745	   77.1897	     12.75	       2.4	7.74786e+06	   77.3488	     12.32	       2.4	 7.1612e+06	   76.9263	   12.2935	       2.4	7.88128e+06	   76.9455	     12.75	       2.4	8.14642e+06	   77.2692	    12.535	       2.4	7.44246e+06	   77.1376	   12.3068	       2.4	7.50264e+06	   76.9359	   12.5217	       2.4	8.00358e+06	   77.0676	     12.75	       2.4	7.94211e+06	
         R10	   4746	   76.9455	     12.75	       2.4	8.20281e+06	   76.9263	   12.2935	       2.4	8.48173e+06	    76.709	   12.5317	       2.4	7.77619e+06	   76.7156	     12.75	       2.4	8.75096e+06	   76.9359	   12.5217	       2.4	8.32035e+06	   76.8176	   12.4126	       2.4	8.06861e+06	   76.7123	   12.6408	       2.4	8.26119e+06	   76.8305	     12.75	       2.4	8.46509e+06	
         R10	   4747	   77.7209	     12.75	       2.4	7.20984e+06	    78.008	     12.75	       2.4	7.00755e+06	   77.8047	   12.3259	       2.4	6.63017e+06	   77.8645	     12.75	       2.4	7.10338e+06	   77.9063	   12.5379	       2.4	6.81127e+06	   77.7628	   12.5379	       2.4	6.91024e+06	       N/A	       N/A	       N/A	        N/A	       N/A	       N/A	       N/A	        N/A	
         R10	   4748	   77.1897	     12.75	       2.4	7.73524e+06	   77.4482	     12.75	       2.4	7.41363e+06	   77.3488	     12.32	       2.4	7.09963e+06	   77.3189	     12.75	       2.4	7.56954e+06	   77.3985	    12.535	       2.4	 7.2537e+06	   77.2692	    12.535	       2.4	7.40796e+06	       N/A	       N/A	       N/A	        N/A	       N/A	       N/A	       N/A	        N/A	
         R10	   4749	   76.9599	   12.9624	       2.4	7.92569e+06	   76.9455	     12.75	       2.4	8.78403e+06	   76.7156	     12.75	       2.4	 8.4142e+06	   76.7292	   12.9467	       2.4	8.60242e+06	   76.9527	   12.8562	       2.4	8.29597e+06	   76.8305	     12.75	       2.4	8.58686e+06	   76.7224	   12.8483	       2.4	 8.5054e+06	   76.8446	   12.9545	       2.4	8.25217e+06	
         R10	   4750	   77.1948	   12.9702	       2.4	7.58308e+06	   77.1897	     12.75	       2.4	8.56409e+06	   76.9455	     12.75	       2.4	8.74668e+06	   76.9599	   12.9624	       2.4	8.05255e+06	   77.1923	   12.8601	       2.4	8.00233e+06	   77.0676	     12.75	       2.4	8.65233e+06	   76.9527	   12.8562	       2.4	8.33744e+06	   77.0774	   12.9663	       2.4	7.81616e+06	
         R10	   4751	   77.4427	   12.9704	       2.4	7.25822e+06	   77.4482	     12.75	       2.4	8.26981e+06	   77.1897	     12.75	       2.4	8.56532e+06	   77.1948	   12.9702	       2.4	 7.7038e+06	   77.4454	   12.8602	       2.4	7.68409e+06	   77.3189	     12.75	       2.4	8.41334e+06	   77.1923	   12.8601	       2.4	8.05863e+06	   77.3188	   12.9703	       2.4	7.47373e+06	
         R10	   4752	   77.7077	   12.9746	       2.4	7.01822e+06	   77.7209	     12.75	       2.4	7.88224e+06	   77.4482	     12.75	       2.4	8.22734e+06	   77.4427	   12.9704	       2.4	7.26905e+06	   77.7143	   12.8623	       2.4	7.36872e+06	   77.5845	     12.75	       2.4	   8.05e+06	   77.4454	   12.8602	       2.4	7.66339e+06	   77.5752	   12.9725	       2.4	7.13629e+06	
         R10	   4753	   78.0102	   13.0502	       2.4	6.57359e+06	    78.008	     12.75	       2.4	7.65288e+06	   77.7209	     12.75	       2.4	7.93881e+06	   77.7077	   12.9746	       2.4	6.84271e+06	   78.0091	   12.9001	       2.4	6.99715e+06	   77.8645	     12.75	       2.4	7.79073e+06	   77.7143	   12.8623	       2.4	7.31256e+06	   77.8589	   13.0124	       2.4	6.67879e+06	
         R10	   4754	   78.3224	   13.0404	       2.4	6.46839e+06	   78.3093	     12.75	       2.4	7.46135e+06	    78.008	     12.75	       2.4	 7.6115e+06	   78.0102	   13.0502	       2.4	6.52098e+06	   78.3159	   12.8952	       2.4	6.85133e+06	   78.1587	     12.75	       2.4	7.52985e+06	   78.0091	   12.9001	       2.4	6.95049e+06	   78.1663	   13.0453	       2.4	6.47997e+06	
         R10	   4755	    78.625	   13.0736	       2.4	 6.3145e+06	    78.625	     12.75	       2.4	7.34502e+06	   78.3093	     12.75	       2.4	7.47423e+06	   78.3224	   13.0404	       2.4	6.46076e+06	    78.625	   12.9118	       2.4	6.72052e+06	   78.4672	     12.75	       2.4	7.40318e+06	   78.3159	   12.8952	       2.4	6.85471e+06	   78.4737	    13.057	       2.4	6.36799e+06	
         R10	   4756	    78.625	   13.3569	       2.4	6.56707e+06	    78.625	   13.0736	       2.4	6.32472e+06	   78.3224	   13.0404	       2.4	6.48845e+06	   78.3436	   13.3176	       2.4	6.29833e+06	    78.625	   13.2152	       2.4	6.44402e+06	   78.4737	    13.057	       2.4	 6.3965e+06	    78.333	    13.179	       2.4	6.38996e+06	   78.4843	   13.3373	       2.4	6.41198e+06	
         R10	   4757	   78.3823	      13.6	       2.4	6.98808e+06	    78.625	      13.6	       2.4	 7.0409e+06	    78.625	   13.3569	       2.4	6.53583e+06	   78.3436	   13.3176	       2.4	6.31899e+06	   78.5037	      13.6	       2.4	7.00769e+06	    78.625	   13.4784	       2.4	6.72751e+06	   78.4843	   13.3373	       2.4	6.41439e+06	    78.363	   13.4588	       2.4	6.60834e+06	
         R10	   4758	   78.1517	      13.6	       2.4	6.97842e+06	   78.3823	      13.6	       2.4	6.98334e+06	   78.3436	   13.3176	       2.4	6.39051e+06	   78.0779	   13.3489	       2.4	 6.4501e+06	    78.267	      13.6	       2.4	6.97628e+06	    78.363	   13.4588	       2.4	6.63404e+06	   78.2107	   13.3332	       2.4	6.40104e+06	   78.1148	   13.4744	       2.4	6.69667e+06	
         R10	   4759	   77.5765	   13.4021	       2.4	6.71694e+06	   77.5323	      13.6	       2.4	7.46194e+06	   77.7267	      13.6	       2.4	7.22253e+06	   77.8054	   13.3849	       2.4	6.57536e+06	   77.5544	   13.5011	       2.4	7.05357e+06	   77.6295	      13.6	       2.4	7.33715e+06	   77.7661	   13.4924	       2.4	6.86983e+06	   77.6909	   13.3935	       2.4	6.63819e+06	
         R10	   4760	   77.3741	   13.3946	       2.4	6.95711e+06	     77.35	      13.6	       2.4	   7.63e+06	   77.5323	      13.6	       2.4	7.42607e+06	   77.5765	   13.4021	       2.4	6.78682e+06	   77.3621	   13.4973	       2.4	7.25873e+06	   77.4412	      13.6	       2.4	7.52487e+06	   77.5544	   13.5011	       2.4	7.06748e+06	   77.4753	   13.3984	       2.4	6.86143e+06	
         R10	   4761	   77.1757	   13.3906	       2.4	 7.2407e+06	   77.1638	      13.6	       2.4	7.91716e+06	     77.35	      13.6	       2.4	7.64551e+06	   77.3741	   13.3946	       2.4	6.92813e+06	   77.1698	   13.4953	       2.4	7.54739e+06	   77.2569	      13.6	       2.4	7.77702e+06	   77.3621	   13.4973	       2.4	7.25175e+06	   77.2749	   13.3926	       2.4	7.07754e+06	
         R10	   4762	   76.9982	   13.4027	       2.4	7.65758e+06	   76.9858	      13.6	       2.4	 8.1764e+06	   77.1638	      13.6	       2.4	7.92256e+06	   77.1757	   13.3906	       2.4	7.16127e+06	    76.992	   13.5013	       2.4	 7.8996e+06	   77.0748	      13.6	       2.4	  8.045e+06	   77.1698	   13.4953	       2.4	 7.5095e+06	    77.087	   13.3966	       2.4	7.40134e+06	
         R10	   4763	   76.8268	   13.4348	       2.4	8.20841e+06	   76.8158	      13.6	       2.4	   8.45e+06	   76.9858	      13.6	       2.4	 8.1748e+06	   76.9982	   13.4027	       2.4	7.43624e+06	   76.8213	   13.5174	       2.4	8.31838e+06	   76.9008	      13.6	       2.4	8.30706e+06	    76.992	   13.5013	       2.4	7.79024e+06	   76.9125	   13.4187	       2.4	7.81593e+06	
         R10	   4764	   76.6581	    13.449	       2.4	 8.5007e+06	   76.6538	      13.6	       2.4	8.70571e+06	   76.8158	      13.6	       2.4	8.51693e+06	   76.8268	   13.4348	       2.4	7.95123e+06	    76.656	   13.5245	       2.4	8.58584e+06	   76.7348	      13.6	       2.4	8.59605e+06	   76.8213	   13.5174	       2.4	8.22536e+06	   76.7425	   13.4419	       2.4	 8.2177e+06	
         R10	   4765	      76.5	    13.462	       2.4	 8.9221e+06	      76.5	      13.6	       2.4	8.60654e+06	   76.6538	      13.6	       2.4	8.53582e+06	   76.6581	    13.449	       2.4	8.49048e+06	      76.5	    13.531	       2.4	8.74017e+06	   76.5769	      13.6	       2.4	8.56307e+06	    76.656	   13.5245	       2.4	 8.4918e+06	   76.5791	   13.4555	       2.4	8.68366e+06	
         R10	   4766	      76.5	    13.308	       2.4	8.42149e+06	      76.5	    13.462	       2.4	8.77268e+06	   76.6581	    13.449	       2.4	9.13286e+06	   76.6711	   13.2849	       2.4	8.40586e+06	      76.5	    13.385	       2.4	8.59154e+06	   76.5791	   13.4555	       2.4	8.94386e+06	   76.6646	    13.367	       2.4	8.75107e+06	   76.5855	   13.2965	       2.4	8.39001e+06	
         R10	   4767	   76.7118	   13.1201	       2.4	8.41798e+06	      76.5	    13.138	       2.4	8.26059e+06	      76.5	    13.308	       2.4	8.46077e+06	   76.6711	   13.2849	       2.4	9.04516e+06	   76.6059	    13.129	       2.4	8.28901e+06	      76.5	    13.223	       2.4	8.36063e+06	   76.5855	   13.2965	       2.4	8.73415e+06	   76.6914	   13.2025	       2.4	8.69757e+06	
         R10	   4768	   76.7292	   12.9467	       2.4	8.77646e+06	   76.7156	     12.75	       2.4	8.25495e+06	      76.5	     12.75	       2.4	7.64012e+06	      76.5	    12.952	       2.4	8.97672e+06	   76.7224	   12.8483	       2.4	8.51063e+06	   76.6078	     12.75	       2.4	7.92273e+06	      76.5	    12.851	       2.4	8.24065e+06	   76.6146	   12.9493	       2.4	8.81878e+06	
         R10	   4769	   77.1833	   13.1827	       2.4	 7.5247e+06	   77.1948	   12.9702	       2.4	7.32657e+06	   76.9599	   12.9624	       2.4	7.90809e+06	   76.9469	   13.1806	       2.4	 7.9376e+06	   77.1891	   13.0765	       2.4	7.40537e+06	   77.0774	   12.9663	       2.4	7.61282e+06	   76.9534	   13.0715	       2.4	7.89856e+06	   77.0651	   13.1816	       2.4	 7.7246e+06	
         R10	   4770	   77.4116	   13.1869	       2.4	7.02588e+06	   77.4427	   12.9704	       2.4	 7.1091e+06	   77.1948	   12.9702	       2.4	7.42324e+06	   77.1833	   13.1827	       2.4	7.49764e+06	   77.4272	   13.0787	       2.4	7.04819e+06	   77.3188	   12.9703	       2.4	7.26185e+06	   77.1891	   13.0765	       2.4	 7.4407e+06	   77.2975	   13.1848	       2.4	7.25178e+06	
         R10	   4771	   78.0779	   13.3489	       2.4	6.43244e+06	   78.3436	   13.3176	       2.4	6.40296e+06	   78.3224	   13.0404	       2.4	6.45132e+06	   78.0102	   13.0502	       2.4	 6.4495e+06	   78.2107	   13.3332	       2.4	6.40071e+06	    78.333	    13.179	       2.4	6.42278e+06	   78.1663	   13.0453	       2.4	6.43623e+06	    78.044	   13.1995	       2.4	6.43893e+06	
         R10	   4772	   77.8054	   13.3849	       2.4	6.66133e+06	   77.7267	      13.6	       2.4	 7.2314e+06	   77.9332	      13.6	       2.4	7.04119e+06	   78.0779	   13.3489	       2.4	6.48902e+06	   77.7661	   13.4924	       2.4	6.90925e+06	     77.83	      13.6	       2.4	7.13159e+06	   78.0055	   13.4744	       2.4	6.74295e+06	   77.9416	   13.3669	       2.4	6.55489e+06	
         R10	   4773	   76.6711	   13.2849	       2.4	8.40659e+06	   76.6581	    13.449	       2.4	9.11604e+06	   76.8268	   13.4348	       2.4	8.48623e+06	   76.8089	    13.301	       2.4	8.19089e+06	   76.6646	    13.367	       2.4	8.74205e+06	   76.7425	   13.4419	       2.4	8.79461e+06	   76.8179	   13.3679	       2.4	8.32113e+06	     76.74	    13.293	       2.4	8.28527e+06	
         R10	   4774	   76.7292	   12.9467	       2.4	 8.2349e+06	      76.5	    12.952	       2.4	8.06348e+06	      76.5	    13.138	       2.4	8.57299e+06	   76.7118	   13.1201	       2.4	8.88164e+06	   76.6146	   12.9493	       2.4	8.09722e+06	      76.5	    13.045	       2.4	8.30816e+06	   76.6059	    13.129	       2.4	8.67701e+06	   76.7205	   13.0334	       2.4	8.53112e+06	
         R10	   4775	   77.7077	   12.9746	       2.4	6.91531e+06	   77.4427	   12.9704	       2.4	7.10125e+06	   77.4116	   13.1869	       2.4	7.03068e+06	   77.6351	   13.1922	       2.4	6.79867e+06	   77.5752	   12.9725	       2.4	6.99825e+06	   77.4272	   13.0787	       2.4	7.04661e+06	   77.5234	   13.1896	       2.4	6.90743e+06	   77.6714	   13.0834	       2.4	6.82546e+06	
         R10	   4776	   76.9469	   13.1806	       2.4	8.05958e+06	   76.9599	   12.9624	       2.4	7.87814e+06	   76.7292	   12.9467	       2.4	8.15336e+06	   76.7118	   13.1201	       2.4	8.44476e+06	   76.9534	   13.0715	       2.4	7.94648e+06	   76.8446	   12.9545	       2.4	8.01477e+06	   76.7205	   13.0334	       2.4	8.26772e+06	   76.8294	   13.1503	       2.4	8.22616e+06	
         R10	   4777	   77.8054	   13.3849	       2.4	6.99207e+06	   78.0779	   13.3489	       2.4	6.44723e+06	   78.0102	   13.0502	       2.4	6.84944e+06	   77.8155	   13.2181	       2.4	 5.9554e+06	   77.9416	   13.3669	       2.4	6.69587e+06	    78.044	   13.1995	       2.4	6.64599e+06	   77.9128	   13.1341	       2.4	6.39493e+06	   77.8104	   13.3015	       2.4	6.47151e+06	
         R10	   4778	   77.6351	   13.1922	       2.4	6.55682e+06	   77.5765	   13.4021	       2.4	6.95503e+06	   77.8054	   13.3849	       2.4	6.70157e+06	   77.8155	   13.2181	       2.4	6.58949e+06	   77.6058	   13.2972	       2.4	6.74811e+06	   77.6909	   13.3935	       2.4	6.81837e+06	   77.8104	   13.3015	       2.4	6.63425e+06	   77.7253	   13.2052	       2.4	6.56347e+06	
         R10	   4779	   78.0102	   13.0502	       2.4	 6.6028e+06	   77.7077	   12.9746	       2.4	6.83906e+06	   77.6351	   13.1922	       2.4	6.58676e+06	   77.8155	   13.2181	       2.4	6.70496e+06	   77.8589	   13.0124	       2.4	6.69697e+06	   77.6714	   13.0834	       2.4	6.68239e+06	   77.7253	   13.2052	       2.4	6.64037e+06	   77.9128	   13.1341	       2.4	6.63249e+06	
         R10	   4780	   77.5765	   13.4021	       2.4	6.93687e+06	   77.6351	   13.1922	       2.4	 6.6878e+06	   77.4116	   13.1869	       2.4	6.89581e+06	   77.3741	   13.3946	       2.4	 7.1185e+06	   77.6058	   13.2972	       2.4	6.80554e+06	   77.5234	   13.1896	       2.4	6.78214e+06	   77.3929	   13.2908	       2.4	7.00278e+06	   77.4753	   13.3984	       2.4	7.02037e+06	
         R10	   4781	   77.3741	   13.3946	       2.4	7.11814e+06	   77.4116	   13.1869	       2.4	6.89194e+06	   77.1833	   13.1827	       2.4	7.19607e+06	   77.1757	   13.3906	       2.4	7.56421e+06	   77.3929	   13.2908	       2.4	7.00118e+06	   77.2975	   13.1848	       2.4	7.03897e+06	   77.1795	   13.2866	       2.4	7.37235e+06	   77.2749	   13.3926	       2.4	7.33132e+06	
         R10	   4782	   76.9982	   13.4027	       2.4	8.00188e+06	   77.1757	   13.3906	       2.4	7.51702e+06	   77.1833	   13.1827	       2.4	7.23831e+06	   76.9469	   13.1806	       2.4	  7.732e+06	    77.087	   13.3966	       2.4	7.75344e+06	   77.1795	   13.2866	       2.4	7.36966e+06	   77.0651	   13.1816	       2.4	7.47246e+06	   76.9725	   13.2916	       2.4	7.86042e+06	
         R10	   4783	   76.8089	    13.301	       2.4	7.60516e+06	   76.8268	   13.4348	       2.4	8.90016e+06	   76.9982	   13.4027	       2.4	7.92058e+06	   76.9469	   13.1806	       2.4	8.05991e+06	   76.8179	   13.3679	       2.4	8.25209e+06	   76.9125	   13.4187	       2.4	8.40415e+06	   76.9725	   13.2916	       2.4	7.98198e+06	   76.8779	   13.2408	       2.4	7.80962e+06	
         R10	   4784	   76.8089	    13.301	       2.4	8.68128e+06	   76.9469	   13.1806	       2.4	8.08525e+06	   76.7118	   13.1201	       2.4	8.27698e+06	   76.6711	   13.2849	       2.4	 8.7567e+06	   76.8779	   13.2408	       2.4	8.35844e+06	   76.8294	   13.1503	       2.4	8.16787e+06	   76.6914	   13.2025	       2.4	8.48435e+06	     76.74	    13.293	       2.4	8.71289e+06	
         R10	   4785	   77.9332	      13.6	       2.4	7.00822e+06	   78.1517	      13.6	       2.4	6.93966e+06	   78.0779	   13.3489	       2.4	6.41827e+06	   78.0424	      13.6	       2.4	6.97056e+06	   78.1148	   13.4744	       2.4	6.66045e+06	   78.0055	   13.4744	       2.4	6.68991e+06	       N/A	       N/A	       N/A	        N/A	       N/A	       N/A	       N/A	        N/A	
         R10	   4786	    74.375	   13.8968	       2.4	5.72054e+06	    74.375	      13.6	       2.4	6.72752e+06	   74.0485	      13.6	       2.4	6.68873e+06	   74.0485	   13.9948	       2.4	 6.7429e+06	    74.375	   13.7484	       2.4	6.15928e+06	   74.2117	      13.6	       2.4	6.69975e+06	   74.0485	   13.7974	       2.4	6.57586e+06	   74.2117	   13.9458	       2.4	6.19565e+06	
         R10	   4787	   74.0696	     14.45	       2.4	6.67074e+06	    74.375	     14.45	       2.4	6.79649e+06	    74.375	   14.1802	       2.4	 6.0856e+06	   74.0485	   13.9948	       2.4	6.26461e+06	   74.2223	     14.45	       2.4	6.72671e+06	    74.375	   14.3151	       2.4	6.41294e+06	   74.2117	   14.0875	       2.4	6.16782e+06	   74.0591	   14.2224	       2.4	6.42478e+06	
         R10	   4788	   73.6137	     14.45	       2.4	6.57179e+06	   74.0696	     14.45	       2.4	6.67791e+06	   74.0485	   13.9948	       2.4	 6.6949e+06	   73.6244	   14.0046	       2.4	5.80493e+06	   73.8416	     14.45	       2.4	6.60721e+06	   74.0591	   14.2224	       2.4	6.64084e+06	   73.8364	   13.9997	       2.4	6.22979e+06	    73.619	   14.2273	       2.4	6.16982e+06	
         R10	   4789	    72.986	      13.6	       2.4	6.93237e+06	     72.25	      13.6	       2.4	8.50112e+06	     72.25	     14.45	       2.4	9.11503e+06	   73.0071	     14.45	       2.4	6.34698e+06	    72.618	      13.6	       2.4	7.64901e+06	     72.25	    14.025	       2.4	8.79325e+06	   72.6286	     14.45	       2.4	7.44403e+06	   72.9966	    14.025	       2.4	6.55512e+06	
         R10	   4790	   73.6244	   14.0046	       2.4	5.99177e+06	   74.0485	   13.9948	       2.4	6.69658e+06	   74.0485	      13.6	       2.4	6.67908e+06	   73.5855	      13.6	       2.4	6.33831e+06	   73.8364	   13.9997	       2.4	6.24947e+06	   74.0485	   13.7974	       2.4	6.55247e+06	    73.817	      13.6	       2.4	6.45409e+06	   73.6049	   13.8023	       2.4	6.15917e+06	
         R10	   4791	   73.6244	   14.0046	       2.4	6.51093e+06	   73.5855	      13.6	       2.4	6.33689e+06	    72.986	      13.6	       2.4	7.45949e+06	   73.0071	     14.45	       2.4	6.21418e+06	   73.6049	   13.8023	       2.4	6.42353e+06	   73.2857	      13.6	       2.4	6.80942e+06	   72.9966	    14.025	       2.4	6.75325e+06	   73.3158	   14.2273	       2.4	6.29447e+06	
         R10	   4792	    74.375	   14.1802	       2.4	6.38631e+06	    74.375	   13.8968	       2.4	 5.7999e+06	   74.0485	   13.9948	       2.4	6.54166e+06	    74.375	   14.0385	       2.4	 6.0908e+06	   74.2117	   13.9458	       2.4	6.16968e+06	   74.2117	   14.0875	       2.4	6.45707e+06	       N/A	       N/A	       N/A	        N/A	       N/A	       N/A	       N/A	        N/A	
         R10	   4793	   73.0071	     14.45	       2.4	6.46809e+06	   73.6137	     14.45	       2.4	6.58042e+06	   73.6244	   14.0046	       2.4	6.41948e+06	   73.3104	     14.45	       2.4	6.46831e+06	    73.619	   14.2273	       2.4	6.47754e+06	   73.3158	   14.2273	       2.4	6.41548e+06	       N/A	       N/A	       N/A	        N/A	       N/A	       N/A	       N/A	        N/A	
         R10	   4794	    74.375	   14.7333	       2.4	6.26811e+06	    74.375	     14.45	       2.4	6.86539e+06	   74.0696	     14.45	       2.4	6.70315e+06	   74.0613	   14.8363	       2.4	7.15553e+06	    74.375	   14.5917	       2.4	 6.4373e+06	   74.2223	     14.45	       2.4	6.77615e+06	   74.0655	   14.6432	       2.4	6.78081e+06	   74.2181	   14.7848	       2.4	6.68275e+06	
         R10	   4795	   74.0696	      15.3	       2.4	8.52336e+06	    74.375	      15.3	       2.4	5.61249e+06	    74.375	   15.0167	       2.4	6.73981e+06	   74.0613	   14.8363	       2.4	7.22038e+06	   74.2223	      15.3	       2.4	7.02954e+06	    74.375	   15.1583	       2.4	6.14955e+06	   74.2181	   14.9265	       2.4	6.96656e+06	   74.0655	   15.0682	       2.4	7.81331e+06	
         R10	   4796	   73.6137	      15.3	       2.4	8.22852e+06	   74.0696	      15.3	       2.4	5.66359e+06	   74.0613	   14.8363	       2.4	 7.2538e+06	   73.6403	   14.8382	       2.4	6.42675e+06	   73.8416	      15.3	       2.4	 6.9228e+06	   74.0655	   15.0682	       2.4	6.41003e+06	   73.8508	   14.8372	       2.4	6.81296e+06	    73.627	   15.0691	       2.4	7.32511e+06	
         R10	   4797	   73.0071	     14.45	       2.4	6.56878e+06	     72.25	     14.45	       2.4	8.81865e+06	     72.25	      15.3	       2.4	7.73362e+06	   73.0071	      15.3	       2.4	6.69648e+06	   72.6286	     14.45	       2.4	7.46957e+06	     72.25	    14.875	       2.4	8.26808e+06	   72.6286	      15.3	       2.4	6.77701e+06	   73.0071	    14.875	       2.4	6.44143e+06	
         R10	   4798	   73.6403	   14.8382	       2.4	6.20569e+06	   74.0613	   14.8363	       2.4	7.01607e+06	   74.0696	     14.45	       2.4	6.66115e+06	   73.6137	     14.45	       2.4	6.45153e+06	   73.8508	   14.8372	       2.4	 6.5702e+06	   74.0655	   14.6432	       2.4	6.68935e+06	   73.8416	     14.45	       2.4	6.51205e+06	    73.627	   14.6441	       2.4	6.31606e+06	
         R10	   4799	   73.0071	     14.45	       2.4	6.91082e+06	   73.0071	      15.3	       2.4	7.01004e+06	   73.6137	      15.3	       2.4	6.50415e+06	   73.6403	   14.8382	       2.4	6.29176e+06	   73.0071	    14.875	       2.4	6.74263e+06	   73.3104	      15.3	       2.4	6.74402e+06	    73.627	   15.0691	       2.4	6.37505e+06	   73.3237	   14.6441	       2.4	6.36889e+06	
         R10	   4800	    74.375	   15.0167	       2.4	6.99647e+06	    74.375	   14.7333	       2.4	6.36794e+06	   74.0613	   14.8363	       2.4	7.08296e+06	    74.375	    14.875	       2.4	6.65609e+06	   74.2181	   14.7848	       2.4	6.71316e+06	   74.2181	   14.9265	       2.4	7.00738e+06	       N/A	       N/A	       N/A	        N/A	       N/A	       N/A	       N/A	        N/A	
         R10	   4801	   73.6403	   14.8382	       2.4	6.30319e+06	   73.6137	     14.45	       2.4	6.53965e+06	   73.0071	     14.45	       2.4	6.66905e+06	    73.627	   14.6441	       2.4	 6.4028e+06	   73.3104	     14.45	       2.4	6.53172e+06	   73.3237	   14.6441	       2.4	6.37596e+06	       N/A	       N/A	       N/A	        N/A	       N/A	       N/A	       N/A	        N/A	
         R10	   4802	   73.0267	        19	         6	8.35616e+06	     72.25	        19	         6	1.32292e+07	     72.25	        19	      6.85	1.12499e+07	   73.1325	        19	      6.85	3.27242e+06	   72.6383	        19	         6	1.05604e+07	     72.25	        19	     6.425	1.20593e+07	   72.6913	        19	      6.85	6.66317e+06	   73.0796	        19	     6.425	5.62478e+06	
         R10	   4803	   73.7468	        19	         6	7.37124e+06	   73.0267	        19	         6	7.90447e+06	   73.1325	        19	      6.85	4.11597e+06	   73.9454	        19	      6.85	3.07016e+06	   73.3867	        19	         6	7.57854e+06	   73.0796	        19	     6.425	5.62163e+06	    73.539	        19	      6.85	3.06345e+06	   73.8461	        19	     6.425	4.77559e+06	
         R10	   4804	   74.4105	        19	         6	5.97695e+06	   73.7468	        19	         6	7.34461e+06	   73.9454	        19	      6.85	2.93856e+06	   74.6886	        19	      6.85	3.43155e+06	   74.0786	        19	         6	6.62627e+06	   73.8461	        19	     6.425	4.69428e+06	    74.317	        19	      6.85	3.11798e+06	   74.5495	        19	     6.425	4.57297e+06	
         R10	   4805	   75.0176	        19	         6	5.48702e+06	   74.4105	        19	         6	6.13047e+06	   74.6886	        19	      6.85	3.43033e+06	   75.3621	        19	      6.85	4.99265e+06	    74.714	        19	         6	5.76954e+06	   74.5495	        19	     6.425	4.64094e+06	   75.0253	        19	      6.85	4.07426e+06	   75.1898	        19	     6.425	5.21937e+06	
         R10	   4806	   75.9659	        19	      6.85	6.68425e+06	      76.5	        19	      6.85	6.10025e+06	      76.5	        19	   6.40476	1.38759e+07	    76.075	        19	   6.40476	1.00847e+07	   76.2329	        19	      6.85	6.36126e+06	      76.5	        19	   6.62738	9.87051e+06	   76.2875	        19	   6.40476	1.08798e+07	   76.0204	        19	   6.62738	8.23806e+06	
         R10	   4807	    76.075	        19	   6.40476	8.06625e+06	      76.5	        19	   6.40476	 8.8498e+06	      76.5	        19	         6	2.87989e+07	   76.0624	        19	         6	8.63361e+06	   76.2875	        19	   6.40476	6.66914e+06	      76.5	        19	   6.20238	1.80504e+07	   76.2812	        19	         6	1.78878e+07	   76.0687	        19	   6.20238	8.12092e+06	
         R10	   4808	   75.6684	        19	   6.41825	5.12936e+06	    76.075	        19	   6.40476	8.05149e+06	   76.0624	        19	         6	8.59996e+06	   75.5682	        19	         6	9.15959e+06	   75.8717	        19	   6.41151	6.50991e+06	   76.0687	        19	   6.20238	 8.2114e+06	   75.8153	        19	         6	8.64104e+06	   75.6183	        19	   6.20913	7.14025e+06	
         R10	   4809	   75.6684	        19	   6.41825	5.82336e+06	   75.5682	        19	         6	6.47574e+06	   75.0176	        19	         6	5.84878e+06	   75.3621	        19	      6.85	5.05264e+06	   75.6183	        19	   6.20913	6.05805e+06	   75.2929	        19	         6	 6.0688e+06	   75.1898	        19	     6.425	5.43221e+06	   75.5152	        19	   6.63413	5.41227e+06	
         R10	   4810	   75.6684	        19	   6.41825	6.27518e+06	   75.3621	        19	      6.85	5.08536e+06	   75.9659	        19	      6.85	6.04957e+06	    76.075	        19	   6.40476	 8.0963e+06	   75.5152	        19	   6.63413	5.66464e+06	    75.664	        19	      6.85	5.52025e+06	   76.0204	        19	   6.62738	7.06502e+06	   75.8717	        19	   6.41151	7.15573e+06	
         R10	   4811	   77.0003	        19	         6	7.60992e+06	      76.5	        19	         6	2.80079e+07	      76.5	        19	   6.40476	8.35807e+06	   76.9749	        19	   6.42239	7.95453e+06	   76.7502	        19	         6	1.67782e+07	      76.5	        19	   6.20238	1.73435e+07	   76.7374	        19	   6.41357	6.29312e+06	   76.9876	        19	   6.21119	7.39884e+06	
         R10	   4812	   76.9749	        19	   6.42239	1.10104e+07	      76.5	        19	   6.40476	1.37689e+07	      76.5	        19	      6.85	6.11582e+06	   77.0003	        19	      6.85	5.45525e+06	   76.7374	        19	   6.41357	1.13061e+07	      76.5	        19	   6.62738	9.82908e+06	   76.7502	        19	      6.85	5.68522e+06	   76.9876	        19	   6.63619	8.15055e+06	
         R10	   4813	   77.5295	        19	   6.42289	5.79218e+06	   76.9749	        19	   6.42239	8.58352e+06	   77.0003	        19	      6.85	4.92429e+06	   77.5212	        19	      6.85	 4.4709e+06	   77.2522	        19	   6.42264	7.13674e+06	   76.9876	        19	   6.63619	6.74695e+06	   77.2608	        19	      6.85	4.66215e+06	   77.5254	        19	   6.63644	5.12247e+06	
         R10	   4814	   78.0628	        19	      6.85	4.16084e+06	    78.625	        19	      6.85	3.59862e+06	    78.625	        19	   6.40476	5.35126e+06	    78.064	        19	   6.42246	4.98196e+06	   78.3439	        19	      6.85	3.85389e+06	    78.625	        19	   6.62738	4.42117e+06	   78.3445	        19	   6.41361	5.12029e+06	   78.0634	        19	   6.63623	4.56849e+06	
         R10	   4815	    78.064	        19	   6.42246	5.54009e+06	    78.625	        19	   6.40476	4.39073e+06	    78.625	        19	         6	7.08951e+06	   78.0628	        19	         6	5.42815e+06	   78.3445	        19	   6.41361	4.94461e+06	    78.625	        19	   6.20238	5.71777e+06	   78.3439	        19	         6	6.03562e+06	   78.0634	        19	   6.21123	5.44509e+06	
         R10	   4816	   77.5212	        19	         6	8.17201e+06	   77.0003	        19	         6	8.35603e+06	   76.9749	        19	   6.42239	7.86752e+06	   77.5295	        19	   6.42289	5.59737e+06	   77.2608	        19	         6	8.00005e+06	   76.9876	        19	   6.21119	8.03793e+06	   77.2522	        19	   6.42264	6.67819e+06	   77.5254	        19	   6.21144	6.87541e+06	
         R10	   4817	   77.5295	        19	   6.42289	6.16012e+06	   77.5212	        19	      6.85	4.42122e+06	   78.0628	        19	      6.85	4.17726e+06	    78.064	        19	   6.42246	4.55107e+06	   77.5254	        19	   6.63644	5.28755e+06	    77.792	        19	      6.85	4.27237e+06	   78.0634	        19	   6.63623	4.36161e+06	   77.7967	        19	   6.42267	5.32791e+06	
         R10	   4818	   77.5212	        19	         6	6.58921e+06	   77.5295	        19	   6.42289	5.83472e+06	    78.064	        19	   6.42246	5.37884e+06	   78.0628	        19	         6	6.69458e+06	   77.5254	        19	   6.21144	6.14434e+06	   77.7967	        19	   6.42267	5.58793e+06	   78.0634	        19	   6.21123	6.00799e+06	    77.792	        19	         6	6.43832e+06	
         R10	   4819	   73.0346	        19	       9.4	7.77711e+06	     72.25	        19	       9.4	4.30178e+06	     72.25	        19	     10.25	4.60955e+06	   73.1513	        19	     10.25	3.56296e+06	   72.6423	        19	       9.4	5.76717e+06	     72.25	        19	     9.825	4.36834e+06	   72.7007	        19	     10.25	4.08364e+06	    73.093	        19	     9.825	5.65095e+06	
         R10	   4820	   73.7887	        19	       9.4	6.88003e+06	   73.0346	        19	       9.4	6.29332e+06	   73.1513	        19	     10.25	4.26899e+06	    74.027	        19	     10.25	 2.5521e+06	   73.4117	        19	       9.4	6.57822e+06	    73.093	        19	     9.825	5.17131e+06	   73.5891	        19	     10.25	 3.2639e+06	   73.9078	        19	     9.825	4.65475e+06	
         R10	   4821	   74.5123	        19	       9.4	6.22611e+06	   73.7887	        19	       9.4	6.98844e+06	    74.027	        19	     10.25	3.17429e+06	    74.877	        19	     10.25	3.53029e+06	   74.1505	        19	       9.4	6.60354e+06	   73.9078	        19	     9.825	 5.0618e+06	    74.452	        19	     10.25	3.34185e+06	   74.6946	        19	     9.825	4.82303e+06	
         R10	   4822	   75.2054	        19	       9.4	4.77083e+06	   74.5123	        19	       9.4	6.24482e+06	    74.877	        19	     10.25	3.13328e+06	   75.7013	        19	     10.25	3.99386e+06	   74.8588	        19	       9.4	5.49738e+06	   74.6946	        19	     9.825	4.66133e+06	   75.2892	        19	     10.25	3.50613e+06	   75.4534	        19	     9.825	4.37187e+06	
         R10	   4823	   75.7013	        19	     10.25	4.61587e+06	      76.5	        19	     10.25	3.84423e+06	      76.5	        19	       9.4	6.37486e+06	   75.8679	        19	       9.4	4.83334e+06	   76.1007	        19	     10.25	4.07628e+06	      76.5	        19	     9.825	4.44935e+06	    76.184	        19	       9.4	5.34568e+06	   75.7846	        19	     9.825	 4.7168e+06	
         R10	   4824	   75.2054	        19	       9.4	4.74366e+06	   75.7013	        19	     10.25	4.36925e+06	   75.8679	        19	       9.4	4.75413e+06	   75.4534	        19	     9.825	 4.5276e+06	   75.7846	        19	     9.825	4.53579e+06	   75.5367	        19	       9.4	4.74848e+06	       N/A	       N/A	       N/A	        N/A	       N/A	       N/A	       N/A	        N/A	
         R10	   4825	   77.1671	        19	       9.4	6.43187e+06	      76.5	        19	       9.4	5.06915e+06	      76.5	        19	     10.25	4.10463e+06	   77.1671	        19	     10.25	4.36151e+06	   76.8335	        19	       9.4	5.68626e+06	      76.5	        19	     9.825	4.25635e+06	   76.8335	        19	     10.25	4.15736e+06	   77.1671	        19	     9.825	5.35839e+06	
         R10	   4826	   77.8754	        19	       9.4	7.24484e+06	   77.1671	        19	       9.4	6.40799e+06	   77.1671	        19	     10.25	4.28454e+06	   77.8754	        19	     10.25	 3.4961e+06	   77.5212	        19	       9.4	6.82272e+06	   77.1671	        19	     9.825	5.34072e+06	   77.5212	        19	     10.25	3.88998e+06	   77.8754	        19	     9.825	5.35627e+06	
         R10	   4827	    78.625	        19	       9.4	7.69293e+06	   77.8754	        19	       9.4	7.35494e+06	   77.8754	        19	     10.25	3.54355e+06	    78.625	        19	     10.25	 1.7863e+06	   78.2502	        19	       9.4	7.49337e+06	   77.8754	        19	     9.825	5.44324e+06	   78.2502	        19	     10.25	2.58104e+06	    78.625	        19	     9.825	4.54771e+06	
         R10	   4828	   75.8449	   17.2941	         0	1.27761e+07	   75.8555	      16.9	         0	1.37874e+07	   75.4288	      16.9	         0	1.42059e+07	   75.4207	   17.3463	         0	1.41209e+07	   75.8502	   17.0971	         0	8.60087e+06	   75.6422	      16.9	         0	1.39741e+07	   75.4247	   17.1232	         0	9.92726e+06	   75.6328	   17.3202	         0	1.34358e+07	
         R10	   4829	   76.2026	   17.2427	         0	9.62349e+06	   76.2126	      16.9	         0	1.10014e+07	   75.8555	      16.9	         0	1.37726e+07	   75.8449	   17.2941	         0	1.28941e+07	   76.2076	   17.0714	         0	7.91603e+06	   76.0341	      16.9	         0	1.21712e+07	   75.8502	   17.0971	         0	8.64198e+06	   76.0237	   17.2684	         0	1.11387e+07	
         R10	   4830	      76.5	    17.154	         0	1.97401e+07	      76.5	      16.9	         0	7.29928e+06	   76.2126	      16.9	         0	1.22233e+07	   76.2026	   17.2427	         0	7.42711e+06	      76.5	    17.027	         0	1.28647e+07	   76.3563	      16.9	         0	 8.9392e+06	   76.2076	   17.0714	         0	6.88901e+06	   76.3513	   17.1984	         0	1.07901e+07	
         R10	   4831	   76.1922	      17.7	         0	1.14926e+07	      76.5	      17.7	         0	7.19496e+06	      76.5	   17.4206	         0	1.75849e+07	   76.2026	   17.2427	         0	7.95313e+06	   76.3461	      17.7	         0	8.46738e+06	      76.5	   17.5603	         0	1.15679e+07	   76.3513	   17.3317	         0	1.02735e+07	   76.1974	   17.4714	         0	6.81837e+06	
         R10	   4832	   75.8205	      17.7	         0	1.43973e+07	   76.1922	      17.7	         0	1.07506e+07	   76.2026	   17.2427	         0	9.71507e+06	   75.8449	   17.2941	         0	1.28454e+07	   76.0064	      17.7	         0	1.24151e+07	   76.1974	   17.4714	         0	7.99368e+06	   76.0237	   17.2684	         0	1.12143e+07	   75.8327	   17.4971	         0	8.91667e+06	
         R10	   4833	    75.385	      17.7	         0	 1.6035e+07	   75.8205	      17.7	         0	1.42186e+07	   75.8449	   17.2941	         0	1.27431e+07	   75.4207	   17.3463	         0	1.38988e+07	   75.6028	      17.7	         0	1.50959e+07	   75.8327	   17.4971	         0	8.70479e+06	   75.6328	   17.3202	         0	1.33116e+07	   75.4028	   17.5232	         0	9.83446e+06	
         R10	   4834	   74.8857	      17.7	         0	1.10632e+07	    75.385	      17.7	         0	1.54771e+07	   75.4207	   17.3463	         0	1.30069e+07	   74.9614	   17.3293	         0	 1.1957e+07	   75.1354	      17.7	         0	1.25014e+07	   75.4028	   17.5232	         0	8.76764e+06	    75.191	   17.3378	         0	1.12007e+07	   74.9235	   17.5147	         0	1.14337e+07	
         R10	   4835	   73.0251	      16.9	         0	1.07552e+07	     72.25	      16.9	         0	7.03593e+06	     72.25	      17.7	         0	6.52444e+06	   73.0047	      17.7	         0	 9.9234e+06	   72.6376	      16.9	         0	8.69668e+06	     72.25	      17.3	         0	 6.7682e+06	   72.6273	      17.7	         0	7.86733e+06	   73.0149	      17.3	         0	9.27956e+06	
         R10	   4836	   73.7305	      16.9	         0	1.04032e+07	   73.0251	      16.9	         0	9.77465e+06	   73.0047	      17.7	         0	9.53686e+06	   73.6955	      17.7	         0	1.03028e+07	   73.3778	      16.9	         0	 9.9773e+06	   73.0149	      17.3	         0	8.67886e+06	   73.3501	      17.7	         0	9.78213e+06	    73.713	      17.3	         0	1.02454e+07	
         R10	   4837	   74.3663	      16.9	         0	1.09062e+07	   73.7305	      16.9	         0	1.04712e+07	   73.6955	      17.7	         0	1.04376e+07	   74.3225	      17.7	         0	1.09888e+07	   74.0484	      16.9	         0	1.06676e+07	    73.713	      17.3	         0	1.03444e+07	    74.009	      17.7	         0	1.06776e+07	   74.3444	      17.3	         0	1.09471e+07	
         R10	   4838	   74.9614	   17.3293	         0	1.33205e+07	   75.4207	   17.3463	         0	1.30278e+07	   75.4288	      16.9	         0	1.43137e+07	   74.9324	      16.9	         0	1.20422e+07	    75.191	   17.3378	         0	1.26939e+07	   75.4247	   17.1232	         0	8.90471e+06	   75.1806	      16.9	         0	1.29618e+07	   74.9469	   17.1147	         0	1.16261e+07	
         R10	   4839	   74.3225	      17.7	         0	1.11836e+07	   74.8857	      17.7	         0	1.11102e+07	   74.9614	   17.3293	         0	1.19829e+07	   74.3663	      16.9	         0	1.10847e+07	   74.6041	      17.7	         0	 1.1116e+07	   74.9235	   17.5147	         0	1.14773e+07	   74.6638	   17.1147	         0	1.14995e+07	   74.3444	      17.3	         0	1.11285e+07	
         R10	   4840	      76.5	   17.4206	         0	1.76351e+07	      76.5	    17.154	         0	1.86653e+07	   76.2026	   17.2427	         0	1.33545e+06	      76.5	   17.2873	         0	1.81213e+07	   76.3513	   17.1984	         0	9.82028e+06	   76.3513	   17.3317	         0	9.30358e+06	       N/A	       N/A	       N/A	        N/A	       N/A	       N/A	       N/A	        N/A	
         R10	   4841	   74.9614	   17.3293	         0	1.20963e+07	   74.9324	      16.9	         0	1.21526e+07	   74.3663	      16.9	         0	 1.1352e+07	   74.9469	   17.1147	         0	1.07976e+07	   74.6493	      16.9	         0	1.16093e+07	   74.6638	   17.1147	         0	1.11267e+07	       N/A	       N/A	       N/A	        N/A	       N/A	       N/A	       N/A	        N/A	
         R10	   4842	   75.7788	   18.0966	         0	1.37101e+07	   75.8205	      17.7	         0	1.47573e+07	    75.385	      17.7	         0	1.59884e+07	   75.3746	   18.0918	         0	1.62206e+07	   75.7997	   17.8983	         0	8.32965e+06	   75.6028	      17.7	         0	1.53375e+07	   75.3798	   17.8959	         0	1.00042e+07	   75.5767	   18.0942	         0	 1.4942e+07	
         R10	   4843	   76.1524	    18.104	         0	 1.1128e+07	   76.1922	      17.7	         0	1.17834e+07	   75.8205	      17.7	         0	1.47785e+07	   75.7788	   18.0966	         0	1.39764e+07	   76.1723	    17.902	         0	8.00462e+06	   76.0064	      17.7	         0	1.31602e+07	   75.7997	   17.8983	         0	8.74065e+06	   75.9656	   18.1003	         0	1.23808e+07	
         R10	   4844	      76.5	    18.081	         0	1.95992e+07	      76.5	      17.7	         0	6.72333e+06	   76.1922	      17.7	         0	1.33213e+07	   76.1524	    18.104	         0	7.93233e+06	      76.5	   17.8905	         0	1.29764e+07	   76.3461	      17.7	         0	9.75936e+06	   76.1723	    17.902	         0	5.52695e+06	   76.3262	   18.0925	         0	1.00751e+07	
         R10	   4845	   76.1354	      18.5	         0	1.45107e+07	      76.5	      18.5	         0	5.01169e+06	      76.5	    18.081	         0	1.98592e+07	   76.1524	    18.104	         0	6.88703e+06	   76.3177	      18.5	         0	 9.3444e+06	      76.5	   18.2905	         0	1.23714e+07	   76.3262	   18.0925	         0	9.72887e+06	   76.1439	    18.302	         0	5.67462e+06	
         R10	   4846	   75.7574	      18.5	         0	1.59551e+07	   76.1354	      18.5	         0	1.25997e+07	   76.1524	    18.104	         0	1.03208e+07	   75.7788	   18.0966	         0	1.40225e+07	   75.9464	      18.5	         0	1.41615e+07	   76.1439	    18.302	         0	 8.3502e+06	   75.9656	   18.1003	         0	1.20194e+07	   75.7681	   18.2983	         0	8.95536e+06	
         R10	   4847	   75.3659	      18.5	         0	1.66369e+07	   75.7574	      18.5	         0	1.58667e+07	   75.7788	   18.0966	         0	1.37379e+07	   75.3746	   18.0918	         0	1.57966e+07	   75.5617	      18.5	         0	1.62316e+07	   75.7681	   18.2983	         0	8.85202e+06	   75.5767	   18.0942	         0	1.47305e+07	   75.3703	   18.2959	         0	 1.0174e+07	
         R10	   4848	   74.9611	      18.5	         0	1.60734e+07	   75.3659	      18.5	         0	1.66931e+07	   75.3746	   18.0918	         0	1.61919e+07	   74.9337	   18.0885	         0	1.50163e+07	   75.1635	      18.5	         0	1.63539e+07	   75.3703	   18.2959	         0	1.06735e+07	   75.1542	   18.0901	         0	1.55429e+07	   74.9474	   18.2942	         0	9.69429e+06	
         R10	   4849	   74.5876	   18.1275	         0	 1.0227e+07	   74.5428	      18.5	         0	1.25435e+07	   74.9611	      18.5	         0	1.62769e+07	   74.9337	   18.0885	         0	1.65501e+07	   74.5652	   18.3138	         0	9.66902e+06	   74.7519	      18.5	         0	1.41086e+07	   74.9474	   18.2942	         0	 1.1167e+07	   74.7607	    18.108	         0	1.31423e+07	
         R10	   4850	   73.0047	      17.7	         0	1.01857e+07	     72.25	      17.7	         0	6.47217e+06	     72.25	      18.5	         0	5.80817e+06	   72.7354	      18.5	         0	9.59318e+06	   72.6273	      17.7	         0	8.22514e+06	     72.25	      18.1	         0	6.14017e+06	   72.4927	      18.5	         0	7.39687e+06	     72.87	      18.1	         0	 8.8944e+06	
         R10	   4851	   73.6955	      17.7	         0	1.06241e+07	   73.0047	      17.7	         0	9.92919e+06	   72.7354	      18.5	         0	8.31015e+06	   73.2074	      18.5	         0	9.31741e+06	   73.3501	      17.7	         0	1.01744e+07	     72.87	      18.1	         0	8.00478e+06	   72.9714	      18.5	         0	8.73922e+06	   73.4515	      18.1	         0	9.70527e+06	
         R10	   4852	   74.9337	   18.0885	         0	1.32086e+07	   75.3746	   18.0918	         0	 1.6791e+07	    75.385	      17.7	         0	1.58897e+07	   74.8857	      17.7	         0	1.45004e+07	   75.1542	   18.0901	         0	1.49822e+07	   75.3798	   17.8959	         0	1.02969e+07	   75.1354	      17.7	         0	1.51069e+07	   74.9097	   17.8942	         0	9.66417e+06	
         R10	   4853	   74.5876	   18.1275	         0	8.73707e+06	   74.9337	   18.0885	         0	1.59263e+07	   74.8857	      17.7	         0	1.44418e+07	   74.3225	      17.7	         0	 1.1612e+07	   74.7607	    18.108	         0	1.19901e+07	   74.9097	   17.8942	         0	1.14484e+07	   74.6041	      17.7	         0	1.22498e+07	   74.4551	   17.9138	         0	1.00978e+07	
         R10	   4854	   74.1111	      18.5	         0	1.12063e+07	   74.5428	      18.5	         0	1.14212e+07	   74.5876	   18.1275	         0	1.56557e+07	   74.3225	      17.7	         0	1.25904e+07	   74.3269	      18.5	         0	1.11158e+07	   74.5652	   18.3138	         0	1.29307e+07	   74.4551	   17.9138	         0	1.39417e+07	   74.2168	      18.1	         0	1.18138e+07	
         R10	   4855	   73.6659	      18.5	         0	1.04621e+07	   74.1111	      18.5	         0	1.08872e+07	   74.3225	      17.7	         0	1.10518e+07	   73.6955	      17.7	         0	1.05916e+07	   73.8885	      18.5	         0	1.06416e+07	   74.2168	      18.1	         0	1.09498e+07	    74.009	      17.7	         0	1.08033e+07	   73.6807	      18.1	         0	1.03393e+07	
         R10	   4856	   73.6659	      18.5	         0	1.07831e+07	   73.6955	      17.7	         0	1.05458e+07	   73.2074	      18.5	         0	9.77447e+06	   73.6807	      18.1	         0	1.04713e+07	   73.4515	      18.1	         0	9.92112e+06	   73.4367	      18.5	         0	1.02741e+07	       N/A	       N/A	       N/A	        N/A	       N/A	       N/A	       N/A	        N/A	
         R10	   4857	   73.1549	   18.8955	         0	1.40675e+07	   73.2074	      18.5	         0	1.56389e+07	   72.7354	      18.5	         0	1.49673e+07	   72.7044	   18.8941	         0	1.55968e+07	   73.1811	   18.6978	         0	7.66298e+06	   72.9714	      18.5	         0	 1.5205e+07	   72.7199	    18.697	         0	9.67081e+06	   72.9297	   18.8948	         0	1.45537e+07	
         R10	   4858	   73.5985	    18.897	         0	1.69516e+07	   73.6659	      18.5	         0	1.70616e+07	   73.2074	      18.5	         0	1.56041e+07	   73.1549	   18.8955	         0	1.56722e+07	   73.6322	   18.6985	         0	1.00642e+07	   73.4367	      18.5	         0	1.63307e+07	   73.1811	   18.6978	         0	9.69782e+06	   73.3767	   18.8962	         0	1.62926e+07	
         R10	   4859	   74.0346	   18.8985	         0	1.80147e+07	   74.1111	      18.5	         0	1.73866e+07	   73.6659	      18.5	         0	1.70371e+07	   73.5985	    18.897	         0	1.69105e+07	   74.0728	   18.6992	         0	1.09895e+07	   73.8885	      18.5	         0	1.72016e+07	   73.6322	   18.6985	         0	1.02269e+07	   73.8165	   18.8977	         0	1.74612e+07	
         R10	   4860	   74.4629	      18.9	         0	1.80146e+07	   74.5428	      18.5	         0	1.71597e+07	   74.1111	      18.5	         0	1.72169e+07	   74.0346	   18.8985	         0	1.75733e+07	   74.5028	      18.7	         0	1.10997e+07	   74.3269	      18.5	         0	1.71835e+07	   74.0728	   18.6992	         0	 1.0626e+07	   74.2487	   18.8992	         0	1.77919e+07	
         R10	   4861	   74.8836	   18.9016	         0	1.80113e+07	   74.9611	      18.5	         0	1.68804e+07	   74.5428	      18.5	         0	1.70642e+07	   74.4629	      18.9	         0	1.76668e+07	   74.9223	   18.7008	         0	1.08029e+07	   74.7519	      18.5	         0	1.69611e+07	   74.5028	      18.7	         0	  1.083e+07	   74.6732	   18.9008	         0	 1.7839e+07	
         R10	   4862	   75.2968	   18.9033	         0	1.69747e+07	   75.3659	      18.5	         0	1.64526e+07	   74.9611	      18.5	         0	1.69123e+07	   74.8836	   18.9016	         0	1.78057e+07	   75.3314	   18.7016	         0	9.90493e+06	   75.1635	      18.5	         0	1.66694e+07	   74.9223	   18.7008	         0	1.07412e+07	   75.0902	   18.9025	         0	1.73868e+07	
         R10	   4863	    75.703	    18.905	         0	1.44828e+07	   75.7574	      18.5	         0	1.52536e+07	   75.3659	      18.5	         0	1.65063e+07	   75.2968	   18.9033	         0	1.73917e+07	   75.7302	   18.7025	         0	8.54907e+06	   75.5617	      18.5	         0	1.58665e+07	   75.3314	   18.7016	         0	1.04168e+07	   75.4999	   18.9041	         0	 1.5917e+07	
         R10	   4864	   76.1029	   18.9068	         0	1.20195e+07	   76.1354	      18.5	         0	1.26562e+07	   75.7574	      18.5	         0	1.51688e+07	    75.703	    18.905	         0	1.47539e+07	   76.1191	   18.7034	         0	8.06541e+06	   75.9464	      18.5	         0	1.38416e+07	   75.7302	   18.7025	         0	8.76444e+06	   75.9029	   18.9059	         0	1.33101e+07	
         R10	   4865	      76.5	    18.862	         0	 1.9727e+07	      76.5	      18.5	         0	5.78488e+06	   76.1354	      18.5	         0	1.38624e+07	   76.1029	   18.9068	         0	9.41794e+06	      76.5	    18.681	         0	1.25022e+07	   76.3177	      18.5	         0	9.44775e+06	   76.1191	   18.7034	         0	 4.5767e+06	   76.3014	   18.8844	         0	9.41258e+06	
         R10	   4866	   76.0751	      19.3	         0	1.51459e+07	      76.5	      19.3	         0	7.04082e+06	      76.5	    18.862	         0	 2.0411e+07	   76.1029	   18.9068	         0	7.96295e+06	   76.2875	      19.3	         0	1.03945e+07	      76.5	    19.081	         0	1.31745e+07	   76.3014	   18.8844	         0	9.35756e+06	    76.089	   19.1034	         0	6.54237e+06	
         R10	   4867	   75.6501	      19.3	         0	1.39222e+07	   76.0751	      19.3	         0	1.29763e+07	   76.1029	   18.9068	         0	1.13743e+07	    75.703	    18.905	         0	1.53156e+07	   75.8626	      19.3	         0	1.33691e+07	    76.089	   19.1034	         0	8.80303e+06	   75.9029	   18.9059	         0	1.31692e+07	   75.6765	   19.1025	         0	9.63909e+06	
         R10	   4868	   75.2251	      19.3	         0	1.31014e+07	   75.6501	      19.3	         0	1.37834e+07	    75.703	    18.905	         0	1.52502e+07	   75.2968	   18.9033	         0	1.73904e+07	   75.4376	      19.3	         0	 1.3408e+07	   75.6765	   19.1025	         0	9.24389e+06	   75.4999	   18.9041	         0	1.62904e+07	    75.261	   19.1016	         0	1.10581e+07	
         R10	   4869	   74.8001	      19.3	         0	1.22908e+07	   75.2251	      19.3	         0	1.30109e+07	   75.2968	   18.9033	         0	1.70897e+07	   74.8836	   18.9016	         0	1.77138e+07	   75.0126	      19.3	         0	1.26115e+07	    75.261	   19.1016	         0	1.05409e+07	   75.0902	   18.9025	         0	1.73915e+07	   74.8419	   19.1008	         0	1.13515e+07	
         R10	   4870	   74.3752	      19.3	         0	1.19869e+07	   74.8001	      19.3	         0	 1.2299e+07	   74.8836	   18.9016	         0	1.79242e+07	   74.4629	      18.9	         0	1.78257e+07	   74.5877	      19.3	         0	1.21138e+07	   74.8419	   19.1008	         0	1.13935e+07	   74.6732	   18.9008	         0	1.78701e+07	    74.419	      19.1	         0	 1.1398e+07	
         R10	   4871	   73.9501	      19.3	         0	1.19352e+07	   74.3752	      19.3	         0	1.20081e+07	   74.4629	      18.9	         0	1.82083e+07	   74.0346	   18.8985	         0	1.73796e+07	   74.1627	      19.3	         0	1.19464e+07	    74.419	      19.1	         0	1.16358e+07	   74.2487	   18.8992	         0	1.77892e+07	   73.9924	   19.0992	         0	 1.1095e+07	
         R10	   4872	   73.5251	      19.3	         0	1.21543e+07	   73.9501	      19.3	         0	1.19261e+07	   74.0346	   18.8985	         0	1.78399e+07	   73.5985	    18.897	         0	1.64308e+07	   73.7376	      19.3	         0	1.20103e+07	   73.9924	   19.0992	         0	1.14103e+07	   73.8165	   18.8977	         0	1.71256e+07	   73.5618	   19.0985	         0	1.03972e+07	
         R10	   4873	   73.1001	      19.3	         0	1.26741e+07	   73.5251	      19.3	         0	1.22357e+07	   73.5985	    18.897	         0	1.64541e+07	   73.1549	   18.8955	         0	1.55109e+07	   73.3126	      19.3	         0	1.24204e+07	   73.5618	   19.0985	         0	1.04252e+07	   73.3767	   18.8962	         0	1.59607e+07	   73.1275	   19.0978	         0	9.71339e+06	
         R10	   4874	   72.6751	      19.3	         0	1.28613e+07	   73.1001	      19.3	         0	1.25291e+07	   73.1549	   18.8955	         0	1.39365e+07	   72.7044	   18.8941	         0	1.53752e+07	   72.8876	      19.3	         0	1.26433e+07	   73.1275	   19.0978	         0	8.11352e+06	   72.9297	   18.8948	         0	1.41677e+07	   72.6897	    19.097	         0	9.57206e+06	
         R10	   4875	     72.25	    18.919	         0	1.94568e+07	     72.25	      19.3	         0	6.76352e+06	   72.6751	      19.3	         0	1.39009e+07	   72.7044	   18.8941	         0	 1.2139e+07	     72.25	   19.1095	         0	1.27841e+07	   72.4625	      19.3	         0	9.85932e+06	   72.6897	    19.097	         0	4.83726e+06	   72.4772	   18.9066	         0	9.16141e+06	
         R10	   4876	     72.25	      18.5	         0	5.77241e+06	     72.25	    18.919	         0	2.00125e+07	   72.7044	   18.8941	         0	1.25117e+07	   72.7354	      18.5	         0	1.62591e+07	     72.25	   18.7095	         0	1.27114e+07	   72.4772	   18.9066	         0	  9.146e+06	   72.7199	    18.697	         0	3.61086e+06	   72.4927	      18.5	         0	1.05111e+07	
         R10	   4877	   77.1016	   17.2275	         0	1.30742e+07	   77.1016	      16.9	         0	1.53407e+07	   76.7875	      16.9	         0	1.17198e+07	   76.7875	   17.2008	         0	9.06058e+06	   77.1016	   17.0637	         0	 9.0794e+06	   76.9445	      16.9	         0	1.32951e+07	   76.7875	   17.0504	         0	7.76294e+06	   76.9445	   17.2141	         0	1.09713e+07	
         R10	   4878	   77.4424	   17.2542	         0	1.31837e+07	   77.4424	      16.9	         0	1.64847e+07	   77.1016	      16.9	         0	1.52304e+07	   77.1016	   17.2275	         0	1.31171e+07	   77.4424	   17.0771	         0	9.33714e+06	    77.272	      16.9	         0	1.58285e+07	   77.1016	   17.0637	         0	 8.9819e+06	    77.272	   17.2408	         0	1.31436e+07	
         R10	   4879	   77.8099	   17.2808	         0	 1.4609e+07	   77.8099	      16.9	         0	1.66102e+07	   77.4424	      16.9	         0	1.64546e+07	   77.4424	   17.2542	         0	1.37118e+07	   77.8099	   17.0904	         0	1.02946e+07	   77.6262	      16.9	         0	  1.652e+07	   77.4424	   17.0771	         0	9.61519e+06	   77.6262	   17.2675	         0	1.41497e+07	
         R10	   4880	   78.2041	   17.3075	         0	1.60432e+07	   78.2041	      16.9	         0	1.66289e+07	   77.8099	      16.9	         0	1.65835e+07	   77.8099	   17.2808	         0	1.45885e+07	   78.2041	   17.1038	         0	1.08366e+07	    78.007	      16.9	         0	1.65965e+07	   77.8099	   17.0904	         0	1.01706e+07	    78.007	   17.2942	         0	1.52993e+07	
         R10	   4881	    78.625	    17.281	         0	1.45918e+07	    78.625	      16.9	         0	1.69119e+07	   78.2041	      16.9	         0	1.66603e+07	   78.2041	   17.3075	         0	1.59998e+07	    78.625	   17.0905	         0	1.06295e+07	   78.4146	      16.9	         0	1.67774e+07	   78.2041	   17.1038	         0	1.07972e+07	   78.4146	   17.2942	         0	1.52791e+07	
         R10	   4882	     78.12	      17.7	         0	  1.565e+07	    78.625	      17.7	         0	1.62901e+07	    78.625	    17.281	         0	1.60421e+07	   78.2041	   17.3075	         0	1.53387e+07	   78.3725	      17.7	         0	1.59461e+07	    78.625	   17.4905	         0	1.06687e+07	   78.4146	   17.2942	         0	1.56752e+07	    78.162	   17.5038	         0	1.08155e+07	
         R10	   4883	   77.6549	      17.7	         0	1.50696e+07	     78.12	      17.7	         0	1.56386e+07	   78.2041	   17.3075	         0	1.50969e+07	   77.8099	   17.2808	         0	1.57946e+07	   77.8874	      17.7	         0	1.53339e+07	    78.162	   17.5038	         0	1.07486e+07	    78.007	   17.2942	         0	1.54137e+07	   77.7324	   17.4904	         0	1.00081e+07	
         R10	   4884	   77.2299	      17.7	         0	1.31092e+07	   77.6549	      17.7	         0	1.50128e+07	   77.8099	   17.2808	         0	1.54541e+07	   77.4424	   17.2542	         0	1.44776e+07	   77.4424	      17.7	         0	1.40321e+07	   77.7324	   17.4904	         0	1.00084e+07	   77.6262	   17.2675	         0	1.49629e+07	   77.3362	   17.4771	         0	9.29713e+06	
         R10	   4885	    76.845	      17.7	         0	9.89006e+06	   77.2299	      17.7	         0	1.31122e+07	   77.4424	   17.2542	         0	1.36531e+07	   77.1016	   17.2275	         0	1.07418e+07	   77.0374	      17.7	         0	1.13455e+07	   77.3362	   17.4771	         0	9.03094e+06	    77.272	   17.2408	         0	1.20994e+07	   76.9733	   17.4637	         0	8.48851e+06	
         R10	   4886	   76.7875	   17.2008	         0	8.35451e+06	   76.7875	      16.9	         0	1.28291e+07	      76.5	      16.9	         0	6.24549e+06	      76.5	    17.154	         0	1.53459e+07	   76.7875	   17.0504	         0	8.27856e+06	   76.6437	      16.9	         0	 8.5318e+06	      76.5	    17.027	         0	1.02183e+07	   76.6437	   17.1774	         0	1.04452e+07	
         R10	   4887	      76.5	   17.4206	         0	1.95761e+07	      76.5	      17.7	         0	5.71704e+06	    76.845	      17.7	         0	1.19207e+07	   76.7108	   17.4405	         0	2.50353e+06	      76.5	   17.5603	         0	1.15282e+07	   76.6725	      17.7	         0	7.61355e+06	   76.7779	   17.5702	         0	6.67062e+06	   76.6054	   17.4306	         0	1.09695e+07	
         R10	   4888	   76.7875	   17.2008	         0	 7.4076e+06	      76.5	    17.154	         0	1.51605e+07	      76.5	   17.4206	         0	2.03254e+07	   76.7108	   17.4405	         0	6.91365e+06	   76.6437	   17.1774	         0	1.02281e+07	      76.5	   17.2873	         0	1.76481e+07	   76.6054	   17.4306	         0	1.17874e+07	   76.7491	   17.3206	         0	 4.3947e+06	
         R10	   4889	    76.845	      17.7	         0	8.79153e+06	   77.1016	   17.2275	         0	1.01611e+07	   76.7875	   17.2008	         0	6.95598e+06	   76.7108	   17.4405	         0	 1.5695e+07	   76.9733	   17.4637	         0	6.37838e+06	   76.9445	   17.2141	         0	8.52649e+06	   76.7491	   17.3206	         0	1.06119e+07	   76.7779	   17.5702	         0	1.05345e+07	
         R10	   4890	   77.2677	   18.1007	         0	1.39099e+07	   77.2299	      17.7	         0	1.54872e+07	    76.845	      17.7	         0	1.28872e+07	   76.8722	   18.1008	         0	1.18214e+07	   77.2488	   17.9003	         0	8.75294e+06	   77.0374	      17.7	         0	 1.4109e+07	   76.8586	   17.9004	         0	8.17543e+06	     77.07	   18.1008	         0	 1.2754e+07	
         R10	   4891	   77.6965	   18.1007	         0	1.63378e+07	   77.6549	      17.7	         0	1.61627e+07	   77.2299	      17.7	         0	1.55107e+07	   77.2677	   18.1007	         0	1.35059e+07	   77.6757	   17.9004	         0	1.05092e+07	   77.4424	      17.7	         0	1.58187e+07	   77.2488	   17.9003	         0	8.33556e+06	   77.4821	   18.1007	         0	1.48837e+07	
         R10	   4892	   78.1546	   18.0984	         0	1.65604e+07	    78.625	   18.0999	         0	1.47913e+07	    78.625	      17.7	         0	1.50136e+07	     78.12	      17.7	         0	1.60371e+07	   78.3898	   18.0992	         0	1.56647e+07	    78.625	      17.9	         0	1.03775e+07	   78.3725	      17.7	         0	1.54999e+07	   78.1373	   17.8992	         0	1.10455e+07	
         R10	   4893	   78.1396	      18.5	         0	1.65925e+07	    78.625	      18.5	         0	1.66377e+07	    78.625	   18.0999	         0	1.65074e+07	   78.1546	   18.0984	         0	 1.6995e+07	   78.3823	      18.5	         0	1.65905e+07	    78.625	      18.3	         0	 1.0425e+07	   78.3898	   18.0992	         0	 1.6729e+07	   78.1471	   18.2992	         0	1.11467e+07	
         R10	   4894	   76.8722	   18.1008	         0	8.91673e+06	    76.845	      17.7	         0	1.42571e+07	      76.5	      17.7	         0	6.16414e+06	      76.5	    18.081	         0	1.94392e+07	   76.8586	   17.9004	         0	5.60155e+06	   76.6725	      17.7	         0	9.87589e+06	      76.5	   17.8905	         0	1.26006e+07	   76.6861	   18.0909	         0	1.01966e+07	
         R10	   4895	   78.1546	   18.0984	         0	1.62088e+07	     78.12	      17.7	         0	1.59877e+07	   77.6549	      17.7	         0	1.61235e+07	   77.6965	   18.1007	         0	1.55256e+07	   78.1373	   17.8992	         0	1.07118e+07	   77.8874	      17.7	         0	1.60331e+07	   77.6757	   17.9004	         0	9.78523e+06	   77.9256	   18.0995	         0	1.58509e+07	
         R10	   4896	   77.6844	      18.5	         0	1.62198e+07	   78.1396	      18.5	         0	1.65642e+07	   78.1546	   18.0984	         0	1.66245e+07	   77.6965	   18.1007	         0	1.55095e+07	    77.912	      18.5	         0	1.63694e+07	   78.1471	   18.2992	         0	1.08105e+07	   77.9256	   18.0995	         0	1.60634e+07	   77.6905	   18.3004	         0	9.99053e+06	
         R10	   4897	   77.2594	      18.5	         0	1.52075e+07	   77.6844	      18.5	         0	1.62663e+07	   77.6965	   18.1007	         0	1.62531e+07	   77.2677	   18.1007	         0	1.35054e+07	   77.4719	      18.5	         0	1.57201e+07	   77.6905	   18.3004	         0	1.06284e+07	   77.4821	   18.1007	         0	1.48379e+07	   77.2635	   18.3003	         0	8.54067e+06	
         R10	   4898	   76.8646	      18.5	         0	1.20194e+07	   77.2594	      18.5	         0	1.52969e+07	   77.2677	   18.1007	         0	1.37835e+07	   76.8722	   18.1008	         0	 1.0688e+07	    77.062	      18.5	         0	1.35625e+07	   77.2635	   18.3003	         0	8.80748e+06	     77.07	   18.1008	         0	1.20756e+07	   76.8684	   18.3004	         0	8.14768e+06	
         R10	   4899	      76.5	    18.081	         0	1.95564e+07	      76.5	      18.5	         0	4.86397e+06	   76.8646	      18.5	         0	1.37747e+07	   76.8722	   18.1008	         0	7.08269e+06	      76.5	   18.2905	         0	1.21372e+07	   76.6823	      18.5	         0	 8.8929e+06	   76.8684	   18.3004	         0	5.14261e+06	   76.6861	   18.0909	         0	9.48551e+06	
         R10	   4900	   77.3144	   18.9018	         0	1.46921e+07	   77.2594	      18.5	         0	1.54132e+07	   76.8646	      18.5	         0	1.28613e+07	   76.9037	   18.9056	         0	1.20375e+07	   77.2869	   18.7009	         0	 8.7792e+06	    77.062	      18.5	         0	 1.4066e+07	   76.8841	   18.7028	         0	8.14866e+06	    77.109	   18.9037	         0	1.32912e+07	
         R10	   4901	    77.739	   18.8982	         0	1.73345e+07	   77.6844	      18.5	         0	1.67018e+07	   77.2594	      18.5	         0	1.54916e+07	   77.3144	   18.9018	         0	1.44795e+07	   77.7117	   18.6991	         0	1.04709e+07	   77.4719	      18.5	         0	 1.6082e+07	   77.2869	   18.7009	         0	8.60799e+06	   77.5267	      18.9	         0	 1.5881e+07	
         R10	   4902	   78.1778	   18.8949	         0	1.76159e+07	   78.1396	      18.5	         0	1.69717e+07	   77.6844	      18.5	         0	1.66749e+07	    77.739	   18.8982	         0	1.67753e+07	   78.1587	   18.6975	         0	1.08286e+07	    77.912	      18.5	         0	1.68088e+07	   77.7117	   18.6991	         0	9.85818e+06	   77.9584	   18.8966	         0	1.71842e+07	
         R10	   4903	    78.625	    18.919	         0	1.89686e+07	    78.625	      18.5	         0	1.72237e+07	   78.1396	      18.5	         0	 1.6973e+07	   78.1778	   18.8949	         0	 1.7712e+07	    78.625	   18.7095	         0	1.06923e+07	   78.3823	      18.5	         0	1.70846e+07	   78.1587	   18.6975	         0	1.08425e+07	   78.4014	    18.907	         0	1.83186e+07	
         R10	   4904	   78.1999	      19.3	         0	1.22783e+07	    78.625	      19.3	         0	1.18517e+07	    78.625	    18.919	         0	1.59458e+07	   78.1778	   18.8949	         0	1.78983e+07	   78.4125	      19.3	         0	1.20288e+07	    78.625	   19.1095	         0	1.08139e+07	   78.4014	    18.907	         0	1.69048e+07	   78.1889	   19.0975	         0	1.13235e+07	
         R10	   4905	   77.7749	      19.3	         0	1.28868e+07	   78.1999	      19.3	         0	1.22613e+07	   78.1778	   18.8949	         0	1.77935e+07	    77.739	   18.8982	         0	1.69256e+07	   77.9874	      19.3	         0	1.25352e+07	   78.1889	   19.0975	         0	1.13217e+07	   77.9584	   18.8966	         0	1.73399e+07	   77.7569	   19.0991	         0	1.03318e+07	
         R10	   4906	   77.3499	      19.3	         0	1.35766e+07	   77.7749	      19.3	         0	1.30072e+07	    77.739	   18.8982	         0	 1.7406e+07	   77.3144	   18.9018	         0	 1.5208e+07	   77.5624	      19.3	         0	1.32575e+07	   77.7569	   19.0991	         0	1.10058e+07	   77.5267	      18.9	         0	1.62713e+07	   77.3322	   19.1009	         0	9.07075e+06	
         R10	   4907	   76.9249	      19.3	         0	1.26476e+07	   77.3499	      19.3	         0	1.37402e+07	   77.3144	   18.9018	         0	1.52343e+07	   76.9037	   18.9056	         0	 1.1534e+07	   77.1374	      19.3	         0	1.31212e+07	   77.3322	   19.1009	         0	9.43164e+06	    77.109	   18.9037	         0	1.31911e+07	   76.9143	   19.1028	         0	8.63731e+06	
         R10	   4908	      76.5	    18.862	         0	2.01204e+07	      76.5	      19.3	         0	6.70788e+06	   76.9249	      19.3	         0	1.47904e+07	   76.9037	   18.9056	         0	7.98742e+06	      76.5	    19.081	         0	1.29232e+07	   76.7125	      19.3	         0	9.99392e+06	   76.9143	   19.1028	         0	6.18129e+06	   76.7018	   18.8838	         0	9.21715e+06	
         R10	   4909	      76.5	      18.5	         0	5.85424e+06	      76.5	    18.862	         0	1.95651e+07	   76.9037	   18.9056	         0	9.50054e+06	   76.8646	      18.5	         0	1.40888e+07	      76.5	    18.681	         0	1.24355e+07	   76.7018	   18.8838	         0	9.42454e+06	   76.8841	   18.7028	         0	4.88533e+06	   76.6823	      18.5	         0	9.59245e+06	
         R10	   4910	   75.5908	      15.7	         0	1.06959e+07	   75.6206	      15.3	         0	1.69919e+07	   75.2081	      15.3	         0	1.22108e+07	   75.1952	   15.7153	         0	1.46906e+07	   75.6057	      15.5	         0	9.70102e+06	   75.4143	      15.3	         0	1.44531e+07	   75.2016	   15.5077	         0	1.25416e+07	    75.393	   15.7077	         0	1.19134e+07	
         R10	   4911	   75.9485	   15.7047	         0	1.47503e+07	   75.9734	      15.3	         0	1.45198e+07	   75.6206	      15.3	         0	1.67559e+07	   75.5908	      15.7	         0	1.05269e+07	    75.961	   15.5023	         0	1.05138e+07	    75.797	      15.3	         0	1.56353e+07	   75.6057	      15.5	         0	9.33257e+06	   75.7696	   15.7023	         0	1.25776e+07	
         R10	   4912	   76.2628	   15.5326	         0	1.87058e+07	   76.2666	      15.3	         0	9.25123e+06	   75.9734	      15.3	         0	1.64913e+07	   75.9485	   15.7047	         0	1.16958e+07	   76.2647	   15.4163	         0	1.35733e+07	     76.12	      15.3	         0	1.26331e+07	    75.961	   15.5023	         0	7.67422e+06	   76.1056	   15.6187	         0	   1.29e+07	
         R10	   4913	      76.5	    15.554	         0	1.74179e+07	      76.5	      15.3	         0	1.16815e+07	   76.2666	      15.3	         0	1.64026e+07	   76.2628	   15.5326	         0	7.22924e+06	      76.5	    15.427	         0	1.44569e+07	   76.3833	      15.3	         0	 1.3527e+07	   76.2647	   15.4163	         0	1.13163e+07	   76.3814	   15.5433	         0	1.21963e+07	
         R10	   4914	      76.5	   15.8206	         0	1.97317e+07	      76.5	    15.554	         0	1.76841e+07	   76.2628	   15.5326	         0	9.74646e+06	    76.251	   15.8486	         0	9.45803e+06	      76.5	   15.6873	         0	1.85909e+07	   76.3814	   15.5433	         0	1.29428e+07	   76.2569	   15.6906	         0	7.51271e+06	   76.3755	   15.8346	         0	1.30611e+07	
         R10	   4915	   76.2666	      16.1	         0	1.33038e+07	      76.5	      16.1	         0	8.03842e+06	      76.5	   15.8206	         0	  1.955e+07	    76.251	   15.8486	         0	3.98033e+06	   76.3833	      16.1	         0	1.02634e+07	      76.5	   15.9603	         0	1.31872e+07	   76.3755	   15.8346	         0	1.15129e+07	   76.2588	   15.9743	         0	8.48172e+06	
         R10	   4916	    72.961	      15.3	         0	1.08329e+07	     72.25	      15.3	         0	1.18654e+07	     72.25	      16.1	         0	7.93278e+06	    72.961	      16.1	         0	1.02681e+07	   72.6055	      15.3	         0	 1.1224e+07	     72.25	      15.7	         0	 9.8537e+06	   72.6055	      16.1	         0	8.88083e+06	    72.961	      15.7	         0	1.03696e+07	
         R10	   4917	   73.6123	      15.3	         0	1.10667e+07	    72.961	      15.3	         0	9.00816e+06	    72.961	      16.1	         0	9.74758e+06	   73.6123	      16.1	         0	1.03853e+07	   73.2867	      15.3	         0	9.93648e+06	    72.961	      15.7	         0	9.16468e+06	   73.2867	      16.1	         0	1.00234e+07	   73.6123	      15.7	         0	1.03327e+07	
         R10	   4918	   74.2039	      15.3	         0	 1.1061e+07	   73.6123	      15.3	         0	9.71676e+06	   73.6123	      16.1	         0	1.04154e+07	   74.2039	      16.1	         0	1.06112e+07	   73.9081	      15.3	         0	1.03828e+07	   73.6123	      15.7	         0	9.61923e+06	   73.9081	      16.1	         0	1.04961e+07	   74.2039	      15.7	         0	 1.0346e+07	
         R10	   4919	   74.7358	      15.3	         0	1.01522e+07	   74.2039	      15.3	         0	1.08503e+07	   74.2039	      16.1	         0	1.05209e+07	   74.7358	      16.1	         0	1.05566e+07	   74.4699	      15.3	         0	1.05005e+07	   74.2039	      15.7	         0	1.01821e+07	   74.4699	      16.1	         0	1.05111e+07	   74.7358	      15.7	         0	9.91689e+06	
         R10	   4920	   75.9734	      16.1	         0	1.33867e+07	   76.2666	      16.1	         0	1.19633e+07	    76.251	   15.8486	         0	1.69484e+07	   75.9485	   15.7047	         0	1.38003e+07	     76.12	      16.1	         0	1.19508e+07	   76.2588	   15.9743	         0	1.27194e+07	   76.0997	   15.7766	         0	1.21532e+07	    75.961	   15.9023	         0	8.59959e+06	
         R10	   4921	   75.6206	      16.1	         0	1.43551e+07	   75.9734	      16.1	         0	1.34905e+07	   75.9485	   15.7047	         0	1.52108e+07	   75.5908	      15.7	         0	1.35373e+07	    75.797	      16.1	         0	 1.3889e+07	    75.961	   15.9023	         0	1.08926e+07	   75.7696	   15.7023	         0	1.42025e+07	   75.6057	      15.9	         0	8.87141e+06	
         R10	   4922	   75.2081	      16.1	         0	1.02629e+07	   75.6206	      16.1	         0	1.40581e+07	   75.5908	      15.7	         0	1.29648e+07	   75.1952	   15.7153	         0	1.30949e+07	   75.4143	      16.1	         0	1.11075e+07	   75.6057	      15.9	         0	7.95271e+06	    75.393	   15.7077	         0	1.03074e+07	   75.2016	   15.9077	         0	1.15646e+07	
         R10	   4923	   74.7358	      16.1	         0	1.07583e+07	   75.2081	      16.1	         0	1.08586e+07	   75.1952	   15.7153	         0	 1.3331e+07	   74.7358	      15.3	         0	9.92128e+06	    74.972	      16.1	         0	1.08069e+07	   75.2016	   15.9077	         0	1.19154e+07	   74.9655	   15.5077	         0	1.14644e+07	   74.7358	      15.7	         0	 9.8681e+06	
         R10	   4924	   75.1952	   15.7153	         0	1.22125e+07	   75.2081	      15.3	         0	1.17643e+07	   74.7358	      15.3	         0	1.10909e+07	   75.2016	   15.5077	         0	1.09977e+07	    74.972	      15.3	         0	1.13447e+07	   74.9655	   15.5077	         0	1.08077e+07	       N/A	       N/A	       N/A	        N/A	       N/A	       N/A	       N/A	        N/A	
         R10	   4925	    76.251	   15.8486	         0	1.51091e+07	   76.2628	   15.5326	         0	1.46361e+07	   75.9485	   15.7047	         0	5.45552e+06	   76.2569	   15.6906	         0	1.43988e+07	   76.1056	   15.6187	         0	9.64306e+06	   76.0997	   15.7766	         0	1.02164e+07	       N/A	       N/A	       N/A	        N/A	       N/A	       N/A	       N/A	        N/A	
         R10	   4926	   75.6206	   16.4827	         0	1.60945e+07	   75.6206	      16.1	         0	1.28906e+07	   75.2081	      16.1	         0	1.05283e+07	   75.2081	   16.5424	         0	9.20521e+06	   75.6206	   16.2913	         0	1.08722e+07	   75.4143	      16.1	         0	1.12915e+07	   75.2081	   16.3212	         0	9.03821e+06	   75.4143	   16.5125	         0	1.25903e+07	
         R10	   4927	   75.9734	    16.423	         0	1.46171e+07	   75.9734	      16.1	         0	1.35436e+07	   75.6206	      16.1	         0	1.30453e+07	   75.6206	   16.4827	         0	1.33555e+07	   75.9734	   16.2615	         0	9.63334e+06	    75.797	      16.1	         0	1.32572e+07	   75.6206	   16.2913	         0	 8.3806e+06	    75.797	   16.4528	         0	1.38908e+07	
         R10	   4928	   76.2666	   16.3633	         0	1.66257e+07	   76.2666	      16.1	         0	1.04449e+07	   75.9734	      16.1	         0	1.36241e+07	   75.9734	    16.423	         0	 1.2609e+07	   76.2666	   16.2316	         0	1.20254e+07	     76.12	      16.1	         0	1.10361e+07	   75.9734	   16.2615	         0	6.50415e+06	     76.12	   16.3931	         0	1.07776e+07	
         R10	   4929	      76.5	   16.3413	         0	2.23666e+07	      76.5	      16.1	         0	1.01744e+07	   76.2666	      16.1	         0	1.15527e+07	   76.2666	   16.3633	         0	 1.1429e+06	      76.5	   16.2207	         0	1.40048e+07	   76.3833	      16.1	         0	9.68246e+06	   76.2666	   16.2316	         0	6.23246e+06	   76.3833	   16.3523	         0	1.13744e+07	
         R10	   4930	   76.2207	    16.608	         0	9.37054e+06	      76.5	    16.608	         0	1.87862e+07	      76.5	   16.3413	         0	2.22291e+07	   76.2666	   16.3633	         0	9.87198e+06	   76.3603	    16.608	         0	1.21529e+07	      76.5	   16.4747	         0	2.04134e+07	   76.3833	   16.3523	         0	1.18373e+07	   76.2436	   16.4856	         0	4.55847e+06	
         R10	   4931	   76.2126	      16.9	         0	1.32808e+07	      76.5	      16.9	         0	7.73755e+06	      76.5	    16.608	         0	1.84701e+07	   76.2207	    16.608	         0	4.40225e+06	   76.3563	      16.9	         0	9.56768e+06	      76.5	    16.754	         0	1.22798e+07	   76.3603	    16.608	         0	1.05649e+07	   76.2166	    16.754	         0	7.95496e+06	
         R10	   4932	    72.961	      16.1	         0	1.08803e+07	     72.25	      16.1	         0	8.61666e+06	     72.25	      16.9	         0	7.43577e+06	   73.0251	      16.9	         0	1.02352e+07	   72.6055	      16.1	         0	9.63001e+06	     72.25	      16.5	         0	8.01838e+06	   72.6376	      16.9	         0	8.46781e+06	    72.993	      16.5	         0	9.86306e+06	
         R10	   4933	   73.6123	      16.1	         0	1.02338e+07	    72.961	      16.1	         0	1.01543e+07	   73.0251	      16.9	         0	9.74822e+06	   73.7305	      16.9	         0	1.03074e+07	   73.2867	      16.1	         0	1.00771e+07	    72.993	      16.5	         0	8.80171e+06	   73.3778	      16.9	         0	9.87153e+06	   73.6714	      16.5	         0	 1.0029e+07	
         R10	   4934	   74.2039	      16.1	         0	1.06996e+07	   73.6123	      16.1	         0	1.05369e+07	   73.7305	      16.9	         0	1.04785e+07	   74.3663	      16.9	         0	1.10031e+07	   73.9081	      16.1	         0	1.06103e+07	   73.6714	      16.5	         0	1.02744e+07	   74.0484	      16.9	         0	1.07199e+07	   74.2851	      16.5	         0	1.07097e+07	
         R10	   4935	   74.7358	      16.1	         0	 1.0538e+07	   74.2039	      16.1	         0	1.07829e+07	   74.3663	      16.9	         0	1.09558e+07	   74.9324	      16.9	         0	1.09927e+07	   74.4699	      16.1	         0	1.06535e+07	   74.2851	      16.5	         0	1.07301e+07	   74.6493	      16.9	         0	1.09452e+07	   74.8341	      16.5	         0	1.06781e+07	
         R10	   4936	   75.2081	   16.5424	         0	1.50724e+07	   75.2081	      16.1	         0	1.01129e+07	   74.7358	      16.1	         0	1.07107e+07	   74.9324	      16.9	         0	 1.0938e+07	   75.2081	   16.3212	         0	1.23579e+07	    74.972	      16.1	         0	1.02403e+07	   74.8341	      16.5	         0	1.06859e+07	   75.0702	   16.7212	         0	1.27843e+07	
         R10	   4937	   75.6206	   16.4827	         0	1.45992e+07	   75.2081	   16.5424	         0	 7.6671e+06	   74.9324	      16.9	         0	1.13727e+07	   75.4288	      16.9	         0	 1.3449e+07	   75.4143	   16.5125	         0	1.09701e+07	   75.0702	   16.7212	         0	8.69832e+06	   75.1806	      16.9	         0	1.20072e+07	   75.5247	   16.6913	         0	1.08123e+07	
         R10	   4938	   75.9734	    16.423	         0	1.33853e+07	   75.6206	   16.4827	         0	1.09702e+07	   75.4288	      16.9	         0	1.40096e+07	   75.8555	      16.9	         0	1.29248e+07	    75.797	   16.4528	         0	1.20425e+07	   75.5247	   16.6913	         0	 8.3605e+06	   75.6422	      16.9	         0	1.34491e+07	   75.9145	   16.6615	         0	 1.0072e+07	
         R10	   4939	   75.8555	      16.9	         0	1.24489e+07	   76.2126	      16.9	         0	1.09749e+07	   76.2207	    16.608	         0	1.30125e+07	   75.9734	    16.423	         0	1.10104e+07	   76.0341	      16.9	         0	1.14199e+07	   76.2166	    16.754	         0	1.04536e+07	    76.097	   16.5155	         0	1.10625e+07	   75.9145	   16.6615	         0	8.29233e+06	
         R10	   4940	   76.2207	    16.608	         0	1.02666e+07	   76.2666	   16.3633	         0	1.57801e+07	   75.9734	    16.423	         0	4.41724e+06	   76.2436	   16.4856	         0	1.17248e+07	     76.12	   16.3931	         0	9.56036e+06	    76.097	   16.5155	         0	7.32262e+06	       N/A	       N/A	       N/A	        N/A	       N/A	       N/A	       N/A	        N/A	
         R10	   4941	    76.981	   15.5638	         0	1.16077e+07	   76.9666	      15.3	         0	1.82825e+07	   76.7279	      15.3	         0	  1.059e+07	   76.7385	   15.5653	         0	1.30265e+07	   76.9738	   15.4319	         0	1.12783e+07	   76.8472	      15.3	         0	1.43619e+07	   76.7332	   15.4327	         0	9.89729e+06	   76.8597	   15.5646	         0	1.22923e+07	
         R10	   4942	   77.2374	   15.5575	         0	1.16985e+07	    77.216	      15.3	         0	2.03311e+07	   76.9666	      15.3	         0	1.59529e+07	    76.981	   15.5638	         0	1.22942e+07	   77.2267	   15.4288	         0	1.14218e+07	   77.0913	      15.3	         0	1.81202e+07	   76.9738	   15.4319	         0	1.01018e+07	   77.1092	   15.5607	         0	1.18916e+07	
         R10	   4943	   77.4715	   15.5296	         0	9.61468e+06	   77.4763	      15.3	         0	2.19669e+07	    77.216	      15.3	         0	1.88046e+07	   77.2374	   15.5575	         0	1.19646e+07	   77.4739	   15.4148	         0	1.35675e+07	   77.3462	      15.3	         0	2.03318e+07	   77.2267	   15.4288	         0	1.03225e+07	   77.3544	   15.5436	         0	1.05629e+07	
         R10	   4944	   77.7709	   15.5894	         0	1.33186e+07	   77.7473	      15.3	         0	1.84193e+07	   77.4763	      15.3	         0	 2.1384e+07	   77.4715	   15.5296	         0	8.78813e+06	   77.7591	   15.4447	         0	1.17884e+07	   77.6118	      15.3	         0	1.98966e+07	   77.4739	   15.4148	         0	1.27577e+07	   77.6212	   15.5595	         0	 1.0981e+07	
         R10	   4945	   78.0133	   15.6657	         0	1.36566e+07	   78.0291	      15.3	         0	2.10718e+07	   77.7473	      15.3	         0	1.80408e+07	   77.7709	   15.5894	         0	1.20791e+07	   78.0212	   15.4828	         0	1.13796e+07	   77.8882	      15.3	         0	1.95398e+07	   77.7591	   15.4447	         0	1.05926e+07	   77.8921	   15.6275	         0	1.27827e+07	
         R10	   4946	   78.3112	   15.6946	         0	1.34837e+07	   78.3217	      15.3	         0	1.98376e+07	   78.0291	      15.3	         0	2.05184e+07	   78.0133	   15.6657	         0	1.39084e+07	   78.3165	   15.4973	         0	1.01524e+07	   78.1754	      15.3	         0	2.00979e+07	   78.0212	   15.4828	         0	1.11902e+07	   78.1623	   15.6802	         0	1.36065e+07	
         R10	   4947	    78.625	    15.662	         0	9.66628e+06	    78.625	      15.3	         0	1.87322e+07	   78.3217	      15.3	         0	 1.9615e+07	   78.3112	   15.6946	         0	1.29797e+07	    78.625	    15.481	         0	1.11913e+07	   78.4733	      15.3	         0	1.90906e+07	   78.3165	   15.4973	         0	 9.7332e+06	   78.4681	   15.6783	         0	1.11384e+07	
         R10	   4948	   78.2643	      16.1	         0	 1.2426e+07	    78.625	      16.1	         0	1.31055e+07	    78.625	    15.662	         0	 1.4006e+07	   78.3112	   15.6946	         0	1.20764e+07	   78.4446	      16.1	         0	1.27249e+07	    78.625	    15.881	         0	9.90444e+06	   78.4681	   15.6783	         0	1.29366e+07	   78.2878	   15.8973	         0	9.94008e+06	
         R10	   4949	   77.9226	      16.1	         0	1.15654e+07	   78.2643	      16.1	         0	1.25872e+07	   78.3112	   15.6946	         0	1.19792e+07	   78.0133	   15.6657	         0	 1.1436e+07	   78.0934	      16.1	         0	1.20039e+07	   78.2878	   15.8973	         0	9.97943e+06	   78.1623	   15.6802	         0	1.15721e+07	   77.9679	   15.8828	         0	1.04558e+07	
         R10	   4950	   77.2875	   15.8286	         0	1.06666e+07	   77.2964	      16.1	         0	1.48004e+07	   77.5999	      16.1	         0	1.17258e+07	   77.6146	   15.8099	         0	1.15905e+07	   77.2919	   15.9643	         0	9.01265e+06	   77.4482	      16.1	         0	1.30413e+07	   77.6073	    15.955	         0	1.09647e+07	   77.4511	   15.8192	         0	1.05896e+07	
         R10	   4951	   77.0088	   15.8258	         0	1.23799e+07	   77.0118	      16.1	         0	1.49346e+07	   77.2964	      16.1	         0	1.50854e+07	   77.2875	   15.8286	         0	1.19735e+07	   77.0103	   15.9629	         0	9.44163e+06	   77.1541	      16.1	         0	1.49986e+07	   77.2919	   15.9643	         0	1.01147e+07	   77.1481	   15.8272	         0	1.21098e+07	
         R10	   4952	   76.7502	   15.8262	         0	1.01761e+07	   76.7464	      16.1	         0	1.18669e+07	   77.0118	      16.1	         0	1.50554e+07	   77.0088	   15.8258	         0	1.29543e+07	   76.7483	   15.9631	         0	9.74629e+06	   76.8791	      16.1	         0	1.31058e+07	   77.0103	   15.9629	         0	9.95623e+06	   76.8795	    15.826	         0	1.12809e+07	
         R10	   4953	      76.5	   15.8206	         0	2.03268e+07	      76.5	      16.1	         0	7.91401e+06	   76.7464	      16.1	         0	1.34056e+07	   76.7502	   15.8262	         0	6.91554e+06	      76.5	   15.9603	         0	1.34213e+07	   76.6232	      16.1	         0	 1.0004e+07	   76.7483	   15.9631	         0	9.07817e+06	   76.6251	   15.8234	         0	1.24073e+07	
         R10	   4954	   76.7385	   15.5653	         0	  1.093e+07	   76.7279	      15.3	         0	1.64321e+07	      76.5	      15.3	         0	1.18272e+07	      76.5	    15.554	         0	1.79401e+07	   76.7332	   15.4327	         0	1.15014e+07	    76.614	      15.3	         0	1.31846e+07	      76.5	    15.427	         0	1.48316e+07	   76.6192	   15.5597	         0	1.40207e+07	
         R10	   4955	   76.7385	   15.5653	         0	1.04789e+07	      76.5	    15.554	         0	1.79894e+07	      76.5	   15.8206	         0	2.05311e+07	   76.7502	   15.8262	         0	9.18965e+06	   76.6192	   15.5597	         0	1.35435e+07	      76.5	   15.6873	         0	1.91449e+07	   76.6251	   15.8234	         0	1.35616e+07	   76.7443	   15.6958	         0	8.06592e+06	
         R10	   4956	    76.981	   15.5638	         0	 1.0786e+07	   76.7385	   15.5653	         0	1.21422e+07	   76.7502	   15.8262	         0	1.20156e+07	   77.0088	   15.8258	         0	1.14833e+07	   76.8597	   15.5646	         0	1.13546e+07	   76.7443	   15.6958	         0	1.11798e+07	   76.8795	    15.826	         0	1.17208e+07	   76.9949	   15.6948	         0	1.07826e+07	
         R10	   4957	   77.2374	   15.5575	         0	1.00666e+07	    76.981	   15.5638	         0	1.16585e+07	   77.0088	   15.8258	         0	1.11332e+07	   77.2875	   15.8286	         0	1.33461e+07	   77.1092	   15.5607	         0	1.08487e+07	   76.9949	   15.6948	         0	1.10011e+07	   77.1481	   15.8272	         0	1.22292e+07	   77.2624	   15.6931	         0	1.14771e+07	
         R10	   4958	   77.4715	   15.5296	         0	1.21055e+07	   77.2374	   15.5575	         0	1.12723e+07	   77.2875	   15.8286	         0	1.16615e+07	   77.6146	   15.8099	         0	1.21201e+07	   77.3544	   15.5436	         0	1.15577e+07	   77.2624	   15.6931	         0	1.10021e+07	   77.4511	   15.8192	         0	1.15382e+07	   77.5431	   15.6698	         0	1.19787e+07	
         R10	   4959	   77.9226	      16.1	         0	1.12576e+07	   78.0133	   15.6657	         0	1.12068e+07	   77.7709	   15.5894	         0	1.22734e+07	   77.6146	   15.8099	         0	1.28072e+07	   77.9679	   15.8828	         0	1.00252e+07	   77.8921	   15.6275	         0	1.17159e+07	   77.6928	   15.6997	         0	1.24339e+07	   77.7686	    15.955	         0	1.13033e+07	
         R10	   4960	   77.6146	   15.8099	         0	 1.0841e+07	   77.5999	      16.1	         0	1.19911e+07	   77.9226	      16.1	         0	1.13785e+07	   77.6073	    15.955	         0	1.05748e+07	   77.7612	      16.1	         0	1.16436e+07	   77.7686	    15.955	         0	 1.0536e+07	       N/A	       N/A	       N/A	        N/A	       N/A	       N/A	       N/A	        N/A	
         R10	   4961	   77.7709	   15.5894	         0	1.31872e+07	   77.4715	   15.5296	         0	1.11946e+07	   77.6146	   15.8099	         0	9.47134e+06	   77.6212	   15.5595	         0	1.18905e+07	   77.5431	   15.6698	         0	 1.0098e+07	   77.6928	   15.6997	         0	1.13273e+07	       N/A	       N/A	       N/A	        N/A	       N/A	       N/A	       N/A	        N/A	
         R10	   4962	   77.0196	    16.395	         0	1.43665e+07	   77.0118	      16.1	         0	1.33327e+07	   76.7464	      16.1	         0	1.10842e+07	   76.7371	   16.3337	         0	7.39055e+06	   77.0157	   16.2475	         0	9.87491e+06	   76.8791	      16.1	         0	1.18541e+07	   76.7417	   16.2168	         0	7.60802e+06	   76.8783	   16.3643	         0	1.06766e+07	
         R10	   4963	   77.2576	   16.4821	         0	1.44583e+07	   77.2964	      16.1	         0	1.30833e+07	   77.0118	      16.1	         0	1.29128e+07	   77.0196	    16.395	         0	1.31079e+07	    77.277	   16.2911	         0	1.00849e+07	   77.1541	      16.1	         0	1.29699e+07	   77.0157	   16.2475	         0	8.94068e+06	   77.1386	   16.4385	         0	1.37633e+07	
         R10	   4964	   77.5511	   16.5067	         0	1.45293e+07	   77.5999	      16.1	         0	1.44096e+07	   77.2964	      16.1	         0	1.34956e+07	   77.2576	   16.4821	         0	1.39133e+07	   77.5755	   16.3033	         0	9.86226e+06	   77.4482	      16.1	         0	1.39432e+07	    77.277	   16.2911	         0	9.75445e+06	   77.4044	   16.4944	         0	1.42178e+07	
         R10	   4965	   77.8929	   16.5069	         0	1.58926e+07	   77.9226	      16.1	         0	1.51172e+07	   77.5999	      16.1	         0	1.44498e+07	   77.5511	   16.5067	         0	1.45718e+07	   77.9077	   16.3035	         0	1.03201e+07	   77.7612	      16.1	         0	1.47752e+07	   77.5755	   16.3033	         0	9.81675e+06	    77.722	   16.5068	         0	 1.5232e+07	
         R10	   4966	   78.2533	   16.5074	         0	1.60611e+07	   78.2643	      16.1	         0	1.48295e+07	   77.9226	      16.1	         0	1.50745e+07	   77.8929	   16.5069	         0	1.55175e+07	   78.2588	   16.3037	         0	1.06769e+07	   78.0934	      16.1	         0	1.49463e+07	   77.9077	   16.3035	         0	9.96747e+06	   78.0731	   16.5072	         0	1.57776e+07	
         R10	   4967	    78.625	    16.462	         0	1.30313e+07	    78.625	      16.1	         0	1.42377e+07	   78.2643	      16.1	         0	1.48529e+07	   78.2533	   16.5074	         0	1.58705e+07	    78.625	    16.281	         0	1.01804e+07	   78.4446	      16.1	         0	1.45329e+07	   78.2588	   16.3037	         0	1.05106e+07	   78.4391	   16.4847	         0	1.44187e+07	
         R10	   4968	   78.2041	      16.9	         0	1.57573e+07	    78.625	      16.9	         0	1.52744e+07	    78.625	    16.462	         0	1.68508e+07	   78.2533	   16.5074	         0	1.58669e+07	   78.4146	      16.9	         0	1.54945e+07	    78.625	    16.681	         0	1.05508e+07	   78.4391	   16.4847	         0	1.63365e+07	   78.2287	   16.7037	         0	1.06856e+07	
         R10	   4969	   77.8099	      16.9	         0	1.60115e+07	   78.2041	      16.9	         0	1.58286e+07	   78.2533	   16.5074	         0	1.59916e+07	   77.8929	   16.5069	         0	1.57785e+07	    78.007	      16.9	         0	1.59069e+07	   78.2287	   16.7037	         0	1.08279e+07	   78.0731	   16.5072	         0	1.58686e+07	   77.8514	   16.7035	         0	1.00583e+07	
         R10	   4970	   77.4424	      16.9	         0	1.47959e+07	   77.8099	      16.9	         0	1.59847e+07	   77.8929	   16.5069	         0	1.61553e+07	   77.5511	   16.5067	         0	1.48143e+07	   77.6262	      16.9	         0	1.53697e+07	   77.8514	   16.7035	         0	 1.0355e+07	    77.722	   16.5068	         0	1.54846e+07	   77.4968	   16.7033	         0	9.69111e+06	
         R10	   4971	   77.1016	      16.9	         0	1.19054e+07	   77.4424	      16.9	         0	1.47621e+07	   77.5511	   16.5067	         0	1.47056e+07	   77.2576	   16.4821	         0	1.15703e+07	    77.272	      16.9	         0	 1.3201e+07	   77.4968	   16.7033	         0	9.71397e+06	   77.4044	   16.4944	         0	1.30507e+07	   77.1796	   16.6911	         0	 9.2874e+06	
         R10	   4972	      76.5	    16.608	         0	1.82284e+07	      76.5	      16.9	         0	6.99822e+06	   76.7875	      16.9	         0	1.18916e+07	   76.8212	   16.6188	         0	3.94139e+06	      76.5	    16.754	         0	1.18036e+07	   76.6437	      16.9	         0	8.60281e+06	   76.8043	   16.7594	         0	7.10404e+06	   76.6606	   16.6134	         0	1.07027e+07	
         R10	   4973	   76.7371	   16.3337	         0	5.37787e+06	   76.7464	      16.1	         0	1.31782e+07	      76.5	      16.1	         0	 1.0168e+07	      76.5	   16.3413	         0	2.05876e+07	   76.7417	   16.2168	         0	8.52963e+06	   76.6232	      16.1	         0	9.74468e+06	      76.5	   16.2207	         0	1.29938e+07	   76.6185	   16.3375	         0	1.17756e+07	
         R10	   4974	   76.7371	   16.3337	         0	9.56043e+06	      76.5	   16.3413	         0	2.01501e+07	      76.5	    16.608	         0	1.79756e+07	   76.8212	   16.6188	         0	 8.4192e+06	   76.6185	   16.3375	         0	1.26258e+07	      76.5	   16.4747	         0	1.90103e+07	   76.6606	   16.6134	         0	1.14649e+07	   76.7791	   16.4762	         0	5.53432e+06	
         R10	   4975	   77.1016	      16.9	         0	1.15044e+07	   77.2576	   16.4821	         0	1.13397e+07	   77.0196	    16.395	         0	8.35822e+06	   76.8212	   16.6188	         0	1.37633e+07	   77.1796	   16.6911	         0	8.38378e+06	   77.1386	   16.4385	         0	9.84396e+06	   76.9204	   16.5069	         0	 1.0729e+07	   76.9614	   16.7594	         0	1.11666e+07	
         R10	   4976	   76.8212	   16.6188	         0	7.95343e+06	   76.7875	      16.9	         0	1.03679e+07	   77.1016	      16.9	         0	1.12326e+07	   76.8043	   16.7594	         0	8.21679e+06	   76.9445	      16.9	         0	1.06056e+07	   76.9614	   16.7594	         0	9.13229e+06	       N/A	       N/A	       N/A	        N/A	       N/A	       N/A	       N/A	        N/A	
         R10	   4977	   77.0196	    16.395	         0	 1.0353e+07	   76.7371	   16.3337	         0	9.29987e+06	   76.8212	   16.6188	         0	9.73045e+06	   76.8783	   16.3643	         0	9.45589e+06	   76.7791	   16.4762	         0	7.81264e+06	   76.9204	   16.5069	         0	9.14486e+06	       N/A	       N/A	       N/A	        N/A	       N/A	       N/A	       N/A	        N/A	
         R10	   4978	   75.9537	      11.9	         0	1.16676e+07	      76.5	      11.9	         0	9.13474e+06	      76.5	     11.05	         0	7.23517e+06	   75.6646	     11.05	         0	1.03641e+07	   76.2268	      11.9	         0	1.02114e+07	      76.5	    11.475	         0	8.13357e+06	   76.0823	     11.05	         0	8.44925e+06	   75.8091	    11.475	         0	1.00394e+07	
         R10	   4979	   75.3426	      11.9	         0	1.04574e+07	   75.9537	      11.9	         0	1.06948e+07	   75.6646	     11.05	         0	1.00944e+07	   74.8218	     11.05	         0	 1.1344e+07	   75.6481	      11.9	         0	1.03914e+07	   75.8091	    11.475	         0	9.33742e+06	   75.2432	     11.05	         0	1.06569e+07	   75.0822	    11.475	         0	1.07143e+07	
         R10	   4980	   74.6666	      11.9	         0	1.12006e+07	   75.3426	      11.9	         0	1.06876e+07	   74.8218	     11.05	         0	1.14263e+07	   73.9718	     11.05	         0	1.12728e+07	   75.0046	      11.9	         0	1.08549e+07	   75.0822	    11.475	         0	 1.0875e+07	   74.3969	     11.05	         0	1.13478e+07	   74.3192	    11.475	         0	1.12206e+07	
         R10	   4981	   73.9259	      11.9	         0	1.15904e+07	   74.6666	      11.9	         0	1.11113e+07	   73.9718	     11.05	         0	1.12894e+07	   73.1146	     11.05	         0	9.34715e+06	   74.2963	      11.9	         0	1.12352e+07	   74.3192	    11.475	         0	1.11855e+07	   73.5432	     11.05	         0	1.02819e+07	   73.5202	    11.475	         0	1.02979e+07	
         R10	   4982	   73.1204	      11.9	         0	1.13119e+07	   73.9259	      11.9	         0	1.22106e+07	   73.1146	     11.05	         0	  9.075e+06	     72.25	     11.05	         0	6.79514e+06	   73.5231	      11.9	         0	1.16949e+07	   73.5202	    11.475	         0	1.04234e+07	   72.6823	     11.05	         0	7.67488e+06	   72.6852	    11.475	         0	8.59508e+06	
         R10	   4983	   73.1204	      11.9	         0	1.04314e+07	     72.25	     11.05	         0	9.96379e+06	     72.25	      11.9	         0	7.62406e+06	   72.6852	    11.475	         0	1.01198e+07	     72.25	    11.475	         0	8.67653e+06	   72.6852	      11.9	         0	8.88463e+06	       N/A	       N/A	       N/A	        N/A	       N/A	       N/A	       N/A	        N/A	
         R10	   4984	   76.0886	   12.3732	         0	6.33877e+06	      76.5	   12.3452	         0	1.62311e+07	      76.5	      11.9	         0	4.59859e+06	   75.9537	      11.9	         0	9.63223e+06	   76.2943	   12.3592	         0	1.00769e+07	      76.5	   12.1226	         0	1.04086e+07	   76.2268	      11.9	         0	6.85436e+06	   76.0212	   12.1366	         0	6.10302e+06	
         R10	   4985	   75.9853	     12.75	         0	1.53473e+07	      76.5	     12.75	         0	8.15215e+06	      76.5	   12.3452	         0	 1.6026e+07	   76.0886	   12.3732	         0	1.94339e+06	   76.2427	     12.75	         0	1.17369e+07	      76.5	   12.5476	         0	1.15644e+07	   76.2943	   12.3592	         0	7.83486e+06	    76.037	   12.5616	         0	7.10105e+06	
         R10	   4986	   75.3932	     12.75	         0	1.22676e+07	   75.9853	     12.75	         0	1.38952e+07	   76.0886	   12.3732	         0	6.71301e+06	   75.6892	     12.75	         0	1.28703e+07	    76.037	   12.5616	         0	8.22032e+06	   75.7409	   12.5616	         0	 8.3495e+06	       N/A	       N/A	       N/A	        N/A	       N/A	       N/A	       N/A	        N/A	
         R10	   4987	   74.7236	     12.75	         0	1.10908e+07	   75.3932	     12.75	         0	1.09285e+07	   75.9537	      11.9	         0	8.60184e+06	   75.3426	      11.9	         0	1.02824e+07	   75.0584	     12.75	         0	1.09069e+07	   75.6734	    12.325	         0	9.42154e+06	   75.6481	      11.9	         0	9.41446e+06	   75.0331	    12.325	         0	1.06506e+07	
         R10	   4988	   73.9765	     12.75	         0	1.10861e+07	   74.7236	     12.75	         0	1.11662e+07	   75.3426	      11.9	         0	1.02098e+07	   74.6666	      11.9	         0	1.11641e+07	     74.35	     12.75	         0	1.10525e+07	   75.0331	    12.325	         0	1.06478e+07	   75.0046	      11.9	         0	1.06832e+07	   74.3216	    12.325	         0	 1.1104e+07	
         R10	   4989	    73.152	     12.75	         0	1.10993e+07	   73.9765	     12.75	         0	1.11426e+07	   74.6666	      11.9	         0	 1.1006e+07	   73.9259	      11.9	         0	1.09641e+07	   73.5642	     12.75	         0	1.08723e+07	   74.3216	    12.325	         0	1.10572e+07	   74.2963	      11.9	         0	1.09673e+07	   73.5389	    12.325	         0	1.04827e+07	
         R10	   4990	   73.1204	      11.9	         0	1.03597e+07	     72.25	      11.9	         0	7.76276e+06	     72.25	     12.75	         0	8.46892e+06	    73.152	     12.75	         0	1.17054e+07	   72.6852	      11.9	         0	8.54442e+06	     72.25	    12.325	         0	8.10767e+06	    72.701	     12.75	         0	9.97052e+06	   73.1362	    12.325	         0	1.02193e+07	
         R10	   4991	   73.1204	      11.9	         0	1.02421e+07	    73.152	     12.75	         0	1.01896e+07	   73.9259	      11.9	         0	1.14406e+07	   73.1362	    12.325	         0	9.19515e+06	   73.5389	    12.325	         0	9.84682e+06	   73.5231	      11.9	         0	1.08192e+07	       N/A	       N/A	       N/A	        N/A	       N/A	       N/A	       N/A	        N/A	
         R10	   4992	   75.3932	     12.75	         0	 9.7338e+06	   76.0886	   12.3732	         0	  1.278e+07	   75.9537	      11.9	         0	7.00039e+06	   75.7409	   12.5616	         0	1.11969e+07	   76.0212	   12.1366	         0	9.24133e+06	   75.6734	    12.325	         0	7.90774e+06	       N/A	       N/A	       N/A	        N/A	       N/A	       N/A	       N/A	        N/A	
         R10	   4993	    76.075	   13.2385	         0	7.35183e+06	      76.5	   13.2385	         0	1.61422e+07	      76.5	     12.75	         0	6.08764e+06	   75.9853	     12.75	         0	1.01588e+07	   76.2875	   13.2385	         0	 9.3812e+06	      76.5	   12.9942	         0	1.08127e+07	   76.2427	     12.75	         0	7.55515e+06	   76.0302	   12.9942	         0	5.85222e+06	
         R10	   4994	   76.1395	      13.6	         0	1.46125e+07	      76.5	      13.6	         0	8.68177e+06	      76.5	   13.2385	         0	1.67663e+07	    76.075	   13.2385	         0	2.61711e+06	   76.3197	      13.6	         0	1.16417e+07	      76.5	   13.4192	         0	1.21058e+07	   76.2875	   13.2385	         0	8.17589e+06	   76.1072	   13.4192	         0	7.73104e+06	
         R10	   4995	    73.152	     12.75	         0	 1.0066e+07	     72.25	     12.75	         0	8.28469e+06	     72.25	      13.6	         0	8.79413e+06	   73.1038	      13.6	         0	1.24883e+07	    72.701	     12.75	         0	 8.4636e+06	     72.25	    13.175	         0	 8.5388e+06	   72.6769	      13.6	         0	1.05498e+07	   73.1279	    13.175	         0	1.03439e+07	
         R10	   4996	   73.9765	     12.75	         0	1.09157e+07	    73.152	     12.75	         0	9.65009e+06	   73.1038	      13.6	         0	1.14068e+07	   73.8753	      13.6	         0	1.09817e+07	   73.5642	     12.75	         0	 1.0252e+07	   73.1279	    13.175	         0	9.70821e+06	   73.4895	      13.6	         0	1.09323e+07	   73.9259	    13.175	         0	1.08729e+07	
         R10	   4997	   74.7236	     12.75	         0	1.11126e+07	   73.9765	     12.75	         0	1.10345e+07	   73.8753	      13.6	         0	 1.0947e+07	   74.5647	      13.6	         0	1.10843e+07	     74.35	     12.75	         0	1.10726e+07	   73.9259	    13.175	         0	1.09132e+07	     74.22	      13.6	         0	1.09072e+07	   74.6441	    13.175	         0	1.10753e+07	
         R10	   4998	   75.3932	     12.75	         0	1.02001e+07	   74.7236	     12.75	         0	1.10852e+07	   74.5647	      13.6	         0	1.10527e+07	   75.1718	      13.6	         0	1.10609e+07	   75.0584	     12.75	         0	1.06388e+07	   74.6441	    13.175	         0	1.10484e+07	   74.8682	      13.6	         0	1.09534e+07	   75.2825	    13.175	         0	1.04383e+07	
         R10	   4999	   75.6967	      13.6	         0	9.74202e+06	    76.075	   13.2385	         0	1.31314e+07	   75.9853	     12.75	         0	7.89625e+06	   75.3932	     12.75	         0	 1.0206e+07	   75.8859	   13.4192	         0	 1.1426e+07	   76.0302	   12.9942	         0	1.00488e+07	   75.6892	     12.75	         0	9.01741e+06	    75.545	    13.175	         0	9.54775e+06	
         R10	   5000	   75.6967	      13.6	         0	1.11843e+07	   76.1395	      13.6	         0	1.32808e+07	    76.075	   13.2385	         0	5.44289e+06	   75.9181	      13.6	         0	1.19475e+07	   76.1072	   13.4192	         0	 7.7477e+06	   75.8859	   13.4192	         0	7.49979e+06	       N/A	       N/A	       N/A	        N/A	       N/A	       N/A	       N/A	        N/A	
         R10	   5001	   75.6967	      13.6	         0	1.09253e+07	   75.3932	     12.75	         0	9.93329e+06	   75.1718	      13.6	         0	1.14124e+07	    75.545	    13.175	         0	1.00613e+07	   75.2825	    13.175	         0	1.04704e+07	   75.4343	      13.6	         0	1.11302e+07	       N/A	       N/A	       N/A	        N/A	       N/A	       N/A	       N/A	        N/A	
         R10	   5002	   77.8161	      11.9	         0	1.08588e+07	    78.625	      11.9	         0	1.08501e+07	    78.625	     11.05	         0	1.16141e+07	   77.9344	     11.05	         0	1.07911e+07	   78.2205	      11.9	         0	1.07296e+07	    78.625	    11.475	         0	  1.118e+07	   78.2797	     11.05	         0	 1.1194e+07	   77.8753	    11.475	         0	1.06737e+07	
         R10	   5003	   77.1077	      11.9	         0	 1.1159e+07	   77.8161	      11.9	         0	1.06663e+07	   77.9344	     11.05	         0	1.06187e+07	   77.2261	     11.05	         0	9.09481e+06	   77.4619	      11.9	         0	1.07338e+07	   77.8753	    11.475	         0	1.04644e+07	   77.5803	     11.05	         0	9.80147e+06	   77.1669	    11.475	         0	9.15435e+06	
         R10	   5004	      76.5	      11.9	         0	8.67298e+06	   77.1077	      11.9	         0	1.23132e+07	   77.2261	     11.05	         0	9.54433e+06	      76.5	     11.05	         0	7.50569e+06	   76.8039	      11.9	         0	1.02798e+07	   77.1669	    11.475	         0	9.98127e+06	   76.8631	     11.05	         0	8.09996e+06	      76.5	    11.475	         0	8.03209e+06	
         R10	   5005	   78.0725	     12.75	         0	 1.0523e+07	    78.625	     12.75	         0	1.05495e+07	    78.625	      11.9	         0	1.14109e+07	   77.8161	      11.9	         0	  1.056e+07	   78.3487	     12.75	         0	1.04436e+07	    78.625	    12.325	         0	1.08865e+07	   78.2205	      11.9	         0	1.09845e+07	   77.9443	    12.325	         0	1.04067e+07	
         R10	   5006	   77.5341	     12.75	         0	1.07863e+07	   78.0725	     12.75	         0	1.05151e+07	   77.8161	      11.9	         0	1.05573e+07	   77.1077	      11.9	         0	8.62006e+06	   77.8033	     12.75	         0	1.05107e+07	   77.9443	    12.325	         0	1.04084e+07	   77.4619	      11.9	         0	9.56384e+06	   77.3209	    12.325	         0	9.20995e+06	
         R10	   5007	   77.1077	      11.9	         0	8.65975e+06	      76.5	      11.9	         0	5.41179e+06	      76.5	   12.3452	         0	1.17809e+07	     77.01	     12.75	         0	9.86573e+06	   76.8039	      11.9	         0	6.73208e+06	      76.5	   12.1226	         0	8.56965e+06	    76.755	   12.5476	         0	1.05546e+07	   77.0589	    12.325	         0	8.12706e+06	
         R10	   5008	     77.01	     12.75	         0	1.12044e+07	   77.5341	     12.75	         0	1.13537e+07	   77.1077	      11.9	         0	7.60836e+06	    77.272	     12.75	         0	1.11986e+07	   77.3209	    12.325	         0	8.92279e+06	   77.0589	    12.325	         0	8.52928e+06	       N/A	       N/A	       N/A	        N/A	       N/A	       N/A	       N/A	        N/A	
         R10	   5009	      76.5	   12.3452	         0	1.04391e+07	      76.5	     12.75	         0	6.94902e+06	     77.01	     12.75	         0	1.13999e+07	      76.5	   12.5476	         0	8.38914e+06	    76.755	     12.75	         0	8.96997e+06	    76.755	   12.5476	         0	1.07153e+07	       N/A	       N/A	       N/A	        N/A	       N/A	       N/A	       N/A	        N/A	
         R10	   5010	    78.147	   13.1657	         0	1.35517e+07	    78.625	   13.1952	         0	1.34129e+07	    78.625	     12.75	         0	1.97036e+07	   78.0725	     12.75	         0	1.82029e+07	    78.386	   13.1805	         0	1.31769e+07	    78.625	   12.9726	         0	9.34183e+06	   78.3487	     12.75	         0	  1.894e+07	   78.1097	   12.9578	         0	1.13691e+07	
         R10	   5011	   78.1396	      13.6	         0	 1.9088e+07	    78.625	      13.6	         0	1.92644e+07	    78.625	   13.1952	         0	1.17433e+07	    78.147	   13.1657	         0	1.53245e+07	   78.3823	      13.6	         0	1.91317e+07	    78.625	   13.3976	         0	9.68678e+06	    78.386	   13.1805	         0	1.34359e+07	   78.1433	   13.3828	         0	1.15679e+07	
         R10	   5012	   77.6845	      13.6	         0	1.77878e+07	   78.1396	      13.6	         0	1.89736e+07	    78.147	   13.1657	         0	1.41712e+07	   77.7446	   13.2151	         0	1.22247e+07	   77.9121	      13.6	         0	1.83201e+07	   78.1433	   13.3828	         0	1.05768e+07	   77.9458	   13.1904	         0	 1.3166e+07	   77.7146	   13.4075	         0	1.05659e+07	
         R10	   5013	   77.2895	    13.214	         0	1.04211e+07	   77.2595	      13.6	         0	1.64785e+07	   77.6845	      13.6	         0	1.75395e+07	   77.7446	   13.2151	         0	1.39834e+07	   77.2745	    13.407	         0	9.69127e+06	    77.472	      13.6	         0	 1.6979e+07	   77.7146	   13.4075	         0	1.15184e+07	   77.5171	   13.2146	         0	  1.219e+07	
         R10	   5014	   76.9282	    13.157	         0	8.40117e+06	   76.8646	      13.6	         0	1.62067e+07	   77.2595	      13.6	         0	1.64731e+07	   77.2895	    13.214	         0	1.15363e+07	   76.8964	   13.3785	         0	8.12649e+06	   77.0621	      13.6	         0	1.62646e+07	   77.2745	    13.407	         0	1.03695e+07	   77.1089	   13.1855	         0	9.86264e+06	
         R10	   5015	      76.5	   13.2385	         0	 1.6944e+07	      76.5	      13.6	         0	9.37502e+06	   76.8646	      13.6	         0	1.76378e+07	   76.9282	    13.157	         0	8.96788e+06	      76.5	   13.4192	         0	 1.2403e+07	   76.6823	      13.6	         0	1.34019e+07	   76.8964	   13.3785	         0	8.69285e+06	   76.7141	   13.1977	         0	9.26229e+06	
         R10	   5016	     77.01	     12.75	         0	1.40527e+07	      76.5	     12.75	         0	5.62881e+06	      76.5	   13.2385	         0	1.66822e+07	   76.9282	    13.157	         0	5.78507e+06	    76.755	     12.75	         0	9.13009e+06	      76.5	   12.9942	         0	1.07261e+07	   76.7141	   13.1977	         0	 8.5209e+06	   76.9691	   12.9535	         0	6.03281e+06	
         R10	   5017	   77.5341	     12.75	         0	1.18225e+07	     77.01	     12.75	         0	1.20205e+07	   76.9282	    13.157	         0	8.93888e+06	   77.2895	    13.214	         0	1.00259e+07	    77.272	     12.75	         0	1.18242e+07	   76.9691	   12.9535	         0	8.19746e+06	   77.1089	   13.1855	         0	9.26211e+06	   77.4118	    12.982	         0	 9.9324e+06	
         R10	   5018	   77.7446	   13.2151	         0	 9.3453e+06	    78.147	   13.1657	         0	1.21662e+07	   78.0725	     12.75	         0	1.81359e+07	   77.5341	     12.75	         0	1.26498e+07	   77.9458	   13.1904	         0	1.04747e+07	   78.1097	   12.9578	         0	1.06366e+07	   77.8033	     12.75	         0	1.52753e+07	   77.6394	   12.9825	         0	9.73804e+06	
         R10	   5019	   77.7446	   13.2151	         0	1.19802e+07	   77.5341	     12.75	         0	1.36621e+07	   77.2895	    13.214	         0	8.49766e+06	   77.6394	   12.9825	         0	1.16698e+07	   77.4118	    12.982	         0	1.03202e+07	   77.5171	   13.2146	         0	1.02287e+07	       N/A	       N/A	       N/A	        N/A	       N/A	       N/A	       N/A	        N/A	
         R10	   5020	   72.9702	      21.5	         6	4.01519e+06	     72.25	      21.5	         6	4.08663e+06	     72.25	      21.5	      6.85	1.94495e+06	   73.0903	      21.5	      6.85	2.55385e+06	   72.6101	      21.5	         6	 3.9659e+06	     72.25	      21.5	     6.425	2.71527e+06	   72.6701	      21.5	      6.85	1.41684e+06	   73.0303	      21.5	     6.425	2.79242e+06	
         R10	   5021	   73.6528	      21.5	         6	2.75817e+06	   72.9702	      21.5	         6	5.22373e+06	   73.0903	      21.5	      6.85	1.46409e+06	   73.8778	      21.5	      6.85	2.97505e+06	   73.3115	      21.5	         6	3.84545e+06	   73.0303	      21.5	     6.425	2.57919e+06	    73.484	      21.5	      6.85	1.73923e+06	   73.7653	      21.5	     6.425	1.69593e+06	
         R10	   5022	   74.2976	      21.5	         6	1.65018e+06	   73.6528	      21.5	         6	3.45722e+06	   73.8778	      21.5	      6.85	2.10332e+06	   74.6125	      21.5	      6.85	1.91761e+06	   73.9752	      21.5	         6	2.47392e+06	   73.7653	      21.5	     6.425	1.88945e+06	   74.2452	      21.5	      6.85	1.99661e+06	   74.4551	      21.5	     6.425	1.05081e+06	
         R10	   5023	   74.9048	      21.5	         6	     890425	   74.2976	      21.5	         6	2.04304e+06	   74.6125	      21.5	      6.85	1.83469e+06	   75.2945	      21.5	      6.85	1.20018e+06	   74.6012	      21.5	         6	 1.2056e+06	   74.4551	      21.5	     6.425	1.51683e+06	   74.9535	      21.5	      6.85	1.39314e+06	   75.0996	      21.5	     6.425	     769688	
         R10	   5024	   75.4742	      21.5	         6	1.57711e+06	   74.9048	      21.5	         6	1.09216e+06	   75.2945	      21.5	      6.85	1.30485e+06	   75.9236	      21.5	      6.85	1.92294e+06	   75.1895	      21.5	         6	     779917	   75.0996	      21.5	     6.425	1.19413e+06	    75.609	      21.5	      6.85	1.50761e+06	   75.6989	      21.5	     6.425	1.39868e+06	
         R10	   5025	   75.9236	      21.5	      6.85	2.03825e+06	      76.5	      21.5	      6.85	2.60508e+06	      76.5	      21.5	   6.40476	4.17962e+06	    76.104	      21.5	   6.38226	2.90924e+06	   76.2118	      21.5	      6.85	2.25521e+06	      76.5	      21.5	   6.62738	2.96177e+06	    76.302	      21.5	   6.39351	3.43166e+06	   76.0138	      21.5	   6.61613	 2.3773e+06	
         R10	   5026	    76.104	      21.5	   6.38226	 2.3215e+06	      76.5	      21.5	   6.40476	2.88594e+06	      76.5	      21.5	         6	 6.2775e+06	    76.006	      21.5	         6	2.84234e+06	    76.302	      21.5	   6.39351	2.48681e+06	      76.5	      21.5	   6.20238	4.23138e+06	    76.253	      21.5	         6	4.54749e+06	    76.055	      21.5	   6.19113	 2.4792e+06	
         R10	   5027	    76.104	      21.5	   6.38226	2.44413e+06	    76.006	      21.5	         6	 3.3166e+06	   75.4742	      21.5	         6	     936681	   75.9236	      21.5	      6.85	2.12263e+06	    76.055	      21.5	   6.19113	2.63291e+06	   75.7401	      21.5	         6	1.82002e+06	   75.6989	      21.5	     6.425	1.47579e+06	   76.0138	      21.5	   6.61613	2.19477e+06	
         R10	   5028	   73.0903	      21.5	      6.85	4.52248e+06	     72.25	      21.5	      6.85	2.31963e+06	     72.25	      21.5	       7.7	1.96516e+06	   73.0678	      21.5	       7.7	2.29588e+06	   72.6701	      21.5	      6.85	3.00706e+06	     72.25	      21.5	     7.275	 2.0994e+06	   72.6589	      21.5	       7.7	     670851	    73.079	      21.5	     7.275	2.41083e+06	
         R10	   5029	   73.8778	      21.5	      6.85	5.74431e+06	   73.0903	      21.5	      6.85	3.62923e+06	   73.0678	      21.5	       7.7	1.71765e+06	   73.8418	      21.5	       7.7	3.79039e+06	    73.484	      21.5	      6.85	 4.5919e+06	    73.079	      21.5	     7.275	1.11187e+06	   73.4548	      21.5	       7.7	2.67293e+06	   73.8598	      21.5	     7.275	1.87544e+06	
         R10	   5030	   74.6125	      21.5	      6.85	4.90928e+06	   73.8778	      21.5	      6.85	5.40073e+06	   73.8418	      21.5	       7.7	3.64424e+06	    74.572	      21.5	       7.7	3.19776e+06	   74.2452	      21.5	      6.85	 5.1487e+06	   73.8598	      21.5	     7.275	1.05528e+06	   74.2069	      21.5	       7.7	3.39316e+06	   74.5923	      21.5	     7.275	 1.4105e+06	
         R10	   5031	   75.2945	      21.5	      6.85	3.50286e+06	   74.6125	      21.5	      6.85	4.87566e+06	    74.572	      21.5	       7.7	3.12084e+06	   75.2585	      21.5	       7.7	1.77623e+06	   74.9535	      21.5	      6.85	 4.1853e+06	   74.5923	      21.5	     7.275	1.24458e+06	   74.9152	      21.5	       7.7	2.40193e+06	   75.2765	      21.5	     7.275	1.40319e+06	
         R10	   5032	   75.9236	      21.5	      6.85	2.85706e+06	   75.2945	      21.5	      6.85	3.54876e+06	   75.2585	      21.5	       7.7	1.80857e+06	   75.9011	      21.5	       7.7	1.21805e+06	    75.609	      21.5	      6.85	3.18275e+06	   75.2765	      21.5	     7.275	1.48077e+06	   75.5798	      21.5	       7.7	1.41381e+06	   75.9124	      21.5	     7.275	1.71612e+06	
         R10	   5033	      76.5	      21.5	      6.85	3.10465e+06	   75.9236	      21.5	      6.85	2.97055e+06	   75.9011	      21.5	       7.7	1.44137e+06	      76.5	      21.5	       7.7	2.05005e+06	   76.2118	      21.5	      6.85	3.03478e+06	   75.9124	      21.5	     7.275	1.88518e+06	   76.2006	      21.5	       7.7	1.74119e+06	      76.5	      21.5	     7.275	2.25887e+06	
         R10	   5034	   76.9558	      21.5	         6	3.62089e+06	      76.5	      21.5	         6	6.24217e+06	      76.5	      21.5	   6.40476	2.24787e+06	   76.8917	      21.5	   6.39063	2.33877e+06	   76.7279	      21.5	         6	4.85276e+06	      76.5	      21.5	   6.20238	4.18244e+06	   76.6958	      21.5	    6.3977	2.07128e+06	   76.9237	      21.5	   6.19531	2.77981e+06	
         R10	   5035	   76.8917	      21.5	   6.39063	2.97288e+06	      76.5	      21.5	   6.40476	4.13819e+06	      76.5	      21.5	      6.85	1.43616e+06	    77.141	      21.5	      6.85	1.45517e+06	   76.6958	      21.5	    6.3977	3.35766e+06	      76.5	      21.5	   6.62738	2.49287e+06	   76.8205	      21.5	      6.85	1.36124e+06	   77.0163	      21.5	   6.62031	2.12188e+06	
         R10	   5036	   77.8494	      21.5	      6.85	     577147	    78.625	      21.5	      6.85	1.83202e+06	    78.625	      21.5	         6	1.53214e+06	   78.0183	      21.5	         6	1.05278e+06	   78.2372	      21.5	      6.85	 1.1455e+06	    78.625	      21.5	     6.425	     423332	   78.3217	      21.5	         6	1.21193e+06	   77.9338	      21.5	     6.425	     554945	
         R10	   5037	   77.4619	      21.5	         6	1.26322e+06	   76.9558	      21.5	         6	3.50811e+06	   76.8917	      21.5	   6.39063	2.00077e+06	    77.141	      21.5	      6.85	1.60608e+06	   77.2089	      21.5	         6	2.36486e+06	   76.9237	      21.5	   6.19531	2.67762e+06	   77.0163	      21.5	   6.62031	1.69657e+06	   77.3015	      21.5	     6.425	1.15483e+06	
         R10	   5038	   78.0183	      21.5	         6	     985379	   77.4619	      21.5	         6	1.60487e+06	    77.141	      21.5	      6.85	1.43612e+06	   77.8494	      21.5	      6.85	     774387	   77.7401	      21.5	         6	1.25115e+06	   77.3015	      21.5	     6.425	1.31395e+06	   77.4952	      21.5	      6.85	     830881	   77.9338	      21.5	     6.425	     426357	
         R10	   5039	    77.141	      21.5	      6.85	2.80115e+06	      76.5	      21.5	      6.85	 2.9693e+06	      76.5	      21.5	       7.7	     888914	    77.141	      21.5	       7.7	     979032	   76.8205	      21.5	      6.85	2.84837e+06	      76.5	      21.5	     7.275	1.76886e+06	   76.8205	      21.5	       7.7	     901480	    77.141	      21.5	     7.275	1.36725e+06	
         R10	   5040	   77.8494	      21.5	      6.85	3.69866e+06	    77.141	      21.5	      6.85	2.76181e+06	    77.141	      21.5	       7.7	     928835	   77.8494	      21.5	       7.7	1.78371e+06	   77.4952	      21.5	      6.85	3.21511e+06	    77.141	      21.5	     7.275	1.27054e+06	   77.4952	      21.5	       7.7	 1.2441e+06	   77.8494	      21.5	     7.275	1.03996e+06	
         R10	   5041	    78.625	      21.5	      6.85	5.20976e+06	   77.8494	      21.5	      6.85	3.65735e+06	   77.8494	      21.5	       7.7	1.81866e+06	    78.625	      21.5	       7.7	 3.3431e+06	   78.2372	      21.5	      6.85	4.42841e+06	   77.8494	      21.5	     7.275	     978235	   78.2372	      21.5	       7.7	2.56852e+06	    78.625	      21.5	     7.275	     965491	
         R10	   5042	   76.1395	   14.0016	         0	9.41826e+06	   76.1395	      13.6	         0	1.07957e+07	   75.6967	      13.6	         0	1.03323e+07	   75.6967	   14.0838	         0	1.02494e+07	   76.1395	   13.8008	         0	7.37074e+06	   75.9181	      13.6	         0	1.03672e+07	   75.6967	   13.8419	         0	9.69453e+06	   75.9181	   14.0427	         0	 9.5093e+06	
         R10	   5043	      76.5	   13.9103	         0	2.05684e+07	      76.5	      13.6	         0	4.62218e+06	   76.1395	      13.6	         0	1.22763e+07	   76.1395	   14.0016	         0	5.28183e+06	      76.5	   13.7551	         0	1.25861e+07	   76.3197	      13.6	         0	7.93861e+06	   76.1395	   13.8008	         0	4.27201e+06	   76.3197	   13.9559	         0	9.78914e+06	
         R10	   5044	   76.1859	     14.45	         0	1.45777e+07	      76.5	     14.45	         0	1.18854e+07	      76.5	   14.1936	         0	1.80351e+07	   76.1395	   14.0016	         0	6.98162e+06	   76.3429	     14.45	         0	1.26723e+07	      76.5	   14.3218	         0	 1.3627e+07	   76.3197	   14.0976	         0	1.00779e+07	   76.1627	   14.2258	         0	8.94284e+06	
         R10	   5045	   75.7741	     14.45	         0	1.29781e+07	   76.1859	     14.45	         0	1.35747e+07	   76.1395	   14.0016	         0	6.86252e+06	   75.6967	   14.0838	         0	9.95587e+06	     75.98	     14.45	         0	1.31978e+07	   76.1627	   14.2258	         0	8.76305e+06	   75.9181	   14.0427	         0	8.28944e+06	   75.7354	   14.2669	         0	9.86453e+06	
         R10	   5046	   73.1038	      13.6	         0	1.00232e+07	     72.25	      13.6	         0	8.24386e+06	     72.25	     14.45	         0	 1.0154e+07	   73.1501	     14.45	         0	1.18306e+07	   72.6769	      13.6	         0	8.37948e+06	     72.25	    14.025	         0	9.19821e+06	   72.7001	     14.45	         0	1.09436e+07	    73.127	    14.025	         0	1.03129e+07	
         R10	   5047	   73.8753	      13.6	         0	1.08391e+07	   73.1038	      13.6	         0	9.15557e+06	   73.1501	     14.45	         0	1.25016e+07	   73.9526	     14.45	         0	1.05161e+07	   73.4895	      13.6	         0	9.94722e+06	    73.127	    14.025	         0	9.72391e+06	   73.5514	     14.45	         0	1.10672e+07	    73.914	    14.025	         0	1.03636e+07	
         R10	   5048	   74.5647	      13.6	         0	1.14116e+07	   73.8753	      13.6	         0	1.09713e+07	   73.9526	     14.45	         0	1.07946e+07	   74.6574	     14.45	         0	1.06112e+07	     74.22	      13.6	         0	1.11909e+07	    73.914	    14.025	         0	1.05614e+07	    74.305	     14.45	         0	 1.0615e+07	   74.6111	    14.025	         0	1.06541e+07	
         R10	   5049	   75.1718	      13.6	         0	 1.0745e+07	   74.5647	      13.6	         0	1.13564e+07	   74.6574	     14.45	         0	1.07251e+07	   75.2646	     14.45	         0	1.04431e+07	   74.8682	      13.6	         0	 1.1048e+07	   74.6111	    14.025	         0	1.06642e+07	    74.961	     14.45	         0	1.04952e+07	   75.2182	    14.025	         0	1.02169e+07	
         R10	   5050	   75.6967	   14.0838	         0	1.11199e+07	   75.6967	      13.6	         0	9.95345e+06	   75.1718	      13.6	         0	1.06219e+07	   75.2646	     14.45	         0	1.11038e+07	   75.6967	   13.8419	         0	9.86402e+06	   75.4343	      13.6	         0	1.02302e+07	   75.2182	    14.025	         0	1.06434e+07	   75.4807	   14.2669	         0	1.10152e+07	
         R10	   5051	      76.5	   14.1936	         0	1.64282e+07	      76.5	   13.9103	         0	1.86446e+07	   76.1395	   14.0016	         0	4.90065e+06	      76.5	   14.0519	         0	1.75177e+07	   76.3197	   13.9559	         0	9.76764e+06	   76.3197	   14.0976	         0	8.90428e+06	       N/A	       N/A	       N/A	        N/A	       N/A	       N/A	       N/A	        N/A	
         R10	   5052	   75.6967	   14.0838	         0	7.85858e+06	   75.2646	     14.45	         0	 1.0797e+07	   75.7741	     14.45	         0	1.29274e+07	   75.4807	   14.2669	         0	8.66301e+06	   75.5193	     14.45	         0	1.15137e+07	   75.7354	   14.2669	         0	8.68083e+06	       N/A	       N/A	       N/A	        N/A	       N/A	       N/A	       N/A	        N/A	
         R10	   5053	   76.1859	    14.813	         0	1.43889e+07	   76.1859	     14.45	         0	 1.1217e+07	   75.7741	     14.45	         0	1.40492e+07	   75.7741	   14.9106	         0	1.21163e+07	   76.1859	   14.6315	         0	1.02863e+07	     75.98	     14.45	         0	1.26059e+07	   75.7741	   14.6803	         0	7.22699e+06	     75.98	   14.8618	         0	1.24399e+07	
         R10	   5054	      76.5	   14.7736	         0	2.04121e+07	      76.5	     14.45	         0	6.62073e+06	   76.1859	     14.45	         0	1.22946e+07	   76.1859	    14.813	         0	7.63191e+06	      76.5	   14.6118	         0	1.34548e+07	   76.3429	     14.45	         0	8.74318e+06	   76.1859	   14.6315	         0	5.82583e+06	   76.3429	   14.7933	         0	1.19844e+07	
         R10	   5055	   76.2368	   15.0569	         0	1.26674e+07	      76.5	   15.0569	         0	1.90623e+07	      76.5	   14.7736	         0	2.11507e+07	   76.1859	    14.813	         0	3.52881e+06	   76.3684	   15.0569	         0	1.55797e+07	      76.5	   14.9152	         0	2.00882e+07	   76.3429	   14.7933	         0	1.15303e+07	   76.2113	   14.9349	         0	7.28504e+06	
         R10	   5056	   76.2666	      15.3	         0	1.80305e+07	      76.5	      15.3	         0	1.23494e+07	      76.5	   15.0569	         0	1.91032e+07	   76.2368	   15.0569	         0	1.09981e+07	   76.3833	      15.3	         0	1.41037e+07	      76.5	   15.1784	         0	1.56418e+07	   76.3684	   15.0569	         0	 1.4699e+07	   76.2517	   15.1784	         0	1.27752e+07	
         R10	   5057	   73.1501	     14.45	         0	9.62323e+06	     72.25	     14.45	         0	1.00732e+07	     72.25	      15.3	         0	1.22984e+07	    72.961	      15.3	         0	1.17184e+07	   72.7001	     14.45	         0	8.84188e+06	     72.25	    14.875	         0	1.08957e+07	   72.6055	      15.3	         0	1.19699e+07	   73.0556	    14.875	         0	1.03234e+07	
         R10	   5058	   73.9526	     14.45	         0	 1.0543e+07	   73.1501	     14.45	         0	9.79195e+06	    72.961	      15.3	         0	9.54387e+06	   73.6123	      15.3	         0	1.05479e+07	   73.5514	     14.45	         0	1.01349e+07	   73.0556	    14.875	         0	9.52261e+06	   73.2867	      15.3	         0	9.95582e+06	   73.7825	    14.875	         0	1.04625e+07	
         R10	   5059	   74.6574	     14.45	         0	   1.07e+07	   73.9526	     14.45	         0	1.06213e+07	   73.6123	      15.3	         0	9.35572e+06	   74.2039	      15.3	         0	1.01247e+07	    74.305	     14.45	         0	1.06467e+07	   73.7825	    14.875	         0	9.85811e+06	   73.9081	      15.3	         0	9.73291e+06	   74.4307	    14.875	         0	1.03701e+07	
         R10	   5060	   75.3988	    14.814	         0	9.28585e+06	   75.7741	   14.9106	         0	1.41471e+07	   75.7741	     14.45	         0	1.44268e+07	   75.2646	     14.45	         0	1.14077e+07	   75.5864	   14.8623	         0	1.13358e+07	   75.7741	   14.6803	         0	9.50151e+06	   75.5193	     14.45	         0	1.25951e+07	   75.3317	    14.632	         0	9.20576e+06	
         R10	   5061	   76.2368	   15.0569	         0	1.69123e+07	   76.1859	    14.813	         0	1.13866e+07	   75.7741	   14.9106	         0	7.87242e+06	   75.9948	   15.0892	         0	1.15622e+07	   76.2113	   14.9349	         0	1.30401e+07	     75.98	   14.8618	         0	8.93467e+06	   75.8844	   14.9999	         0	 8.3745e+06	   76.1158	    15.073	         0	1.41352e+07	
         R10	   5062	   75.9734	      15.3	         0	1.92606e+07	   76.2666	      15.3	         0	1.24202e+07	   76.2368	   15.0569	         0	1.44687e+07	   75.9948	   15.0892	         0	7.47926e+06	     76.12	      15.3	         0	1.56306e+07	   76.2517	   15.1784	         0	1.18205e+07	   76.1158	    15.073	         0	1.06271e+07	   75.9841	   15.1946	         0	1.04099e+07	
         R10	   5063	   75.7741	   14.9106	         0	8.92928e+06	   75.6206	      15.3	         0	1.57572e+07	   75.9734	      15.3	         0	1.59828e+07	   75.9948	   15.0892	         0	1.59689e+07	   75.6973	   15.1053	         0	7.28851e+06	    75.797	      15.3	         0	1.57089e+07	   75.9841	   15.1946	         0	1.27299e+07	   75.8844	   14.9999	         0	1.14113e+07	
         R10	   5064	   75.6206	      15.3	         0	1.45276e+07	   75.7741	   14.9106	         0	1.32929e+07	   75.3988	    14.814	         0	8.78258e+06	   75.2081	      15.3	         0	9.91911e+06	   75.6973	   15.1053	         0	9.82181e+06	   75.5864	   14.8623	         0	1.02208e+07	   75.3034	    15.057	         0	 9.3114e+06	   75.4143	      15.3	         0	1.16581e+07	
         R10	   5065	   75.3988	    14.814	         0	 1.3937e+07	   75.2646	     14.45	         0	9.97155e+06	   74.6574	     14.45	         0	1.09828e+07	   75.2081	      15.3	         0	1.03064e+07	   75.3317	    14.632	         0	1.18205e+07	    74.961	     14.45	         0	1.04246e+07	   74.9327	    14.875	         0	1.05747e+07	   75.3034	    15.057	         0	1.18883e+07	
         R10	   5066	   74.6574	     14.45	         0	1.03572e+07	   74.7358	      15.3	         0	1.02996e+07	   75.2081	      15.3	         0	9.54393e+06	   74.6966	    14.875	         0	1.03053e+07	    74.972	      15.3	         0	9.91573e+06	   74.9327	    14.875	         0	9.93199e+06	       N/A	       N/A	       N/A	        N/A	       N/A	       N/A	       N/A	        N/A	
         R10	   5067	   74.7358	      15.3	         0	9.57887e+06	   74.6574	     14.45	         0	1.08565e+07	   74.2039	      15.3	         0	1.02697e+07	   74.6966	    14.875	         0	 1.0185e+07	   74.4307	    14.875	         0	1.05192e+07	   74.4699	      15.3	         0	9.92189e+06	       N/A	       N/A	       N/A	        N/A	       N/A	       N/A	       N/A	        N/A	
         R10	   5068	   77.2805	    14.012	         0	1.24206e+07	   77.2595	      13.6	         0	1.61209e+07	   76.8646	      13.6	         0	1.05858e+07	   76.8859	   14.0093	         0	1.25908e+07	     77.27	    13.806	         0	7.43275e+06	   77.0621	      13.6	         0	 1.3272e+07	   76.8753	   13.8046	         0	9.11796e+06	   77.0832	   14.0107	         0	1.15781e+07	
         R10	   5069	   77.7002	   14.0324	         0	1.58186e+07	   77.6845	      13.6	         0	1.79826e+07	   77.2595	      13.6	         0	 1.6251e+07	   77.2805	    14.012	         0	 1.3263e+07	   77.6923	   13.8162	         0	9.95232e+06	    77.472	      13.6	         0	1.71145e+07	     77.27	    13.806	         0	8.40572e+06	   77.4904	   14.0222	         0	  1.452e+07	
         R10	   5070	     78.15	   14.0528	         0	1.67628e+07	   78.1396	      13.6	         0	1.85934e+07	   77.6845	      13.6	         0	1.79562e+07	   77.7002	   14.0324	         0	1.56429e+07	   78.1448	   13.8264	         0	1.04079e+07	   77.9121	      13.6	         0	1.82721e+07	   77.6923	   13.8162	         0	9.76263e+06	   77.9251	   14.0426	         0	1.61869e+07	
         R10	   5071	    78.625	   14.0452	         0	1.55533e+07	    78.625	      13.6	         0	1.86665e+07	   78.1396	      13.6	         0	1.85779e+07	     78.15	   14.0528	         0	1.71639e+07	    78.625	   13.8226	         0	1.02494e+07	   78.3823	      13.6	         0	  1.862e+07	   78.1448	   13.8264	         0	1.07549e+07	   78.3875	    14.049	         0	1.63365e+07	
         R10	   5072	   78.2041	     14.45	         0	1.72982e+07	    78.625	     14.45	         0	 1.7624e+07	    78.625	   14.0452	         0	1.57484e+07	     78.15	   14.0528	         0	 1.5415e+07	   78.4146	     14.45	         0	1.74292e+07	    78.625	   14.2476	         0	1.00719e+07	   78.3875	    14.049	         0	1.55371e+07	    78.177	   14.2514	         0	1.08235e+07	
         R10	   5073	   77.8099	     14.45	         0	1.72215e+07	   78.2041	     14.45	         0	1.72076e+07	     78.15	   14.0528	         0	1.49595e+07	   77.7002	   14.0324	         0	1.48332e+07	    78.007	     14.45	         0	1.71788e+07	    78.177	   14.2514	         0	1.03496e+07	   77.9251	   14.0426	         0	1.48842e+07	   77.7551	   14.2412	         0	 1.0072e+07	
         R10	   5074	   77.4424	     14.45	         0	1.63059e+07	   77.8099	     14.45	         0	1.73542e+07	   77.7002	   14.0324	         0	1.51142e+07	   77.2805	    14.012	         0	1.21505e+07	   77.6262	     14.45	         0	1.67662e+07	   77.7551	   14.2412	         0	1.03279e+07	   77.4904	   14.0222	         0	1.36192e+07	   77.3615	    14.231	         0	9.62338e+06	
         R10	   5075	   77.1016	     14.45	         0	1.44632e+07	   77.4424	     14.45	         0	1.68017e+07	   77.2805	    14.012	         0	1.12167e+07	   76.8859	   14.0093	         0	1.20848e+07	    77.272	     14.45	         0	1.53859e+07	   77.3615	    14.231	         0	9.04124e+06	   77.0832	   14.0107	         0	1.06309e+07	   76.9938	   14.2296	         0	1.24562e+07	
         R10	   5076	      76.5	   14.1936	         0	1.92842e+07	      76.5	     14.45	         0	1.02029e+07	   76.7875	     14.45	         0	1.31866e+07	   76.8859	   14.0093	         0	4.77935e+06	      76.5	   14.3218	         0	1.35871e+07	   76.6437	     14.45	         0	1.14155e+07	   76.8367	   14.2296	         0	 8.8732e+06	    76.693	   14.1014	         0	1.13851e+07	
         R10	   5077	      76.5	   13.9103	         0	1.49042e+07	      76.5	   14.1936	         0	1.84365e+07	   76.8859	   14.0093	         0	 8.1559e+06	   76.8646	      13.6	         0	1.14766e+07	      76.5	   14.0519	         0	1.65026e+07	    76.693	   14.1014	         0	1.13824e+07	   76.8753	   13.8046	         0	4.12121e+06	   76.6823	   13.7551	         0	1.02504e+07	
         R10	   5078	   76.7875	     14.45	         0	1.23705e+07	   77.1016	     14.45	         0	1.37146e+07	   76.8859	   14.0093	         0	1.01456e+07	   76.9445	     14.45	         0	1.29461e+07	   76.9938	   14.2296	         0	1.15616e+07	   76.8367	   14.2296	         0	1.10551e+07	       N/A	       N/A	       N/A	        N/A	       N/A	       N/A	       N/A	        N/A	
         R10	   5079	      76.5	   13.9103	         0	1.50192e+07	   76.8646	      13.6	         0	8.35655e+06	      76.5	      13.6	         0	5.77101e+06	   76.6823	   13.7551	         0	1.08874e+07	   76.6823	      13.6	         0	5.29892e+06	      76.5	   13.7551	         0	9.82667e+06	       N/A	       N/A	       N/A	        N/A	       N/A	       N/A	       N/A	        N/A	
         R10	   5080	   77.0864	    14.748	         0	1.07698e+07	   77.1016	     14.45	         0	1.68764e+07	   76.7875	     14.45	         0	1.13589e+07	   76.7859	   14.7475	         0	1.27133e+07	    77.094	    14.599	         0	8.17584e+06	   76.9445	     14.45	         0	1.40335e+07	   76.7867	   14.5987	         0	9.47476e+06	   76.9362	   14.7477	         0	1.10208e+07	
         R10	   5081	   77.4158	   14.7468	         0	1.03232e+07	   77.4424	     14.45	         0	1.72297e+07	   77.1016	     14.45	         0	1.69123e+07	   77.0864	    14.748	         0	1.43475e+07	   77.4291	   14.5984	         0	8.85333e+06	    77.272	     14.45	         0	1.70656e+07	    77.094	    14.599	         0	1.03524e+07	   77.2511	   14.7474	         0	1.22716e+07	
         R10	   5082	   77.7879	   14.8591	         0	1.24375e+07	   77.8099	     14.45	         0	1.52375e+07	   77.4424	     14.45	         0	1.64523e+07	   77.4158	   14.7468	         0	1.66715e+07	   77.7989	   14.6546	         0	8.33624e+06	   77.6262	     14.45	         0	1.58165e+07	   77.4291	   14.5984	         0	1.20452e+07	   77.6019	    14.803	         0	1.38571e+07	
         R10	   5083	   78.2072	   14.8764	         0	1.32018e+07	   78.2041	     14.45	         0	1.48536e+07	   77.8099	     14.45	         0	1.54508e+07	   77.7879	   14.8591	         0	1.66621e+07	   78.2057	   14.6632	         0	9.05299e+06	    78.007	     14.45	         0	1.51464e+07	   77.7989	   14.6546	         0	1.14895e+07	   77.9976	   14.8677	         0	1.45935e+07	
         R10	   5084	    78.625	    14.955	         0	1.38989e+07	    78.625	     14.45	         0	1.32977e+07	   78.2041	     14.45	         0	1.47925e+07	   78.2072	   14.8764	         0	1.52369e+07	    78.625	   14.7025	         0	1.02419e+07	   78.4146	     14.45	         0	1.40145e+07	   78.2057	   14.6632	         0	1.06672e+07	   78.4161	   14.9157	         0	1.42941e+07	
         R10	   5085	   78.3217	      15.3	         0	 1.4525e+07	    78.625	      15.3	         0	1.51455e+07	    78.625	    14.955	         0	 9.4563e+06	   78.2072	   14.8764	         0	1.04858e+07	   78.4733	      15.3	         0	1.47915e+07	    78.625	   15.1275	         0	1.14609e+07	   78.4161	   14.9157	         0	9.58853e+06	   78.2644	   15.0882	         0	1.01165e+07	
         R10	   5086	   77.2717	   15.0403	         0	1.14955e+07	    77.216	      15.3	         0	 1.9001e+07	   77.4763	      15.3	         0	1.97535e+07	   77.5053	   15.0711	         0	8.53146e+06	   77.2439	   15.1701	         0	1.11112e+07	   77.3462	      15.3	         0	1.92713e+07	   77.4908	   15.1856	         0	1.20603e+07	   77.3885	   15.0557	         0	9.40092e+06	
         R10	   5087	   77.0037	   15.0313	         0	1.37385e+07	   76.9666	      15.3	         0	1.70619e+07	    77.216	      15.3	         0	2.02985e+07	   77.2717	   15.0403	         0	8.96791e+06	   76.9852	   15.1656	         0	 1.1193e+07	   77.0913	      15.3	         0	  1.868e+07	   77.2439	   15.1701	         0	1.09497e+07	   77.1377	   15.0358	         0	1.07804e+07	
         R10	   5088	   76.7502	    15.028	         0	1.49351e+07	   76.7279	      15.3	         0	1.21851e+07	   76.9666	      15.3	         0	1.91736e+07	   77.0037	   15.0313	         0	1.15005e+07	   76.7391	    15.164	         0	1.15593e+07	   76.8472	      15.3	         0	1.55441e+07	   76.9852	   15.1656	         0	1.16973e+07	    76.877	   15.0296	         0	1.30377e+07	
         R10	   5089	      76.5	   15.0569	         0	2.03168e+07	      76.5	      15.3	         0	1.30406e+07	   76.7279	      15.3	         0	1.77981e+07	   76.7502	    15.028	         0	1.20411e+07	      76.5	   15.1784	         0	1.66045e+07	    76.614	      15.3	         0	1.43422e+07	   76.7391	    15.164	         0	1.27828e+07	   76.6251	   15.0425	         0	1.57048e+07	
         R10	   5090	   76.7859	   14.7475	         0	5.44823e+06	   76.7875	     14.45	         0	1.27508e+07	      76.5	     14.45	         0	6.99302e+06	      76.5	   14.7736	         0	2.09312e+07	   76.7867	   14.5987	         0	6.28879e+06	   76.6437	     14.45	         0	8.38577e+06	      76.5	   14.6118	         0	1.36011e+07	   76.6429	   14.7605	         0	1.20351e+07	
         R10	   5091	   77.7473	      15.3	         0	1.66657e+07	   78.0291	      15.3	         0	1.52369e+07	   78.2072	   14.8764	         0	8.26833e+06	   77.7879	   14.8591	         0	1.61826e+07	   77.8882	      15.3	         0	1.58435e+07	   78.1181	   15.0882	         0	9.74573e+06	   77.9976	   14.8677	         0	 1.1985e+07	   77.7676	   15.0796	         0	1.07001e+07	
         R10	   5092	   77.5053	   15.0711	         0	1.50213e+07	   77.4763	      15.3	         0	1.79889e+07	   77.7473	      15.3	         0	1.63387e+07	   77.7879	   14.8591	         0	1.24009e+07	   77.4908	   15.1856	         0	1.37428e+07	   77.6118	      15.3	         0	1.71016e+07	   77.7676	   15.0796	         0	7.47665e+06	   77.6466	   14.9651	         0	1.24314e+07	
         R10	   5093	   77.2717	   15.0403	         0	1.54227e+07	   77.5053	   15.0711	         0	9.34528e+06	   77.7879	   14.8591	         0	9.40518e+06	   77.4158	   14.7468	         0	1.38886e+07	   77.3885	   15.0557	         0	1.12537e+07	   77.6466	   14.9651	         0	7.77642e+06	   77.6019	    14.803	         0	1.15382e+07	   77.3438	   14.8935	         0	1.43767e+07	
         R10	   5094	   77.0037	   15.0313	         0	1.37558e+07	   77.2717	   15.0403	         0	9.80516e+06	   77.4158	   14.7468	         0	8.07462e+06	   77.0864	    14.748	         0	1.24511e+07	   77.1377	   15.0358	         0	1.17078e+07	   77.3438	   14.8935	         0	 8.5078e+06	   77.2511	   14.7474	         0	1.00466e+07	   77.0451	   14.8896	         0	1.28397e+07	
         R10	   5095	   76.7502	    15.028	         0	 1.5561e+07	   77.0037	   15.0313	         0	1.06695e+07	   77.0864	    14.748	         0	8.44842e+06	   76.7859	   14.7475	         0	 1.1748e+07	    76.877	   15.0296	         0	 1.2782e+07	   77.0451	   14.8896	         0	9.22576e+06	   76.9362	   14.7477	         0	9.95174e+06	   76.7681	   14.8877	         0	1.26994e+07	
         R10	   5096	      76.5	   15.0569	         0	 2.0147e+07	   76.7502	    15.028	         0	1.21952e+07	   76.7859	   14.7475	         0	5.95863e+06	      76.5	   14.7736	         0	2.14361e+07	   76.6251	   15.0425	         0	1.58024e+07	   76.7681	   14.8877	         0	7.72502e+06	   76.6429	   14.7605	         0	1.23457e+07	      76.5	   14.9152	         0	2.07707e+07	
         R10	   5097	   78.0291	      15.3	         0	 1.3438e+07	   78.3217	      15.3	         0	1.35755e+07	   78.2072	   14.8764	         0	1.36034e+07	   78.1754	      15.3	         0	1.34985e+07	   78.2644	   15.0882	         0	1.09639e+07	   78.1181	   15.0882	         0	1.11615e+07	       N/A	       N/A	       N/A	        N/A	       N/A	       N/A	       N/A	        N/A	
         R10	   5098	   72.7813	   20.7284	  0.396646	9.77722e+06	   72.7546	   20.2716	  0.135881	1.02278e+07	     72.25	   20.2104	   0.11214	8.60457e+06	     72.25	   20.7284	  0.396646	6.02245e+06	   72.7679	   20.5086	  0.251177	9.99243e+06	   72.5023	   20.2411	   0.12376	9.37216e+06	     72.25	     20.48	  0.235152	7.20074e+06	   72.5156	   20.7284	  0.396646	7.64721e+06	
         R10	   5099	   72.7546	   20.2716	  0.135881	1.06515e+07	    72.675	   19.7344	         0	1.16625e+07	     72.25	   19.7344	         0	6.58115e+06	     72.25	   20.2104	   0.11214	8.84957e+06	   72.7148	   20.0077	 0.0492511	 1.0979e+07	   72.4625	   19.7344	         0	8.96923e+06	     72.25	   19.9759	  0.041468	7.65326e+06	   72.5023	   20.2411	   0.12376	9.61568e+06	
         R10	   5100	   73.3115	   20.2458	  0.125604	9.36385e+06	      73.1	   19.7344	         0	1.08322e+07	    72.675	   19.7344	         0	6.95886e+06	   72.7546	   20.2716	  0.135881	8.87439e+06	   73.2057	   19.9943	 0.0458981	9.92516e+06	   72.8875	   19.7344	         0	8.82502e+06	   72.7148	   20.0077	 0.0492511	7.84603e+06	   73.0331	   20.2587	  0.130698	9.11649e+06	
         R10	   5101	   73.8403	   20.2728	  0.136409	9.03628e+06	   74.2663	   20.2115	  0.112559	9.26986e+06	    74.375	   19.7344	         0	1.04958e+07	     73.95	   19.7344	         0	9.93799e+06	   74.0533	   20.2423	  0.124232	9.14976e+06	   74.3206	   19.9764	 0.0416063	9.78554e+06	   74.1625	   19.7344	         0	1.02037e+07	   73.8951	   20.0084	 0.0494225	9.33273e+06	
         R10	   5102	   74.2663	   20.2115	  0.112559	9.13039e+06	   74.7261	   20.2116	  0.112582	9.21197e+06	      74.8	   19.7344	         0	1.02526e+07	    74.375	   19.7344	         0	1.02739e+07	   74.4962	   20.2116	   0.11257	9.16952e+06	   74.7631	   19.9765	  0.041614	9.66266e+06	   74.5875	   19.7344	         0	1.02456e+07	   74.3206	   19.9764	 0.0416063	 9.5698e+06	
         R10	   5103	   74.7261	   20.2116	  0.112582	9.20423e+06	   75.0981	   20.2748	  0.137213	9.28504e+06	    75.225	   19.7344	         0	9.86167e+06	      74.8	   19.7344	         0	 1.0386e+07	   74.9121	   20.2433	  0.124629	9.23325e+06	   75.1615	   20.0094	 0.0496838	9.41722e+06	   75.0125	   19.7344	         0	1.01194e+07	   74.7631	   19.9765	  0.041614	9.70528e+06	
         R10	   5104	   75.0981	   20.2748	  0.137213	9.12232e+06	   75.5562	   20.2727	   0.13636	9.26159e+06	     75.65	   19.7344	         0	9.83572e+06	    75.225	   19.7344	         0	1.00606e+07	   75.3271	   20.2738	  0.136786	9.18948e+06	   75.6031	   20.0083	 0.0494065	9.36096e+06	   75.4375	   19.7344	         0	9.94243e+06	   75.1615	   20.0094	 0.0496838	 9.4065e+06	
         R10	   5105	   75.5562	   20.2727	   0.13636	9.45403e+06	   76.0252	   20.2725	  0.136263	8.84149e+06	    76.075	   19.7344	         0	8.92103e+06	     75.65	   19.7344	         0	1.00519e+07	   75.7907	   20.2726	  0.136312	9.13947e+06	   76.0501	   20.0082	 0.0493752	8.74553e+06	   75.8625	   19.7344	         0	9.43765e+06	   75.6031	   20.0083	 0.0494065	9.53634e+06	
         R10	   5106	   76.0252	   20.2725	  0.136263	1.20008e+07	      76.5	   20.2104	   0.11214	6.92651e+06	      76.5	   19.7344	         0	7.30181e+06	    76.075	   19.7344	         0	1.14473e+07	   76.2626	   20.2415	  0.123943	9.37146e+06	      76.5	   19.9759	  0.041468	7.06399e+06	   76.2875	   19.7344	         0	9.33273e+06	   76.0501	   20.0082	 0.0493752	1.16503e+07	
         R10	   5107	   76.0252	   20.2725	  0.136263	1.14537e+07	   75.9688	   20.7284	  0.396646	1.00832e+07	      76.5	   20.7284	  0.396646	8.03016e+06	      76.5	   20.2104	   0.11214	7.03808e+06	    75.997	    20.509	  0.251428	1.07668e+07	   76.2344	   20.7284	  0.396646	8.82985e+06	      76.5	     20.48	  0.235152	7.51001e+06	   76.2626	   20.2415	  0.123943	9.13192e+06	
         R10	   5108	   75.5562	   20.2727	   0.13636	9.08787e+06	   75.4375	   20.7284	  0.396646	8.95314e+06	   75.9688	   20.7284	  0.396646	8.58602e+06	   76.0252	   20.2725	  0.136263	9.00007e+06	   75.4968	   20.5092	  0.251491	9.01265e+06	   75.7031	   20.7284	  0.396646	8.73561e+06	    75.997	    20.509	  0.251428	8.74703e+06	   75.7907	   20.2726	  0.136312	9.04251e+06	
         R10	   5109	   75.0981	   20.2748	  0.137213	9.24009e+06	   74.9063	   20.7284	  0.396646	  9.088e+06	   75.4375	   20.7284	  0.396646	9.13104e+06	   75.5562	   20.2727	   0.13636	9.25767e+06	   75.0022	   20.5101	  0.252051	9.12993e+06	   75.1719	   20.7284	  0.396646	9.06612e+06	   75.4968	   20.5092	  0.251491	9.17559e+06	   75.3271	   20.2738	  0.136786	9.24705e+06	
         R10	   5110	   74.7261	   20.2116	  0.112582	9.48718e+06	    74.375	   20.7284	  0.396646	9.09057e+06	   74.9063	   20.7284	  0.396646	 9.1815e+06	   75.0981	   20.2748	  0.137213	9.20751e+06	   74.5506	   20.4805	  0.235459	 9.2675e+06	   74.6406	   20.7284	  0.396646	9.10279e+06	   75.0022	   20.5101	  0.252051	9.18281e+06	   74.9121	   20.2433	  0.124629	9.34519e+06	
         R10	   5111	   73.3125	   20.7284	  0.396646	8.76372e+06	   73.3115	   20.2458	  0.125604	9.17229e+06	   72.7546	   20.2716	  0.135881	 8.8386e+06	   72.7813	   20.7284	  0.396646	8.24208e+06	    73.312	   20.4965	  0.244347	8.95352e+06	   73.0331	   20.2587	  0.130698	8.99801e+06	   72.7679	   20.5086	  0.251177	8.44689e+06	   73.0469	   20.7284	  0.396646	8.39459e+06	
         R10	   5112	   73.3115	   20.2458	  0.125604	9.11893e+06	   73.8403	   20.2728	  0.136409	9.11016e+06	     73.95	   19.7344	         0	9.99214e+06	    73.525	   19.7344	         0	9.99417e+06	   73.5759	   20.2593	  0.130957	9.11453e+06	   73.8951	   20.0084	 0.0494225	9.44256e+06	   73.7375	   19.7344	         0	9.96885e+06	   73.4183	   19.9943	 0.0458981	9.44633e+06	
         R10	   5113	   73.8438	   20.7284	  0.396646	9.10959e+06	   73.8403	   20.2728	  0.136409	8.98879e+06	   73.3115	   20.2458	  0.125604	 9.3444e+06	   73.3125	   20.7284	  0.396646	 8.8285e+06	    73.842	   20.5092	  0.251523	9.01861e+06	   73.5759	   20.2593	  0.130957	9.16429e+06	    73.312	   20.4965	  0.244347	 9.0386e+06	   73.5781	   20.7284	  0.396646	8.92292e+06	
         R10	   5114	    74.375	   20.7284	  0.396646	9.09546e+06	   74.2663	   20.2115	  0.112559	9.41007e+06	   73.8403	   20.2728	  0.136409	9.10714e+06	   73.8438	   20.7284	  0.396646	8.99548e+06	   74.3206	   20.4805	  0.235443	9.23999e+06	   74.0533	   20.2423	  0.124232	9.25686e+06	    73.842	   20.5092	  0.251523	9.02576e+06	   74.1094	   20.7284	  0.396646	9.00712e+06	
         R10	   5115	   73.3115	   20.2458	  0.125604	8.98212e+06	    73.525	   19.7344	         0	8.89227e+06	      73.1	   19.7344	         0	9.53714e+06	   73.4183	   19.9943	 0.0458981	 8.9326e+06	   73.3125	   19.7344	         0	9.18713e+06	   73.2057	   19.9943	 0.0458981	9.24503e+06	       N/A	       N/A	       N/A	        N/A	       N/A	       N/A	       N/A	        N/A	
         R10	   5116	   74.7261	   20.2116	  0.112582	9.21102e+06	   74.2663	   20.2115	  0.112559	9.22525e+06	    74.375	   20.7284	  0.396646	 9.2299e+06	   74.4962	   20.2116	   0.11257	9.21686e+06	   74.3206	   20.4805	  0.235443	9.22383e+06	   74.5506	   20.4805	  0.235459	9.21322e+06	       N/A	       N/A	       N/A	        N/A	       N/A	       N/A	       N/A	        N/A	
         R10	   5117	   77.0313	   20.7284	  0.396646	1.16136e+07	   77.0061	   20.2558	  0.129553	1.10877e+07	      76.5	   20.2104	   0.11214	7.11083e+06	      76.5	   20.7284	  0.396646	 5.3691e+06	   77.0187	   20.5012	   0.24699	1.13498e+07	   76.7531	   20.2332	  0.120708	8.96366e+06	      76.5	     20.48	  0.235152	6.16777e+06	   76.7656	   20.7284	  0.396646	8.23062e+06	
         R10	   5118	   77.0061	   20.2558	  0.129553	1.17846e+07	    76.925	   19.7344	         0	 1.1571e+07	      76.5	   19.7344	         0	6.88465e+06	      76.5	   20.2104	   0.11214	 6.7077e+06	   76.9656	   19.9995	 0.0471891	 1.1609e+07	   76.7125	   19.7344	         0	9.17699e+06	      76.5	   19.9759	  0.041468	6.76938e+06	   76.7531	   20.2332	  0.120708	9.15671e+06	
         R10	   5119	   77.5678	   20.2271	  0.118391	9.17544e+06	     77.35	   19.7344	         0	1.00312e+07	    76.925	   19.7344	         0	8.75136e+06	   77.0061	   20.2558	  0.129553	9.00128e+06	   77.4589	   19.9845	 0.0435307	9.47701e+06	   77.1375	   19.7344	         0	9.35249e+06	   76.9656	   19.9995	 0.0471891	 8.8002e+06	   77.2869	   20.2415	  0.123917	9.07593e+06	
         R10	   5120	   78.1234	   20.2409	  0.123684	9.08184e+06	    78.625	   20.2104	   0.11214	8.98912e+06	    78.625	   19.7344	         0	1.01075e+07	      78.2	   19.7344	         0	1.00888e+07	   78.3742	   20.2257	   0.11785	9.03254e+06	    78.625	   19.9759	  0.041468	9.48681e+06	   78.4125	   19.7344	         0	1.00788e+07	   78.1617	   19.9917	 0.0452692	9.45931e+06	
         R10	   5121	   78.1234	   20.2409	  0.123684	9.13857e+06	   78.0938	   20.7284	  0.396646	8.87692e+06	    78.625	   20.7284	  0.396646	8.97954e+06	    78.625	   20.2104	   0.11214	 9.1329e+06	   78.1086	   20.4942	  0.243054	8.97381e+06	   78.3594	   20.7284	  0.396646	8.89175e+06	    78.625	     20.48	  0.235152	9.02445e+06	   78.3742	   20.2257	   0.11785	9.13405e+06	
         R10	   5122	   77.5625	   20.7284	  0.396646	8.98719e+06	   77.5678	   20.2271	  0.118391	8.98396e+06	   77.0061	   20.2558	  0.129553	9.14333e+06	   77.0313	   20.7284	  0.396646	7.91767e+06	   77.5651	   20.4878	  0.239459	8.96048e+06	   77.2869	   20.2415	  0.123917	9.04494e+06	   77.0187	   20.5012	   0.24699	8.50024e+06	   77.2969	   20.7284	  0.396646	8.43126e+06	
         R10	   5123	   77.5678	   20.2271	  0.118391	9.26254e+06	   78.1234	   20.2409	  0.123684	8.97709e+06	      78.2	   19.7344	         0	9.98734e+06	    77.775	   19.7344	         0	9.86938e+06	   77.8456	    20.234	  0.121025	9.11868e+06	   78.1617	   19.9917	 0.0452692	9.37964e+06	   77.9875	   19.7344	         0	9.92339e+06	   77.6714	   19.9845	 0.0435307	9.48909e+06	
         R10	   5124	   77.5625	   20.7284	  0.396646	8.91851e+06	   78.0938	   20.7284	  0.396646	9.00596e+06	   78.1234	   20.2409	  0.123684	8.89611e+06	   77.5678	   20.2271	  0.118391	9.44486e+06	   77.8281	   20.7284	  0.396646	8.92992e+06	   78.1086	   20.4942	  0.243054	8.92405e+06	   77.8456	    20.234	  0.121025	9.16575e+06	   77.5651	   20.4878	  0.239459	9.13727e+06	
         R10	   5125	   77.5678	   20.2271	  0.118391	 8.9352e+06	    77.775	   19.7344	         0	9.55708e+06	     77.35	   19.7344	         0	9.29482e+06	   77.6714	   19.9845	 0.0435307	9.24384e+06	   77.5625	   19.7344	         0	 9.4254e+06	   77.4589	   19.9845	 0.0435307	9.11087e+06	       N/A	       N/A	       N/A	        N/A	       N/A	       N/A	       N/A	        N/A	
         R10	   5126	   72.7222	      21.5	      2.25	8.43976e+06	     72.25	      21.5	      2.25	5.99416e+06	     72.25	      21.5	         3	5.10596e+06	   72.7813	      21.5	         3	6.87077e+06	   72.4861	      21.5	      2.25	6.19519e+06	     72.25	      21.5	     2.625	5.25441e+06	   72.5156	      21.5	         3	5.91484e+06	   72.7517	      21.5	     2.625	 6.2211e+06	
         R10	   5127	   73.1944	      21.5	      2.25	9.89956e+06	   72.7222	      21.5	      2.25	8.62908e+06	   72.7813	      21.5	         3	6.50249e+06	   73.3125	      21.5	         3	7.13123e+06	   72.9583	      21.5	      2.25	9.18673e+06	   72.7517	      21.5	     2.625	6.11928e+06	   73.0469	      21.5	         3	6.81306e+06	   73.2535	      21.5	     2.625	6.27449e+06	
         R10	   5128	   73.6667	      21.5	      2.25	9.33528e+06	   73.1944	      21.5	      2.25	1.00037e+07	   73.3125	      21.5	         3	  7.193e+06	   73.8438	      21.5	         3	6.53493e+06	   73.4306	      21.5	      2.25	9.66709e+06	   73.2535	      21.5	     2.625	6.34377e+06	   73.5781	      21.5	         3	6.84184e+06	   73.7552	      21.5	     2.625	6.31971e+06	
         R10	   5129	   74.1389	      21.5	      2.25	8.38922e+06	   73.6667	      21.5	      2.25	9.34459e+06	   73.8438	      21.5	         3	6.48832e+06	    74.375	      21.5	         3	5.88141e+06	   73.9028	      21.5	      2.25	8.85742e+06	   73.7552	      21.5	     2.625	6.28003e+06	   74.1094	      21.5	         3	6.15096e+06	   74.2569	      21.5	     2.625	6.23363e+06	
         R10	   5130	   74.6111	      21.5	      2.25	7.48108e+06	   74.1389	      21.5	      2.25	8.38027e+06	    74.375	      21.5	         3	5.86779e+06	   74.9063	      21.5	         3	5.57148e+06	    74.375	      21.5	      2.25	 7.9083e+06	   74.2569	      21.5	     2.625	 6.2206e+06	   74.6406	      21.5	         3	5.67799e+06	   74.7587	      21.5	     2.625	6.19053e+06	
         R10	   5131	   75.0833	      21.5	      2.25	6.92104e+06	   74.6111	      21.5	      2.25	7.43716e+06	   74.9063	      21.5	         3	5.61857e+06	   75.4375	      21.5	         3	5.59119e+06	   74.8472	      21.5	      2.25	7.15581e+06	   74.7587	      21.5	     2.625	6.19313e+06	   75.1719	      21.5	         3	5.58645e+06	   75.2604	      21.5	     2.625	6.15722e+06	
         R10	   5132	   75.9688	      21.5	         3	5.26579e+06	      76.5	      21.5	         3	6.22584e+06	      76.5	      21.5	      2.25	5.28612e+06	   76.0278	      21.5	      2.25	6.56158e+06	   76.2344	      21.5	         3	5.61914e+06	      76.5	      21.5	     2.625	5.72023e+06	   76.2639	      21.5	      2.25	5.53799e+06	   75.9983	      21.5	     2.625	5.75619e+06	
         R10	   5133	   75.4375	      21.5	         3	5.55516e+06	   75.9688	      21.5	         3	5.26339e+06	   76.0278	      21.5	      2.25	6.47676e+06	   75.5556	      21.5	      2.25	 6.7401e+06	   75.7031	      21.5	         3	5.36841e+06	   75.9983	      21.5	     2.625	5.76331e+06	   75.7917	      21.5	      2.25	6.58818e+06	   75.4965	      21.5	     2.625	6.11564e+06	
         R10	   5134	   75.0833	      21.5	      2.25	6.76061e+06	   75.4375	      21.5	         3	5.43168e+06	   75.5556	      21.5	      2.25	6.63305e+06	   75.2604	      21.5	     2.625	6.00731e+06	   75.4965	      21.5	     2.625	5.98883e+06	   75.3194	      21.5	      2.25	6.68761e+06	       N/A	       N/A	       N/A	        N/A	       N/A	       N/A	       N/A	        N/A	
         R10	   5135	   72.7813	      21.5	         3	6.78859e+06	     72.25	      21.5	         3	4.84345e+06	     72.25	      21.5	      3.75	4.89992e+06	   72.8652	      21.5	      3.75	5.46798e+06	   72.5156	      21.5	         3	5.59772e+06	     72.25	      21.5	     3.375	4.87125e+06	   72.5576	      21.5	      3.75	4.90604e+06	   72.8232	      21.5	     3.375	5.13063e+06	
         R10	   5136	   73.3125	      21.5	         3	8.27138e+06	   72.7813	      21.5	         3	6.71886e+06	   72.8652	      21.5	      3.75	 5.3486e+06	   73.4777	      21.5	      3.75	6.35645e+06	   73.0469	      21.5	         3	7.46627e+06	   72.8232	      21.5	     3.375	5.03475e+06	   73.1714	      21.5	      3.75	5.80123e+06	   73.3951	      21.5	     3.375	5.13337e+06	
         R10	   5137	   73.8438	      21.5	         3	7.62977e+06	   73.3125	      21.5	         3	8.31426e+06	   73.4777	      21.5	      3.75	6.28642e+06	   74.0875	      21.5	      3.75	5.64962e+06	   73.5781	      21.5	         3	7.96282e+06	   73.3951	      21.5	     3.375	5.17228e+06	   73.7826	      21.5	      3.75	5.95745e+06	   73.9656	      21.5	     3.375	5.17723e+06	
         R10	   5138	    74.375	      21.5	         3	6.62982e+06	   73.8438	      21.5	         3	7.62484e+06	   74.0875	      21.5	      3.75	5.62369e+06	   74.6946	      21.5	      3.75	4.86055e+06	   74.1094	      21.5	         3	 7.1012e+06	   73.9656	      21.5	     3.375	5.15759e+06	   74.3911	      21.5	      3.75	5.20261e+06	   74.5348	      21.5	     3.375	5.11111e+06	
         R10	   5139	   74.9063	      21.5	         3	 5.9031e+06	    74.375	      21.5	         3	6.62071e+06	   74.6946	      21.5	      3.75	4.85332e+06	   75.2991	      21.5	      3.75	4.46273e+06	   74.6406	      21.5	         3	6.22446e+06	   74.5348	      21.5	     3.375	5.09404e+06	   74.9969	      21.5	      3.75	4.61355e+06	   75.1027	      21.5	     3.375	5.03102e+06	
         R10	   5140	   75.4375	      21.5	         3	5.58474e+06	   74.9063	      21.5	         3	5.88046e+06	   75.2991	      21.5	      3.75	4.46674e+06	   75.9009	      21.5	      3.75	4.44898e+06	   75.1719	      21.5	         3	5.71356e+06	   75.1027	      21.5	     3.375	5.01583e+06	      75.6	      21.5	      3.75	4.42832e+06	   75.6692	      21.5	     3.375	4.96977e+06	
         R10	   5141	   75.9009	      21.5	      3.75	 4.4035e+06	      76.5	      21.5	      3.75	5.71838e+06	      76.5	      21.5	         3	5.69765e+06	   75.9688	      21.5	         3	 5.1355e+06	   76.2004	      21.5	      3.75	4.98095e+06	      76.5	      21.5	     3.375	5.69029e+06	   76.2344	      21.5	         3	5.32711e+06	   75.9348	      21.5	     3.375	4.74812e+06	
         R10	   5142	   75.4375	      21.5	         3	 5.5341e+06	   75.9009	      21.5	      3.75	4.51347e+06	   75.9688	      21.5	         3	5.28543e+06	   75.6692	      21.5	     3.375	4.98021e+06	   75.9348	      21.5	     3.375	4.87851e+06	   75.7031	      21.5	         3	 5.3882e+06	       N/A	       N/A	       N/A	        N/A	       N/A	       N/A	       N/A	        N/A	
         R10	   5143	   72.8652	      21.5	      3.75	5.98746e+06	     72.25	      21.5	      3.75	5.32855e+06	     72.25	      21.5	       4.5	4.86952e+06	   72.9228	      21.5	       4.5	 4.4896e+06	   72.5576	      21.5	      3.75	5.56831e+06	     72.25	      21.5	     4.125	5.00278e+06	   72.5864	      21.5	       4.5	3.84016e+06	    72.894	      21.5	     4.125	4.32736e+06	
         R10	   5144	   73.4777	      21.5	      3.75	7.50912e+06	   72.8652	      21.5	      3.75	6.15756e+06	   72.9228	      21.5	       4.5	4.18463e+06	   73.5737	      21.5	       4.5	5.43335e+06	   73.1714	      21.5	      3.75	6.79659e+06	    72.894	      21.5	     4.125	4.29275e+06	   73.2482	      21.5	       4.5	4.68091e+06	   73.5257	      21.5	     4.125	3.97787e+06	
         R10	   5145	   74.0875	      21.5	      3.75	7.13762e+06	   73.4777	      21.5	      3.75	7.68654e+06	   73.5737	      21.5	       4.5	5.42552e+06	   74.2027	      21.5	       4.5	4.97471e+06	   73.7826	      21.5	      3.75	7.40948e+06	   73.5257	      21.5	     4.125	4.15109e+06	   73.8882	      21.5	       4.5	5.19869e+06	   74.1451	      21.5	     4.125	4.05617e+06	
         R10	   5146	   74.6946	      21.5	      3.75	6.18685e+06	   74.0875	      21.5	      3.75	 7.1511e+06	   74.2027	      21.5	       4.5	4.97304e+06	   74.8099	      21.5	       4.5	4.18932e+06	   74.3911	      21.5	      3.75	 6.6548e+06	   74.1451	      21.5	     4.125	4.06524e+06	   74.5063	      21.5	       4.5	4.55792e+06	   74.7523	      21.5	     4.125	 4.0427e+06	
         R10	   5147	   75.2991	      21.5	      3.75	5.40088e+06	   74.6946	      21.5	      3.75	6.13813e+06	   74.8099	      21.5	       4.5	4.18715e+06	   75.3951	      21.5	       4.5	 3.7577e+06	   74.9969	      21.5	      3.75	5.74976e+06	   74.7523	      21.5	     4.125	4.00606e+06	   75.1025	      21.5	       4.5	3.93839e+06	   75.3471	      21.5	     4.125	4.04264e+06	
         R10	   5148	   75.9009	      21.5	      3.75	5.23561e+06	   75.2991	      21.5	      3.75	 5.4157e+06	   75.3951	      21.5	       4.5	3.75407e+06	   75.9585	      21.5	       4.5	3.74423e+06	      75.6	      21.5	      3.75	5.30335e+06	   75.3471	      21.5	     4.125	4.04768e+06	   75.6768	      21.5	       4.5	3.71904e+06	   75.9297	      21.5	     4.125	4.25665e+06	
         R10	   5149	      76.5	      21.5	      3.75	6.03888e+06	   75.9009	      21.5	      3.75	5.12832e+06	   75.9585	      21.5	       4.5	3.70138e+06	      76.5	      21.5	       4.5	4.34101e+06	   76.2004	      21.5	      3.75	5.57041e+06	   75.9297	      21.5	     4.125	4.16975e+06	   76.2292	      21.5	       4.5	3.95542e+06	      76.5	      21.5	     4.125	5.12504e+06	
         R10	   5150	   72.9228	      21.5	       4.5	5.57505e+06	     72.25	      21.5	       4.5	4.66763e+06	     72.25	      21.5	      5.25	4.24175e+06	   72.9512	      21.5	      5.25	3.46863e+06	   72.5864	      21.5	       4.5	4.73742e+06	     72.25	      21.5	     4.875	4.44079e+06	   72.6006	      21.5	      5.25	 3.2078e+06	    72.937	      21.5	     4.875	3.61696e+06	
         R10	   5151	   73.5737	      21.5	       4.5	6.73324e+06	   72.9228	      21.5	       4.5	5.68723e+06	   72.9512	      21.5	      5.25	3.55642e+06	   73.6211	      21.5	      5.25	4.52055e+06	   73.2482	      21.5	       4.5	6.16848e+06	    72.937	      21.5	     4.875	 3.7174e+06	   73.2861	      21.5	      5.25	3.82523e+06	   73.5974	      21.5	     4.875	3.05165e+06	
         R10	   5152	   74.2027	      21.5	       4.5	6.23527e+06	   73.5737	      21.5	       4.5	6.89007e+06	   73.6211	      21.5	      5.25	4.47752e+06	   74.2596	      21.5	      5.25	3.89895e+06	   73.8882	      21.5	       4.5	6.56139e+06	   73.5974	      21.5	     4.875	3.18572e+06	   73.9403	      21.5	      5.25	 4.1873e+06	   74.2311	      21.5	     4.875	2.98148e+06	
         R10	   5153	   74.8099	      21.5	       4.5	5.37786e+06	   74.2027	      21.5	       4.5	6.23834e+06	   74.2596	      21.5	      5.25	3.88071e+06	   74.8667	      21.5	      5.25	3.05299e+06	   74.5063	      21.5	       4.5	5.79862e+06	   74.2311	      21.5	     4.875	 2.9705e+06	   74.5631	      21.5	      5.25	3.44527e+06	   74.8383	      21.5	     4.875	3.00889e+06	
         R10	   5154	   75.3951	      21.5	       4.5	 4.8663e+06	   74.8099	      21.5	       4.5	5.35427e+06	   74.8667	      21.5	      5.25	3.02374e+06	   75.4425	      21.5	      5.25	2.66565e+06	   75.1025	      21.5	       4.5	5.10016e+06	   74.8383	      21.5	     4.875	2.96957e+06	   75.1546	      21.5	      5.25	2.79959e+06	   75.4188	      21.5	     4.875	3.18882e+06	
         R10	   5155	   75.9585	      21.5	       4.5	4.78475e+06	   75.3951	      21.5	       4.5	4.85979e+06	   75.4425	      21.5	      5.25	2.61126e+06	   75.9869	      21.5	      5.25	2.85109e+06	   75.6768	      21.5	       4.5	4.81244e+06	   75.4188	      21.5	     4.875	 3.1558e+06	   75.7147	      21.5	      5.25	2.68126e+06	   75.9727	      21.5	     4.875	3.59746e+06	
         R10	   5156	      76.5	      21.5	       4.5	5.21832e+06	   75.9585	      21.5	       4.5	4.84733e+06	   75.9869	      21.5	      5.25	2.90714e+06	      76.5	      21.5	      5.25	2.82294e+06	   76.2292	      21.5	       4.5	5.02173e+06	   75.9727	      21.5	     4.875	3.65244e+06	   76.2435	      21.5	      5.25	 2.8403e+06	      76.5	      21.5	     4.875	3.82643e+06	
         R10	   5157	   77.0313	      21.5	      2.25	7.45248e+06	      76.5	      21.5	      2.25	5.40352e+06	      76.5	      21.5	         3	5.82163e+06	   77.0313	      21.5	         3	5.54875e+06	   76.7656	      21.5	      2.25	5.88448e+06	      76.5	      21.5	     2.625	5.46614e+06	   76.7656	      21.5	         3	5.52618e+06	   77.0313	      21.5	     2.625	5.81525e+06	
         R10	   5158	   77.5625	      21.5	      2.25	8.14731e+06	   77.0313	      21.5	      2.25	7.47424e+06	   77.0313	      21.5	         3	5.75807e+06	   77.5625	      21.5	         3	5.98591e+06	   77.2969	      21.5	      2.25	7.77119e+06	   77.0313	      21.5	     2.625	5.97994e+06	   77.2969	      21.5	         3	5.86327e+06	   77.5625	      21.5	     2.625	6.24618e+06	
         R10	   5159	   78.0938	      21.5	      2.25	8.44807e+06	   77.5625	      21.5	      2.25	8.01478e+06	   77.5625	      21.5	         3	5.94368e+06	   78.0938	      21.5	         3	6.08284e+06	   77.8281	      21.5	      2.25	8.22179e+06	   77.5625	      21.5	     2.625	 6.1444e+06	   77.8281	      21.5	         3	6.01199e+06	   78.0938	      21.5	     2.625	6.19534e+06	
         R10	   5160	    78.625	      21.5	      2.25	8.78933e+06	   78.0938	      21.5	      2.25	8.43464e+06	   78.0938	      21.5	         3	6.07481e+06	    78.625	      21.5	         3	6.25184e+06	   78.3594	      21.5	      2.25	8.60839e+06	   78.0938	      21.5	     2.625	6.18217e+06	   78.3594	      21.5	         3	6.16014e+06	    78.625	      21.5	     2.625	6.20555e+06	
         R10	   5161	   77.0313	      21.5	         3	5.88312e+06	      76.5	      21.5	         3	5.80513e+06	      76.5	      21.5	      3.75	5.08884e+06	   77.0242	      21.5	      3.75	4.48278e+06	   76.7656	      21.5	         3	5.65802e+06	      76.5	      21.5	     3.375	5.42369e+06	   76.7621	      21.5	      3.75	4.72063e+06	   77.0277	      21.5	     3.375	4.85827e+06	
         R10	   5162	   77.5625	      21.5	         3	6.45113e+06	   77.0313	      21.5	         3	5.75559e+06	   77.0242	      21.5	      3.75	4.59215e+06	   77.5531	      21.5	      3.75	 4.4674e+06	   77.2969	      21.5	         3	6.08616e+06	   77.0277	      21.5	     3.375	4.84893e+06	   77.2887	      21.5	      3.75	4.51435e+06	   77.5578	      21.5	     3.375	5.01727e+06	
         R10	   5163	   78.0938	      21.5	         3	6.73919e+06	   77.5625	      21.5	         3	   6.45e+06	   77.5531	      21.5	      3.75	4.50165e+06	   78.0867	      21.5	      3.75	4.55346e+06	   77.8281	      21.5	         3	6.59218e+06	   77.5578	      21.5	     3.375	5.03571e+06	   77.8199	      21.5	      3.75	4.52419e+06	   78.0902	      21.5	     3.375	 5.1862e+06	
         R10	   5164	    78.625	      21.5	         3	6.95982e+06	   78.0938	      21.5	         3	6.73696e+06	   78.0867	      21.5	      3.75	4.54175e+06	    78.625	      21.5	      3.75	4.60433e+06	   78.3594	      21.5	         3	6.84671e+06	   78.0902	      21.5	     3.375	5.17865e+06	   78.3559	      21.5	      3.75	4.57194e+06	    78.625	      21.5	     3.375	5.27113e+06	
         R10	   5165	   77.0242	      21.5	      3.75	5.01497e+06	      76.5	      21.5	      3.75	6.28194e+06	      76.5	      21.5	       4.5	3.90905e+06	   76.9738	      21.5	       4.5	3.60247e+06	   76.7621	      21.5	      3.75	 5.5861e+06	      76.5	      21.5	     4.125	 4.9536e+06	   76.7369	      21.5	       4.5	 3.6911e+06	    76.999	      21.5	     4.125	4.12097e+06	
         R10	   5166	   77.5531	      21.5	      3.75	4.90205e+06	   77.0242	      21.5	      3.75	5.06886e+06	   76.9738	      21.5	       4.5	3.40533e+06	   77.4859	      21.5	       4.5	3.31898e+06	   77.2887	      21.5	      3.75	4.97847e+06	    76.999	      21.5	     4.125	4.06438e+06	   77.2299	      21.5	       4.5	3.35339e+06	   77.5195	      21.5	     4.125	3.88311e+06	
         R10	   5167	   78.0867	      21.5	      3.75	4.98038e+06	   77.5531	      21.5	      3.75	4.94669e+06	   77.4859	      21.5	       4.5	3.28855e+06	   78.0363	      21.5	       4.5	3.26933e+06	   77.8199	      21.5	      3.75	 4.9612e+06	   77.5195	      21.5	     4.125	 3.8937e+06	   77.7611	      21.5	       4.5	 3.2768e+06	   78.0615	      21.5	     4.125	3.90416e+06	
         R10	   5168	    78.625	      21.5	      3.75	5.01489e+06	   78.0867	      21.5	      3.75	5.02806e+06	   78.0363	      21.5	       4.5	3.29179e+06	    78.625	      21.5	       4.5	3.32246e+06	   78.3559	      21.5	      3.75	5.01849e+06	   78.0615	      21.5	     4.125	3.93932e+06	   78.3307	      21.5	       4.5	3.30657e+06	    78.625	      21.5	     4.125	3.97549e+06	
         R10	   5169	   76.9738	      21.5	       4.5	4.10207e+06	      76.5	      21.5	       4.5	4.91275e+06	      76.5	      21.5	      5.25	  2.821e+06	   76.9558	      21.5	      5.25	2.95995e+06	   76.7369	      21.5	       4.5	4.50528e+06	      76.5	      21.5	     4.875	3.67166e+06	   76.7279	      21.5	      5.25	2.85888e+06	   76.9648	      21.5	     4.875	3.39437e+06	
         R10	   5170	   77.4859	      21.5	       4.5	4.36252e+06	   76.9738	      21.5	       4.5	4.17326e+06	   76.9558	      21.5	      5.25	2.76234e+06	   77.4619	      21.5	      5.25	2.30321e+06	   77.2299	      21.5	       4.5	4.26291e+06	   76.9648	      21.5	     4.875	3.36686e+06	   77.2089	      21.5	      5.25	2.45353e+06	   77.4739	      21.5	     4.875	2.95791e+06	
         R10	   5171	   78.0363	      21.5	       4.5	4.67732e+06	   77.4859	      21.5	       4.5	4.33961e+06	   77.4619	      21.5	      5.25	2.36612e+06	   78.0183	      21.5	      5.25	2.58172e+06	   77.7611	      21.5	       4.5	4.50336e+06	   77.4739	      21.5	     4.875	2.99068e+06	   77.7401	      21.5	      5.25	2.40451e+06	   78.0273	      21.5	     4.875	2.73678e+06	
         R10	   5172	    78.625	      21.5	       4.5	5.15878e+06	   78.0363	      21.5	       4.5	4.68303e+06	   78.0183	      21.5	      5.25	2.60724e+06	    78.625	      21.5	      5.25	3.29627e+06	   78.3307	      21.5	       4.5	4.91671e+06	   78.0273	      21.5	     4.875	2.77649e+06	   78.3217	      21.5	      5.25	2.92175e+06	    78.625	      21.5	     4.875	2.70161e+06	
         R10	   5173	   72.9512	      21.5	      5.25	5.58542e+06	     72.25	      21.5	      5.25	4.88707e+06	     72.25	      21.5	         6	4.19986e+06	   72.9702	      21.5	         6	 5.0463e+06	   72.6006	      21.5	      5.25	4.86584e+06	     72.25	      21.5	     5.625	4.48462e+06	   72.6101	      21.5	         6	3.66608e+06	   72.9607	      21.5	     5.625	3.31103e+06	
         R10	   5174	   73.6211	      21.5	      5.25	6.31371e+06	   72.9512	      21.5	      5.25	5.63334e+06	   72.9702	      21.5	         6	2.87202e+06	   73.6528	      21.5	         6	4.26063e+06	   73.2861	      21.5	      5.25	5.92115e+06	   72.9607	      21.5	     5.625	2.70718e+06	   73.3115	      21.5	         6	3.54405e+06	   73.6369	      21.5	     5.625	2.66306e+06	
         R10	   5175	   74.2596	      21.5	      5.25	5.25667e+06	   73.6211	      21.5	      5.25	6.18911e+06	   73.6528	      21.5	         6	3.65199e+06	   74.2976	      21.5	         6	3.13166e+06	   73.9403	      21.5	      5.25	5.72118e+06	   73.6369	      21.5	     5.625	2.00179e+06	   73.9752	      21.5	         6	3.32703e+06	   74.2786	      21.5	     5.625	2.23796e+06	
         R10	   5176	   74.8667	      21.5	      5.25	4.43489e+06	   74.2596	      21.5	      5.25	 5.1822e+06	   74.2976	      21.5	         6	2.65775e+06	   74.9048	      21.5	         6	1.93086e+06	   74.5631	      21.5	      5.25	4.80418e+06	   74.2786	      21.5	     5.625	 1.7008e+06	   74.6012	      21.5	         6	2.23454e+06	   74.8857	      21.5	     5.625	 1.9939e+06	
         R10	   5177	   75.4425	      21.5	      5.25	4.18911e+06	   74.8667	      21.5	      5.25	4.39607e+06	   74.9048	      21.5	         6	1.59018e+06	   75.4742	      21.5	         6	1.19781e+06	   75.1546	      21.5	      5.25	4.28787e+06	   74.8857	      21.5	     5.625	1.69958e+06	   75.1895	      21.5	         6	 1.2695e+06	   75.4584	      21.5	     5.625	2.19296e+06	
         R10	   5178	   75.9869	      21.5	      5.25	4.53751e+06	   75.4425	      21.5	      5.25	4.17589e+06	   75.4742	      21.5	         6	1.18219e+06	    76.006	      21.5	         6	1.68312e+06	   75.7147	      21.5	      5.25	4.34874e+06	   75.4584	      21.5	     5.625	2.05877e+06	   75.7401	      21.5	         6	1.24762e+06	   75.9964	      21.5	     5.625	2.92483e+06	
         R10	   5179	      76.5	      21.5	      5.25	3.64921e+06	   75.9869	      21.5	      5.25	4.52015e+06	    76.006	      21.5	         6	2.16561e+06	      76.5	      21.5	         6	 4.9253e+06	   76.2435	      21.5	      5.25	4.03913e+06	   75.9964	      21.5	     5.625	  2.923e+06	    76.253	      21.5	         6	3.21796e+06	      76.5	      21.5	     5.625	 4.2577e+06	
         R10	   5180	   76.9558	      21.5	      5.25	4.25728e+06	      76.5	      21.5	      5.25	3.38171e+06	      76.5	      21.5	         6	4.54329e+06	   76.9558	      21.5	         6	2.65456e+06	   76.7279	      21.5	      5.25	3.77921e+06	      76.5	      21.5	     5.625	3.93012e+06	   76.7279	      21.5	         6	  3.335e+06	   76.9558	      21.5	     5.625	3.09529e+06	
         R10	   5181	   77.4619	      21.5	      5.25	4.11528e+06	   76.9558	      21.5	      5.25	4.32818e+06	   76.9558	      21.5	         6	2.15732e+06	   77.4619	      21.5	         6	1.45411e+06	   77.2089	      21.5	      5.25	 4.1982e+06	   76.9558	      21.5	     5.625	2.93892e+06	   77.2089	      21.5	         6	1.70539e+06	   77.4619	      21.5	     5.625	2.21201e+06	
         R10	   5182	   78.0183	      21.5	      5.25	4.53529e+06	   77.4619	      21.5	      5.25	4.07641e+06	   77.4619	      21.5	         6	 1.3085e+06	   78.0183	      21.5	         6	1.91601e+06	   77.7401	      21.5	      5.25	 4.2893e+06	   77.4619	      21.5	     5.625	2.10382e+06	   77.7401	      21.5	         6	1.45311e+06	   78.0183	      21.5	     5.625	1.60157e+06	
         R10	   5183	    78.625	      21.5	      5.25	5.32804e+06	   78.0183	      21.5	      5.25	4.49343e+06	   78.0183	      21.5	         6	2.00948e+06	    78.625	      21.5	         6	2.83658e+06	   78.3217	      21.5	      5.25	4.90332e+06	   78.0183	      21.5	     5.625	1.61042e+06	   78.3217	      21.5	         6	2.36632e+06	    78.625	      21.5	     5.625	1.43777e+06	
         R10	   5184	   73.0678	      21.5	       7.7	3.62066e+06	     72.25	      21.5	       7.7	1.76671e+06	     72.25	      21.5	      8.55	1.82909e+06	   73.0346	      21.5	      8.55	2.13663e+06	   72.6589	      21.5	       7.7	2.08777e+06	     72.25	      21.5	     8.125	1.73323e+06	   72.6423	      21.5	      8.55	     589916	   73.0512	      21.5	     8.125	1.57342e+06	
         R10	   5185	   73.8418	      21.5	       7.7	 5.0064e+06	   73.0678	      21.5	       7.7	3.24515e+06	   73.0346	      21.5	      8.55	1.90243e+06	   73.7887	      21.5	      8.55	3.43096e+06	   73.4548	      21.5	       7.7	 4.0645e+06	   73.0512	      21.5	     8.125	     900136	   73.4117	      21.5	      8.55	2.54906e+06	   73.8152	      21.5	     8.125	1.28399e+06	
         R10	   5186	    74.572	      21.5	       7.7	4.26417e+06	   73.8418	      21.5	       7.7	4.78819e+06	   73.7887	      21.5	      8.55	 3.3786e+06	   74.5123	      21.5	      8.55	 2.6644e+06	   74.2069	      21.5	       7.7	4.50888e+06	   73.8152	      21.5	     8.125	     744584	   74.1505	      21.5	      8.55	2.99267e+06	   74.5422	      21.5	     8.125	 1.2042e+06	
         R10	   5187	   75.2585	      21.5	       7.7	2.76781e+06	    74.572	      21.5	       7.7	4.18871e+06	   74.5123	      21.5	      8.55	2.64532e+06	   75.2054	      21.5	      8.55	1.31677e+06	   74.9152	      21.5	       7.7	3.46229e+06	   74.5422	      21.5	     8.125	1.07038e+06	   74.8588	      21.5	      8.55	1.90885e+06	   75.2319	      21.5	     8.125	1.29169e+06	
         R10	   5188	   75.9011	      21.5	       7.7	 2.2686e+06	   75.2585	      21.5	       7.7	2.82038e+06	   75.2054	      21.5	      8.55	1.45207e+06	   75.8679	      21.5	      8.55	1.18505e+06	   75.5798	      21.5	       7.7	2.51677e+06	   75.2319	      21.5	     8.125	1.40562e+06	   75.5367	      21.5	      8.55	1.26648e+06	   75.8845	      21.5	     8.125	1.51887e+06	
         R10	   5189	      76.5	      21.5	       7.7	2.17016e+06	   75.9011	      21.5	       7.7	2.44149e+06	   75.8679	      21.5	      8.55	1.49096e+06	      76.5	      21.5	      8.55	2.32804e+06	   76.2006	      21.5	       7.7	 2.2954e+06	   75.8845	      21.5	     8.125	1.74472e+06	    76.184	      21.5	      8.55	1.89713e+06	      76.5	      21.5	     8.125	1.86856e+06	
         R10	   5190	   73.0346	      21.5	      8.55	 2.9091e+06	     72.25	      21.5	      8.55	2.10039e+06	     72.25	      21.5	       9.4	2.20514e+06	   73.1513	      21.5	       9.4	2.39923e+06	   72.6423	      21.5	      8.55	1.54926e+06	     72.25	      21.5	     8.975	2.09459e+06	   72.7007	      21.5	       9.4	1.42884e+06	    73.093	      21.5	     8.975	1.43511e+06	
         R10	   5191	   73.7887	      21.5	      8.55	4.18004e+06	   73.0346	      21.5	      8.55	3.04596e+06	   73.1513	      21.5	       9.4	 2.3317e+06	    74.027	      21.5	       9.4	3.84798e+06	   73.4117	      21.5	      8.55	3.53651e+06	    73.093	      21.5	     8.975	1.56369e+06	   73.5891	      21.5	       9.4	2.70984e+06	   73.9078	      21.5	     8.975	1.29558e+06	
         R10	   5192	   74.5123	      21.5	      8.55	 3.2147e+06	   73.7887	      21.5	      8.55	4.44511e+06	    74.027	      21.5	       9.4	3.20763e+06	    74.877	      21.5	       9.4	2.71049e+06	   74.1505	      21.5	      8.55	3.80513e+06	   73.9078	      21.5	     8.975	1.12351e+06	    74.452	      21.5	       9.4	  2.899e+06	   74.6946	      21.5	     8.975	1.26903e+06	
         R10	   5193	   75.2054	      21.5	      8.55	1.77659e+06	   74.5123	      21.5	      8.55	3.28822e+06	    74.877	      21.5	       9.4	 2.5604e+06	   75.7013	      21.5	       9.4	 1.4809e+06	   74.8588	      21.5	      8.55	 2.4873e+06	   74.6946	      21.5	     8.975	1.26846e+06	   75.2892	      21.5	       9.4	1.86789e+06	   75.4534	      21.5	     8.975	1.38257e+06	
         R10	   5194	   75.7013	      21.5	       9.4	1.79389e+06	      76.5	      21.5	       9.4	3.28112e+06	      76.5	      21.5	      8.55	1.32278e+06	   75.8679	      21.5	      8.55	1.93326e+06	   76.1007	      21.5	       9.4	2.48423e+06	      76.5	      21.5	     8.975	1.88242e+06	    76.184	      21.5	      8.55	1.47415e+06	   75.7846	      21.5	     8.975	1.72151e+06	
         R10	   5195	   75.2054	      21.5	      8.55	1.73619e+06	   75.7013	      21.5	       9.4	1.82804e+06	   75.8679	      21.5	      8.55	1.78152e+06	   75.4534	      21.5	     8.975	1.53399e+06	   75.7846	      21.5	     8.975	1.56829e+06	   75.5367	      21.5	      8.55	1.73905e+06	       N/A	       N/A	       N/A	        N/A	       N/A	       N/A	       N/A	        N/A	
         R10	   5196	   73.1513	      21.5	       9.4	1.91956e+06	     72.25	      21.5	       9.4	2.71345e+06	     72.25	      21.5	     10.25	2.61359e+06	   73.1109	      21.5	     10.25	2.36415e+06	   72.7007	      21.5	       9.4	 1.5617e+06	     72.25	      21.5	     9.825	2.52017e+06	   72.6804	      21.5	     10.25	2.39264e+06	   73.1311	      21.5	     9.825	1.75283e+06	
         R10	   5197	    74.027	      21.5	       9.4	 2.8478e+06	   73.1513	      21.5	       9.4	 2.3698e+06	   73.1109	      21.5	     10.25	2.49989e+06	   73.9663	      21.5	     10.25	2.20353e+06	   73.5891	      21.5	       9.4	2.24918e+06	   73.1311	      21.5	     9.825	 2.0645e+06	   73.5386	      21.5	     10.25	2.34311e+06	   73.9967	      21.5	     9.825	1.92332e+06	
         R10	   5198	    74.877	      21.5	       9.4	2.42059e+06	    74.027	      21.5	       9.4	2.52419e+06	   73.9663	      21.5	     10.25	2.36614e+06	   74.8163	      21.5	     10.25	2.23048e+06	    74.452	      21.5	       9.4	2.35194e+06	   73.9967	      21.5	     9.825	1.82404e+06	   74.3913	      21.5	     10.25	2.28904e+06	   74.8466	      21.5	     9.825	1.93865e+06	
         R10	   5199	   75.7013	      21.5	       9.4	1.64301e+06	    74.877	      21.5	       9.4	2.24515e+06	   74.8163	      21.5	     10.25	2.17228e+06	   75.6609	      21.5	     10.25	2.56691e+06	   75.2892	      21.5	       9.4	1.82507e+06	   74.8466	      21.5	     9.825	1.81664e+06	   75.2386	      21.5	     10.25	2.31813e+06	   75.6811	      21.5	     9.825	2.03884e+06	
         R10	   5200	      76.5	      21.5	       9.4	1.87216e+06	   75.7013	      21.5	       9.4	2.03529e+06	   75.6609	      21.5	     10.25	1.98952e+06	      76.5	      21.5	     10.25	3.82108e+06	   76.1007	      21.5	       9.4	1.43783e+06	   75.6811	      21.5	     9.825	1.94931e+06	   76.0804	      21.5	     10.25	2.75095e+06	      76.5	      21.5	     9.825	2.03103e+06	
         R10	   5201	    77.141	      21.5	       7.7	2.52668e+06	      76.5	      21.5	       7.7	2.53605e+06	      76.5	      21.5	      8.55	     859311	    77.141	      21.5	      8.55	1.52836e+06	   76.8205	      21.5	       7.7	2.43674e+06	      76.5	      21.5	     8.125	1.43367e+06	   76.8205	      21.5	      8.55	1.17092e+06	    77.141	      21.5	     8.125	1.11649e+06	
         R10	   5202	   77.8494	      21.5	       7.7	3.48981e+06	    77.141	      21.5	       7.7	2.52454e+06	    77.141	      21.5	      8.55	1.57659e+06	   77.8494	      21.5	      8.55	2.06793e+06	   77.4952	      21.5	       7.7	3.00328e+06	    77.141	      21.5	     8.125	 1.1314e+06	   77.4952	      21.5	      8.55	 1.7381e+06	   77.8494	      21.5	     8.125	     915098	
         R10	   5203	    78.625	      21.5	       7.7	4.49015e+06	   77.8494	      21.5	       7.7	3.53222e+06	   77.8494	      21.5	      8.55	2.04289e+06	    78.625	      21.5	      8.55	2.67637e+06	   78.2372	      21.5	       7.7	4.00354e+06	   77.8494	      21.5	     8.125	     961629	   78.2372	      21.5	      8.55	2.35143e+06	    78.625	      21.5	     8.125	1.01183e+06	
         R10	   5204	    77.141	      21.5	      8.55	2.56915e+06	      76.5	      21.5	      8.55	2.94068e+06	      76.5	      21.5	       9.4	1.50464e+06	   77.1656	      21.5	       9.4	2.42476e+06	   76.8205	      21.5	      8.55	2.48087e+06	      76.5	      21.5	     8.975	1.73226e+06	   76.8328	      21.5	       9.4	1.83962e+06	   77.1533	      21.5	     8.975	1.40622e+06	
         R10	   5205	   77.8494	      21.5	      8.55	3.46268e+06	    77.141	      21.5	      8.55	2.50654e+06	   77.1656	      21.5	       9.4	2.58224e+06	   77.8739	      21.5	       9.4	3.08281e+06	   77.4952	      21.5	      8.55	 2.9785e+06	   77.1533	      21.5	     8.975	1.44823e+06	   77.5197	      21.5	       9.4	2.74472e+06	   77.8616	      21.5	     8.975	1.13955e+06	
         R10	   5206	    78.625	      21.5	      8.55	3.60535e+06	   77.8494	      21.5	      8.55	3.41236e+06	   77.8739	      21.5	       9.4	3.19532e+06	    78.625	      21.5	       9.4	2.85188e+06	   78.2372	      21.5	      8.55	3.50536e+06	   77.8616	      21.5	     8.975	1.22007e+06	   78.2495	      21.5	       9.4	2.96958e+06	    78.625	      21.5	     8.975	1.16547e+06	
         R10	   5207	   77.1656	      21.5	       9.4	2.28495e+06	      76.5	      21.5	       9.4	4.14437e+06	      76.5	      21.5	     10.25	3.03555e+06	   77.1993	      21.5	     10.25	3.08814e+06	   76.8328	      21.5	       9.4	2.92783e+06	      76.5	      21.5	     9.825	2.72601e+06	   76.8496	      21.5	     10.25	2.98479e+06	   77.1824	      21.5	     9.825	2.34706e+06	
         R10	   5208	   77.8739	      21.5	       9.4	2.88701e+06	   77.1656	      21.5	       9.4	 2.4983e+06	   77.1993	      21.5	     10.25	2.58717e+06	   77.9076	      21.5	     10.25	2.67639e+06	   77.5197	      21.5	       9.4	2.63584e+06	   77.1824	      21.5	     9.825	2.20065e+06	   77.5534	      21.5	     10.25	2.62204e+06	   77.8907	      21.5	     9.825	2.08914e+06	
         R10	   5209	    78.625	      21.5	       9.4	2.79165e+06	   77.8739	      21.5	       9.4	2.96072e+06	   77.9076	      21.5	     10.25	2.68628e+06	    78.625	      21.5	     10.25	2.62504e+06	   78.2495	      21.5	       9.4	2.77759e+06	   77.8907	      21.5	     9.825	2.13326e+06	   78.2663	      21.5	     10.25	2.65031e+06	    78.625	      21.5	     9.825	2.06695e+06	
         R10	   5210	   72.6751	      19.3	         0	9.18297e+06	     72.25	      19.3	         0	5.62948e+06	     72.25	   19.7344	         0	6.60548e+06	    72.675	   19.7344	         0	1.16907e+07	   72.4625	      19.3	         0	7.17857e+06	     72.25	   19.5172	         0	6.10326e+06	   72.4625	   19.7344	         0	8.88153e+06	    72.675	   19.5172	         0	9.57619e+06	
         R10	   5211	   73.1001	      19.3	         0	9.41105e+06	   72.6751	      19.3	         0	8.09733e+06	    72.675	   19.7344	         0	7.27331e+06	      73.1	   19.7344	         0	1.02847e+07	   72.8876	      19.3	         0	8.72538e+06	    72.675	   19.5172	         0	7.38937e+06	   72.8875	   19.7344	         0	8.73374e+06	   73.1001	   19.5172	         0	9.46018e+06	
         R10	   5212	   73.5251	      19.3	         0	 1.0418e+07	   73.1001	      19.3	         0	9.52701e+06	      73.1	   19.7344	         0	9.19658e+06	    73.525	   19.7344	         0	9.38642e+06	   73.3126	      19.3	         0	9.96907e+06	   73.1001	   19.5172	         0	9.18991e+06	   73.3125	   19.7344	         0	9.23942e+06	   73.5251	   19.5172	         0	9.65138e+06	
         R10	   5213	   73.9501	      19.3	         0	1.09767e+07	   73.5251	      19.3	         0	1.04154e+07	    73.525	   19.7344	         0	9.93548e+06	     73.95	   19.7344	         0	9.59535e+06	   73.7376	      19.3	         0	1.06948e+07	   73.5251	   19.5172	         0	1.00086e+07	   73.7375	   19.7344	         0	9.75862e+06	   73.9501	   19.5172	         0	1.00458e+07	
         R10	   5214	   74.3752	      19.3	         0	1.11253e+07	   73.9501	      19.3	         0	1.09156e+07	     73.95	   19.7344	         0	9.91462e+06	    74.375	   19.7344	         0	9.89215e+06	   74.1627	      19.3	         0	1.10196e+07	   73.9501	   19.5172	         0	1.02065e+07	   74.1625	   19.7344	         0	9.90158e+06	   74.3751	   19.5172	         0	1.02907e+07	
         R10	   5215	   74.8001	      19.3	         0	1.10012e+07	   74.3752	      19.3	         0	1.11439e+07	    74.375	   19.7344	         0	 9.8762e+06	      74.8	   19.7344	         0	9.87638e+06	   74.5877	      19.3	         0	1.10718e+07	   74.3751	   19.5172	         0	1.02948e+07	   74.5875	   19.7344	         0	9.87318e+06	   74.8001	   19.5172	         0	1.02589e+07	
         R10	   5216	   75.2251	      19.3	         0	1.05267e+07	   74.8001	      19.3	         0	1.09816e+07	      74.8	   19.7344	         0	9.86726e+06	    75.225	   19.7344	         0	9.78036e+06	   75.0126	      19.3	         0	1.07526e+07	   74.8001	   19.5172	         0	1.02345e+07	   75.0125	   19.7344	         0	9.82334e+06	   75.2251	   19.5172	         0	9.99412e+06	
         R10	   5217	   75.6501	      19.3	         0	9.69599e+06	   75.2251	      19.3	         0	1.05228e+07	    75.225	   19.7344	         0	 9.7413e+06	     75.65	   19.7344	         0	9.74681e+06	   75.4376	      19.3	         0	1.01062e+07	   75.2251	   19.5172	         0	9.95956e+06	   75.4375	   19.7344	         0	9.74099e+06	     75.65	   19.5172	         0	9.55397e+06	
         R10	   5218	   76.0751	      19.3	         0	8.24924e+06	   75.6501	      19.3	         0	9.59682e+06	     75.65	   19.7344	         0	8.89061e+06	    76.075	   19.7344	         0	 1.0042e+07	   75.8626	      19.3	         0	8.89023e+06	     75.65	   19.5172	         0	9.02257e+06	   75.8625	   19.7344	         0	9.42137e+06	    76.075	   19.5172	         0	8.86908e+06	
         R10	   5219	      76.5	      19.3	         0	6.92678e+06	   76.0751	      19.3	         0	8.89166e+06	    76.075	   19.7344	         0	1.14688e+07	      76.5	   19.7344	         0	7.78634e+06	   76.2875	      19.3	         0	7.54634e+06	    76.075	   19.5172	         0	9.75665e+06	   76.2875	   19.7344	         0	9.59873e+06	      76.5	   19.5172	         0	7.12969e+06	
         R10	   5220	   76.9249	      19.3	         0	8.83738e+06	      76.5	      19.3	         0	 6.7283e+06	      76.5	   19.7344	         0	7.70606e+06	    76.925	   19.7344	         0	1.12403e+07	   76.7125	      19.3	         0	 7.4566e+06	      76.5	   19.5172	         0	6.97559e+06	   76.7125	   19.7344	         0	9.44574e+06	    76.925	   19.5172	         0	9.63304e+06	
         R10	   5221	   77.3499	      19.3	         0	9.56868e+06	   76.9249	      19.3	         0	8.29772e+06	    76.925	   19.7344	         0	9.65713e+06	     77.35	   19.7344	         0	9.03874e+06	   77.1374	      19.3	         0	8.90323e+06	    76.925	   19.5172	         0	8.69839e+06	   77.1375	   19.7344	         0	9.30703e+06	     77.35	   19.5172	         0	9.15884e+06	
         R10	   5222	   77.7749	      19.3	         0	1.04817e+07	   77.3499	      19.3	         0	 9.6498e+06	     77.35	   19.7344	         0	9.13804e+06	    77.775	   19.7344	         0	9.74337e+06	   77.5624	      19.3	         0	1.00624e+07	     77.35	   19.5172	         0	9.26959e+06	   77.5625	   19.7344	         0	9.43984e+06	    77.775	   19.5172	         0	9.97541e+06	
         R10	   5223	   78.1999	      19.3	         0	1.10468e+07	   77.7749	      19.3	         0	1.05034e+07	    77.775	   19.7344	         0	1.00037e+07	      78.2	   19.7344	         0	9.52405e+06	   77.9874	      19.3	         0	1.07684e+07	    77.775	   19.5172	         0	1.01372e+07	   77.9875	   19.7344	         0	9.75335e+06	      78.2	   19.5172	         0	 1.0014e+07	
         R10	   5224	    78.625	      19.3	         0	1.10307e+07	   78.1999	      19.3	         0	1.09658e+07	      78.2	   19.7344	         0	9.97153e+06	    78.625	   19.7344	         0	9.82353e+06	   78.4125	      19.3	         0	1.09967e+07	      78.2	   19.5172	         0	1.02174e+07	   78.4125	   19.7344	         0	9.89706e+06	    78.625	   19.5172	         0	1.01982e+07	
         R10	   5225	   72.7826	   21.3636	    1.2195	1.11087e+07	   72.7815	   21.1005	  0.766202	9.84902e+06	     72.25	   21.0996	  0.765063	7.87433e+06	     72.25	   21.3636	    1.2195	5.25018e+06	   72.7821	    21.247	  0.984196	1.04734e+07	   72.5158	   21.1001	  0.765633	8.64816e+06	     72.25	   21.2466	  0.983574	6.49397e+06	   72.5163	   21.3636	    1.2195	7.77458e+06	
         R10	   5226	   72.7815	   21.1005	  0.766202	9.75486e+06	   72.7813	   20.7284	  0.396646	9.60084e+06	     72.25	   20.7284	  0.396646	7.07741e+06	     72.25	   21.0996	  0.765063	7.72694e+06	   72.7814	   20.9266	  0.569177	9.59012e+06	   72.5156	   20.7284	  0.396646	7.80415e+06	     72.25	   20.9261	   0.56867	7.26204e+06	   72.5158	   21.1001	  0.765633	8.54588e+06	
         R10	   5227	   73.3132	   21.1005	  0.766164	8.07323e+06	   73.3125	   20.7284	  0.396646	8.75107e+06	   72.7813	   20.7284	  0.396646	8.16402e+06	   72.7815	   21.1005	  0.766202	8.91916e+06	   73.3129	   20.9266	   0.56916	8.40312e+06	   73.0469	   20.7284	  0.396646	8.37563e+06	   72.7814	   20.9266	  0.569177	8.49744e+06	   73.0474	   21.1005	  0.766183	8.38284e+06	
         R10	   5228	   73.3132	   21.1005	  0.766164	8.76454e+06	   73.8446	   21.1004	  0.766126	8.53928e+06	   73.8438	   20.7284	  0.396646	9.02958e+06	   73.3125	   20.7284	  0.396646	8.92855e+06	   73.5789	   21.1005	  0.766145	8.54902e+06	   73.8442	   20.9266	  0.569143	8.77926e+06	   73.5781	   20.7284	  0.396646	 8.9054e+06	   73.3129	   20.9266	   0.56916	8.83456e+06	
         R10	   5229	   73.8446	   21.1004	  0.766126	8.53416e+06	   74.3762	   21.1004	  0.766087	8.78509e+06	    74.375	   20.7284	  0.396646	9.18114e+06	   73.8438	   20.7284	  0.396646	9.19693e+06	   74.1104	   21.1004	  0.766107	8.58854e+06	   74.3756	   20.9266	  0.569125	8.98122e+06	   74.1094	   20.7284	  0.396646	9.14369e+06	   73.8442	   20.9266	  0.569143	8.85239e+06	
         R10	   5230	   74.3762	   21.1004	  0.766087	8.44931e+06	   74.9073	   21.1004	  0.766048	8.80994e+06	   74.9063	   20.7284	  0.396646	9.37915e+06	    74.375	   20.7284	  0.396646	9.14828e+06	   74.6417	   21.1004	  0.766068	8.57772e+06	   74.9068	   20.9266	  0.569108	9.08684e+06	   74.6406	   20.7284	  0.396646	9.23134e+06	   74.3756	   20.9266	  0.569125	8.79822e+06	
         R10	   5231	   74.9073	   21.1004	  0.766048	8.47631e+06	   75.4384	   21.1004	   0.76601	8.69679e+06	   75.4375	   20.7284	  0.396646	9.27513e+06	   74.9063	   20.7284	  0.396646	8.96761e+06	   75.1729	   21.1004	  0.766029	8.52345e+06	    75.438	   20.9265	  0.569091	8.97517e+06	   75.1719	   20.7284	  0.396646	9.09069e+06	   74.9068	   20.9266	  0.569108	8.71822e+06	
         R10	   5232	   75.4384	   21.1004	   0.76601	8.51198e+06	   75.9692	   21.1003	  0.765971	8.00256e+06	   75.9688	   20.7284	  0.396646	8.59563e+06	   75.4375	   20.7284	  0.396646	8.84781e+06	   75.7038	   21.1003	  0.765991	8.17863e+06	    75.969	   20.9265	  0.569074	8.26452e+06	   75.7031	   20.7284	  0.396646	8.69081e+06	    75.438	   20.9265	  0.569091	8.67513e+06	
         R10	   5233	   75.9692	   21.1003	  0.765971	1.12888e+07	      76.5	   21.1005	  0.766142	6.31133e+06	      76.5	   20.7284	  0.396646	7.78791e+06	   75.9688	   20.7284	  0.396646	1.00079e+07	   76.2346	   21.1004	  0.766057	8.37635e+06	      76.5	   20.9266	   0.56915	6.95434e+06	   76.2344	   20.7284	  0.396646	8.74274e+06	    75.969	   20.9265	  0.569074	 1.0636e+07	
         R10	   5234	   75.9692	   21.1003	  0.765971	1.14982e+07	   75.9701	   21.3636	    1.2195	1.28685e+07	      76.5	   21.3636	    1.2195	6.13523e+06	      76.5	   21.1005	  0.766142	6.21001e+06	   75.9697	   21.2469	   0.98407	 1.2181e+07	   76.2351	   21.3636	    1.2195	8.26014e+06	      76.5	   21.2469	  0.984164	6.00058e+06	   76.2346	   21.1004	  0.766057	8.47665e+06	
         R10	   5235	   75.4384	   21.1004	   0.76601	8.53072e+06	   75.4399	   21.3636	    1.2195	7.40218e+06	   75.9701	   21.3636	    1.2195	7.96272e+06	   75.9692	   21.1003	  0.765971	 8.1321e+06	   75.4391	   21.2469	  0.984091	7.95618e+06	    75.705	   21.3636	    1.2195	7.63601e+06	   75.9697	   21.2469	   0.98407	8.03948e+06	   75.7038	   21.1003	  0.765991	8.21965e+06	
         R10	   5236	   74.9073	   21.1004	  0.766048	8.51286e+06	   74.9092	   21.3636	    1.2195	7.58786e+06	   75.4399	   21.3636	    1.2195	7.67457e+06	   75.4384	   21.1004	   0.76601	8.75147e+06	   74.9082	   21.2469	  0.984112	8.04027e+06	   75.1745	   21.3636	    1.2195	7.58128e+06	   75.4391	   21.2469	  0.984091	8.20787e+06	   75.1729	   21.1004	  0.766029	8.55109e+06	
         R10	   5237	   74.3762	   21.1004	  0.766087	8.49279e+06	   74.3782	   21.3636	    1.2195	7.68568e+06	   74.9092	   21.3636	    1.2195	7.24935e+06	   74.9073	   21.1004	  0.766048	8.70177e+06	   74.3772	   21.2469	  0.984133	8.07686e+06	   74.6437	   21.3636	    1.2195	7.41512e+06	   74.9082	   21.2469	  0.984112	7.97039e+06	   74.6417	   21.1004	  0.766068	8.51506e+06	
         R10	   5238	   73.8446	   21.1004	  0.766126	8.39304e+06	   73.8467	   21.3636	    1.2195	8.04072e+06	   74.3782	   21.3636	    1.2195	7.00433e+06	   74.3762	   21.1004	  0.766087	8.85769e+06	   73.8456	   21.2469	  0.984155	8.20674e+06	   74.1124	   21.3636	    1.2195	7.47969e+06	   74.3772	   21.2469	  0.984133	7.92486e+06	   74.1104	   21.1004	  0.766107	8.53759e+06	
         R10	   5239	   73.3132	   21.1005	  0.766164	8.77596e+06	   73.3149	   21.3636	    1.2195	8.39517e+06	   73.8467	   21.3636	    1.2195	6.99554e+06	   73.8446	   21.1004	  0.766126	8.67101e+06	    73.314	    21.247	  0.984175	8.57367e+06	   73.5808	   21.3636	    1.2195	7.68195e+06	   73.8456	   21.2469	  0.984155	7.82578e+06	   73.5789	   21.1005	  0.766145	 8.6238e+06	
         R10	   5240	   72.7815	   21.1005	  0.766202	8.74759e+06	   72.7826	   21.3636	    1.2195	7.63603e+06	   73.3149	   21.3636	    1.2195	7.70418e+06	   73.3132	   21.1005	  0.766164	8.07056e+06	   72.7821	    21.247	  0.984196	 8.1907e+06	   73.0487	   21.3636	    1.2195	7.65462e+06	    73.314	    21.247	  0.984175	7.87843e+06	   73.0474	   21.1005	  0.766183	8.36462e+06	
         R10	   5241	   77.0299	   21.3636	    1.2195	 1.3786e+07	     77.03	   21.1003	  0.765997	1.17447e+07	      76.5	   21.1005	  0.766142	5.30199e+06	      76.5	   21.3636	    1.2195	5.59176e+06	     77.03	   21.2469	  0.984084	1.27642e+07	    76.765	   21.1004	  0.766069	8.05316e+06	      76.5	   21.2469	  0.984164	5.22598e+06	   76.7649	   21.3636	    1.2195	8.07806e+06	
         R10	   5242	     77.03	   21.1003	  0.765997	 1.1582e+07	   77.0313	   20.7284	  0.396646	1.14615e+07	      76.5	   20.7284	  0.396646	5.34035e+06	      76.5	   21.1005	  0.766142	5.60485e+06	   77.0306	   20.9265	  0.569085	1.15046e+07	   76.7656	   20.7284	  0.396646	 8.1467e+06	      76.5	   20.9266	   0.56915	5.40328e+06	    76.765	   21.1004	  0.766069	7.99269e+06	
         R10	   5243	    77.561	   21.1004	  0.766087	 8.0668e+06	   77.5625	   20.7284	  0.396646	8.89257e+06	   77.0313	   20.7284	  0.396646	7.94165e+06	     77.03	   21.1003	  0.765997	7.99851e+06	   77.5617	   20.9266	  0.569125	8.47556e+06	   77.2969	   20.7284	  0.396646	8.37733e+06	   77.0306	   20.9265	  0.569085	7.95198e+06	   77.2955	   21.1004	  0.766042	7.96252e+06	
         R10	   5244	    77.561	   21.1004	  0.766087	8.87048e+06	   78.0925	   21.1005	  0.766178	8.15831e+06	   78.0938	   20.7284	  0.396646	8.97403e+06	   77.5625	   20.7284	  0.396646	9.00501e+06	   77.8268	   21.1004	  0.766133	8.45539e+06	   78.0931	   20.9266	  0.569166	8.56405e+06	   77.8281	   20.7284	  0.396646	 8.9473e+06	   77.5617	   20.9266	  0.569125	8.93341e+06	
         R10	   5245	   78.0925	   21.1005	  0.766178	8.61964e+06	    78.625	   21.0996	  0.765063	8.41333e+06	    78.625	   20.7284	  0.396646	 9.0587e+06	   78.0938	   20.7284	  0.396646	8.94653e+06	   78.3588	      21.1	  0.765621	8.45848e+06	    78.625	   20.9261	   0.56867	8.73488e+06	   78.3594	   20.7284	  0.396646	8.95671e+06	   78.0931	   20.9266	  0.569166	8.78186e+06	
         R10	   5246	   78.0925	   21.1005	  0.766178	8.56456e+06	   78.0924	   21.3636	    1.2195	 7.5214e+06	    78.625	   21.3636	    1.2195	7.55818e+06	    78.625	   21.0996	  0.765063	8.41385e+06	   78.0925	    21.247	  0.984183	 8.0395e+06	   78.3587	   21.3636	    1.2195	7.47687e+06	    78.625	   21.2466	  0.983574	7.98251e+06	   78.3588	      21.1	  0.765621	8.41212e+06	
         R10	   5247	    77.561	   21.1004	  0.766087	8.84974e+06	   77.5607	   21.3636	    1.2195	7.80832e+06	   78.0924	   21.3636	    1.2195	7.32452e+06	   78.0925	   21.1005	  0.766178	8.24089e+06	   77.5608	   21.2469	  0.984133	8.32818e+06	   77.8265	   21.3636	    1.2195	7.53027e+06	   78.0925	    21.247	  0.984183	7.78049e+06	   77.8268	   21.1004	  0.766133	8.48604e+06	
         R10	   5248	    77.561	   21.1004	  0.766087	8.09679e+06	     77.03	   21.1003	  0.765997	8.05781e+06	   77.0299	   21.3636	    1.2195	7.57585e+06	   77.5607	   21.3636	    1.2195	7.71443e+06	   77.2955	   21.1004	  0.766042	8.01016e+06	     77.03	   21.2469	  0.984084	7.79773e+06	   77.2953	   21.3636	    1.2195	7.54166e+06	   77.5608	   21.2469	  0.984133	7.90494e+06	
         R10	   5249	   72.7222	   21.5054	   1.77096	1.52104e+07	   72.7826	   21.3636	    1.2195	1.18602e+07	     72.25	   21.3636	    1.2195	7.61202e+06	     72.25	   21.5054	   1.77096	2.23192e+06	   72.7524	   21.4542	   1.49016	1.33438e+07	   72.5163	   21.3636	    1.2195	8.79301e+06	     72.25	   21.4542	   1.49016	 4.2357e+06	   72.4861	   21.5054	   1.77096	8.11465e+06	
         R10	   5250	   73.1944	   21.5054	   1.77096	9.14544e+06	   73.3149	   21.3636	    1.2195	 7.4535e+06	   72.7826	   21.3636	    1.2195	7.82288e+06	   72.7222	   21.5054	   1.77096	 4.3411e+06	   73.2547	   21.4542	   1.49016	8.27391e+06	   73.0487	   21.3636	    1.2195	7.54183e+06	   72.7524	   21.4542	   1.49016	5.96458e+06	   72.9583	   21.5054	   1.77096	6.67187e+06	
         R10	   5251	   73.6667	   21.5054	   1.77096	7.49872e+06	   73.8467	   21.3636	    1.2195	6.95629e+06	   73.3149	   21.3636	    1.2195	8.31338e+06	   73.1944	   21.5054	   1.77096	5.56555e+06	   73.7567	   21.4542	   1.49016	7.21212e+06	   73.5808	   21.3636	    1.2195	7.61977e+06	   73.2547	   21.4542	   1.49016	6.90633e+06	   73.4306	   21.5054	   1.77096	6.52831e+06	
         R10	   5252	   74.1389	   21.5054	   1.77096	6.68565e+06	   74.3782	   21.3636	    1.2195	7.03471e+06	   73.8467	   21.3636	    1.2195	7.84798e+06	   73.6667	   21.5054	   1.77096	6.32293e+06	   74.2585	   21.4542	   1.49016	6.83948e+06	   74.1124	   21.3636	    1.2195	7.41739e+06	   73.7567	   21.4542	   1.49016	7.03925e+06	   73.9028	   21.5054	   1.77096	6.50321e+06	
         R10	   5253	   74.6111	   21.5054	   1.77096	6.56054e+06	   74.9092	   21.3636	    1.2195	7.24853e+06	   74.3782	   21.3636	    1.2195	7.51498e+06	   74.1389	   21.5054	   1.77096	 6.4301e+06	   74.7602	   21.4542	   1.49016	6.85498e+06	   74.6437	   21.3636	    1.2195	7.34737e+06	   74.2585	   21.4542	   1.49016	6.91664e+06	    74.375	   21.5054	   1.77096	6.49371e+06	
         R10	   5254	   75.0833	   21.5054	   1.77096	6.71727e+06	   75.4399	   21.3636	    1.2195	7.53996e+06	   74.9092	   21.3636	    1.2195	7.48196e+06	   74.6111	   21.5054	   1.77096	6.48151e+06	   75.2616	   21.4542	   1.49016	7.09988e+06	   75.1745	   21.3636	    1.2195	7.47739e+06	   74.7602	   21.4542	   1.49016	6.90429e+06	   74.8472	   21.5054	   1.77096	6.58152e+06	
         R10	   5255	   75.5556	   21.5054	   1.77096	6.35912e+06	   75.9701	   21.3636	    1.2195	 7.8789e+06	   75.4399	   21.3636	    1.2195	7.43808e+06	   75.0833	   21.5054	   1.77096	6.79144e+06	   75.7628	   21.4542	   1.49016	6.93199e+06	    75.705	   21.3636	    1.2195	7.60175e+06	   75.2616	   21.4542	   1.49016	7.06932e+06	   75.3194	   21.5054	   1.77096	 6.5603e+06	
         R10	   5256	   75.9701	   21.3636	    1.2195	1.36693e+07	   76.0278	   21.5054	   1.77096	1.43996e+07	      76.5	   21.5054	   1.77096	5.46411e+06	      76.5	   21.3636	    1.2195	5.94961e+06	    75.999	   21.4542	   1.49016	1.38929e+07	   76.2639	   21.5054	   1.77096	7.41711e+06	      76.5	   21.4542	   1.49016	5.24521e+06	   76.2351	   21.3636	    1.2195	 8.5026e+06	
         R10	   5257	   75.5556	   21.5054	   1.77096	6.51593e+06	   76.0278	   21.5054	   1.77096	7.42552e+06	   75.9701	   21.3636	    1.2195	7.86806e+06	   75.7917	   21.5054	   1.77096	6.85806e+06	    75.999	   21.4542	   1.49016	7.62593e+06	   75.7628	   21.4542	   1.49016	7.04201e+06	       N/A	       N/A	       N/A	        N/A	       N/A	       N/A	       N/A	        N/A	
         R10	   5258	   72.7222	      21.5	      2.25	7.01008e+06	   72.7222	   21.5054	   1.77096	1.59506e+07	     72.25	   21.5054	   1.77096	4.00795e+06	     72.25	      21.5	      2.25	9.04393e+06	   72.7222	   21.5171	   2.01064	1.14702e+07	   72.4861	   21.5054	   1.77096	8.04536e+06	     72.25	   21.5171	   2.01064	5.77557e+06	   72.4861	      21.5	      2.25	7.23531e+06	
         R10	   5259	   73.1944	      21.5	      2.25	6.80787e+06	   73.1944	   21.5054	   1.77096	9.81013e+06	   72.7222	   21.5054	   1.77096	4.33534e+06	   72.7222	      21.5	      2.25	6.94491e+06	   73.1944	   21.5171	   2.01064	8.24209e+06	   72.9583	   21.5054	   1.77096	6.84313e+06	   72.7222	   21.5171	   2.01064	5.18866e+06	   72.9583	      21.5	      2.25	6.84624e+06	
         R10	   5260	   73.6667	      21.5	      2.25	  6.366e+06	   73.6667	   21.5054	   1.77096	7.30396e+06	   73.1944	   21.5054	   1.77096	5.62497e+06	   73.1944	      21.5	      2.25	6.64017e+06	   73.6667	   21.5171	   2.01064	6.83325e+06	   73.4306	   21.5054	   1.77096	 6.4559e+06	   73.1944	   21.5171	   2.01064	 6.1131e+06	   73.4306	      21.5	      2.25	6.50118e+06	
         R10	   5261	   74.1389	      21.5	      2.25	6.18303e+06	   74.1389	   21.5054	   1.77096	6.49303e+06	   73.6667	   21.5054	   1.77096	6.67896e+06	   73.6667	      21.5	      2.25	6.31243e+06	   74.1389	   21.5171	   2.01064	6.30447e+06	   73.9028	   21.5054	   1.77096	6.58336e+06	   73.6667	   21.5171	   2.01064	6.48388e+06	   73.9028	      21.5	      2.25	6.22969e+06	
         R10	   5262	   74.6111	      21.5	      2.25	6.37915e+06	   74.6111	   21.5054	   1.77096	6.42361e+06	   74.1389	   21.5054	   1.77096	6.87579e+06	   74.1389	      21.5	      2.25	6.21174e+06	   74.6111	   21.5171	   2.01064	6.24789e+06	    74.375	   21.5054	   1.77096	6.64698e+06	   74.1389	   21.5171	   2.01064	6.48104e+06	    74.375	      21.5	      2.25	6.26815e+06	
         R10	   5263	   75.0833	      21.5	      2.25	 6.8086e+06	   75.0833	   21.5054	   1.77096	6.88914e+06	   74.6111	   21.5054	   1.77096	 6.8544e+06	   74.6111	      21.5	      2.25	6.32249e+06	   75.0833	   21.5171	   2.01064	6.44853e+06	   74.8472	   21.5054	   1.77096	6.85677e+06	   74.6111	   21.5171	   2.01064	6.40722e+06	   74.8472	      21.5	      2.25	6.53844e+06	
         R10	   5264	   75.5556	      21.5	      2.25	7.45839e+06	   75.5556	   21.5054	   1.77096	7.23698e+06	   75.0833	   21.5054	   1.77096	6.94368e+06	   75.0833	      21.5	      2.25	6.84511e+06	   75.5556	   21.5171	   2.01064	6.52869e+06	   75.3194	   21.5054	   1.77096	7.05303e+06	   75.0833	   21.5171	   2.01064	6.48599e+06	   75.3194	      21.5	      2.25	7.13642e+06	
         R10	   5265	   76.0278	      21.5	      2.25	7.82888e+06	   76.0278	   21.5054	   1.77096	7.69872e+06	   75.5556	   21.5054	   1.77096	7.03904e+06	   75.5556	      21.5	      2.25	7.27583e+06	   76.0278	   21.5171	   2.01064	6.91596e+06	   75.7917	   21.5054	   1.77096	7.35168e+06	   75.5556	   21.5171	   2.01064	6.35762e+06	   75.7917	      21.5	      2.25	7.53864e+06	
         R10	   5266	      76.5	      21.5	      2.25	7.07847e+06	      76.5	   21.5054	   1.77096	3.75255e+06	   76.0278	   21.5054	   1.77096	1.45386e+07	   76.0278	      21.5	      2.25	8.65352e+06	      76.5	   21.5171	   2.01064	5.04375e+06	   76.2639	   21.5054	   1.77096	7.73963e+06	   76.0278	   21.5171	   2.01064	 1.0631e+07	   76.2639	      21.5	      2.25	5.83749e+06	
         R10	   5267	   77.0313	   21.5054	   1.77096	1.42265e+07	   77.0299	   21.3636	    1.2195	1.44338e+07	      76.5	   21.3636	    1.2195	5.10594e+06	      76.5	   21.5054	   1.77096	5.57494e+06	   77.0306	   21.4542	   1.49016	1.42378e+07	   76.7649	   21.3636	    1.2195	8.28043e+06	      76.5	   21.4542	   1.49016	5.00752e+06	   76.7656	   21.5054	   1.77096	 7.5829e+06	
         R10	   5268	   77.5625	   21.5054	   1.77096	7.01455e+06	   77.5607	   21.3636	    1.2195	7.70439e+06	   77.0299	   21.3636	    1.2195	7.60948e+06	   77.0313	   21.5054	   1.77096	6.31075e+06	   77.5616	   21.4542	   1.49016	7.29521e+06	   77.2953	   21.3636	    1.2195	7.47618e+06	   77.0306	   21.4542	   1.49016	6.79671e+06	   77.2969	   21.5054	   1.77096	6.61073e+06	
         R10	   5269	   78.0938	   21.5054	   1.77096	6.79792e+06	   78.0924	   21.3636	    1.2195	7.16716e+06	   77.5607	   21.3636	    1.2195	7.75013e+06	   77.5625	   21.5054	   1.77096	6.46925e+06	   78.0931	   21.4542	   1.49016	6.94366e+06	   77.8265	   21.3636	    1.2195	7.42385e+06	   77.5616	   21.4542	   1.49016	 7.0497e+06	   77.8281	   21.5054	   1.77096	6.63276e+06	
         R10	   5270	    78.625	   21.5054	   1.77096	6.53688e+06	    78.625	   21.3636	    1.2195	7.32973e+06	   78.0924	   21.3636	    1.2195	7.54275e+06	   78.0938	   21.5054	   1.77096	6.57721e+06	    78.625	   21.4542	   1.49016	 6.9008e+06	   78.3587	   21.3636	    1.2195	7.39894e+06	   78.0931	   21.4542	   1.49016	7.01867e+06	   78.3594	   21.5054	   1.77096	6.55495e+06	
         R10	   5271	   77.0313	      21.5	      2.25	8.93751e+06	   77.0313	   21.5054	   1.77096	1.40513e+07	      76.5	   21.5054	   1.77096	4.01535e+06	      76.5	      21.5	      2.25	7.25387e+06	   77.0313	   21.5171	   2.01064	1.05973e+07	   76.7656	   21.5054	   1.77096	7.67848e+06	      76.5	   21.5171	   2.01064	5.22013e+06	   76.7656	      21.5	      2.25	6.33189e+06	
         R10	   5272	   77.5625	      21.5	      2.25	 6.6766e+06	   77.5625	   21.5054	   1.77096	7.23144e+06	   77.0313	   21.5054	   1.77096	6.88168e+06	   77.0313	      21.5	      2.25	7.69142e+06	   77.5625	   21.5171	   2.01064	6.73894e+06	   77.2969	   21.5054	   1.77096	7.04712e+06	   77.0313	   21.5171	   2.01064	6.60635e+06	   77.2969	      21.5	      2.25	 7.1122e+06	
         R10	   5273	   78.0938	      21.5	      2.25	6.33933e+06	   78.0938	   21.5054	   1.77096	6.92786e+06	   77.5625	   21.5054	   1.77096	 6.7095e+06	   77.5625	      21.5	      2.25	6.70637e+06	   78.0938	   21.5171	   2.01064	6.56475e+06	   77.8281	   21.5054	   1.77096	  6.807e+06	   77.5625	   21.5171	   2.01064	6.44946e+06	   77.8281	      21.5	      2.25	6.49846e+06	
         R10	   5274	    78.625	      21.5	      2.25	6.27724e+06	    78.625	   21.5054	   1.77096	6.72052e+06	   78.0938	   21.5054	   1.77096	6.59908e+06	   78.0938	      21.5	      2.25	6.33349e+06	    78.625	   21.5171	   2.01064	6.47222e+06	   78.3594	   21.5054	   1.77096	 6.6571e+06	   78.0938	   21.5171	   2.01064	6.39759e+06	   78.3594	      21.5	      2.25	6.29795e+06	
         R10	   5275	    76.364	   15.3122	   2.41186	9.66916e+06	    76.364	      15.3	       2.4	9.52607e+06	    76.347	      15.3	       2.4	9.45381e+06	    76.347	   15.3122	   2.41186	9.51989e+06	    76.364	   15.3061	   2.40593	 9.5962e+06	   76.3555	      15.3	       2.4	9.48916e+06	    76.347	   15.3061	   2.40593	9.48507e+06	   76.3555	   15.3122	   2.41186	9.59412e+06	
         R10	   5276	    76.381	   15.3122	   2.41186	9.78879e+06	    76.381	      15.3	       2.4	9.59309e+06	    76.364	      15.3	       2.4	9.52576e+06	    76.364	   15.3122	   2.41186	9.65513e+06	    76.381	   15.3061	   2.40593	9.68781e+06	   76.3725	      15.3	       2.4	9.55864e+06	    76.364	   15.3061	   2.40593	9.58767e+06	   76.3725	   15.3122	   2.41186	9.72074e+06	
         R10	   5277	    76.398	   15.3122	   2.41185	9.95388e+06	    76.398	      15.3	       2.4	9.67535e+06	    76.381	      15.3	       2.4	 9.5578e+06	    76.381	   15.3122	   2.41186	9.86335e+06	    76.398	   15.3061	   2.40593	9.80768e+06	   76.3895	      15.3	       2.4	9.61569e+06	    76.381	   15.3061	   2.40593	9.70715e+06	   76.3895	   15.3122	   2.41186	9.90403e+06	
         R10	   5278	    76.415	   15.3122	   2.41185	1.02161e+07	    76.415	      15.3	       2.4	9.77632e+06	    76.398	      15.3	       2.4	 9.6639e+06	    76.398	   15.3122	   2.41185	1.00147e+07	    76.415	   15.3061	   2.40593	9.98381e+06	   76.4065	      15.3	       2.4	9.71829e+06	    76.398	   15.3061	   2.40593	9.83258e+06	   76.4065	   15.3122	   2.41185	1.01118e+07	
         R10	   5279	    76.432	   15.3122	   2.41185	1.06238e+07	    76.432	      15.3	       2.4	9.89468e+06	    76.415	      15.3	       2.4	 9.7797e+06	    76.415	   15.3122	   2.41185	1.02679e+07	    76.432	   15.3061	   2.40593	1.02282e+07	   76.4235	      15.3	       2.4	9.83424e+06	    76.415	   15.3061	   2.40593	1.00099e+07	   76.4235	   15.3122	   2.41185	1.04417e+07	
         R10	   5280	    76.449	   15.3122	   2.41185	1.10909e+07	    76.449	      15.3	       2.4	1.02001e+07	    76.432	      15.3	       2.4	9.88441e+06	    76.432	   15.3122	   2.41185	1.06976e+07	    76.449	   15.3061	   2.40593	1.05832e+07	   76.4405	      15.3	       2.4	1.00388e+07	    76.432	   15.3061	   2.40593	1.02546e+07	   76.4405	   15.3122	   2.41185	1.08914e+07	
         R10	   5281	    76.466	   15.3122	   2.41186	1.20453e+07	    76.466	      15.3	       2.4	1.06779e+07	    76.449	      15.3	       2.4	1.01455e+07	    76.449	   15.3122	   2.41185	1.12301e+07	    76.466	   15.3061	   2.40593	1.11857e+07	   76.4575	      15.3	       2.4	1.04108e+07	    76.449	   15.3061	   2.40593	1.05894e+07	   76.4575	   15.3122	   2.41186	1.16262e+07	
         R10	   5282	    76.483	   15.3122	   2.41186	1.37096e+07	    76.483	      15.3	       2.4	1.21153e+07	    76.466	      15.3	       2.4	1.05171e+07	    76.466	   15.3122	   2.41186	1.21557e+07	    76.483	   15.3061	   2.40593	1.24648e+07	   76.4745	      15.3	       2.4	1.13027e+07	    76.466	   15.3061	   2.40593	1.11476e+07	   76.4745	   15.3122	   2.41186	1.28467e+07	
         R10	   5283	      76.5	   15.3122	   2.41185	1.73065e+07	      76.5	      15.3	       2.4	1.62908e+07	    76.483	      15.3	       2.4	1.14428e+07	    76.483	   15.3122	   2.41186	1.36444e+07	      76.5	   15.3061	   2.40593	 1.6575e+07	   76.4915	      15.3	       2.4	1.33765e+07	    76.483	   15.3061	   2.40593	 1.2076e+07	   76.4915	   15.3122	   2.41186	1.51991e+07	
         R10	   5284	      76.5	   15.3244	   2.42371	1.60534e+07	      76.5	   15.3122	   2.41185	 1.6717e+07	    76.483	   15.3122	   2.41186	1.32494e+07	    76.483	   15.3244	   2.42371	 1.3274e+07	      76.5	   15.3183	   2.41778	1.63787e+07	   76.4915	   15.3122	   2.41186	1.47147e+07	    76.483	   15.3183	   2.41778	1.31969e+07	   76.4915	   15.3244	   2.42371	1.45877e+07	
         R10	   5285	    76.483	   15.3366	   2.43557	1.27039e+07	      76.5	   15.3366	   2.43556	1.44382e+07	      76.5	   15.3244	   2.42371	1.58839e+07	    76.483	   15.3244	   2.42371	 1.3177e+07	   76.4915	   15.3366	   2.43557	1.35507e+07	      76.5	   15.3305	   2.42964	1.51589e+07	   76.4915	   15.3244	   2.42371	1.44671e+07	    76.483	   15.3305	   2.42964	1.29357e+07	
         R10	   5286	    76.483	   15.3487	   2.44742	1.20318e+07	      76.5	   15.3487	   2.44742	1.31508e+07	      76.5	   15.3366	   2.43556	1.44032e+07	    76.483	   15.3366	   2.43557	1.27129e+07	   76.4915	   15.3487	   2.44742	 1.2587e+07	      76.5	   15.3426	   2.44149	1.37751e+07	   76.4915	   15.3366	   2.43557	1.35378e+07	    76.483	   15.3426	   2.44149	1.23714e+07	
         R10	   5287	    76.483	   15.3609	   2.45928	1.13684e+07	      76.5	   15.3609	   2.45928	1.21412e+07	      76.5	   15.3487	   2.44742	1.31156e+07	    76.483	   15.3487	   2.44742	1.21651e+07	   76.4915	   15.3609	   2.45928	1.17536e+07	      76.5	   15.3548	   2.45335	1.26275e+07	   76.4915	   15.3487	   2.44742	1.26339e+07	    76.483	   15.3548	   2.45335	1.17654e+07	
         R10	   5288	    76.483	   15.3731	   2.47113	1.08092e+07	      76.5	   15.3731	   2.47113	1.13766e+07	      76.5	   15.3609	   2.45928	1.20881e+07	    76.483	   15.3609	   2.45928	1.15652e+07	   76.4915	   15.3731	   2.47113	1.10926e+07	      76.5	    15.367	    2.4652	1.17318e+07	   76.4915	   15.3609	   2.45928	1.18253e+07	    76.483	    15.367	    2.4652	1.11864e+07	
         R10	   5289	    76.483	   15.3853	   2.48299	1.04453e+07	      76.5	   15.3853	   2.48299	1.07404e+07	      76.5	   15.3731	   2.47113	 1.1338e+07	    76.483	   15.3731	   2.47113	1.09148e+07	   76.4915	   15.3853	   2.48299	1.05928e+07	      76.5	   15.3792	   2.47706	 1.1039e+07	   76.4915	   15.3731	   2.47113	1.11263e+07	    76.483	   15.3792	   2.47706	1.06799e+07	
         R10	   5290	    76.483	   15.3975	   2.49484	1.00548e+07	      76.5	   15.3975	   2.49484	1.02554e+07	      76.5	   15.3853	   2.48299	1.07423e+07	    76.483	   15.3853	   2.48299	1.04702e+07	   76.4915	   15.3975	   2.49484	1.01548e+07	      76.5	   15.3914	   2.48891	1.04987e+07	   76.4915	   15.3853	   2.48299	1.06062e+07	    76.483	   15.3914	   2.48891	1.02623e+07	
         R10	   5291	    76.483	   15.4097	    2.5067	9.74358e+06	      76.5	   15.4097	    2.5067	9.87071e+06	      76.5	   15.3975	   2.49484	1.02652e+07	    76.483	   15.3975	   2.49484	1.00651e+07	   76.4915	   15.4097	    2.5067	9.80699e+06	      76.5	   15.4036	   2.50077	1.00678e+07	   76.4915	   15.3975	   2.49484	1.01648e+07	    76.483	   15.4036	   2.50077	9.90424e+06	
         R10	   5292	    76.483	   15.4218	   2.51855	9.47234e+06	      76.5	   15.4218	   2.51855	 9.5312e+06	      76.5	   15.4097	    2.5067	9.86326e+06	    76.483	   15.4097	    2.5067	9.74457e+06	   76.4915	   15.4218	   2.51855	9.50125e+06	      76.5	   15.4158	   2.51262	9.69721e+06	   76.4915	   15.4097	    2.5067	9.80365e+06	    76.483	   15.4158	   2.51262	 9.6083e+06	
         R10	   5293	    76.466	   15.4218	   2.51855	 9.3765e+06	    76.483	   15.4218	   2.51855	 9.4828e+06	    76.483	   15.4097	    2.5067	9.73465e+06	    76.466	   15.4097	    2.5067	9.59712e+06	   76.4745	   15.4218	   2.51855	9.42928e+06	    76.483	   15.4158	   2.51262	9.60855e+06	   76.4745	   15.4097	    2.5067	9.66559e+06	    76.466	   15.4158	   2.51262	9.48663e+06	
         R10	   5294	    76.449	   15.4097	    2.5067	9.51644e+06	    76.449	   15.4218	   2.51855	9.26744e+06	    76.466	   15.4218	   2.51855	9.40331e+06	    76.466	   15.4097	    2.5067	9.59384e+06	    76.449	   15.4158	   2.51262	9.39186e+06	   76.4575	   15.4218	   2.51855	9.33495e+06	    76.466	   15.4158	   2.51262	9.49834e+06	   76.4575	   15.4097	    2.5067	9.55434e+06	
         R10	   5295	    76.432	   15.4097	    2.5067	9.40316e+06	    76.432	   15.4218	   2.51855	 9.2031e+06	    76.449	   15.4218	   2.51855	9.32491e+06	    76.449	   15.4097	    2.5067	9.50549e+06	    76.432	   15.4158	   2.51262	9.30288e+06	   76.4405	   15.4218	   2.51855	9.26242e+06	    76.449	   15.4158	   2.51262	  9.415e+06	   76.4405	   15.4097	    2.5067	9.45336e+06	
         R10	   5296	    76.415	   15.4097	    2.5067	9.33562e+06	    76.415	   15.4218	   2.51855	9.07902e+06	    76.432	   15.4218	   2.51855	9.31591e+06	    76.432	   15.4097	    2.5067	9.33293e+06	    76.415	   15.4158	   2.51262	 9.2071e+06	   76.4235	   15.4218	   2.51855	 9.1964e+06	    76.432	   15.4158	   2.51262	9.32366e+06	   76.4235	   15.4097	    2.5067	9.32953e+06	
         R10	   5297	    76.398	   15.4097	    2.5067	 9.3453e+06	    76.398	   15.4218	   2.51855	9.08608e+06	    76.415	   15.4218	   2.51855	9.20771e+06	    76.415	   15.4097	    2.5067	9.34948e+06	    76.398	   15.4158	   2.51262	9.21435e+06	   76.4065	   15.4218	   2.51855	9.14467e+06	    76.415	   15.4158	   2.51262	9.27583e+06	   76.4065	   15.4097	    2.5067	9.34469e+06	
         R10	   5298	    76.381	   15.4097	    2.5067	9.32878e+06	    76.381	   15.4218	   2.51855	8.99746e+06	    76.398	   15.4218	   2.51855	9.22643e+06	    76.398	   15.4097	    2.5067	9.33661e+06	    76.381	   15.4158	   2.51262	9.16292e+06	   76.3895	   15.4218	   2.51855	9.10979e+06	    76.398	   15.4158	   2.51262	9.27911e+06	   76.3895	   15.4097	   2.50669	 9.3319e+06	
         R10	   5299	    76.364	   15.4097	    2.5067	9.18292e+06	    76.364	   15.4218	   2.51855	8.99785e+06	    76.381	   15.4218	   2.51855	9.04946e+06	    76.381	   15.4097	    2.5067	9.25898e+06	    76.364	   15.4158	   2.51262	9.09007e+06	   76.3725	   15.4218	   2.51855	9.02004e+06	    76.381	   15.4158	   2.51262	9.15276e+06	   76.3725	   15.4097	    2.5067	 9.2204e+06	
         R10	   5300	    76.347	   15.4097	    2.5067	9.04215e+06	    76.347	   15.4218	   2.51855	8.98635e+06	    76.364	   15.4218	   2.51855	9.04821e+06	    76.364	   15.4097	    2.5067	9.14112e+06	    76.347	   15.4158	   2.51262	 9.0141e+06	   76.3555	   15.4218	   2.51855	  9.016e+06	    76.364	   15.4158	   2.51262	9.09367e+06	   76.3555	   15.4097	    2.5067	9.09012e+06	
         R10	   5301	     76.33	   15.4097	    2.5067	 9.0451e+06	     76.33	   15.4218	   2.51855	 8.9141e+06	    76.347	   15.4218	   2.51855	9.00474e+06	    76.347	   15.4097	    2.5067	9.04639e+06	     76.33	   15.4158	   2.51262	8.97923e+06	   76.3385	   15.4218	   2.51855	8.95872e+06	    76.347	   15.4158	   2.51262	9.02497e+06	   76.3385	   15.4097	    2.5067	9.04424e+06	
         R10	   5302	     76.33	   15.3975	   2.49484	 9.1069e+06	     76.33	   15.4097	    2.5067	9.04001e+06	    76.347	   15.4097	    2.5067	9.09437e+06	    76.347	   15.3975	   2.49484	9.15102e+06	     76.33	   15.4036	   2.50077	  9.073e+06	   76.3385	   15.4097	    2.5067	9.06634e+06	    76.347	   15.4036	   2.50077	 9.1221e+06	   76.3385	   15.3975	   2.49484	9.12796e+06	
         R10	   5303	    76.347	   15.3853	   2.48299	  9.279e+06	     76.33	   15.3853	   2.48299	9.20101e+06	     76.33	   15.3975	   2.49484	9.11075e+06	    76.347	   15.3975	   2.49484	9.16682e+06	   76.3385	   15.3853	   2.48299	9.23874e+06	     76.33	   15.3914	   2.48891	9.15522e+06	   76.3385	   15.3975	   2.49484	9.13771e+06	    76.347	   15.3914	   2.48891	9.22219e+06	
         R10	   5304	    76.347	   15.3731	   2.47113	9.38567e+06	     76.33	   15.3731	   2.47113	9.29043e+06	     76.33	   15.3853	   2.48299	9.20996e+06	    76.347	   15.3853	   2.48299	9.26743e+06	   76.3385	   15.3731	   2.47113	9.33671e+06	     76.33	   15.3792	   2.47706	9.24932e+06	   76.3385	   15.3853	   2.48299	9.23746e+06	    76.347	   15.3792	   2.47706	9.32551e+06	
         R10	   5305	    76.347	   15.3609	   2.45928	9.47324e+06	     76.33	   15.3609	   2.45928	9.37545e+06	     76.33	   15.3731	   2.47113	9.29913e+06	    76.347	   15.3731	   2.47113	9.37735e+06	   76.3385	   15.3609	   2.45928	9.42265e+06	     76.33	    15.367	    2.4652	9.33605e+06	   76.3385	   15.3731	   2.47113	9.33709e+06	    76.347	    15.367	    2.4652	9.42416e+06	
         R10	   5306	    76.347	   15.3487	   2.44742	9.52189e+06	     76.33	   15.3487	   2.44742	9.36864e+06	     76.33	   15.3609	   2.45928	9.38708e+06	    76.347	   15.3609	   2.45928	9.48562e+06	   76.3385	   15.3487	   2.44742	9.44465e+06	     76.33	   15.3548	   2.45335	9.37667e+06	   76.3385	   15.3609	   2.45928	9.43542e+06	    76.347	   15.3548	   2.45335	9.50271e+06	
         R10	   5307	    76.347	   15.3366	   2.43556	9.58025e+06	     76.33	   15.3366	   2.43556	9.46609e+06	     76.33	   15.3487	   2.44742	9.43369e+06	    76.347	   15.3487	   2.44742	9.52466e+06	   76.3385	   15.3366	   2.43556	9.52191e+06	     76.33	   15.3426	   2.44149	9.44771e+06	   76.3385	   15.3487	   2.44742	9.47684e+06	    76.347	   15.3426	   2.44149	9.54942e+06	
         R10	   5308	    76.347	   15.3244	   2.42371	9.60622e+06	     76.33	   15.3244	   2.42371	9.45399e+06	     76.33	   15.3366	   2.43556	9.47923e+06	    76.347	   15.3366	   2.43556	9.59783e+06	   76.3385	   15.3244	   2.42371	9.52852e+06	     76.33	   15.3305	   2.42964	9.46474e+06	   76.3385	   15.3366	   2.43556	  9.538e+06	    76.347	   15.3305	   2.42964	9.60097e+06	
         R10	   5309	    76.347	   15.3122	   2.41186	9.52699e+06	    76.347	      15.3	       2.4	9.44794e+06	     76.33	      15.3	       2.4	9.38619e+06	     76.33	   15.3122	   2.41185	9.45789e+06	    76.347	   15.3061	   2.40593	9.48604e+06	   76.3385	      15.3	       2.4	9.41664e+06	     76.33	   15.3061	   2.40593	9.42108e+06	   76.3385	   15.3122	   2.41185	9.49167e+06	
         R10	   5310	    76.381	   15.3244	   2.42371	9.86281e+06	    76.381	   15.3122	   2.41186	9.86856e+06	    76.364	   15.3122	   2.41186	 9.6513e+06	    76.364	   15.3244	   2.42371	9.80073e+06	    76.381	   15.3183	   2.41778	9.86061e+06	   76.3725	   15.3122	   2.41186	9.75896e+06	    76.364	   15.3183	   2.41778	9.72356e+06	   76.3725	   15.3244	   2.42371	9.83003e+06	
         R10	   5311	    76.398	   15.3244	   2.42371	9.94531e+06	    76.398	   15.3122	   2.41185	 1.0128e+07	    76.381	   15.3122	   2.41186	9.70444e+06	    76.381	   15.3244	   2.42371	1.00168e+07	    76.398	   15.3183	   2.41778	1.00327e+07	   76.3895	   15.3122	   2.41186	9.91418e+06	    76.381	   15.3183	   2.41778	9.85452e+06	   76.3895	   15.3244	   2.42371	9.97801e+06	
         R10	   5312	    76.415	   15.3244	   2.42371	1.05027e+07	    76.415	   15.3122	   2.41185	1.03084e+07	    76.398	   15.3122	   2.41185	9.84758e+06	    76.398	   15.3244	   2.42371	1.01347e+07	    76.415	   15.3183	   2.41778	1.03955e+07	   76.4065	   15.3122	   2.41185	1.00733e+07	    76.398	   15.3183	   2.41778	9.97361e+06	   76.4065	   15.3244	   2.42371	1.03157e+07	
         R10	   5313	    76.432	   15.3244	   2.42371	1.08966e+07	    76.432	   15.3122	   2.41185	1.06534e+07	    76.415	   15.3122	   2.41185	1.02461e+07	    76.415	   15.3244	   2.42371	1.04356e+07	    76.432	   15.3183	   2.41778	1.07429e+07	   76.4235	   15.3122	   2.41185	1.04484e+07	    76.415	   15.3183	   2.41778	1.03286e+07	   76.4235	   15.3244	   2.42371	 1.0656e+07	
         R10	   5314	    76.449	   15.3244	   2.42371	1.14969e+07	    76.449	   15.3122	   2.41185	1.10662e+07	    76.432	   15.3122	   2.41185	1.07092e+07	    76.432	   15.3244	   2.42371	1.07863e+07	    76.449	   15.3183	   2.41778	1.12273e+07	   76.4405	   15.3122	   2.41185	1.08852e+07	    76.432	   15.3183	   2.41778	 1.0725e+07	   76.4405	   15.3244	   2.42371	1.11264e+07	
         R10	   5315	    76.466	   15.3244	   2.42371	 1.2144e+07	    76.466	   15.3122	   2.41186	1.19328e+07	    76.449	   15.3122	   2.41185	1.11583e+07	    76.449	   15.3244	   2.42371	1.13679e+07	    76.466	   15.3183	   2.41778	1.19655e+07	   76.4575	   15.3122	   2.41186	1.15351e+07	    76.449	   15.3183	   2.41778	1.12232e+07	   76.4575	   15.3244	   2.42371	1.17285e+07	
         R10	   5316	    76.483	   15.3244	   2.42371	1.33279e+07	    76.483	   15.3122	   2.41186	1.31581e+07	    76.466	   15.3122	   2.41186	1.19518e+07	    76.466	   15.3244	   2.42371	1.21395e+07	    76.483	   15.3183	   2.41778	 1.3196e+07	   76.4745	   15.3122	   2.41186	1.24754e+07	    76.466	   15.3183	   2.41778	 1.1965e+07	   76.4745	   15.3244	   2.42371	1.26828e+07	
         R10	   5317	    76.483	   15.3366	   2.43557	1.27705e+07	    76.483	   15.3244	   2.42371	1.32369e+07	    76.466	   15.3244	   2.42371	1.20682e+07	    76.466	   15.3366	   2.43557	1.17402e+07	    76.483	   15.3305	   2.42964	1.29968e+07	   76.4745	   15.3244	   2.42371	1.26022e+07	    76.466	   15.3305	   2.42964	1.18841e+07	   76.4745	   15.3366	   2.43557	1.22305e+07	
         R10	   5318	    76.466	   15.3487	   2.44742	1.12919e+07	    76.483	   15.3487	   2.44742	1.22001e+07	    76.483	   15.3366	   2.43557	1.26813e+07	    76.466	   15.3366	   2.43557	 1.1729e+07	   76.4745	   15.3487	   2.44742	1.17286e+07	    76.483	   15.3426	   2.44149	 1.2438e+07	   76.4745	   15.3366	   2.43557	1.21811e+07	    76.466	   15.3426	   2.44149	 1.1507e+07	
         R10	   5319	    76.466	   15.3609	   2.45927	 1.0806e+07	    76.483	   15.3609	   2.45928	1.16163e+07	    76.483	   15.3487	   2.44742	1.18747e+07	    76.466	   15.3487	   2.44742	1.15243e+07	   76.4745	   15.3609	   2.45927	1.12035e+07	    76.483	   15.3548	   2.45335	1.17439e+07	   76.4745	   15.3487	   2.44742	1.16951e+07	    76.466	   15.3548	   2.45335	1.11651e+07	
         R10	   5320	    76.466	   15.3731	   2.47113	1.04249e+07	    76.483	   15.3731	   2.47113	1.10757e+07	    76.483	   15.3609	   2.45928	1.13114e+07	    76.466	   15.3609	   2.45927	 1.1026e+07	   76.4745	   15.3731	   2.47113	1.07466e+07	    76.483	    15.367	    2.4652	1.11932e+07	   76.4745	   15.3609	   2.45927	1.11667e+07	    76.466	    15.367	    2.4652	1.07251e+07	
         R10	   5321	    76.466	   15.3853	   2.48299	1.01585e+07	    76.483	   15.3853	   2.48299	1.04691e+07	    76.483	   15.3731	   2.47113	 1.0861e+07	    76.466	   15.3731	   2.47113	1.06018e+07	   76.4745	   15.3853	   2.48299	 1.0313e+07	    76.483	   15.3792	   2.47706	1.06647e+07	   76.4745	   15.3731	   2.47113	1.07305e+07	    76.466	   15.3792	   2.47706	1.03797e+07	
         R10	   5322	    76.466	   15.3975	   2.49484	9.92613e+06	    76.483	   15.3975	   2.49484	1.00675e+07	    76.483	   15.3853	   2.48299	1.04368e+07	    76.466	   15.3853	   2.48299	1.02104e+07	   76.4745	   15.3975	   2.49484	9.99552e+06	    76.483	   15.3914	   2.48891	 1.0252e+07	   76.4745	   15.3853	   2.48299	1.03222e+07	    76.466	   15.3914	   2.48891	1.00662e+07	
         R10	   5323	    76.466	   15.4097	    2.5067	9.60305e+06	    76.483	   15.4097	    2.5067	9.73428e+06	    76.483	   15.3975	   2.49484	 1.0061e+07	    76.466	   15.3975	   2.49484	9.87929e+06	   76.4745	   15.4097	    2.5067	9.66834e+06	    76.483	   15.4036	   2.50077	9.89738e+06	   76.4745	   15.3975	   2.49484	9.96888e+06	    76.466	   15.4036	   2.50077	9.74056e+06	
         R10	   5324	    76.449	   15.4097	    2.5067	9.46251e+06	    76.466	   15.4097	    2.5067	 9.6141e+06	    76.466	   15.3975	   2.49484	9.87938e+06	    76.449	   15.3975	   2.49484	9.83063e+06	   76.4575	   15.4097	    2.5067	9.53755e+06	    76.466	   15.4036	   2.50077	9.74599e+06	   76.4575	   15.3975	   2.49484	9.85399e+06	    76.449	   15.4036	   2.50077	9.64646e+06	
         R10	   5325	    76.432	   15.3975	   2.49484	  9.638e+06	    76.432	   15.4097	    2.5067	9.43311e+06	    76.449	   15.4097	    2.5067	9.47198e+06	    76.449	   15.3975	   2.49484	 9.7519e+06	    76.432	   15.4036	   2.50077	 9.5355e+06	   76.4405	   15.4097	    2.5067	9.45118e+06	    76.449	   15.4036	   2.50077	9.61123e+06	   76.4405	   15.3975	   2.49484	9.69408e+06	
         R10	   5326	    76.415	   15.3975	   2.49484	9.65848e+06	    76.415	   15.4097	    2.5067	9.35431e+06	    76.432	   15.4097	    2.5067	 9.3424e+06	    76.432	   15.3975	   2.49484	9.56425e+06	    76.415	   15.4036	   2.50077	  9.506e+06	   76.4235	   15.4097	    2.5067	9.34536e+06	    76.432	   15.4036	   2.50077	9.45291e+06	   76.4235	   15.3975	   2.49484	9.60978e+06	
         R10	   5327	    76.398	   15.3975	   2.49484	9.42798e+06	    76.398	   15.4097	    2.5067	9.29598e+06	    76.415	   15.4097	    2.5067	9.57203e+06	    76.415	   15.3975	   2.49484	9.40156e+06	    76.398	   15.4036	   2.50077	9.36092e+06	   76.4065	   15.4097	    2.5067	 9.4316e+06	    76.415	   15.4036	   2.50077	9.48553e+06	   76.4065	   15.3975	   2.49484	 9.4145e+06	
         R10	   5328	    76.381	   15.3975	   2.49484	9.29273e+06	    76.381	   15.4097	    2.5067	9.22656e+06	    76.398	   15.4097	    2.5067	9.45696e+06	    76.398	   15.3975	   2.49484	9.34111e+06	    76.381	   15.4036	   2.50077	9.25909e+06	   76.3895	   15.4097	   2.50669	9.33896e+06	    76.398	   15.4036	   2.50077	9.39896e+06	   76.3895	   15.3975	   2.49484	 9.3164e+06	
         R10	   5329	    76.364	   15.3975	   2.49484	9.30168e+06	    76.364	   15.4097	    2.5067	9.03428e+06	    76.381	   15.4097	    2.5067	9.31145e+06	    76.381	   15.3975	   2.49484	9.19493e+06	    76.364	   15.4036	   2.50077	9.16755e+06	   76.3725	   15.4097	    2.5067	9.17225e+06	    76.381	   15.4036	   2.50077	9.25308e+06	   76.3725	   15.3975	   2.49484	9.24711e+06	
         R10	   5330	    76.347	   15.3975	   2.49484	9.17223e+06	    76.347	   15.4097	    2.5067	 9.0423e+06	    76.364	   15.4097	    2.5067	9.13594e+06	    76.364	   15.3975	   2.49484	9.22906e+06	    76.347	   15.4036	   2.50077	9.10681e+06	   76.3555	   15.4097	    2.5067	9.08845e+06	    76.364	   15.4036	   2.50077	9.18116e+06	   76.3555	   15.3975	   2.49484	9.19962e+06	
         R10	   5331	    76.347	   15.3853	   2.48299	9.27629e+06	    76.347	   15.3975	   2.49484	9.16271e+06	    76.364	   15.3975	   2.49484	9.22478e+06	    76.364	   15.3853	   2.48298	9.35016e+06	    76.347	   15.3914	   2.48891	 9.2186e+06	   76.3555	   15.3975	   2.49484	9.19266e+06	    76.364	   15.3914	   2.48891	9.28665e+06	   76.3555	   15.3853	   2.48299	9.31178e+06	
         R10	   5332	    76.364	   15.3731	   2.47113	9.48293e+06	    76.347	   15.3731	   2.47113	 9.3809e+06	    76.347	   15.3853	   2.48299	9.26768e+06	    76.364	   15.3853	   2.48298	  9.379e+06	   76.3555	   15.3731	   2.47113	9.43046e+06	    76.347	   15.3792	   2.47706	9.32327e+06	   76.3555	   15.3853	   2.48299	9.32157e+06	    76.364	   15.3792	   2.47706	9.42959e+06	
         R10	   5333	    76.364	   15.3609	   2.45927	9.60906e+06	    76.347	   15.3609	   2.45928	9.45685e+06	    76.347	   15.3731	   2.47113	9.38586e+06	    76.364	   15.3731	   2.47113	9.49028e+06	   76.3555	   15.3609	   2.45928	9.53034e+06	    76.347	    15.367	    2.4652	9.41962e+06	   76.3555	   15.3731	   2.47113	9.43699e+06	    76.364	    15.367	    2.4652	9.54868e+06	
         R10	   5334	    76.364	   15.3487	   2.44742	9.71301e+06	    76.347	   15.3487	   2.44742	9.46589e+06	    76.347	   15.3609	   2.45928	9.52981e+06	    76.364	   15.3609	   2.45927	9.57358e+06	   76.3555	   15.3487	   2.44742	 9.5891e+06	    76.347	   15.3548	   2.45335	9.49649e+06	   76.3555	   15.3609	   2.45928	9.54989e+06	    76.364	   15.3548	   2.45335	 9.6407e+06	
         R10	   5335	    76.364	   15.3366	   2.43557	9.79796e+06	    76.347	   15.3366	   2.43556	9.58125e+06	    76.347	   15.3487	   2.44742	9.52051e+06	    76.364	   15.3487	   2.44742	9.62298e+06	   76.3555	   15.3366	   2.43557	9.68948e+06	    76.347	   15.3426	   2.44149	9.54925e+06	   76.3555	   15.3487	   2.44742	 9.5657e+06	    76.364	   15.3426	   2.44149	 9.7052e+06	
         R10	   5336	    76.347	   15.3122	   2.41186	9.58261e+06	     76.33	   15.3122	   2.41185	9.41756e+06	     76.33	   15.3244	   2.42371	9.48689e+06	    76.347	   15.3244	   2.42371	 9.5586e+06	   76.3385	   15.3122	   2.41185	9.49928e+06	     76.33	   15.3183	   2.41778	9.45041e+06	   76.3385	   15.3244	   2.42371	9.52209e+06	    76.347	   15.3183	   2.41778	9.56949e+06	
         R10	   5337	    76.364	   15.3244	   2.42371	9.71057e+06	    76.364	   15.3122	   2.41186	9.65196e+06	    76.347	   15.3122	   2.41186	9.55723e+06	    76.347	   15.3244	   2.42371	9.61108e+06	    76.364	   15.3183	   2.41778	9.67858e+06	   76.3555	   15.3122	   2.41186	9.60362e+06	    76.347	   15.3183	   2.41778	9.58127e+06	   76.3555	   15.3244	   2.42371	9.65905e+06	
         R10	   5338	    76.398	   15.3366	   2.43557	 1.0035e+07	    76.398	   15.3244	   2.42371	 1.0074e+07	    76.381	   15.3244	   2.42371	9.98215e+06	    76.381	   15.3366	   2.43557	 9.9313e+06	    76.398	   15.3305	   2.42964	1.00514e+07	   76.3895	   15.3244	   2.42371	1.00255e+07	    76.381	   15.3305	   2.42964	9.94799e+06	   76.3895	   15.3366	   2.43557	9.98243e+06	
         R10	   5339	    76.415	   15.3366	   2.43556	1.03063e+07	    76.415	   15.3244	   2.42371	 1.0548e+07	    76.398	   15.3244	   2.42371	9.96606e+06	    76.398	   15.3366	   2.43557	1.02895e+07	    76.415	   15.3305	   2.42964	1.04215e+07	   76.4065	   15.3244	   2.42371	1.02521e+07	    76.398	   15.3305	   2.42964	1.01177e+07	   76.4065	   15.3366	   2.43556	1.02959e+07	
         R10	   5340	    76.432	   15.3366	   2.43556	1.06783e+07	    76.432	   15.3244	   2.42371	 1.0905e+07	    76.415	   15.3244	   2.42371	1.03285e+07	    76.415	   15.3366	   2.43556	1.05583e+07	    76.432	   15.3305	   2.42964	1.07782e+07	   76.4235	   15.3244	   2.42371	1.06086e+07	    76.415	   15.3305	   2.42964	1.04278e+07	   76.4235	   15.3366	   2.43556	1.06148e+07	
         R10	   5341	    76.449	   15.3366	   2.43556	1.11615e+07	    76.449	   15.3244	   2.42371	1.13711e+07	    76.432	   15.3244	   2.42371	1.08017e+07	    76.432	   15.3366	   2.43556	1.07842e+07	    76.449	   15.3305	   2.42964	1.12468e+07	   76.4405	   15.3244	   2.42371	1.10745e+07	    76.432	   15.3305	   2.42964	1.07735e+07	   76.4405	   15.3366	   2.43556	1.09646e+07	
         R10	   5342	    76.466	   15.3366	   2.43557	  1.184e+07	    76.466	   15.3244	   2.42371	1.20264e+07	    76.449	   15.3244	   2.42371	1.13383e+07	    76.449	   15.3366	   2.43556	1.12081e+07	    76.466	   15.3305	   2.42964	1.19121e+07	   76.4575	   15.3244	   2.42371	1.16604e+07	    76.449	   15.3305	   2.42964	1.12503e+07	   76.4575	   15.3366	   2.43557	1.15068e+07	
         R10	   5343	    76.466	   15.3487	   2.44742	1.13562e+07	    76.466	   15.3366	   2.43557	1.17848e+07	    76.449	   15.3366	   2.43556	1.11454e+07	    76.449	   15.3487	   2.44742	1.09254e+07	    76.466	   15.3426	   2.44149	1.15649e+07	   76.4575	   15.3366	   2.43557	1.14469e+07	    76.449	   15.3426	   2.44149	1.10272e+07	   76.4575	   15.3487	   2.44742	1.11295e+07	
         R10	   5344	    76.449	   15.3609	   2.45928	1.04417e+07	    76.466	   15.3609	   2.45927	 1.1057e+07	    76.466	   15.3487	   2.44742	1.12078e+07	    76.449	   15.3487	   2.44742	1.11072e+07	   76.4575	   15.3609	   2.45927	1.07383e+07	    76.466	   15.3548	   2.45335	1.11306e+07	   76.4575	   15.3487	   2.44742	1.11475e+07	    76.449	   15.3548	   2.45335	1.07694e+07	
         R10	   5345	    76.449	   15.3731	   2.47113	1.00673e+07	    76.466	   15.3731	   2.47113	1.06708e+07	    76.466	   15.3609	   2.45927	 1.0799e+07	    76.449	   15.3609	   2.45928	1.07853e+07	   76.4575	   15.3731	   2.47113	 1.0362e+07	    76.466	    15.367	    2.4652	1.07339e+07	   76.4575	   15.3609	   2.45927	1.07879e+07	    76.449	    15.367	    2.4652	1.04247e+07	
         R10	   5346	    76.449	   15.3853	   2.48299	9.91865e+06	    76.466	   15.3853	   2.48299	1.02808e+07	    76.466	   15.3731	   2.47113	1.04645e+07	    76.449	   15.3731	   2.47113	1.02822e+07	   76.4575	   15.3853	   2.48299	1.00969e+07	    76.466	   15.3792	   2.47706	1.03713e+07	   76.4575	   15.3731	   2.47113	1.03704e+07	    76.449	   15.3792	   2.47706	1.01004e+07	
         R10	   5347	    76.449	   15.3975	   2.49484	9.71033e+06	    76.466	   15.3975	   2.49484	9.99431e+06	    76.466	   15.3853	   2.48299	1.01373e+07	    76.449	   15.3853	   2.48299	1.00257e+07	   76.4575	   15.3975	   2.49484	9.84976e+06	    76.466	   15.3914	   2.48891	1.00643e+07	   76.4575	   15.3853	   2.48299	1.00807e+07	    76.449	   15.3914	   2.48891	9.86776e+06	
         R10	   5348	    76.432	   15.3975	   2.49484	9.54768e+06	    76.449	   15.3975	   2.49484	9.81269e+06	    76.449	   15.3853	   2.48299	9.92402e+06	    76.432	   15.3853	   2.48299	9.80438e+06	   76.4405	   15.3975	   2.49484	9.67922e+06	    76.449	   15.3914	   2.48891	9.86798e+06	   76.4405	   15.3853	   2.48299	9.86153e+06	    76.432	   15.3914	   2.48891	9.67582e+06	
         R10	   5349	    76.415	   15.3853	   2.48299	9.74687e+06	    76.415	   15.3975	   2.49484	 9.4955e+06	    76.432	   15.3975	   2.49484	9.57991e+06	    76.432	   15.3853	   2.48299	9.77071e+06	    76.415	   15.3914	   2.48891	9.62076e+06	   76.4235	   15.3975	   2.49484	9.53511e+06	    76.432	   15.3914	   2.48891	9.67474e+06	   76.4235	   15.3853	   2.48299	9.75683e+06	
         R10	   5350	    76.398	   15.3853	   2.48299	9.58973e+06	    76.398	   15.3975	   2.49484	9.42878e+06	    76.415	   15.3975	   2.49484	   9.51e+06	    76.415	   15.3853	   2.48299	9.63708e+06	    76.398	   15.3914	   2.48891	9.50867e+06	   76.4065	   15.3975	   2.49484	9.46653e+06	    76.415	   15.3914	   2.48891	9.57178e+06	   76.4065	   15.3853	   2.48299	9.61282e+06	
         R10	   5351	    76.381	   15.3853	   2.48298	9.48566e+06	    76.381	   15.3975	   2.49484	9.24822e+06	    76.398	   15.3975	   2.49484	9.44966e+06	    76.398	   15.3853	   2.48299	9.49514e+06	    76.381	   15.3914	   2.48891	9.36549e+06	   76.3895	   15.3975	   2.49484	9.34846e+06	    76.398	   15.3914	   2.48891	9.47192e+06	   76.3895	   15.3853	   2.48298	9.48799e+06	
         R10	   5352	    76.364	   15.3853	   2.48298	9.37858e+06	    76.364	   15.3975	   2.49484	 9.2123e+06	    76.381	   15.3975	   2.49484	9.29809e+06	    76.381	   15.3853	   2.48298	9.45906e+06	    76.364	   15.3914	   2.48891	9.29473e+06	   76.3725	   15.3975	   2.49484	 9.2543e+06	    76.381	   15.3914	   2.48891	9.37694e+06	   76.3725	   15.3853	   2.48298	9.41646e+06	
         R10	   5353	    76.364	   15.3731	   2.47113	9.49853e+06	    76.364	   15.3853	   2.48298	 9.3333e+06	    76.381	   15.3853	   2.48298	  9.494e+06	    76.381	   15.3731	   2.47113	9.59524e+06	    76.364	   15.3792	   2.47706	9.41512e+06	   76.3725	   15.3853	   2.48298	9.41138e+06	    76.381	   15.3792	   2.47706	9.54288e+06	   76.3725	   15.3731	   2.47113	 9.5453e+06	
         R10	   5354	    76.381	   15.3609	   2.45927	9.73655e+06	    76.364	   15.3609	   2.45927	9.55735e+06	    76.364	   15.3731	   2.47113	9.51104e+06	    76.381	   15.3731	   2.47113	9.61417e+06	   76.3725	   15.3609	   2.45927	9.64472e+06	    76.364	    15.367	    2.4652	9.53241e+06	   76.3725	   15.3731	   2.47113	9.56067e+06	    76.381	    15.367	    2.4652	9.67399e+06	
         R10	   5355	    76.381	   15.3487	   2.44742	9.87693e+06	    76.364	   15.3487	   2.44742	9.70239e+06	    76.364	   15.3609	   2.45927	9.62127e+06	    76.381	   15.3609	   2.45927	9.69262e+06	   76.3725	   15.3487	   2.44742	9.78777e+06	    76.364	   15.3548	   2.45335	9.65937e+06	   76.3725	   15.3609	   2.45927	9.65486e+06	    76.381	   15.3548	   2.45335	 9.7821e+06	
         R10	   5356	    76.364	   15.3244	   2.42371	9.76969e+06	    76.347	   15.3244	   2.42371	9.54016e+06	    76.347	   15.3366	   2.43556	9.61947e+06	    76.364	   15.3366	   2.43557	9.73392e+06	   76.3555	   15.3244	   2.42371	 9.6546e+06	    76.347	   15.3305	   2.42964	9.57758e+06	   76.3555	   15.3366	   2.43557	9.67352e+06	    76.364	   15.3305	   2.42964	9.74724e+06	
         R10	   5357	    76.381	   15.3366	   2.43557	 9.8828e+06	    76.381	   15.3244	   2.42371	9.89847e+06	    76.364	   15.3244	   2.42371	9.78667e+06	    76.364	   15.3366	   2.43557	9.74884e+06	    76.381	   15.3305	   2.42964	9.88714e+06	   76.3725	   15.3244	   2.42371	9.84148e+06	    76.364	   15.3305	   2.42964	9.76479e+06	   76.3725	   15.3366	   2.43557	9.81419e+06	
         R10	   5358	    76.415	   15.3487	   2.44742	1.02916e+07	    76.415	   15.3366	   2.43556	1.04394e+07	    76.398	   15.3366	   2.43557	1.01923e+07	    76.398	   15.3487	   2.44742	1.00106e+07	    76.415	   15.3426	   2.44149	1.03574e+07	   76.4065	   15.3366	   2.43556	1.03143e+07	    76.398	   15.3426	   2.44149	1.00968e+07	   76.4065	   15.3487	   2.44742	1.01445e+07	
         R10	   5359	    76.432	   15.3487	   2.44742	1.05798e+07	    76.432	   15.3366	   2.43556	1.07035e+07	    76.415	   15.3366	   2.43556	1.04462e+07	    76.415	   15.3487	   2.44742	1.02815e+07	    76.432	   15.3426	   2.44149	1.06343e+07	   76.4235	   15.3366	   2.43556	1.05687e+07	    76.415	   15.3426	   2.44149	 1.0357e+07	   76.4235	   15.3487	   2.44742	1.04245e+07	
         R10	   5360	    76.449	   15.3487	   2.44742	1.08833e+07	    76.449	   15.3366	   2.43556	1.11883e+07	    76.432	   15.3366	   2.43556	1.07337e+07	    76.432	   15.3487	   2.44742	1.05757e+07	    76.449	   15.3426	   2.44149	1.10285e+07	   76.4405	   15.3366	   2.43556	1.09515e+07	    76.432	   15.3426	   2.44149	1.06476e+07	   76.4405	   15.3487	   2.44742	1.07207e+07	
         R10	   5361	    76.449	   15.3609	   2.45928	1.07629e+07	    76.449	   15.3487	   2.44742	1.07873e+07	    76.432	   15.3487	   2.44742	1.05607e+07	    76.432	   15.3609	   2.45928	1.02707e+07	    76.449	   15.3548	   2.45335	1.07705e+07	   76.4405	   15.3487	   2.44742	1.06693e+07	    76.432	   15.3548	   2.45335	1.04118e+07	   76.4405	   15.3609	   2.45928	 1.0509e+07	
         R10	   5362	    76.432	   15.3731	   2.47113	9.91445e+06	    76.449	   15.3731	   2.47113	1.04782e+07	    76.449	   15.3609	   2.45928	1.04542e+07	    76.432	   15.3609	   2.45928	1.03841e+07	   76.4405	   15.3731	   2.47113	1.01906e+07	    76.449	    15.367	    2.4652	1.04625e+07	   76.4405	   15.3609	   2.45928	1.04172e+07	    76.432	    15.367	    2.4652	1.01473e+07	
         R10	   5363	    76.432	   15.3853	   2.48299	9.76472e+06	    76.449	   15.3853	   2.48299	9.96719e+06	    76.449	   15.3731	   2.47113	1.02364e+07	    76.432	   15.3731	   2.47113	1.00857e+07	   76.4405	   15.3853	   2.48299	9.86302e+06	    76.449	   15.3792	   2.47706	 1.0101e+07	   76.4405	   15.3731	   2.47113	1.01582e+07	    76.432	   15.3792	   2.47706	9.92392e+06	
         R10	   5364	    76.415	   15.3853	   2.48299	9.65273e+06	    76.432	   15.3853	   2.48299	9.82425e+06	    76.432	   15.3731	   2.47113	9.98962e+06	    76.415	   15.3731	   2.47113	9.94311e+06	   76.4235	   15.3853	   2.48299	9.73643e+06	    76.432	   15.3792	   2.47706	9.90434e+06	   76.4235	   15.3731	   2.47113	9.96144e+06	    76.415	   15.3792	   2.47706	9.79592e+06	
         R10	   5365	    76.398	   15.3731	   2.47113	9.78798e+06	    76.398	   15.3853	   2.48299	9.51528e+06	    76.415	   15.3853	   2.48299	9.66269e+06	    76.415	   15.3731	   2.47113	9.91934e+06	    76.398	   15.3792	   2.47706	9.65032e+06	   76.4065	   15.3853	   2.48299	9.58688e+06	    76.415	   15.3792	   2.47706	9.78793e+06	   76.4065	   15.3731	   2.47113	9.84815e+06	
         R10	   5366	    76.381	   15.3731	   2.47113	9.60704e+06	    76.381	   15.3853	   2.48298	9.45039e+06	    76.398	   15.3853	   2.48299	 9.5879e+06	    76.398	   15.3731	   2.47113	9.75081e+06	    76.381	   15.3792	   2.47706	9.52798e+06	   76.3895	   15.3853	   2.48298	9.51554e+06	    76.398	   15.3792	   2.47706	9.66737e+06	   76.3895	   15.3731	   2.47113	9.67724e+06	
         R10	   5367	    76.381	   15.3609	   2.45927	9.74395e+06	    76.381	   15.3731	   2.47113	 9.5982e+06	    76.398	   15.3731	   2.47113	9.77557e+06	    76.398	   15.3609	   2.45928	9.89396e+06	    76.381	    15.367	    2.4652	9.66923e+06	   76.3895	   15.3731	   2.47113	9.68477e+06	    76.398	    15.367	    2.4652	9.83265e+06	   76.3895	   15.3609	   2.45928	9.81656e+06	
         R10	   5368	    76.381	   15.3366	   2.43557	9.91371e+06	    76.364	   15.3366	   2.43557	 9.6878e+06	    76.364	   15.3487	   2.44742	9.68445e+06	    76.381	   15.3487	   2.44742	9.88554e+06	   76.3725	   15.3366	   2.43557	9.79756e+06	    76.364	   15.3426	   2.44149	9.68262e+06	   76.3725	   15.3487	   2.44742	9.78352e+06	    76.381	   15.3426	   2.44149	9.89774e+06	
         R10	   5369	    76.398	   15.3487	   2.44742	1.00508e+07	    76.398	   15.3366	   2.43557	1.01477e+07	    76.381	   15.3366	   2.43557	9.89583e+06	    76.381	   15.3487	   2.44742	9.89856e+06	    76.398	   15.3426	   2.44149	1.00929e+07	   76.3895	   15.3366	   2.43557	1.00191e+07	    76.381	   15.3426	   2.44149	9.89298e+06	   76.3895	   15.3487	   2.44742	9.97108e+06	
         R10	   5370	    76.432	   15.3609	   2.45928	1.03758e+07	    76.432	   15.3487	   2.44742	1.05331e+07	    76.415	   15.3487	   2.44742	1.02601e+07	    76.415	   15.3609	   2.45928	1.01105e+07	    76.432	   15.3548	   2.45335	1.04503e+07	   76.4235	   15.3487	   2.44742	1.03892e+07	    76.415	   15.3548	   2.45335	1.01825e+07	   76.4235	   15.3609	   2.45928	1.02387e+07	
         R10	   5371	    76.415	   15.3731	   2.47113	9.85369e+06	    76.432	   15.3731	   2.47113	1.01026e+07	    76.432	   15.3609	   2.45928	1.02842e+07	    76.415	   15.3609	   2.45928	1.01973e+07	   76.4235	   15.3731	   2.47113	9.97245e+06	    76.432	    15.367	    2.4652	 1.0187e+07	   76.4235	   15.3609	   2.45928	1.02354e+07	    76.415	    15.367	    2.4652	1.00244e+07	
         R10	   5372	    76.398	   15.3609	   2.45928	9.96421e+06	    76.398	   15.3731	   2.47113	9.73787e+06	    76.415	   15.3731	   2.47113	9.92048e+06	    76.415	   15.3609	   2.45928	1.00813e+07	    76.398	    15.367	    2.4652	9.84971e+06	   76.4065	   15.3731	   2.47113	9.82551e+06	    76.415	    15.367	    2.4652	9.99766e+06	   76.4065	   15.3609	   2.45928	1.00203e+07	
         R10	   5373	    76.398	   15.3487	   2.44742	1.00535e+07	    76.381	   15.3487	   2.44742	9.83914e+06	    76.381	   15.3609	   2.45927	 9.7481e+06	    76.398	   15.3609	   2.45928	9.87646e+06	   76.3895	   15.3487	   2.44742	9.94347e+06	    76.381	   15.3548	   2.45335	9.79026e+06	   76.3895	   15.3609	   2.45928	9.81014e+06	    76.398	   15.3548	   2.45335	9.96186e+06	
         R10	   5374	    76.415	   15.3487	   2.44742	1.02336e+07	    76.398	   15.3487	   2.44742	1.00506e+07	    76.398	   15.3609	   2.45928	9.90872e+06	    76.415	   15.3609	   2.45928	1.01343e+07	   76.4065	   15.3487	   2.44742	 1.0138e+07	    76.398	   15.3548	   2.45335	9.97652e+06	   76.4065	   15.3609	   2.45928	1.00182e+07	    76.415	   15.3548	   2.45335	1.01809e+07	
         R10	   5375	    76.534	   15.3122	   2.41186	1.05358e+07	    76.534	      15.3	       2.4	8.79744e+06	    76.517	      15.3	       2.4	1.04113e+07	    76.517	   15.3122	   2.41186	 1.2546e+07	    76.534	   15.3061	   2.40593	 9.4361e+06	   76.5255	      15.3	       2.4	9.59191e+06	    76.517	   15.3061	   2.40593	1.09753e+07	   76.5255	   15.3122	   2.41186	 1.1456e+07	
         R10	   5376	    76.551	   15.3122	   2.41186	9.63813e+06	    76.551	      15.3	       2.4	8.39562e+06	    76.534	      15.3	       2.4	8.93223e+06	    76.534	   15.3122	   2.41186	1.04391e+07	    76.551	   15.3061	   2.40593	8.92654e+06	   76.5425	      15.3	       2.4	8.66252e+06	    76.534	   15.3061	   2.40593	9.46205e+06	   76.5425	   15.3122	   2.41186	1.00197e+07	
         R10	   5377	    76.568	   15.3122	   2.41185	9.03041e+06	    76.568	      15.3	       2.4	8.17596e+06	    76.551	      15.3	       2.4	8.41333e+06	    76.551	   15.3122	   2.41186	 9.5761e+06	    76.568	   15.3061	   2.40593	8.56384e+06	   76.5595	      15.3	       2.4	8.28929e+06	    76.551	   15.3061	   2.40593	8.90389e+06	   76.5595	   15.3122	   2.41185	9.29778e+06	
         R10	   5378	    76.585	   15.3122	   2.41185	8.47002e+06	    76.585	      15.3	       2.4	8.12167e+06	    76.568	      15.3	       2.4	8.15604e+06	    76.568	   15.3122	   2.41185	9.08015e+06	    76.585	   15.3061	   2.40593	8.26934e+06	   76.5765	      15.3	       2.4	8.13521e+06	    76.568	   15.3061	   2.40593	8.58759e+06	   76.5765	   15.3122	   2.41185	8.77212e+06	
         R10	   5379	    76.602	   15.3122	   2.41186	8.45917e+06	    76.602	      15.3	       2.4	8.00987e+06	    76.585	      15.3	       2.4	  8.135e+06	    76.585	   15.3122	   2.41185	8.50065e+06	    76.602	   15.3061	   2.40593	8.22859e+06	   76.5935	      15.3	       2.4	8.07018e+06	    76.585	   15.3061	   2.40593	8.30298e+06	   76.5935	   15.3122	   2.41186	8.47384e+06	
         R10	   5380	    76.619	   15.3122	   2.41186	8.36181e+06	    76.619	      15.3	       2.4	7.97647e+06	    76.602	      15.3	       2.4	8.06488e+06	    76.602	   15.3122	   2.41186	8.31336e+06	    76.619	   15.3061	   2.40593	8.16586e+06	   76.6105	      15.3	       2.4	8.01967e+06	    76.602	   15.3061	   2.40593	8.17753e+06	   76.6105	   15.3122	   2.41186	8.33082e+06	
         R10	   5381	    76.636	   15.3122	   2.41186	8.17011e+06	    76.636	      15.3	       2.4	7.96499e+06	    76.619	      15.3	       2.4	8.03988e+06	    76.619	   15.3122	   2.41186	 8.1963e+06	    76.636	   15.3061	   2.40593	8.06452e+06	   76.6275	      15.3	       2.4	8.00155e+06	    76.619	   15.3061	   2.40593	8.11416e+06	   76.6275	   15.3122	   2.41186	8.18068e+06	
         R10	   5382	    76.653	   15.3122	   2.41185	8.05056e+06	    76.653	      15.3	       2.4	7.93737e+06	    76.636	      15.3	       2.4	7.98928e+06	    76.636	   15.3122	   2.41186	8.12396e+06	    76.653	   15.3061	   2.40593	7.99219e+06	   76.6445	      15.3	       2.4	7.96249e+06	    76.636	   15.3061	   2.40593	8.05418e+06	   76.6445	   15.3122	   2.41185	8.08624e+06	
         R10	   5383	     76.67	   15.3122	   2.41185	7.97295e+06	     76.67	      15.3	       2.4	7.90216e+06	    76.653	      15.3	       2.4	7.94044e+06	    76.653	   15.3122	   2.41185	8.03724e+06	     76.67	   15.3061	   2.40593	7.93664e+06	   76.6615	      15.3	       2.4	7.92077e+06	    76.653	   15.3061	   2.40593	7.98681e+06	   76.6615	   15.3122	   2.41185	8.00394e+06	
         R10	   5384	     76.67	   15.3244	   2.42371	8.03984e+06	     76.67	   15.3122	   2.41185	7.95152e+06	    76.653	   15.3122	   2.41185	8.06933e+06	    76.653	   15.3244	   2.42371	 8.1075e+06	     76.67	   15.3183	   2.41778	7.99303e+06	   76.6615	   15.3122	   2.41185	8.00929e+06	    76.653	   15.3183	   2.41778	8.08704e+06	   76.6615	   15.3244	   2.42371	 8.0731e+06	
         R10	   5385	    76.653	   15.3366	   2.43557	8.11524e+06	     76.67	   15.3366	   2.43556	8.12451e+06	     76.67	   15.3244	   2.42371	7.99158e+06	    76.653	   15.3244	   2.42371	 8.1345e+06	   76.6615	   15.3366	   2.43556	8.11796e+06	     76.67	   15.3305	   2.42964	8.05472e+06	   76.6615	   15.3244	   2.42371	8.06192e+06	    76.653	   15.3305	   2.42964	8.12261e+06	
         R10	   5386	    76.653	   15.3487	   2.44742	8.17544e+06	     76.67	   15.3487	   2.44742	8.03862e+06	     76.67	   15.3366	   2.43556	8.00999e+06	    76.653	   15.3366	   2.43557	 8.2157e+06	   76.6615	   15.3487	   2.44742	8.10519e+06	     76.67	   15.3426	   2.44149	8.02243e+06	   76.6615	   15.3366	   2.43556	8.11207e+06	    76.653	   15.3426	   2.44149	8.19322e+06	
         R10	   5387	    76.653	   15.3609	   2.45928	8.14877e+06	     76.67	   15.3609	   2.45928	8.04036e+06	     76.67	   15.3487	   2.44742	8.04408e+06	    76.653	   15.3487	   2.44742	8.17678e+06	   76.6615	   15.3609	   2.45928	8.09305e+06	     76.67	   15.3548	   2.45335	8.03946e+06	   76.6615	   15.3487	   2.44742	8.10768e+06	    76.653	   15.3548	   2.45335	8.16096e+06	
         R10	   5388	    76.653	   15.3731	   2.47113	8.04317e+06	     76.67	   15.3731	   2.47113	8.04887e+06	     76.67	   15.3609	   2.45928	8.01673e+06	    76.653	   15.3609	   2.45928	 8.1904e+06	   76.6615	   15.3731	   2.47113	 8.0447e+06	     76.67	    15.367	    2.4652	8.03144e+06	   76.6615	   15.3609	   2.45928	 8.1023e+06	    76.653	    15.367	    2.4652	8.11515e+06	
         R10	   5389	    76.653	   15.3853	   2.48299	8.06358e+06	     76.67	   15.3853	   2.48299	 7.9595e+06	     76.67	   15.3731	   2.47113	8.02479e+06	    76.653	   15.3731	   2.47113	8.07945e+06	   76.6615	   15.3853	   2.48299	8.01038e+06	     76.67	   15.3792	   2.47706	7.99089e+06	   76.6615	   15.3731	   2.47113	8.05102e+06	    76.653	   15.3792	   2.47706	8.07037e+06	
         R10	   5390	    76.653	   15.3975	   2.49484	8.01899e+06	     76.67	   15.3975	   2.49484	7.89768e+06	     76.67	   15.3853	   2.48299	7.98947e+06	    76.653	   15.3853	   2.48299	8.04826e+06	   76.6615	   15.3975	   2.49484	7.95637e+06	     76.67	   15.3914	   2.48891	7.94291e+06	   76.6615	   15.3853	   2.48299	8.01772e+06	    76.653	   15.3914	   2.48891	8.03224e+06	
         R10	   5391	    76.653	   15.4097	    2.5067	7.93274e+06	     76.67	   15.4097	    2.5067	7.89654e+06	     76.67	   15.3975	   2.49484	7.91272e+06	    76.653	   15.3975	   2.49484	7.98914e+06	   76.6615	   15.4097	    2.5067	7.91372e+06	     76.67	   15.4036	   2.50077	7.90398e+06	   76.6615	   15.3975	   2.49484	7.94994e+06	    76.653	   15.4036	   2.50077	7.95994e+06	
         R10	   5392	    76.653	   15.4218	   2.51855	7.86511e+06	     76.67	   15.4218	   2.51855	7.78952e+06	     76.67	   15.4097	    2.5067	7.88807e+06	    76.653	   15.4097	    2.5067	7.92688e+06	   76.6615	   15.4218	   2.51855	7.82603e+06	     76.67	   15.4158	   2.51262	7.83822e+06	   76.6615	   15.4097	    2.5067	 7.9063e+06	    76.653	   15.4158	   2.51262	7.89543e+06	
         R10	   5393	    76.636	   15.4218	   2.51855	7.93285e+06	    76.653	   15.4218	   2.51855	7.84597e+06	    76.653	   15.4097	    2.5067	 7.9482e+06	    76.636	   15.4097	    2.5067	8.00015e+06	   76.6445	   15.4218	   2.51855	7.88876e+06	    76.653	   15.4158	   2.51262	7.89645e+06	   76.6445	   15.4097	    2.5067	7.97212e+06	    76.636	   15.4158	   2.51262	 7.9658e+06	
         R10	   5394	    76.619	   15.4097	    2.5067	8.03747e+06	    76.619	   15.4218	   2.51855	8.06683e+06	    76.636	   15.4218	   2.51855	7.92721e+06	    76.636	   15.4097	    2.5067	8.04096e+06	    76.619	   15.4158	   2.51262	8.05152e+06	   76.6275	   15.4218	   2.51855	7.99471e+06	    76.636	   15.4158	   2.51262	7.98312e+06	   76.6275	   15.4097	    2.5067	8.03847e+06	
         R10	   5395	    76.602	   15.4097	    2.5067	8.18503e+06	    76.602	   15.4218	   2.51855	 8.1672e+06	    76.619	   15.4218	   2.51855	7.95994e+06	    76.619	   15.4097	    2.5067	8.17161e+06	    76.602	   15.4158	   2.51262	8.17563e+06	   76.6105	   15.4218	   2.51855	8.06218e+06	    76.619	   15.4158	   2.51262	8.06546e+06	   76.6105	   15.4097	    2.5067	8.17708e+06	
         R10	   5396	    76.585	   15.4097	    2.5067	8.33175e+06	    76.585	   15.4218	   2.51855	8.22221e+06	    76.602	   15.4218	   2.51855	8.10617e+06	    76.602	   15.4097	    2.5067	8.22876e+06	    76.585	   15.4158	   2.51262	8.27637e+06	   76.5935	   15.4218	   2.51855	8.16287e+06	    76.602	   15.4158	   2.51262	8.16716e+06	   76.5935	   15.4097	    2.5067	8.27945e+06	
         R10	   5397	    76.568	   15.4097	    2.5067	8.41175e+06	    76.568	   15.4218	   2.51855	8.30634e+06	    76.585	   15.4218	   2.51855	8.16928e+06	    76.585	   15.4097	    2.5067	8.36127e+06	    76.568	   15.4158	   2.51262	8.35842e+06	   76.5765	   15.4218	   2.51855	8.23686e+06	    76.585	   15.4158	   2.51262	8.26453e+06	   76.5765	   15.4097	    2.5067	8.38553e+06	
         R10	   5398	    76.551	   15.4097	    2.5067	8.55401e+06	    76.551	   15.4218	   2.51855	8.45781e+06	    76.568	   15.4218	   2.51855	8.27612e+06	    76.568	   15.4097	    2.5067	8.45712e+06	    76.551	   15.4158	   2.51262	8.50583e+06	   76.5595	   15.4218	   2.51855	 8.3663e+06	    76.568	   15.4158	   2.51262	8.36623e+06	   76.5595	   15.4097	    2.5067	8.50461e+06	
         R10	   5399	    76.534	   15.4097	    2.5067	8.73934e+06	    76.534	   15.4218	   2.51855	8.62474e+06	    76.551	   15.4218	   2.51855	8.33067e+06	    76.551	   15.4097	    2.5067	8.62728e+06	    76.534	   15.4158	   2.51262	8.68199e+06	   76.5425	   15.4218	   2.51855	8.47692e+06	    76.551	   15.4158	   2.51262	8.47862e+06	   76.5425	   15.4097	    2.5067	8.68274e+06	
         R10	   5400	    76.517	   15.4097	    2.5067	8.87527e+06	    76.517	   15.4218	   2.51855	 8.7086e+06	    76.534	   15.4218	   2.51855	8.48634e+06	    76.534	   15.4097	    2.5067	8.88255e+06	    76.517	   15.4158	   2.51262	8.79076e+06	   76.5255	   15.4218	   2.51855	8.59684e+06	    76.534	   15.4158	   2.51262	8.68417e+06	   76.5255	   15.4097	   2.50669	8.87801e+06	
         R10	   5401	      76.5	   15.4097	    2.5067	  9.035e+06	      76.5	   15.4218	   2.51855	8.73203e+06	    76.517	   15.4218	   2.51855	8.65102e+06	    76.517	   15.4097	    2.5067	8.97111e+06	      76.5	   15.4158	   2.51262	8.88344e+06	   76.5085	   15.4218	   2.51855	8.69078e+06	    76.517	   15.4158	   2.51262	 8.8106e+06	   76.5085	   15.4097	    2.5067	9.00275e+06	
         R10	   5402	      76.5	   15.3975	   2.49484	9.44893e+06	      76.5	   15.4097	    2.5067	9.11738e+06	    76.517	   15.4097	    2.5067	8.94005e+06	    76.517	   15.3975	   2.49484	9.27285e+06	      76.5	   15.4036	   2.50077	9.28273e+06	   76.5085	   15.4097	    2.5067	9.02843e+06	    76.517	   15.4036	   2.50077	9.10627e+06	   76.5085	   15.3975	   2.49484	 9.3605e+06	
         R10	   5403	    76.517	   15.3853	   2.48299	9.65593e+06	      76.5	   15.3853	   2.48299	9.94729e+06	      76.5	   15.3975	   2.49484	9.49826e+06	    76.517	   15.3975	   2.49484	9.24249e+06	   76.5085	   15.3853	   2.48299	9.80156e+06	      76.5	   15.3914	   2.48891	9.72273e+06	   76.5085	   15.3975	   2.49484	 9.3703e+06	    76.517	   15.3914	   2.48891	9.44917e+06	
         R10	   5404	    76.517	   15.3731	   2.47113	1.01181e+07	      76.5	   15.3731	   2.47113	1.05809e+07	      76.5	   15.3853	   2.48299	9.96289e+06	    76.517	   15.3853	   2.48299	 9.6601e+06	   76.5085	   15.3731	   2.47113	1.03493e+07	      76.5	   15.3792	   2.47706	1.02719e+07	   76.5085	   15.3853	   2.48299	9.81143e+06	    76.517	   15.3792	   2.47706	9.88878e+06	
         R10	   5405	    76.517	   15.3609	   2.45928	1.06886e+07	      76.5	   15.3609	   2.45928	1.13498e+07	      76.5	   15.3731	   2.47113	1.05957e+07	    76.517	   15.3731	   2.47113	1.01253e+07	   76.5085	   15.3609	   2.45928	1.10179e+07	      76.5	    15.367	    2.4652	1.09725e+07	   76.5085	   15.3731	   2.47113	1.03605e+07	    76.517	    15.367	    2.4652	1.04066e+07	
         R10	   5406	    76.517	   15.3487	   2.44742	1.13088e+07	      76.5	   15.3487	   2.44742	1.23995e+07	      76.5	   15.3609	   2.45928	1.14077e+07	    76.517	   15.3609	   2.45928	1.06408e+07	   76.5085	   15.3487	   2.44742	1.18482e+07	      76.5	   15.3548	   2.45335	1.19029e+07	   76.5085	   15.3609	   2.45928	1.10237e+07	    76.517	   15.3548	   2.45335	1.09742e+07	
         R10	   5407	    76.517	   15.3366	   2.43557	1.19793e+07	      76.5	   15.3366	   2.43556	1.36798e+07	      76.5	   15.3487	   2.44742	  1.245e+07	    76.517	   15.3487	   2.44742	 1.1252e+07	   76.5085	   15.3366	   2.43557	1.28113e+07	      76.5	   15.3426	   2.44149	 1.3064e+07	   76.5085	   15.3487	   2.44742	1.18467e+07	    76.517	   15.3426	   2.44149	 1.1614e+07	
         R10	   5408	    76.517	   15.3244	   2.42371	1.22812e+07	      76.5	   15.3244	   2.42371	1.52644e+07	      76.5	   15.3366	   2.43556	1.37891e+07	    76.517	   15.3366	   2.43557	1.19285e+07	   76.5085	   15.3244	   2.42371	1.37051e+07	      76.5	   15.3305	   2.42964	1.45243e+07	   76.5085	   15.3366	   2.43557	1.28395e+07	    76.517	   15.3305	   2.42964	1.20979e+07	
         R10	   5409	    76.517	   15.3122	   2.41186	1.24601e+07	    76.517	      15.3	       2.4	9.63984e+06	      76.5	      15.3	       2.4	1.53481e+07	      76.5	   15.3122	   2.41185	 1.6704e+07	    76.517	   15.3061	   2.40593	1.05452e+07	   76.5085	      15.3	       2.4	1.20202e+07	      76.5	   15.3061	   2.40593	1.57848e+07	   76.5085	   15.3122	   2.41186	1.43027e+07	
         R10	   5410	    76.551	   15.3244	   2.42371	1.00285e+07	    76.551	   15.3122	   2.41186	 9.3664e+06	    76.534	   15.3122	   2.41186	1.04489e+07	    76.534	   15.3244	   2.42371	1.09024e+07	    76.551	   15.3183	   2.41778	 9.6308e+06	   76.5425	   15.3122	   2.41186	 9.8872e+06	    76.534	   15.3183	   2.41778	1.06057e+07	   76.5425	   15.3244	   2.42371	1.04457e+07	
         R10	   5411	    76.568	   15.3244	   2.42371	9.37489e+06	    76.568	   15.3122	   2.41185	8.98578e+06	    76.551	   15.3122	   2.41186	9.60718e+06	    76.551	   15.3244	   2.42371	9.89983e+06	    76.568	   15.3183	   2.41778	9.14653e+06	   76.5595	   15.3122	   2.41185	9.28852e+06	    76.551	   15.3183	   2.41778	9.70712e+06	   76.5595	   15.3244	   2.42371	9.62662e+06	
         R10	   5412	    76.585	   15.3244	   2.42371	9.05611e+06	    76.585	   15.3122	   2.41185	8.53426e+06	    76.568	   15.3122	   2.41185	 9.0899e+06	    76.568	   15.3244	   2.42371	9.34082e+06	    76.585	   15.3183	   2.41778	8.77169e+06	   76.5765	   15.3122	   2.41185	8.80257e+06	    76.568	   15.3183	   2.41778	9.18281e+06	   76.5765	   15.3244	   2.42371	9.19548e+06	
         R10	   5413	    76.602	   15.3244	   2.42371	8.61843e+06	    76.602	   15.3122	   2.41186	8.30458e+06	    76.585	   15.3122	   2.41185	8.60077e+06	    76.585	   15.3244	   2.42371	8.86724e+06	    76.602	   15.3183	   2.41778	 8.4413e+06	   76.5935	   15.3122	   2.41186	8.45075e+06	    76.585	   15.3183	   2.41778	 8.7245e+06	   76.5935	   15.3244	   2.42371	8.73752e+06	
         R10	   5414	    76.619	   15.3244	   2.42371	8.51228e+06	    76.619	   15.3122	   2.41186	8.07963e+06	    76.602	   15.3122	   2.41186	8.54676e+06	    76.602	   15.3244	   2.42371	8.44779e+06	    76.619	   15.3183	   2.41778	8.28351e+06	   76.6105	   15.3122	   2.41186	8.31049e+06	    76.602	   15.3183	   2.41778	8.49352e+06	   76.6105	   15.3244	   2.42371	8.47774e+06	
         R10	   5415	    76.636	   15.3244	   2.42371	8.39088e+06	    76.636	   15.3122	   2.41186	8.01837e+06	    76.619	   15.3122	   2.41186	8.36563e+06	    76.619	   15.3244	   2.42371	 8.2399e+06	    76.636	   15.3183	   2.41778	8.19783e+06	   76.6275	   15.3122	   2.41186	8.18953e+06	    76.619	   15.3183	   2.41778	8.29959e+06	   76.6275	   15.3244	   2.42371	8.31112e+06	
         R10	   5416	    76.653	   15.3244	   2.42371	8.16736e+06	    76.653	   15.3122	   2.41185	8.02449e+06	    76.636	   15.3122	   2.41186	 8.1956e+06	    76.636	   15.3244	   2.42371	8.16024e+06	    76.653	   15.3183	   2.41778	8.09222e+06	   76.6445	   15.3122	   2.41185	8.10816e+06	    76.636	   15.3183	   2.41778	8.17614e+06	   76.6445	   15.3244	   2.42371	8.16245e+06	
         R10	   5417	    76.653	   15.3366	   2.43557	 8.1831e+06	    76.653	   15.3244	   2.42371	8.13748e+06	    76.636	   15.3244	   2.42371	8.26186e+06	    76.636	   15.3366	   2.43557	8.28101e+06	    76.653	   15.3305	   2.42964	8.15755e+06	   76.6445	   15.3244	   2.42371	8.19917e+06	    76.636	   15.3305	   2.42964	 8.2682e+06	   76.6445	   15.3366	   2.43557	8.23074e+06	
         R10	   5418	    76.636	   15.3487	   2.44742	8.31369e+06	    76.653	   15.3487	   2.44742	8.19499e+06	    76.653	   15.3366	   2.43557	8.16103e+06	    76.636	   15.3366	   2.43557	8.30295e+06	   76.6445	   15.3487	   2.44742	8.25271e+06	    76.653	   15.3426	   2.44149	  8.175e+06	   76.6445	   15.3366	   2.43557	8.22938e+06	    76.636	   15.3426	   2.44149	8.30556e+06	
         R10	   5419	    76.636	   15.3609	   2.45928	8.27933e+06	    76.653	   15.3609	   2.45928	8.14906e+06	    76.653	   15.3487	   2.44742	8.14794e+06	    76.636	   15.3487	   2.44742	8.32446e+06	   76.6445	   15.3609	   2.45928	8.21183e+06	    76.653	   15.3548	   2.45335	8.14625e+06	   76.6445	   15.3487	   2.44742	8.23434e+06	    76.636	   15.3548	   2.45335	8.29937e+06	
         R10	   5420	    76.636	   15.3731	   2.47113	8.21448e+06	    76.653	   15.3731	   2.47113	8.12285e+06	    76.653	   15.3609	   2.45928	8.09948e+06	    76.636	   15.3609	   2.45928	8.29392e+06	   76.6445	   15.3731	   2.47113	8.16699e+06	    76.653	    15.367	    2.4652	8.10869e+06	   76.6445	   15.3609	   2.45928	8.19467e+06	    76.636	    15.367	    2.4652	8.25222e+06	
         R10	   5421	    76.636	   15.3853	   2.48299	 8.1635e+06	    76.653	   15.3853	   2.48299	8.07016e+06	    76.653	   15.3731	   2.47113	8.09799e+06	    76.636	   15.3731	   2.47113	8.22312e+06	   76.6445	   15.3853	   2.48299	8.11541e+06	    76.653	   15.3792	   2.47706	8.08318e+06	   76.6445	   15.3731	   2.47113	8.15917e+06	    76.636	   15.3792	   2.47706	8.19166e+06	
         R10	   5422	    76.636	   15.3975	   2.49484	8.10709e+06	    76.653	   15.3975	   2.49484	7.95721e+06	    76.653	   15.3853	   2.48299	8.08883e+06	    76.636	   15.3853	   2.48299	8.15128e+06	   76.6445	   15.3975	   2.49484	8.03149e+06	    76.653	   15.3914	   2.48891	8.02157e+06	   76.6445	   15.3853	   2.48299	 8.1168e+06	    76.636	   15.3914	   2.48891	8.12755e+06	
         R10	   5423	    76.636	   15.4097	    2.5067	8.03352e+06	    76.653	   15.4097	    2.5067	 7.9185e+06	    76.653	   15.3975	   2.49484	8.03425e+06	    76.636	   15.3975	   2.49484	8.06335e+06	   76.6445	   15.4097	    2.5067	7.97496e+06	    76.653	   15.4036	   2.50077	7.97583e+06	   76.6445	   15.3975	   2.49484	8.04669e+06	    76.636	   15.4036	   2.50077	8.04715e+06	
         R10	   5424	    76.619	   15.4097	    2.5067	8.13435e+06	    76.636	   15.4097	    2.5067	7.99878e+06	    76.636	   15.3975	   2.49484	8.05484e+06	    76.619	   15.3975	   2.49484	 8.2849e+06	   76.6275	   15.4097	    2.5067	8.06402e+06	    76.636	   15.4036	   2.50077	 8.0264e+06	   76.6275	   15.3975	   2.49484	8.16932e+06	    76.619	   15.4036	   2.50077	8.20721e+06	
         R10	   5425	    76.602	   15.3975	   2.49484	8.36572e+06	    76.602	   15.4097	    2.5067	 8.2371e+06	    76.619	   15.4097	    2.5067	8.06131e+06	    76.619	   15.3975	   2.49484	8.20383e+06	    76.602	   15.4036	   2.50077	8.29935e+06	   76.6105	   15.4097	    2.5067	8.14732e+06	    76.619	   15.4036	   2.50077	8.13143e+06	   76.6105	   15.3975	   2.49484	 8.2819e+06	
         R10	   5426	    76.585	   15.3975	   2.49484	8.43704e+06	    76.585	   15.4097	    2.5067	8.53443e+06	    76.602	   15.4097	    2.5067	 8.1628e+06	    76.602	   15.3975	   2.49484	8.30745e+06	    76.585	   15.4036	   2.50077	8.48418e+06	   76.5935	   15.4097	    2.5067	8.34361e+06	    76.602	   15.4036	   2.50077	8.23477e+06	   76.5935	   15.3975	   2.49484	8.37093e+06	
         R10	   5427	    76.568	   15.3975	   2.49484	8.64987e+06	    76.568	   15.4097	    2.5067	8.50033e+06	    76.585	   15.4097	    2.5067	8.18767e+06	    76.585	   15.3975	   2.49484	 8.6303e+06	    76.568	   15.4036	   2.50077	8.57412e+06	   76.5765	   15.4097	    2.5067	8.33953e+06	    76.585	   15.4036	   2.50077	 8.4081e+06	   76.5765	   15.3975	   2.49484	8.63632e+06	
         R10	   5428	    76.551	   15.3975	   2.49484	8.93928e+06	    76.551	   15.4097	    2.5067	8.56105e+06	    76.568	   15.4097	    2.5067	8.46579e+06	    76.568	   15.3975	   2.49484	8.57286e+06	    76.551	   15.4036	   2.50077	8.74784e+06	   76.5595	   15.4097	    2.5067	8.51316e+06	    76.568	   15.4036	   2.50077	8.51775e+06	   76.5595	   15.3975	   2.49484	8.75096e+06	
         R10	   5429	    76.534	   15.3975	   2.49484	9.04062e+06	    76.534	   15.4097	    2.5067	8.73707e+06	    76.551	   15.4097	    2.5067	8.62114e+06	    76.551	   15.3975	   2.49484	8.76832e+06	    76.534	   15.4036	   2.50077	8.88877e+06	   76.5425	   15.4097	    2.5067	8.67814e+06	    76.551	   15.4036	   2.50077	8.69436e+06	   76.5425	   15.3975	   2.49484	8.90146e+06	
         R10	   5430	    76.517	   15.3975	   2.49484	9.21994e+06	    76.517	   15.4097	    2.5067	9.03019e+06	    76.534	   15.4097	    2.5067	 8.6647e+06	    76.534	   15.3975	   2.49484	 9.0244e+06	    76.517	   15.4036	   2.50077	9.12446e+06	   76.5255	   15.4097	   2.50669	8.84727e+06	    76.534	   15.4036	   2.50077	8.84452e+06	   76.5255	   15.3975	   2.49484	9.12124e+06	
         R10	   5431	    76.517	   15.3853	   2.48299	9.62724e+06	    76.517	   15.3975	   2.49484	 9.2634e+06	    76.534	   15.3975	   2.49484	8.96699e+06	    76.534	   15.3853	   2.48298	9.41267e+06	    76.517	   15.3914	   2.48891	 9.4453e+06	   76.5255	   15.3975	   2.49484	9.11415e+06	    76.534	   15.3914	   2.48891	9.18964e+06	   76.5255	   15.3853	   2.48299	9.51866e+06	
         R10	   5432	    76.534	   15.3731	   2.47113	9.79596e+06	    76.517	   15.3731	   2.47113	1.00782e+07	    76.517	   15.3853	   2.48299	9.64967e+06	    76.534	   15.3853	   2.48298	9.33778e+06	   76.5255	   15.3731	   2.47113	9.93532e+06	    76.517	   15.3792	   2.47706	9.86387e+06	   76.5255	   15.3853	   2.48299	9.49217e+06	    76.534	   15.3792	   2.47706	9.56679e+06	
         R10	   5433	    76.534	   15.3609	   2.45928	1.01174e+07	    76.517	   15.3609	   2.45928	 1.0631e+07	    76.517	   15.3731	   2.47113	1.01534e+07	    76.534	   15.3731	   2.47113	9.69475e+06	   76.5255	   15.3609	   2.45928	1.03713e+07	    76.517	    15.367	    2.4652	 1.0392e+07	   76.5255	   15.3731	   2.47113	9.92144e+06	    76.534	    15.367	    2.4652	9.90537e+06	
         R10	   5434	    76.534	   15.3487	   2.44742	1.04543e+07	    76.517	   15.3487	   2.44742	1.12512e+07	    76.517	   15.3609	   2.45928	1.07215e+07	    76.534	   15.3609	   2.45928	1.00149e+07	   76.5255	   15.3487	   2.44742	1.08444e+07	    76.517	   15.3548	   2.45335	1.09859e+07	   76.5255	   15.3609	   2.45928	1.03644e+07	    76.534	   15.3548	   2.45335	1.02326e+07	
         R10	   5435	    76.534	   15.3366	   2.43557	1.08197e+07	    76.517	   15.3366	   2.43557	1.18591e+07	    76.517	   15.3487	   2.44742	1.13621e+07	    76.534	   15.3487	   2.44742	 1.0366e+07	   76.5255	   15.3366	   2.43557	1.13169e+07	    76.517	   15.3426	   2.44149	1.16091e+07	   76.5255	   15.3487	   2.44742	1.08543e+07	    76.534	   15.3426	   2.44149	1.05858e+07	
         R10	   5436	    76.517	   15.3122	   2.41186	1.20745e+07	      76.5	   15.3122	   2.41185	1.61315e+07	      76.5	   15.3244	   2.42371	1.53608e+07	    76.517	   15.3244	   2.42371	1.23829e+07	   76.5085	   15.3122	   2.41186	1.38462e+07	      76.5	   15.3183	   2.41778	 1.5738e+07	   76.5085	   15.3244	   2.42371	1.38103e+07	    76.517	   15.3183	   2.41778	1.21562e+07	
         R10	   5437	    76.534	   15.3244	   2.42371	1.09235e+07	    76.534	   15.3122	   2.41186	1.04258e+07	    76.517	   15.3122	   2.41186	 1.1909e+07	    76.517	   15.3244	   2.42371	1.24966e+07	    76.534	   15.3183	   2.41778	 1.0587e+07	   76.5255	   15.3122	   2.41186	1.10892e+07	    76.517	   15.3183	   2.41778	1.21504e+07	   76.5255	   15.3244	   2.42371	1.16581e+07	
         R10	   5438	    76.568	   15.3366	   2.43556	 9.4892e+06	    76.568	   15.3244	   2.42371	  9.318e+06	    76.551	   15.3244	   2.42371	9.93501e+06	    76.551	   15.3366	   2.43557	9.97074e+06	    76.568	   15.3305	   2.42964	9.38132e+06	   76.5595	   15.3244	   2.42371	9.61457e+06	    76.551	   15.3305	   2.42964	9.92989e+06	   76.5595	   15.3366	   2.43556	9.72008e+06	
         R10	   5439	    76.585	   15.3366	   2.43556	9.11684e+06	    76.585	   15.3244	   2.42371	8.90783e+06	    76.568	   15.3244	   2.42371	9.35794e+06	    76.568	   15.3366	   2.43556	9.37043e+06	    76.585	   15.3305	   2.42964	8.99247e+06	   76.5765	   15.3244	   2.42371	9.12025e+06	    76.568	   15.3305	   2.42964	9.35187e+06	   76.5765	   15.3366	   2.43556	9.24007e+06	
         R10	   5440	    76.602	   15.3366	   2.43557	 8.8108e+06	    76.602	   15.3244	   2.42371	8.52452e+06	    76.585	   15.3244	   2.42371	 9.0414e+06	    76.585	   15.3366	   2.43556	8.94059e+06	    76.602	   15.3305	   2.42964	8.66287e+06	   76.5935	   15.3244	   2.42371	8.78098e+06	    76.585	   15.3305	   2.42964	8.97882e+06	   76.5935	   15.3366	   2.43556	 8.8698e+06	
         R10	   5441	    76.619	   15.3366	   2.43557	8.55487e+06	    76.619	   15.3244	   2.42371	8.30331e+06	    76.602	   15.3244	   2.42371	8.56793e+06	    76.602	   15.3366	   2.43557	8.76713e+06	    76.619	   15.3305	   2.42964	8.42136e+06	   76.6105	   15.3244	   2.42371	8.43325e+06	    76.602	   15.3305	   2.42964	8.66078e+06	   76.6105	   15.3366	   2.43557	8.65955e+06	
         R10	   5442	    76.636	   15.3366	   2.43557	8.38508e+06	    76.636	   15.3244	   2.42371	8.18186e+06	    76.619	   15.3244	   2.42371	8.47331e+06	    76.619	   15.3366	   2.43557	 8.3405e+06	    76.636	   15.3305	   2.42964	8.27834e+06	   76.6275	   15.3244	   2.42371	8.32685e+06	    76.619	   15.3305	   2.42964	8.40296e+06	   76.6275	   15.3366	   2.43557	   8.36e+06	
         R10	   5443	    76.636	   15.3487	   2.44742	8.32814e+06	    76.636	   15.3366	   2.43557	8.28527e+06	    76.619	   15.3366	   2.43557	8.53529e+06	    76.619	   15.3487	   2.44742	8.46104e+06	    76.636	   15.3426	   2.44149	8.30333e+06	   76.6275	   15.3366	   2.43557	8.40879e+06	    76.619	   15.3426	   2.44149	8.49256e+06	   76.6275	   15.3487	   2.44742	8.39157e+06	
         R10	   5444	    76.619	   15.3609	   2.45927	8.42421e+06	    76.636	   15.3609	   2.45928	8.28092e+06	    76.636	   15.3487	   2.44742	8.32273e+06	    76.619	   15.3487	   2.44742	8.48279e+06	   76.6275	   15.3609	   2.45928	8.35036e+06	    76.636	   15.3548	   2.45335	8.29859e+06	   76.6275	   15.3487	   2.44742	8.39991e+06	    76.619	   15.3548	   2.45335	8.44991e+06	
         R10	   5445	    76.619	   15.3731	   2.47113	8.37906e+06	    76.636	   15.3731	   2.47113	8.21337e+06	    76.636	   15.3609	   2.45928	8.27118e+06	    76.619	   15.3609	   2.45927	8.42669e+06	   76.6275	   15.3731	   2.47113	8.29387e+06	    76.636	    15.367	    2.4652	8.24006e+06	   76.6275	   15.3609	   2.45928	8.34673e+06	    76.619	    15.367	    2.4652	8.40055e+06	
         R10	   5446	    76.619	   15.3853	   2.48298	8.29518e+06	    76.636	   15.3853	   2.48299	8.15993e+06	    76.636	   15.3731	   2.47113	8.21813e+06	    76.619	   15.3731	   2.47113	8.35568e+06	   76.6275	   15.3853	   2.48299	8.22592e+06	    76.636	   15.3792	   2.47706	8.18784e+06	   76.6275	   15.3731	   2.47113	8.28442e+06	    76.619	   15.3792	   2.47706	8.32354e+06	
         R10	   5447	    76.619	   15.3975	   2.49484	8.25365e+06	    76.636	   15.3975	   2.49484	8.06404e+06	    76.636	   15.3853	   2.48299	8.17775e+06	    76.619	   15.3853	   2.48298	8.20781e+06	   76.6275	   15.3975	   2.49484	8.15715e+06	    76.636	   15.3914	   2.48891	 8.1191e+06	   76.6275	   15.3853	   2.48299	8.19128e+06	    76.619	   15.3914	   2.48891	8.23007e+06	
         R10	   5448	    76.602	   15.3975	   2.49484	 8.4824e+06	    76.619	   15.3975	   2.49484	8.16167e+06	    76.619	   15.3853	   2.48298	8.42313e+06	    76.602	   15.3853	   2.48298	 8.2559e+06	   76.6105	   15.3975	   2.49484	8.31925e+06	    76.619	   15.3914	   2.48891	8.29186e+06	   76.6105	   15.3853	   2.48298	8.33903e+06	    76.602	   15.3914	   2.48891	8.36574e+06	
         R10	   5449	    76.585	   15.3853	   2.48299	8.36847e+06	    76.585	   15.3975	   2.49484	8.64461e+06	    76.602	   15.3975	   2.49484	8.15441e+06	    76.602	   15.3853	   2.48298	 8.7243e+06	    76.585	   15.3914	   2.48891	 8.5036e+06	   76.5935	   15.3975	   2.49484	 8.3985e+06	    76.602	   15.3914	   2.48891	8.43905e+06	   76.5935	   15.3853	   2.48299	8.54512e+06	
         R10	   5450	    76.568	   15.3853	   2.48299	8.70421e+06	    76.568	   15.3975	   2.49484	8.70765e+06	    76.585	   15.3975	   2.49484	8.43569e+06	    76.585	   15.3853	   2.48299	8.81141e+06	    76.568	   15.3914	   2.48891	8.70383e+06	   76.5765	   15.3975	   2.49484	 8.5662e+06	    76.585	   15.3914	   2.48891	8.62348e+06	   76.5765	   15.3853	   2.48299	8.75713e+06	
         R10	   5451	    76.551	   15.3853	   2.48299	9.00513e+06	    76.551	   15.3975	   2.49484	9.00382e+06	    76.568	   15.3975	   2.49484	8.61899e+06	    76.568	   15.3853	   2.48299	8.88171e+06	    76.551	   15.3914	   2.48891	9.00254e+06	   76.5595	   15.3975	   2.49484	8.80793e+06	    76.568	   15.3914	   2.48891	8.74687e+06	   76.5595	   15.3853	   2.48299	8.94283e+06	
         R10	   5452	    76.534	   15.3853	   2.48298	9.26195e+06	    76.534	   15.3975	   2.49484	9.15819e+06	    76.551	   15.3975	   2.49484	8.66899e+06	    76.551	   15.3853	   2.48299	 9.2471e+06	    76.534	   15.3914	   2.48891	9.20995e+06	   76.5425	   15.3975	   2.49484	8.91124e+06	    76.551	   15.3914	   2.48891	8.95746e+06	   76.5425	   15.3853	   2.48299	9.25241e+06	
         R10	   5453	    76.534	   15.3731	   2.47113	9.58521e+06	    76.534	   15.3853	   2.48298	9.43895e+06	    76.551	   15.3853	   2.48299	8.92921e+06	    76.551	   15.3731	   2.47113	9.59645e+06	    76.534	   15.3792	   2.47706	9.51149e+06	   76.5425	   15.3853	   2.48299	9.17924e+06	    76.551	   15.3792	   2.47706	9.26063e+06	   76.5425	   15.3731	   2.47113	9.58877e+06	
         R10	   5454	    76.551	   15.3609	   2.45928	9.58411e+06	    76.534	   15.3609	   2.45928	9.98647e+06	    76.534	   15.3731	   2.47113	9.71751e+06	    76.551	   15.3731	   2.47113	9.30537e+06	   76.5425	   15.3609	   2.45928	9.77992e+06	    76.534	    15.367	    2.4652	9.85102e+06	   76.5425	   15.3731	   2.47113	 9.5082e+06	    76.551	    15.367	    2.4652	9.44338e+06	
         R10	   5455	    76.551	   15.3487	   2.44742	9.79332e+06	    76.534	   15.3487	   2.44742	1.04263e+07	    76.534	   15.3609	   2.45928	1.00668e+07	    76.551	   15.3609	   2.45928	9.55779e+06	   76.5425	   15.3487	   2.44742	1.00985e+07	    76.534	   15.3548	   2.45335	1.02443e+07	   76.5425	   15.3609	   2.45928	9.80724e+06	    76.551	   15.3548	   2.45335	9.67039e+06	
         R10	   5456	    76.534	   15.3244	   2.42371	1.08652e+07	    76.517	   15.3244	   2.42371	1.22992e+07	    76.517	   15.3366	   2.43557	1.20218e+07	    76.534	   15.3366	   2.43557	1.07297e+07	   76.5255	   15.3244	   2.42371	1.15347e+07	    76.517	   15.3305	   2.42964	1.21524e+07	   76.5255	   15.3366	   2.43557	1.13494e+07	    76.534	   15.3305	   2.42964	1.07782e+07	
         R10	   5457	    76.551	   15.3366	   2.43557	9.99743e+06	    76.551	   15.3244	   2.42371	9.94233e+06	    76.534	   15.3244	   2.42371	1.07998e+07	    76.534	   15.3366	   2.43557	1.08369e+07	    76.551	   15.3305	   2.42964	9.94516e+06	   76.5425	   15.3244	   2.42371	1.03509e+07	    76.534	   15.3305	   2.42964	1.07947e+07	   76.5425	   15.3366	   2.43557	1.04007e+07	
         R10	   5458	    76.585	   15.3487	   2.44742	9.00984e+06	    76.585	   15.3366	   2.43556	8.97525e+06	    76.568	   15.3366	   2.43556	  9.422e+06	    76.568	   15.3487	   2.44742	9.35788e+06	    76.585	   15.3426	   2.44149	8.98184e+06	   76.5765	   15.3366	   2.43556	9.19161e+06	    76.568	   15.3426	   2.44149	9.38058e+06	   76.5765	   15.3487	   2.44742	9.17758e+06	
         R10	   5459	    76.602	   15.3487	   2.44742	8.73986e+06	    76.602	   15.3366	   2.43557	8.69248e+06	    76.585	   15.3366	   2.43556	9.07416e+06	    76.585	   15.3487	   2.44742	 8.9267e+06	    76.602	   15.3426	   2.44149	8.70806e+06	   76.5935	   15.3366	   2.43556	8.87592e+06	    76.585	   15.3426	   2.44149	8.99469e+06	   76.5935	   15.3487	   2.44742	8.82975e+06	
         R10	   5460	    76.619	   15.3487	   2.44742	8.49553e+06	    76.619	   15.3366	   2.43557	8.47584e+06	    76.602	   15.3366	   2.43557	8.72293e+06	    76.602	   15.3487	   2.44742	8.70992e+06	    76.619	   15.3426	   2.44149	 8.4809e+06	   76.6105	   15.3366	   2.43557	8.59564e+06	    76.602	   15.3426	   2.44149	8.71119e+06	   76.6105	   15.3487	   2.44742	8.59894e+06	
         R10	   5461	    76.619	   15.3609	   2.45927	8.44474e+06	    76.619	   15.3487	   2.44742	8.48149e+06	    76.602	   15.3487	   2.44742	8.69899e+06	    76.602	   15.3609	   2.45927	8.62244e+06	    76.619	   15.3548	   2.45335	 8.4596e+06	   76.6105	   15.3487	   2.44742	 8.5875e+06	    76.602	   15.3548	   2.45335	8.65651e+06	   76.6105	   15.3609	   2.45927	8.53024e+06	
         R10	   5462	    76.602	   15.3731	   2.47113	8.51908e+06	    76.619	   15.3731	   2.47113	8.36367e+06	    76.619	   15.3609	   2.45927	8.43985e+06	    76.602	   15.3609	   2.45927	8.62938e+06	   76.6105	   15.3731	   2.47113	 8.4391e+06	    76.619	    15.367	    2.4652	8.39901e+06	   76.6105	   15.3609	   2.45927	8.53103e+06	    76.602	    15.367	    2.4652	8.57235e+06	
         R10	   5463	    76.602	   15.3853	   2.48298	 8.5573e+06	    76.619	   15.3853	   2.48298	8.20613e+06	    76.619	   15.3731	   2.47113	8.37635e+06	    76.602	   15.3731	   2.47113	8.47652e+06	   76.6105	   15.3853	   2.48298	8.37909e+06	    76.619	   15.3792	   2.47706	8.29025e+06	   76.6105	   15.3731	   2.47113	8.42425e+06	    76.602	   15.3792	   2.47706	8.51374e+06	
         R10	   5464	    76.585	   15.3853	   2.48299	 8.8586e+06	    76.602	   15.3853	   2.48298	8.26099e+06	    76.602	   15.3731	   2.47113	8.64383e+06	    76.585	   15.3731	   2.47113	8.60383e+06	   76.5935	   15.3853	   2.48299	8.55444e+06	    76.602	   15.3792	   2.47706	8.45225e+06	   76.5935	   15.3731	   2.47113	8.62238e+06	    76.585	   15.3792	   2.47706	8.72573e+06	
         R10	   5465	    76.568	   15.3731	   2.47113	8.82369e+06	    76.568	   15.3853	   2.48299	  8.994e+06	    76.585	   15.3853	   2.48299	8.41462e+06	    76.585	   15.3731	   2.47113	8.97728e+06	    76.568	   15.3792	   2.47706	8.90587e+06	   76.5765	   15.3853	   2.48299	8.69975e+06	    76.585	   15.3792	   2.47706	8.69574e+06	   76.5765	   15.3731	   2.47113	8.89725e+06	
         R10	   5466	    76.551	   15.3731	   2.47113	8.99905e+06	    76.551	   15.3853	   2.48299	9.37595e+06	    76.568	   15.3853	   2.48299	8.64283e+06	    76.568	   15.3731	   2.47113	9.17943e+06	    76.551	   15.3792	   2.47706	9.18596e+06	   76.5595	   15.3853	   2.48299	9.00801e+06	    76.568	   15.3792	   2.47706	8.91005e+06	   76.5595	   15.3731	   2.47113	9.08826e+06	
         R10	   5467	    76.551	   15.3609	   2.45928	  9.507e+06	    76.551	   15.3731	   2.47113	9.36795e+06	    76.568	   15.3731	   2.47113	8.85718e+06	    76.568	   15.3609	   2.45928	9.30023e+06	    76.551	    15.367	    2.4652	 9.4313e+06	   76.5595	   15.3731	   2.47113	9.10508e+06	    76.568	    15.367	    2.4652	9.07782e+06	   76.5595	   15.3609	   2.45928	9.39829e+06	
         R10	   5468	    76.551	   15.3366	   2.43557	9.95637e+06	    76.534	   15.3366	   2.43557	1.07487e+07	    76.534	   15.3487	   2.44742	1.04756e+07	    76.551	   15.3487	   2.44742	9.84877e+06	   76.5425	   15.3366	   2.43557	1.03366e+07	    76.534	   15.3426	   2.44149	1.06049e+07	   76.5425	   15.3487	   2.44742	1.01506e+07	    76.551	   15.3426	   2.44149	 9.8928e+06	
         R10	   5469	    76.568	   15.3487	   2.44742	9.32699e+06	    76.568	   15.3366	   2.43556	9.43053e+06	    76.551	   15.3366	   2.43557	9.98685e+06	    76.551	   15.3487	   2.44742	9.88613e+06	    76.568	   15.3426	   2.44149	9.37039e+06	   76.5595	   15.3366	   2.43556	9.69689e+06	    76.551	   15.3426	   2.44149	9.92375e+06	   76.5595	   15.3487	   2.44742	9.59709e+06	
         R10	   5470	    76.602	   15.3609	   2.45927	 8.6291e+06	    76.602	   15.3487	   2.44742	8.70414e+06	    76.585	   15.3487	   2.44742	8.94954e+06	    76.585	   15.3609	   2.45927	8.90547e+06	    76.602	   15.3548	   2.45335	8.66253e+06	   76.5935	   15.3487	   2.44742	8.82261e+06	    76.585	   15.3548	   2.45335	8.92245e+06	   76.5935	   15.3609	   2.45927	8.76306e+06	
         R10	   5471	    76.585	   15.3731	   2.47113	8.78697e+06	    76.602	   15.3731	   2.47113	8.53042e+06	    76.602	   15.3609	   2.45927	8.62341e+06	    76.585	   15.3609	   2.45927	8.84048e+06	   76.5935	   15.3731	   2.47113	8.65631e+06	    76.602	    15.367	    2.4652	8.57394e+06	   76.5935	   15.3609	   2.45927	8.72841e+06	    76.585	    15.367	    2.4652	8.80992e+06	
         R10	   5472	    76.568	   15.3609	   2.45928	9.05891e+06	    76.568	   15.3731	   2.47113	9.17305e+06	    76.585	   15.3731	   2.47113	8.65412e+06	    76.585	   15.3609	   2.45927	8.96885e+06	    76.568	    15.367	    2.4652	9.11076e+06	   76.5765	   15.3731	   2.47113	8.90832e+06	    76.585	    15.367	    2.4652	8.81035e+06	   76.5765	   15.3609	   2.45927	 9.0109e+06	
         R10	   5473	    76.568	   15.3487	   2.44742	9.47079e+06	    76.551	   15.3487	   2.44742	9.77894e+06	    76.551	   15.3609	   2.45928	 9.5514e+06	    76.568	   15.3609	   2.45928	9.16175e+06	   76.5595	   15.3487	   2.44742	9.61577e+06	    76.551	   15.3548	   2.45335	9.65694e+06	   76.5595	   15.3609	   2.45928	9.34868e+06	    76.568	   15.3548	   2.45335	9.31252e+06	
         R10	   5474	    76.585	   15.3487	   2.44742	9.01419e+06	    76.568	   15.3487	   2.44742	9.31426e+06	    76.568	   15.3609	   2.45928	9.26631e+06	    76.585	   15.3609	   2.45927	8.81691e+06	   76.5765	   15.3487	   2.44742	 9.1612e+06	    76.568	   15.3548	   2.45335	9.28321e+06	   76.5765	   15.3609	   2.45927	9.03524e+06	    76.585	   15.3548	   2.45335	8.91101e+06	
         R10	   5475	    76.364	    15.147	       2.4	9.43736e+06	    76.364	     15.13	       2.4	9.36777e+06	    76.347	     15.13	       2.4	9.30427e+06	    76.347	    15.147	       2.4	9.35872e+06	    76.364	   15.1385	       2.4	9.40221e+06	   76.3555	     15.13	       2.4	9.33548e+06	    76.347	   15.1385	       2.4	9.33112e+06	   76.3555	    15.147	       2.4	9.39747e+06	
         R10	   5476	    76.381	    15.147	       2.4	9.49632e+06	    76.381	     15.13	       2.4	9.41289e+06	    76.364	     15.13	       2.4	9.36806e+06	    76.364	    15.147	       2.4	9.43789e+06	    76.381	   15.1385	       2.4	9.45429e+06	   76.3725	     15.13	       2.4	9.38989e+06	    76.364	   15.1385	       2.4	9.40262e+06	   76.3725	    15.147	       2.4	9.46646e+06	
         R10	   5477	    76.398	    15.147	       2.4	9.52835e+06	    76.398	     15.13	       2.4	9.43688e+06	    76.381	     15.13	       2.4	9.41356e+06	    76.381	    15.147	       2.4	9.49668e+06	    76.398	   15.1385	       2.4	9.48236e+06	   76.3895	     15.13	       2.4	9.42457e+06	    76.381	   15.1385	       2.4	 9.4548e+06	   76.3895	    15.147	       2.4	9.51177e+06	
         R10	   5478	    76.415	    15.147	       2.4	9.53103e+06	    76.415	     15.13	       2.4	9.43833e+06	    76.398	     15.13	       2.4	 9.4373e+06	    76.398	    15.147	       2.4	9.52844e+06	    76.415	   15.1385	       2.4	9.48449e+06	   76.4065	     15.13	       2.4	9.43709e+06	    76.398	   15.1385	       2.4	9.48262e+06	   76.4065	    15.147	       2.4	 9.5289e+06	
         R10	   5479	    76.432	    15.147	       2.4	9.50665e+06	    76.432	     15.13	       2.4	9.42456e+06	    76.415	     15.13	       2.4	9.43861e+06	    76.415	    15.147	       2.4	9.53084e+06	    76.432	   15.1385	       2.4	9.46547e+06	   76.4235	     15.13	       2.4	9.43076e+06	    76.415	   15.1385	       2.4	9.48454e+06	   76.4235	    15.147	       2.4	9.51779e+06	
         R10	   5480	    76.449	    15.147	       2.4	9.46439e+06	    76.449	     15.13	       2.4	9.40368e+06	    76.432	     15.13	       2.4	9.41931e+06	    76.432	    15.147	       2.4	9.50658e+06	    76.449	   15.1385	       2.4	9.43394e+06	   76.4405	     15.13	       2.4	9.41055e+06	    76.432	   15.1385	       2.4	9.46281e+06	   76.4405	    15.147	       2.4	9.48438e+06	
         R10	   5481	    76.466	    15.147	       2.4	9.43781e+06	    76.466	     15.13	       2.4	9.37312e+06	    76.449	     15.13	       2.4	9.40791e+06	    76.449	    15.147	       2.4	9.46133e+06	    76.466	   15.1385	       2.4	9.40533e+06	   76.4575	     15.13	       2.4	9.38952e+06	    76.449	   15.1385	       2.4	9.43453e+06	   76.4575	    15.147	       2.4	9.44828e+06	
         R10	   5482	    76.483	    15.147	       2.4	9.43066e+06	    76.483	     15.13	       2.4	9.39576e+06	    76.466	     15.13	       2.4	9.37822e+06	    76.466	    15.147	       2.4	9.43291e+06	    76.483	   15.1385	       2.4	9.41302e+06	   76.4745	     15.13	       2.4	9.38593e+06	    76.466	   15.1385	       2.4	9.40543e+06	   76.4745	    15.147	       2.4	9.43044e+06	
         R10	   5483	      76.5	    15.147	       2.4	9.48703e+06	      76.5	     15.13	       2.4	9.42414e+06	    76.483	     15.13	       2.4	9.39306e+06	    76.483	    15.147	       2.4	9.43141e+06	      76.5	   15.1385	       2.4	9.45526e+06	   76.4915	     15.13	       2.4	9.40763e+06	    76.483	   15.1385	       2.4	9.41204e+06	   76.4915	    15.147	       2.4	9.45793e+06	
         R10	   5484	      76.5	    15.164	       2.4	9.54638e+06	      76.5	    15.147	       2.4	9.48544e+06	    76.483	    15.147	       2.4	9.43374e+06	    76.483	    15.164	       2.4	9.47226e+06	      76.5	   15.1555	       2.4	9.51537e+06	   76.4915	    15.147	       2.4	9.45831e+06	    76.483	   15.1555	       2.4	9.45272e+06	   76.4915	    15.164	       2.4	9.50752e+06	
         R10	   5485	    76.483	    15.181	       2.4	 9.5106e+06	      76.5	    15.181	       2.4	9.60561e+06	      76.5	    15.164	       2.4	9.54431e+06	    76.483	    15.164	       2.4	9.47347e+06	   76.4915	    15.181	       2.4	9.55528e+06	      76.5	   15.1725	       2.4	9.57401e+06	   76.4915	    15.164	       2.4	9.50709e+06	    76.483	   15.1725	       2.4	9.49164e+06	
         R10	   5486	    76.483	    15.198	       2.4	9.55266e+06	      76.5	    15.198	       2.4	9.66492e+06	      76.5	    15.181	       2.4	9.60202e+06	    76.483	    15.181	       2.4	9.51145e+06	   76.4915	    15.198	       2.4	9.60375e+06	      76.5	   15.1895	       2.4	9.63173e+06	   76.4915	    15.181	       2.4	9.55392e+06	    76.483	   15.1895	       2.4	9.53152e+06	
         R10	   5487	    76.483	    15.215	       2.4	9.61726e+06	      76.5	    15.215	       2.4	9.72927e+06	      76.5	    15.198	       2.4	9.65795e+06	    76.483	    15.198	       2.4	9.55254e+06	   76.4915	    15.215	       2.4	9.66298e+06	      76.5	   15.2065	       2.4	9.69038e+06	   76.4915	    15.198	       2.4	9.60022e+06	    76.483	   15.2065	       2.4	9.58424e+06	
         R10	   5488	    76.483	    15.232	       2.4	9.75684e+06	      76.5	    15.232	       2.4	9.80781e+06	      76.5	    15.215	       2.4	9.71552e+06	    76.483	    15.215	       2.4	9.61313e+06	   76.4915	    15.232	       2.4	9.75856e+06	      76.5	   15.2235	       2.4	9.75576e+06	   76.4915	    15.215	       2.4	9.65409e+06	    76.483	   15.2235	       2.4	 9.6844e+06	
         R10	   5489	    76.483	    15.249	       2.4	 1.0091e+07	      76.5	    15.249	       2.4	9.94261e+06	      76.5	    15.232	       2.4	9.78482e+06	    76.483	    15.232	       2.4	9.74218e+06	   76.4915	    15.249	       2.4	9.95953e+06	      76.5	   15.2405	       2.4	 9.8542e+06	   76.4915	    15.232	       2.4	9.73976e+06	    76.483	   15.2405	       2.4	9.91598e+06	
         R10	   5490	    76.483	    15.266	       2.4	1.09288e+07	      76.5	    15.266	       2.4	1.01393e+07	      76.5	    15.249	       2.4	9.89442e+06	    76.483	    15.249	       2.4	1.00441e+07	   76.4915	    15.266	       2.4	1.03822e+07	      76.5	   15.2575	       2.4	9.99966e+06	   76.4915	    15.249	       2.4	9.91257e+06	    76.483	   15.2575	       2.4	1.04798e+07	
         R10	   5491	    76.483	    15.283	       2.4	1.28854e+07	      76.5	    15.283	       2.4	1.04792e+07	      76.5	    15.266	       2.4	1.01586e+07	    76.483	    15.266	       2.4	1.10053e+07	   76.4915	    15.283	       2.4	1.14859e+07	      76.5	   15.2745	       2.4	1.02524e+07	   76.4915	    15.266	       2.4	1.04303e+07	    76.483	   15.2745	       2.4	1.18759e+07	
         R10	   5492	    76.483	      15.3	       2.4	1.59001e+07	      76.5	      15.3	       2.4	1.67588e+07	      76.5	    15.283	       2.4	1.04072e+07	    76.483	    15.283	       2.4	1.39273e+07	   76.4915	      15.3	       2.4	1.60114e+07	      76.5	   15.2915	       2.4	1.26918e+07	   76.4915	    15.283	       2.4	1.19119e+07	    76.483	   15.2915	       2.4	 1.4368e+07	
         R10	   5493	    76.466	      15.3	       2.4	1.40966e+07	    76.483	      15.3	       2.4	1.57189e+07	    76.483	    15.283	       2.4	1.36705e+07	    76.466	    15.283	       2.4	1.38163e+07	   76.4745	      15.3	       2.4	1.48931e+07	    76.483	   15.2915	       2.4	1.41474e+07	   76.4745	    15.283	       2.4	1.36932e+07	    76.466	   15.2915	       2.4	1.37536e+07	
         R10	   5494	    76.449	    15.283	       2.4	 1.2713e+07	    76.449	      15.3	       2.4	1.26188e+07	    76.466	      15.3	       2.4	1.40371e+07	    76.466	    15.283	       2.4	1.35229e+07	    76.449	   15.2915	       2.4	1.25782e+07	   76.4575	      15.3	       2.4	1.33225e+07	    76.466	   15.2915	       2.4	1.35877e+07	   76.4575	    15.283	       2.4	1.31085e+07	
         R10	   5495	    76.432	    15.283	       2.4	1.17166e+07	    76.432	      15.3	       2.4	1.15034e+07	    76.449	      15.3	       2.4	1.25703e+07	    76.449	    15.283	       2.4	1.26674e+07	    76.432	   15.2915	       2.4	1.15697e+07	   76.4405	      15.3	       2.4	1.20317e+07	    76.449	   15.2915	       2.4	1.25311e+07	   76.4405	    15.283	       2.4	1.21881e+07	
         R10	   5496	    76.415	    15.283	       2.4	1.09278e+07	    76.415	      15.3	       2.4	1.06767e+07	    76.432	      15.3	       2.4	1.14822e+07	    76.432	    15.283	       2.4	1.17211e+07	    76.415	   15.2915	       2.4	1.07808e+07	   76.4235	      15.3	       2.4	1.10756e+07	    76.432	   15.2915	       2.4	1.15606e+07	   76.4235	    15.283	       2.4	1.13218e+07	
         R10	   5497	    76.398	    15.283	       2.4	1.03192e+07	    76.398	      15.3	       2.4	1.00716e+07	    76.415	      15.3	       2.4	1.06763e+07	    76.415	    15.283	       2.4	1.09355e+07	    76.398	   15.2915	       2.4	 1.0183e+07	   76.4065	      15.3	       2.4	1.03707e+07	    76.415	   15.2915	       2.4	1.07838e+07	   76.4065	    15.283	       2.4	1.06249e+07	
         R10	   5498	    76.381	    15.283	       2.4	9.84535e+06	    76.381	      15.3	       2.4	9.61245e+06	    76.398	      15.3	       2.4	1.00787e+07	    76.398	    15.283	       2.4	1.03244e+07	    76.381	   15.2915	       2.4	 9.7212e+06	   76.3895	      15.3	       2.4	9.84316e+06	    76.398	   15.2915	       2.4	1.01885e+07	   76.3895	    15.283	       2.4	1.00826e+07	
         R10	   5499	    76.364	    15.283	       2.4	 9.4672e+06	    76.364	      15.3	       2.4	9.25539e+06	    76.381	      15.3	       2.4	9.61358e+06	    76.381	    15.283	       2.4	9.84942e+06	    76.364	   15.2915	       2.4	9.35605e+06	   76.3725	      15.3	       2.4	9.43216e+06	    76.381	   15.2915	       2.4	9.72332e+06	   76.3725	    15.283	       2.4	9.65645e+06	
         R10	   5500	    76.347	    15.283	       2.4	9.16075e+06	    76.347	      15.3	       2.4	8.96005e+06	    76.364	      15.3	       2.4	9.24261e+06	    76.364	    15.283	       2.4	9.47301e+06	    76.347	   15.2915	       2.4	9.05673e+06	   76.3555	      15.3	       2.4	9.09925e+06	    76.364	   15.2915	       2.4	9.35242e+06	   76.3555	    15.283	       2.4	9.31529e+06	
         R10	   5501	     76.33	    15.283	       2.4	8.90806e+06	     76.33	      15.3	       2.4	8.70704e+06	    76.347	      15.3	       2.4	8.95514e+06	    76.347	    15.283	       2.4	9.16452e+06	     76.33	   15.2915	       2.4	8.80494e+06	   76.3385	      15.3	       2.4	8.82946e+06	    76.347	   15.2915	       2.4	9.05611e+06	   76.3385	    15.283	       2.4	9.03487e+06	
         R10	   5502	     76.33	    15.266	       2.4	9.06177e+06	     76.33	    15.283	       2.4	8.90317e+06	    76.347	    15.283	       2.4	9.15951e+06	    76.347	    15.266	       2.4	9.31835e+06	     76.33	   15.2745	       2.4	8.98023e+06	   76.3385	    15.283	       2.4	9.02992e+06	    76.347	   15.2745	       2.4	9.23572e+06	   76.3385	    15.266	       2.4	9.18895e+06	
         R10	   5503	    76.347	    15.249	       2.4	9.43116e+06	     76.33	    15.249	       2.4	9.18435e+06	     76.33	    15.266	       2.4	9.06053e+06	    76.347	    15.266	       2.4	9.31872e+06	   76.3385	    15.249	       2.4	9.30685e+06	     76.33	   15.2575	       2.4	9.12042e+06	   76.3385	    15.266	       2.4	9.18851e+06	    76.347	   15.2575	       2.4	9.37214e+06	
         R10	   5504	    76.347	    15.232	       2.4	9.49373e+06	     76.33	    15.232	       2.4	 9.2672e+06	     76.33	    15.249	       2.4	9.18487e+06	    76.347	    15.249	       2.4	9.43008e+06	   76.3385	    15.232	       2.4	9.37971e+06	     76.33	   15.2405	       2.4	9.22433e+06	   76.3385	    15.249	       2.4	9.30658e+06	    76.347	   15.2405	       2.4	9.45959e+06	
         R10	   5505	    76.347	    15.215	       2.4	9.51181e+06	     76.33	    15.215	       2.4	9.31455e+06	     76.33	    15.232	       2.4	 9.2682e+06	    76.347	    15.232	       2.4	9.49223e+06	   76.3385	    15.215	       2.4	9.41252e+06	     76.33	   15.2235	       2.4	9.28995e+06	   76.3385	    15.232	       2.4	9.37946e+06	    76.347	   15.2235	       2.4	9.50021e+06	
         R10	   5506	    76.347	    15.198	       2.4	9.49734e+06	     76.33	    15.198	       2.4	9.32994e+06	     76.33	    15.215	       2.4	9.31406e+06	    76.347	    15.215	       2.4	9.51036e+06	   76.3385	    15.198	       2.4	9.41303e+06	     76.33	   15.2065	       2.4	 9.3209e+06	   76.3385	    15.215	       2.4	9.41155e+06	    76.347	   15.2065	       2.4	9.50249e+06	
         R10	   5507	    76.347	    15.181	       2.4	9.46069e+06	     76.33	    15.181	       2.4	9.32277e+06	     76.33	    15.198	       2.4	9.32906e+06	    76.347	    15.198	       2.4	 9.4962e+06	   76.3385	    15.181	       2.4	9.39115e+06	     76.33	   15.1895	       2.4	9.32507e+06	   76.3385	    15.198	       2.4	9.41202e+06	    76.347	   15.1895	       2.4	9.47746e+06	
         R10	   5508	    76.347	    15.164	       2.4	9.41231e+06	     76.33	    15.164	       2.4	9.29911e+06	     76.33	    15.181	       2.4	9.32176e+06	    76.347	    15.181	       2.4	9.46004e+06	   76.3385	    15.164	       2.4	9.35516e+06	     76.33	   15.1725	       2.4	9.30983e+06	   76.3385	    15.181	       2.4	9.39034e+06	    76.347	   15.1725	       2.4	9.43547e+06	
         R10	   5509	    76.347	    15.147	       2.4	9.35828e+06	    76.347	     15.13	       2.4	9.30392e+06	     76.33	     15.13	       2.4	9.22685e+06	     76.33	    15.147	       2.4	9.26536e+06	    76.347	   15.1385	       2.4	9.33073e+06	   76.3385	     15.13	       2.4	 9.2649e+06	     76.33	   15.1385	       2.4	9.24575e+06	   76.3385	    15.147	       2.4	9.31131e+06	
         R10	   5510	    76.381	    15.164	       2.4	9.59126e+06	    76.381	    15.147	       2.4	9.49625e+06	    76.364	    15.147	       2.4	9.43834e+06	    76.364	    15.164	       2.4	9.51316e+06	    76.381	   15.1555	       2.4	9.54329e+06	   76.3725	    15.147	       2.4	9.46665e+06	    76.364	   15.1555	       2.4	9.47525e+06	   76.3725	    15.164	       2.4	9.55149e+06	
         R10	   5511	    76.398	    15.164	       2.4	9.63887e+06	    76.398	    15.147	       2.4	 9.5283e+06	    76.381	    15.147	       2.4	9.49659e+06	    76.381	    15.164	       2.4	9.59222e+06	    76.398	   15.1555	       2.4	9.58321e+06	   76.3895	    15.147	       2.4	9.51171e+06	    76.381	   15.1555	       2.4	9.54395e+06	   76.3895	    15.164	       2.4	 9.6147e+06	
         R10	   5512	    76.415	    15.164	       2.4	9.64712e+06	    76.415	    15.147	       2.4	9.53061e+06	    76.398	    15.147	       2.4	9.52811e+06	    76.398	    15.164	       2.4	9.63964e+06	    76.415	   15.1555	       2.4	 9.5886e+06	   76.4065	    15.147	       2.4	9.52852e+06	    76.398	   15.1555	       2.4	 9.5835e+06	   76.4065	    15.164	       2.4	 9.6424e+06	
         R10	   5513	    76.432	    15.164	       2.4	9.61494e+06	    76.432	    15.147	       2.4	9.50499e+06	    76.415	    15.147	       2.4	9.53014e+06	    76.415	    15.164	       2.4	9.64712e+06	    76.432	   15.1555	       2.4	 9.5598e+06	   76.4235	    15.147	       2.4	9.51661e+06	    76.415	   15.1555	       2.4	9.58836e+06	   76.4235	    15.164	       2.4	9.62988e+06	
         R10	   5514	    76.449	    15.164	       2.4	9.55159e+06	    76.449	    15.147	       2.4	9.46634e+06	    76.432	    15.147	       2.4	9.50462e+06	    76.432	    15.164	       2.4	 9.6134e+06	    76.449	   15.1555	       2.4	9.50885e+06	   76.4405	    15.147	       2.4	9.48438e+06	    76.432	   15.1555	       2.4	9.55884e+06	   76.4405	    15.164	       2.4	9.58114e+06	
         R10	   5515	    76.466	    15.164	       2.4	9.49007e+06	    76.466	    15.147	       2.4	9.43377e+06	    76.449	    15.147	       2.4	9.46161e+06	    76.449	    15.164	       2.4	9.54961e+06	    76.466	   15.1555	       2.4	9.46179e+06	   76.4575	    15.147	       2.4	9.44642e+06	    76.449	   15.1555	       2.4	 9.5055e+06	   76.4575	    15.164	       2.4	9.51821e+06	
         R10	   5516	    76.483	    15.164	       2.4	9.47411e+06	    76.483	    15.147	       2.4	9.43329e+06	    76.466	    15.147	       2.4	9.43033e+06	    76.466	    15.164	       2.4	9.48692e+06	    76.483	   15.1555	       2.4	9.45343e+06	   76.4745	    15.147	       2.4	9.43044e+06	    76.466	   15.1555	       2.4	9.45849e+06	   76.4745	    15.164	       2.4	9.47865e+06	
         R10	   5517	    76.483	    15.181	       2.4	9.51523e+06	    76.483	    15.164	       2.4	9.47481e+06	    76.466	    15.164	       2.4	9.48498e+06	    76.466	    15.181	       2.4	9.56013e+06	    76.483	   15.1725	       2.4	9.49464e+06	   76.4745	    15.164	       2.4	9.47803e+06	    76.466	   15.1725	       2.4	9.52242e+06	   76.4745	    15.181	       2.4	9.53494e+06	
         R10	   5518	    76.466	    15.198	       2.4	9.67437e+06	    76.483	    15.198	       2.4	9.56333e+06	    76.483	    15.181	       2.4	9.51564e+06	    76.466	    15.181	       2.4	9.55644e+06	   76.4745	    15.198	       2.4	9.61453e+06	    76.483	   15.1895	       2.4	9.53898e+06	   76.4745	    15.181	       2.4	9.53328e+06	    76.466	   15.1895	       2.4	9.61526e+06	
         R10	   5519	    76.466	    15.215	       2.4	9.87573e+06	    76.483	    15.215	       2.4	9.64049e+06	    76.483	    15.198	       2.4	9.56376e+06	    76.466	    15.198	       2.4	9.66676e+06	   76.4745	    15.215	       2.4	9.75097e+06	    76.483	   15.2065	       2.4	9.60152e+06	   76.4745	    15.198	       2.4	9.61091e+06	    76.466	   15.2065	       2.4	9.77108e+06	
         R10	   5520	    76.466	    15.232	       2.4	1.02456e+07	    76.483	    15.232	       2.4	 9.8068e+06	    76.483	    15.215	       2.4	9.64068e+06	    76.466	    15.215	       2.4	9.86154e+06	   76.4745	    15.232	       2.4	 1.0014e+07	    76.483	   15.2235	       2.4	9.72315e+06	   76.4745	    15.215	       2.4	9.74395e+06	    76.466	   15.2235	       2.4	1.00531e+07	
         R10	   5521	    76.466	    15.249	       2.4	1.09354e+07	    76.483	    15.249	       2.4	1.01751e+07	    76.483	    15.232	       2.4	9.80708e+06	    76.466	    15.232	       2.4	1.02266e+07	   76.4745	    15.249	       2.4	1.05358e+07	    76.483	   15.2405	       2.4	9.99046e+06	   76.4745	    15.232	       2.4	1.00047e+07	    76.466	   15.2405	       2.4	1.05782e+07	
         R10	   5522	    76.466	    15.266	       2.4	1.20216e+07	    76.483	    15.266	       2.4	1.11173e+07	    76.483	    15.249	       2.4	1.01795e+07	    76.466	    15.249	       2.4	1.09321e+07	   76.4745	    15.266	       2.4	1.15379e+07	    76.483	   15.2575	       2.4	 1.0642e+07	   76.4745	    15.249	       2.4	1.05369e+07	    76.466	   15.2575	       2.4	1.14603e+07	
         R10	   5523	    76.466	    15.283	       2.4	1.35235e+07	    76.483	    15.283	       2.4	1.28058e+07	    76.483	    15.266	       2.4	1.12292e+07	    76.466	    15.266	       2.4	  1.208e+07	   76.4745	    15.283	       2.4	1.31407e+07	    76.483	   15.2745	       2.4	1.19471e+07	   76.4745	    15.266	       2.4	1.16232e+07	    76.466	   15.2745	       2.4	1.27316e+07	
         R10	   5524	    76.449	    15.283	       2.4	1.26174e+07	    76.466	    15.283	       2.4	1.33943e+07	    76.466	    15.266	       2.4	1.20579e+07	    76.449	    15.266	       2.4	1.20953e+07	   76.4575	    15.283	       2.4	1.29957e+07	    76.466	   15.2745	       2.4	 1.2654e+07	   76.4575	    15.266	       2.4	1.20607e+07	    76.449	   15.2745	       2.4	1.23069e+07	
         R10	   5525	    76.432	    15.266	       2.4	1.15556e+07	    76.432	    15.283	       2.4	1.17054e+07	    76.449	    15.283	       2.4	1.25839e+07	    76.449	    15.266	       2.4	1.20298e+07	    76.432	   15.2745	       2.4	1.16003e+07	   76.4405	    15.283	       2.4	1.21408e+07	    76.449	   15.2745	       2.4	1.22577e+07	   76.4405	    15.266	       2.4	1.17858e+07	
         R10	   5526	    76.415	    15.266	       2.4	1.09639e+07	    76.415	    15.283	       2.4	1.09302e+07	    76.432	    15.283	       2.4	1.16986e+07	    76.432	    15.266	       2.4	1.15261e+07	    76.415	   15.2745	       2.4	1.09288e+07	   76.4235	    15.283	       2.4	1.13116e+07	    76.432	   15.2745	       2.4	1.15826e+07	   76.4235	    15.266	       2.4	1.12419e+07	
         R10	   5527	    76.398	    15.266	       2.4	1.04329e+07	    76.398	    15.283	       2.4	1.03206e+07	    76.415	    15.283	       2.4	1.09285e+07	    76.415	    15.266	       2.4	1.09558e+07	    76.398	   15.2745	       2.4	1.03655e+07	   76.4065	    15.283	       2.4	1.06221e+07	    76.415	   15.2745	       2.4	 1.0924e+07	   76.4065	    15.266	       2.4	1.06924e+07	
         R10	   5528	    76.381	    15.266	       2.4	9.98871e+06	    76.381	    15.283	       2.4	9.84425e+06	    76.398	    15.283	       2.4	1.03204e+07	    76.398	    15.266	       2.4	1.04324e+07	    76.381	   15.2745	       2.4	9.90931e+06	   76.3895	    15.283	       2.4	1.00801e+07	    76.398	   15.2745	       2.4	1.03653e+07	   76.3895	    15.266	       2.4	 1.0209e+07	
         R10	   5529	    76.364	    15.266	       2.4	9.62333e+06	    76.364	    15.283	       2.4	9.46408e+06	    76.381	    15.283	       2.4	9.84755e+06	    76.381	    15.266	       2.4	9.99006e+06	    76.364	   15.2745	       2.4	9.53896e+06	   76.3725	    15.283	       2.4	9.65396e+06	    76.381	   15.2745	       2.4	9.91176e+06	   76.3725	    15.266	       2.4	9.80532e+06	
         R10	   5530	    76.347	    15.266	       2.4	9.31767e+06	    76.347	    15.283	       2.4	 9.1579e+06	    76.364	    15.283	       2.4	9.46903e+06	    76.364	    15.266	       2.4	9.62358e+06	    76.347	   15.2745	       2.4	9.23457e+06	   76.3555	    15.283	       2.4	 9.3119e+06	    76.364	   15.2745	       2.4	9.54162e+06	   76.3555	    15.266	       2.4	9.46937e+06	
         R10	   5531	    76.347	    15.249	       2.4	9.43035e+06	    76.347	    15.266	       2.4	9.31846e+06	    76.364	    15.266	       2.4	9.62277e+06	    76.364	    15.249	       2.4	9.71533e+06	    76.347	   15.2575	       2.4	 9.3716e+06	   76.3555	    15.266	       2.4	9.46937e+06	    76.364	   15.2575	       2.4	9.66502e+06	   76.3555	    15.249	       2.4	9.57185e+06	
         R10	   5532	    76.364	    15.232	       2.4	9.74189e+06	    76.347	    15.232	       2.4	9.49414e+06	    76.347	    15.249	       2.4	9.42999e+06	    76.364	    15.249	       2.4	9.71376e+06	   76.3555	    15.232	       2.4	9.61717e+06	    76.347	   15.2405	       2.4	9.45974e+06	   76.3555	    15.249	       2.4	9.57089e+06	    76.364	   15.2405	       2.4	9.72465e+06	
         R10	   5533	    76.364	    15.215	       2.4	9.71817e+06	    76.347	    15.215	       2.4	9.51283e+06	    76.347	    15.232	       2.4	 9.4924e+06	    76.364	    15.232	       2.4	9.73992e+06	   76.3555	    15.215	       2.4	9.61472e+06	    76.347	   15.2235	       2.4	 9.5008e+06	   76.3555	    15.232	       2.4	9.61532e+06	    76.364	   15.2235	       2.4	 9.7267e+06	
         R10	   5534	    76.364	    15.198	       2.4	9.66217e+06	    76.347	    15.198	       2.4	9.49838e+06	    76.347	    15.215	       2.4	9.51097e+06	    76.364	    15.215	       2.4	9.71635e+06	   76.3555	    15.198	       2.4	9.57956e+06	    76.347	   15.2065	       2.4	9.50331e+06	   76.3555	    15.215	       2.4	9.61289e+06	    76.364	   15.2065	       2.4	9.68763e+06	
         R10	   5535	    76.364	    15.181	       2.4	   9.59e+06	    76.347	    15.181	       2.4	9.46178e+06	    76.347	    15.198	       2.4	9.49674e+06	    76.364	    15.198	       2.4	9.66075e+06	   76.3555	    15.181	       2.4	9.52523e+06	    76.347	   15.1895	       2.4	9.47827e+06	   76.3555	    15.198	       2.4	9.57803e+06	    76.364	   15.1895	       2.4	9.62428e+06	
         R10	   5536	    76.347	    15.147	       2.4	9.35842e+06	     76.33	    15.147	       2.4	 9.2652e+06	     76.33	    15.164	       2.4	 9.2979e+06	    76.347	    15.164	       2.4	9.41158e+06	   76.3385	    15.147	       2.4	 9.3113e+06	     76.33	   15.1555	       2.4	9.28105e+06	   76.3385	    15.164	       2.4	 9.3542e+06	    76.347	   15.1555	       2.4	 9.3845e+06	
         R10	   5537	    76.364	    15.164	       2.4	9.51232e+06	    76.364	    15.147	       2.4	9.43783e+06	    76.347	    15.147	       2.4	9.35919e+06	    76.347	    15.164	       2.4	9.41242e+06	    76.364	   15.1555	       2.4	9.47457e+06	   76.3555	    15.147	       2.4	9.39794e+06	    76.347	   15.1555	       2.4	9.38531e+06	   76.3555	    15.164	       2.4	9.46176e+06	
         R10	   5538	    76.398	    15.181	       2.4	9.77268e+06	    76.398	    15.164	       2.4	9.63898e+06	    76.381	    15.164	       2.4	9.59265e+06	    76.381	    15.181	       2.4	9.69929e+06	    76.398	   15.1725	       2.4	9.70522e+06	   76.3895	    15.164	       2.4	9.61497e+06	    76.381	   15.1725	       2.4	9.64526e+06	   76.3895	    15.181	       2.4	9.73501e+06	
         R10	   5539	    76.415	    15.181	       2.4	 9.7978e+06	    76.415	    15.164	       2.4	9.64689e+06	    76.398	    15.164	       2.4	9.63953e+06	    76.398	    15.181	       2.4	9.77412e+06	    76.415	   15.1725	       2.4	 9.7219e+06	   76.4065	    15.164	       2.4	9.64223e+06	    76.398	   15.1725	       2.4	9.70621e+06	   76.4065	    15.181	       2.4	9.78477e+06	
         R10	   5540	    76.432	    15.181	       2.4	9.76281e+06	    76.432	    15.164	       2.4	9.61365e+06	    76.415	    15.164	       2.4	9.64621e+06	    76.415	    15.181	       2.4	9.79874e+06	    76.432	   15.1725	       2.4	9.68797e+06	   76.4235	    15.164	       2.4	9.62878e+06	    76.415	   15.1725	       2.4	9.72203e+06	   76.4235	    15.181	       2.4	9.77934e+06	
         R10	   5541	    76.449	    15.181	       2.4	9.67332e+06	    76.449	    15.164	       2.4	9.55071e+06	    76.432	    15.164	       2.4	9.61152e+06	    76.432	    15.181	       2.4	9.76206e+06	    76.449	   15.1725	       2.4	9.61188e+06	   76.4405	    15.164	       2.4	9.57976e+06	    76.432	   15.1725	       2.4	9.68653e+06	   76.4405	    15.181	       2.4	9.71595e+06	
         R10	   5542	    76.466	    15.181	       2.4	9.56634e+06	    76.466	    15.164	       2.4	9.48848e+06	    76.449	    15.164	       2.4	9.54766e+06	    76.449	    15.181	       2.4	9.66955e+06	    76.466	   15.1725	       2.4	9.52727e+06	   76.4575	    15.164	       2.4	9.51645e+06	    76.449	   15.1725	       2.4	9.60847e+06	   76.4575	    15.181	       2.4	9.61575e+06	
         R10	   5543	    76.466	    15.198	       2.4	9.68459e+06	    76.466	    15.181	       2.4	9.56395e+06	    76.449	    15.181	       2.4	9.66606e+06	    76.449	    15.198	       2.4	9.85292e+06	    76.466	   15.1895	       2.4	9.62413e+06	   76.4575	    15.181	       2.4	9.61282e+06	    76.449	   15.1895	       2.4	9.75927e+06	   76.4575	    15.198	       2.4	9.76567e+06	
         R10	   5544	    76.449	    15.215	       2.4	1.01418e+07	    76.466	    15.215	       2.4	9.88974e+06	    76.466	    15.198	       2.4	9.68039e+06	    76.449	    15.198	       2.4	9.84769e+06	   76.4575	    15.215	       2.4	1.00113e+07	    76.466	   15.2065	       2.4	9.78489e+06	   76.4575	    15.198	       2.4	  9.761e+06	    76.449	   15.2065	       2.4	9.99421e+06	
         R10	   5545	    76.449	    15.232	       2.4	1.05865e+07	    76.466	    15.232	       2.4	1.02673e+07	    76.466	    15.215	       2.4	9.88337e+06	    76.449	    15.215	       2.4	1.01367e+07	   76.4575	    15.232	       2.4	  1.042e+07	    76.466	   15.2235	       2.4	1.00748e+07	   76.4575	    15.215	       2.4	1.00056e+07	    76.449	   15.2235	       2.4	1.03599e+07	
         R10	   5546	    76.449	    15.249	       2.4	1.12329e+07	    76.466	    15.249	       2.4	1.09248e+07	    76.466	    15.232	       2.4	1.02621e+07	    76.449	    15.232	       2.4	1.05885e+07	   76.4575	    15.249	       2.4	1.10684e+07	    76.466	   15.2405	       2.4	1.05906e+07	   76.4575	    15.232	       2.4	1.04185e+07	    76.449	   15.2405	       2.4	1.09047e+07	
         R10	   5547	    76.449	    15.266	       2.4	1.19939e+07	    76.466	    15.266	       2.4	1.20166e+07	    76.466	    15.249	       2.4	1.09439e+07	    76.449	    15.249	       2.4	1.12668e+07	   76.4575	    15.266	       2.4	1.19916e+07	    76.466	   15.2575	       2.4	1.14636e+07	   76.4575	    15.249	       2.4	1.10941e+07	    76.449	   15.2575	       2.4	1.16106e+07	
         R10	   5548	    76.432	    15.266	       2.4	1.15199e+07	    76.449	    15.266	       2.4	1.19649e+07	    76.449	    15.249	       2.4	1.12339e+07	    76.432	    15.249	       2.4	1.11271e+07	   76.4405	    15.266	       2.4	1.17363e+07	    76.449	   15.2575	       2.4	1.15799e+07	   76.4405	    15.249	       2.4	1.11737e+07	    76.432	   15.2575	       2.4	 1.1307e+07	
         R10	   5549	    76.415	    15.249	       2.4	 1.0793e+07	    76.415	    15.266	       2.4	1.09483e+07	    76.432	    15.266	       2.4	1.15021e+07	    76.432	    15.249	       2.4	1.11035e+07	    76.415	   15.2575	       2.4	1.08584e+07	   76.4235	    15.266	       2.4	1.12222e+07	    76.432	   15.2575	       2.4	1.12863e+07	   76.4235	    15.249	       2.4	1.09446e+07	
         R10	   5550	    76.398	    15.249	       2.4	1.04081e+07	    76.398	    15.266	       2.4	1.04287e+07	    76.415	    15.266	       2.4	1.09427e+07	    76.415	    15.249	       2.4	1.07802e+07	    76.398	   15.2575	       2.4	1.04099e+07	   76.4065	    15.266	       2.4	1.06838e+07	    76.415	   15.2575	       2.4	1.08492e+07	   76.4065	    15.249	       2.4	 1.0592e+07	
         R10	   5551	    76.381	    15.249	       2.4	1.00416e+07	    76.381	    15.266	       2.4	9.98853e+06	    76.398	    15.266	       2.4	1.04274e+07	    76.398	    15.249	       2.4	 1.0403e+07	    76.381	   15.2575	       2.4	1.00092e+07	   76.3895	    15.266	       2.4	1.02064e+07	    76.398	   15.2575	       2.4	1.04067e+07	   76.3895	    15.249	       2.4	1.02209e+07	
         R10	   5552	    76.364	    15.249	       2.4	9.71498e+06	    76.364	    15.266	       2.4	9.62337e+06	    76.381	    15.266	       2.4	9.98788e+06	    76.381	    15.249	       2.4	1.00404e+07	    76.364	   15.2575	       2.4	9.66515e+06	   76.3725	    15.266	       2.4	9.80426e+06	    76.381	   15.2575	       2.4	1.00083e+07	   76.3725	    15.249	       2.4	9.87659e+06	
         R10	   5553	    76.364	    15.232	       2.4	9.74319e+06	    76.364	    15.249	       2.4	9.71344e+06	    76.381	    15.249	       2.4	1.00372e+07	    76.381	    15.232	       2.4	1.00081e+07	    76.364	   15.2405	       2.4	9.72513e+06	   76.3725	    15.249	       2.4	 9.8742e+06	    76.381	   15.2405	       2.4	1.00184e+07	   76.3725	    15.232	       2.4	9.87464e+06	
         R10	   5554	    76.381	    15.215	       2.4	9.92295e+06	    76.364	    15.215	       2.4	9.71988e+06	    76.364	    15.232	       2.4	9.74071e+06	    76.381	    15.232	       2.4	1.00047e+07	   76.3725	    15.215	       2.4	9.82047e+06	    76.364	   15.2235	       2.4	9.72796e+06	   76.3725	    15.232	       2.4	9.87168e+06	    76.381	   15.2235	       2.4	9.96092e+06	
         R10	   5555	    76.381	    15.198	       2.4	 9.8131e+06	    76.364	    15.198	       2.4	9.66385e+06	    76.364	    15.215	       2.4	9.71745e+06	    76.381	    15.215	       2.4	9.92027e+06	   76.3725	    15.198	       2.4	9.73759e+06	    76.364	   15.2065	       2.4	9.68902e+06	   76.3725	    15.215	       2.4	9.81791e+06	    76.381	   15.2065	       2.4	9.86485e+06	
         R10	   5556	    76.364	    15.164	       2.4	 9.5129e+06	    76.347	    15.164	       2.4	9.41294e+06	    76.347	    15.181	       2.4	9.46068e+06	    76.364	    15.181	       2.4	9.58897e+06	   76.3555	    15.164	       2.4	 9.4623e+06	    76.347	   15.1725	       2.4	9.43609e+06	   76.3555	    15.181	       2.4	9.52416e+06	    76.364	   15.1725	       2.4	 9.5502e+06	
         R10	   5557	    76.381	    15.181	       2.4	9.69794e+06	    76.381	    15.164	       2.4	9.59169e+06	    76.364	    15.164	       2.4	9.51392e+06	    76.364	    15.181	       2.4	9.59006e+06	    76.381	   15.1725	       2.4	 9.6441e+06	   76.3725	    15.164	       2.4	9.55209e+06	    76.364	   15.1725	       2.4	9.55126e+06	   76.3725	    15.181	       2.4	9.64321e+06	
         R10	   5558	    76.415	    15.198	       2.4	9.99153e+06	    76.415	    15.181	       2.4	9.79785e+06	    76.398	    15.181	       2.4	9.77477e+06	    76.398	    15.198	       2.4	9.93222e+06	    76.415	   15.1895	       2.4	9.89386e+06	   76.4065	    15.181	       2.4	9.78512e+06	    76.398	   15.1895	       2.4	9.85244e+06	   76.4065	    15.198	       2.4	9.96041e+06	
         R10	   5559	    76.432	    15.198	       2.4	9.97106e+06	    76.432	    15.181	       2.4	9.76181e+06	    76.415	    15.181	       2.4	9.79825e+06	    76.415	    15.198	       2.4	9.99384e+06	    76.432	   15.1895	       2.4	9.86593e+06	   76.4235	    15.181	       2.4	 9.7786e+06	    76.415	   15.1895	       2.4	9.89521e+06	   76.4235	    15.198	       2.4	9.98058e+06	
         R10	   5560	    76.449	    15.198	       2.4	9.85707e+06	    76.449	    15.181	       2.4	9.67155e+06	    76.432	    15.181	       2.4	9.75973e+06	    76.432	    15.198	       2.4	 9.9715e+06	    76.449	   15.1895	       2.4	9.76409e+06	   76.4405	    15.181	       2.4	9.71391e+06	    76.432	   15.1895	       2.4	9.86511e+06	   76.4405	    15.198	       2.4	9.91194e+06	
         R10	   5561	    76.449	    15.215	       2.4	1.01434e+07	    76.449	    15.198	       2.4	  9.855e+06	    76.432	    15.198	       2.4	 9.9697e+06	    76.432	    15.215	       2.4	1.02635e+07	    76.449	   15.2065	       2.4	9.99866e+06	   76.4405	    15.198	       2.4	9.91003e+06	    76.432	   15.2065	       2.4	1.01154e+07	   76.4405	    15.215	       2.4	1.02001e+07	
         R10	   5562	    76.432	    15.232	       2.4	1.06487e+07	    76.449	    15.232	       2.4	1.05837e+07	    76.449	    15.215	       2.4	1.01429e+07	    76.432	    15.215	       2.4	1.02649e+07	   76.4405	    15.232	       2.4	1.06114e+07	    76.449	   15.2235	       2.4	1.03616e+07	   76.4405	    15.215	       2.4	1.02006e+07	    76.432	   15.2235	       2.4	1.04539e+07	
         R10	   5563	    76.432	    15.249	       2.4	1.11007e+07	    76.449	    15.249	       2.4	1.12114e+07	    76.449	    15.232	       2.4	1.05891e+07	    76.432	    15.232	       2.4	1.06594e+07	   76.4405	    15.249	       2.4	1.11497e+07	    76.449	   15.2405	       2.4	1.08942e+07	   76.4405	    15.232	       2.4	1.06194e+07	    76.432	   15.2405	       2.4	1.08727e+07	
         R10	   5564	    76.415	    15.249	       2.4	1.07758e+07	    76.432	    15.249	       2.4	1.10869e+07	    76.432	    15.232	       2.4	1.06477e+07	    76.415	    15.232	       2.4	 1.0522e+07	   76.4235	    15.249	       2.4	1.09278e+07	    76.432	   15.2405	       2.4	1.08599e+07	   76.4235	    15.232	       2.4	1.05816e+07	    76.415	   15.2405	       2.4	 1.0642e+07	
         R10	   5565	    76.398	    15.232	       2.4	1.02826e+07	    76.398	    15.249	       2.4	1.03997e+07	    76.415	    15.249	       2.4	1.07685e+07	    76.415	    15.232	       2.4	1.05117e+07	    76.398	   15.2405	       2.4	1.03355e+07	   76.4065	    15.249	       2.4	1.05821e+07	    76.415	   15.2405	       2.4	1.06332e+07	   76.4065	    15.232	       2.4	1.03951e+07	
         R10	   5566	    76.381	    15.232	       2.4	1.00111e+07	    76.381	    15.249	       2.4	1.00377e+07	    76.398	    15.249	       2.4	1.03967e+07	    76.398	    15.232	       2.4	1.02765e+07	    76.381	   15.2405	       2.4	1.00201e+07	   76.3895	    15.249	       2.4	1.02158e+07	    76.398	   15.2405	       2.4	 1.0331e+07	   76.3895	    15.232	       2.4	1.01424e+07	
         R10	   5567	    76.381	    15.215	       2.4	9.92601e+06	    76.381	    15.232	       2.4	1.00065e+07	    76.398	    15.232	       2.4	1.02713e+07	    76.398	    15.215	       2.4	1.01063e+07	    76.381	   15.2235	       2.4	9.96337e+06	   76.3895	    15.232	       2.4	1.01375e+07	    76.398	   15.2235	       2.4	1.01854e+07	   76.3895	    15.215	       2.4	1.00149e+07	
         R10	   5568	    76.381	    15.181	       2.4	9.69889e+06	    76.364	    15.181	       2.4	9.59133e+06	    76.364	    15.198	       2.4	9.66198e+06	    76.381	    15.198	       2.4	9.81134e+06	   76.3725	    15.181	       2.4	9.64431e+06	    76.364	   15.1895	       2.4	9.62555e+06	   76.3725	    15.198	       2.4	9.73578e+06	    76.381	   15.1895	       2.4	9.75398e+06	
         R10	   5569	    76.398	    15.198	       2.4	9.92979e+06	    76.398	    15.181	       2.4	9.77334e+06	    76.381	    15.181	       2.4	9.70049e+06	    76.381	    15.198	       2.4	9.81316e+06	    76.398	   15.1895	       2.4	9.85051e+06	   76.3895	    15.181	       2.4	9.73594e+06	    76.381	   15.1895	       2.4	9.75569e+06	   76.3895	    15.198	       2.4	9.87036e+06	
         R10	   5570	    76.432	    15.215	       2.4	1.02598e+07	    76.432	    15.198	       2.4	9.97068e+06	    76.415	    15.198	       2.4	9.99486e+06	    76.415	    15.215	       2.4	1.02358e+07	    76.432	   15.2065	       2.4	1.01141e+07	   76.4235	    15.198	       2.4	 9.9809e+06	    76.415	   15.2065	       2.4	1.01137e+07	   76.4235	    15.215	       2.4	1.02453e+07	
         R10	   5571	    76.415	    15.232	       2.4	1.05112e+07	    76.432	    15.232	       2.4	1.06397e+07	    76.432	    15.215	       2.4	1.02619e+07	    76.415	    15.215	       2.4	1.02404e+07	   76.4235	    15.232	       2.4	1.05723e+07	    76.432	   15.2235	       2.4	1.04479e+07	   76.4235	    15.215	       2.4	1.02487e+07	    76.415	   15.2235	       2.4	1.03723e+07	
         R10	   5572	    76.398	    15.215	       2.4	 1.0111e+07	    76.398	    15.232	       2.4	1.02751e+07	    76.415	    15.232	       2.4	1.05045e+07	    76.415	    15.215	       2.4	1.02348e+07	    76.398	   15.2235	       2.4	1.01897e+07	   76.4065	    15.232	       2.4	1.03878e+07	    76.415	   15.2235	       2.4	1.03662e+07	   76.4065	    15.215	       2.4	1.01711e+07	
         R10	   5573	    76.398	    15.198	       2.4	9.93153e+06	    76.381	    15.198	       2.4	9.81553e+06	    76.381	    15.215	       2.4	9.92227e+06	    76.398	    15.215	       2.4	1.01029e+07	   76.3895	    15.198	       2.4	9.87239e+06	    76.381	   15.2065	       2.4	9.86706e+06	   76.3895	    15.215	       2.4	1.00113e+07	    76.398	   15.2065	       2.4	1.00153e+07	
         R10	   5574	    76.415	    15.198	       2.4	9.99273e+06	    76.398	    15.198	       2.4	9.93443e+06	    76.398	    15.215	       2.4	1.01063e+07	    76.415	    15.215	       2.4	1.02314e+07	   76.4065	    15.198	       2.4	 9.9621e+06	    76.398	   15.2065	       2.4	1.00185e+07	   76.4065	    15.215	       2.4	1.01671e+07	    76.415	   15.2065	       2.4	1.01104e+07	
         R10	   5575	    76.534	    15.147	       2.4	9.08525e+06	    76.534	     15.13	       2.4	9.03809e+06	    76.517	     15.13	       2.4	9.03786e+06	    76.517	    15.147	       2.4	9.07843e+06	    76.534	   15.1385	       2.4	9.06154e+06	   76.5255	     15.13	       2.4	9.03692e+06	    76.517	   15.1385	       2.4	9.05796e+06	   76.5255	    15.147	       2.4	 9.0805e+06	
         R10	   5576	    76.551	    15.147	       2.4	9.12433e+06	    76.551	     15.13	       2.4	9.05828e+06	    76.534	     15.13	       2.4	9.03989e+06	    76.534	    15.147	       2.4	 9.0869e+06	    76.551	   15.1385	       2.4	9.09119e+06	   76.5425	     15.13	       2.4	9.04807e+06	    76.534	   15.1385	       2.4	9.06327e+06	   76.5425	    15.147	       2.4	9.10437e+06	
         R10	   5577	    76.568	    15.147	       2.4	 9.1674e+06	    76.568	     15.13	       2.4	9.08695e+06	    76.551	     15.13	       2.4	9.05954e+06	    76.551	    15.147	       2.4	9.12626e+06	    76.568	   15.1385	       2.4	9.12704e+06	   76.5595	     15.13	       2.4	9.07234e+06	    76.551	   15.1385	       2.4	9.09279e+06	   76.5595	    15.147	       2.4	9.14574e+06	
         R10	   5578	    76.585	    15.147	       2.4	 9.1938e+06	    76.585	     15.13	       2.4	9.10424e+06	    76.568	     15.13	       2.4	9.08609e+06	    76.568	    15.147	       2.4	9.16896e+06	    76.585	   15.1385	       2.4	9.14882e+06	   76.5765	     15.13	       2.4	9.09434e+06	    76.568	   15.1385	       2.4	9.12738e+06	   76.5765	    15.147	       2.4	9.18042e+06	
         R10	   5579	    76.602	    15.147	       2.4	9.19147e+06	    76.602	     15.13	       2.4	9.10115e+06	    76.585	     15.13	       2.4	9.10587e+06	    76.585	    15.147	       2.4	9.19378e+06	    76.602	   15.1385	       2.4	9.14604e+06	   76.5935	     15.13	       2.4	9.10277e+06	    76.585	   15.1385	       2.4	9.14963e+06	   76.5935	    15.147	       2.4	9.19178e+06	
         R10	   5580	    76.619	    15.147	       2.4	9.15832e+06	    76.619	     15.13	       2.4	9.07914e+06	    76.602	     15.13	       2.4	 9.1028e+06	    76.602	    15.147	       2.4	9.19068e+06	    76.619	   15.1385	       2.4	 9.1184e+06	   76.6105	     15.13	       2.4	9.09031e+06	    76.602	   15.1385	       2.4	9.14647e+06	   76.6105	    15.147	       2.4	9.17375e+06	
         R10	   5581	    76.636	    15.147	       2.4	9.10025e+06	    76.636	     15.13	       2.4	9.03249e+06	    76.619	     15.13	       2.4	9.07915e+06	    76.619	    15.147	       2.4	9.15734e+06	    76.636	   15.1385	       2.4	  9.066e+06	   76.6275	     15.13	       2.4	9.05521e+06	    76.619	   15.1385	       2.4	9.11791e+06	   76.6275	    15.147	       2.4	9.12814e+06	
         R10	   5582	    76.653	    15.147	       2.4	9.02065e+06	    76.653	     15.13	       2.4	8.97017e+06	    76.636	     15.13	       2.4	9.03255e+06	    76.636	    15.147	       2.4	9.09999e+06	    76.653	   15.1385	       2.4	8.99502e+06	   76.6445	     15.13	       2.4	9.00081e+06	    76.636	   15.1385	       2.4	 9.0659e+06	   76.6445	    15.147	       2.4	9.05972e+06	
         R10	   5583	     76.67	    15.147	       2.4	8.92733e+06	     76.67	     15.13	       2.4	8.89417e+06	    76.653	     15.13	       2.4	8.97146e+06	    76.653	    15.147	       2.4	 9.0199e+06	     76.67	   15.1385	       2.4	8.91037e+06	   76.6615	     15.13	       2.4	8.93232e+06	    76.653	   15.1385	       2.4	8.99529e+06	   76.6615	    15.147	       2.4	8.97308e+06	
         R10	   5584	     76.67	    15.164	       2.4	8.95811e+06	     76.67	    15.147	       2.4	8.92856e+06	    76.653	    15.147	       2.4	9.02031e+06	    76.653	    15.164	       2.4	9.06928e+06	     76.67	   15.1555	       2.4	8.94284e+06	   76.6615	    15.147	       2.4	8.97391e+06	    76.653	   15.1555	       2.4	9.04428e+06	   76.6615	    15.164	       2.4	9.01313e+06	
         R10	   5585	    76.653	    15.181	       2.4	9.11259e+06	     76.67	    15.181	       2.4	8.97731e+06	     76.67	    15.164	       2.4	8.95802e+06	    76.653	    15.164	       2.4	9.07022e+06	   76.6615	    15.181	       2.4	9.04433e+06	     76.67	   15.1725	       2.4	8.96699e+06	   76.6615	    15.164	       2.4	9.01355e+06	    76.653	   15.1725	       2.4	9.09068e+06	
         R10	   5586	    76.653	    15.198	       2.4	9.14463e+06	     76.67	    15.198	       2.4	8.98004e+06	     76.67	    15.181	       2.4	 8.9779e+06	    76.653	    15.181	       2.4	9.11351e+06	   76.6615	    15.198	       2.4	9.06167e+06	     76.67	   15.1895	       2.4	8.97809e+06	   76.6615	    15.181	       2.4	9.04511e+06	    76.653	   15.1895	       2.4	9.12807e+06	
         R10	   5587	    76.653	    15.215	       2.4	9.15461e+06	     76.67	    15.215	       2.4	8.96224e+06	     76.67	    15.198	       2.4	8.98137e+06	    76.653	    15.198	       2.4	9.14553e+06	   76.6615	    15.215	       2.4	 9.0577e+06	     76.67	   15.2065	       2.4	8.97068e+06	   76.6615	    15.198	       2.4	9.06279e+06	    76.653	   15.2065	       2.4	9.14869e+06	
         R10	   5588	    76.653	    15.232	       2.4	9.13337e+06	     76.67	    15.232	       2.4	8.91377e+06	     76.67	    15.215	       2.4	8.96272e+06	    76.653	    15.215	       2.4	9.15586e+06	   76.6615	    15.232	       2.4	9.02274e+06	     76.67	   15.2235	       2.4	8.93682e+06	   76.6615	    15.215	       2.4	9.05856e+06	    76.653	   15.2235	       2.4	9.14277e+06	
         R10	   5589	    76.653	    15.249	       2.4	9.06975e+06	     76.67	    15.249	       2.4	8.83264e+06	     76.67	    15.232	       2.4	8.91421e+06	    76.653	    15.232	       2.4	9.13457e+06	   76.6615	    15.249	       2.4	8.95021e+06	     76.67	   15.2405	       2.4	8.87168e+06	   76.6615	    15.232	       2.4	9.02356e+06	    76.653	   15.2405	       2.4	 9.0998e+06	
         R10	   5590	    76.653	    15.266	       2.4	8.96265e+06	     76.67	    15.266	       2.4	8.71291e+06	     76.67	    15.249	       2.4	8.83046e+06	    76.653	    15.249	       2.4	 9.0708e+06	   76.6615	    15.266	       2.4	8.83656e+06	     76.67	   15.2575	       2.4	8.76959e+06	   76.6615	    15.249	       2.4	8.94963e+06	    76.653	   15.2575	       2.4	 9.0139e+06	
         R10	   5591	    76.653	    15.283	       2.4	 8.8096e+06	     76.67	    15.283	       2.4	8.56178e+06	     76.67	    15.266	       2.4	8.71088e+06	    76.653	    15.266	       2.4	8.96308e+06	   76.6615	    15.283	       2.4	8.68418e+06	     76.67	   15.2745	       2.4	8.63411e+06	   76.6615	    15.266	       2.4	8.83575e+06	    76.653	   15.2745	       2.4	8.88304e+06	
         R10	   5592	    76.653	      15.3	       2.4	  8.622e+06	     76.67	      15.3	       2.4	8.37677e+06	     76.67	    15.283	       2.4	8.56884e+06	    76.653	    15.283	       2.4	8.81363e+06	   76.6615	      15.3	       2.4	8.49767e+06	     76.67	   15.2915	       2.4	   8.47e+06	   76.6615	    15.283	       2.4	8.68973e+06	    76.653	   15.2915	       2.4	8.71403e+06	
         R10	   5593	    76.636	      15.3	       2.4	8.90526e+06	    76.653	      15.3	       2.4	8.62285e+06	    76.653	    15.283	       2.4	8.81129e+06	    76.636	    15.283	       2.4	9.11444e+06	   76.6445	      15.3	       2.4	8.76201e+06	    76.653	   15.2915	       2.4	8.71336e+06	   76.6445	    15.283	       2.4	8.96113e+06	    76.636	   15.2915	       2.4	 9.0043e+06	
         R10	   5594	    76.619	    15.283	       2.4	9.47946e+06	    76.619	      15.3	       2.4	9.26859e+06	    76.636	      15.3	       2.4	8.90764e+06	    76.636	    15.283	       2.4	 9.1118e+06	    76.619	   15.2915	       2.4	9.36574e+06	   76.6275	      15.3	       2.4	9.08584e+06	    76.636	   15.2915	       2.4	9.00441e+06	   76.6275	    15.283	       2.4	9.29362e+06	
         R10	   5595	    76.602	    15.283	       2.4	9.94622e+06	    76.602	      15.3	       2.4	 9.7338e+06	    76.619	      15.3	       2.4	9.24836e+06	    76.619	    15.283	       2.4	9.48188e+06	    76.602	   15.2915	       2.4	9.82692e+06	   76.6105	      15.3	       2.4	9.48865e+06	    76.619	   15.2915	       2.4	9.35715e+06	   76.6105	    15.283	       2.4	 9.7116e+06	
         R10	   5596	    76.585	    15.283	       2.4	1.05504e+07	    76.585	      15.3	       2.4	1.02985e+07	    76.602	      15.3	       2.4	9.71056e+06	    76.602	    15.283	       2.4	 9.9432e+06	    76.585	   15.2915	       2.4	1.04022e+07	   76.5935	      15.3	       2.4	1.00013e+07	    76.602	   15.2915	       2.4	9.81429e+06	   76.5935	    15.283	       2.4	1.02441e+07	
         R10	   5597	    76.568	    15.283	       2.4	1.13206e+07	    76.568	      15.3	       2.4	1.10789e+07	    76.585	      15.3	       2.4	1.03138e+07	    76.585	    15.283	       2.4	1.05359e+07	    76.568	   15.2915	       2.4	1.11587e+07	   76.5765	      15.3	       2.4	1.06917e+07	    76.585	   15.2915	       2.4	1.04033e+07	   76.5765	    15.283	       2.4	1.09254e+07	
         R10	   5598	    76.551	    15.283	       2.4	1.22605e+07	    76.551	      15.3	       2.4	 1.2178e+07	    76.568	      15.3	       2.4	1.11174e+07	    76.568	    15.283	       2.4	1.13124e+07	    76.551	   15.2915	       2.4	 1.2132e+07	   76.5595	      15.3	       2.4	1.16429e+07	    76.568	   15.2915	       2.4	1.11751e+07	   76.5595	    15.283	       2.4	1.17822e+07	
         R10	   5599	    76.534	    15.283	       2.4	1.31296e+07	    76.534	      15.3	       2.4	1.36249e+07	    76.551	      15.3	       2.4	1.22154e+07	    76.551	    15.283	       2.4	1.23063e+07	    76.534	   15.2915	       2.4	1.31856e+07	   76.5425	      15.3	       2.4	1.29156e+07	    76.551	   15.2915	       2.4	1.21745e+07	   76.5425	    15.283	       2.4	1.27081e+07	
         R10	   5600	    76.517	    15.283	       2.4	1.32592e+07	    76.517	      15.3	       2.4	1.53271e+07	    76.534	      15.3	       2.4	 1.3674e+07	    76.534	    15.283	       2.4	1.34205e+07	    76.517	   15.2915	       2.4	1.37645e+07	   76.5255	      15.3	       2.4	1.44876e+07	    76.534	   15.2915	       2.4	1.33445e+07	   76.5255	    15.283	       2.4	1.32933e+07	
         R10	   5601	      76.5	    15.283	       2.4	1.01515e+07	      76.5	      15.3	       2.4	1.60795e+07	    76.517	      15.3	       2.4	1.55149e+07	    76.517	    15.283	       2.4	1.35268e+07	      76.5	   15.2915	       2.4	1.21687e+07	   76.5085	      15.3	       2.4	1.55352e+07	    76.517	   15.2915	       2.4	1.39944e+07	   76.5085	    15.283	       2.4	1.15828e+07	
         R10	   5602	      76.5	    15.266	       2.4	9.75632e+06	      76.5	    15.283	       2.4	1.00508e+07	    76.517	    15.283	       2.4	1.25344e+07	    76.517	    15.266	       2.4	1.06592e+07	      76.5	   15.2745	       2.4	9.83466e+06	   76.5085	    15.283	       2.4	1.11049e+07	    76.517	   15.2745	       2.4	1.15262e+07	   76.5085	    15.266	       2.4	1.00616e+07	
         R10	   5603	    76.517	    15.249	       2.4	9.68903e+06	      76.5	    15.249	       2.4	9.49029e+06	      76.5	    15.266	       2.4	9.70867e+06	    76.517	    15.266	       2.4	 1.0593e+07	   76.5085	    15.249	       2.4	9.53358e+06	      76.5	   15.2575	       2.4	9.58326e+06	   76.5085	    15.266	       2.4	 1.0005e+07	    76.517	   15.2575	       2.4	1.01342e+07	
         R10	   5604	    76.517	    15.232	       2.4	9.38216e+06	      76.5	    15.232	       2.4	9.39018e+06	      76.5	    15.249	       2.4	9.53506e+06	    76.517	    15.249	       2.4	9.73687e+06	   76.5085	    15.232	       2.4	9.36263e+06	      76.5	   15.2405	       2.4	9.45334e+06	   76.5085	    15.249	       2.4	9.57931e+06	    76.517	   15.2405	       2.4	9.55887e+06	
         R10	   5605	    76.517	    15.215	       2.4	9.25111e+06	      76.5	    15.215	       2.4	9.32972e+06	      76.5	    15.232	       2.4	9.41149e+06	    76.517	    15.232	       2.4	9.39748e+06	   76.5085	    15.215	       2.4	 9.2802e+06	      76.5	   15.2235	       2.4	9.36485e+06	   76.5085	    15.232	       2.4	9.38092e+06	    76.517	   15.2235	       2.4	9.32372e+06	
         R10	   5606	    76.517	    15.198	       2.4	9.19097e+06	      76.5	    15.198	       2.4	9.27954e+06	      76.5	    15.215	       2.4	9.34268e+06	    76.517	    15.215	       2.4	9.25557e+06	   76.5085	    15.198	       2.4	9.23022e+06	      76.5	   15.2065	       2.4	9.30795e+06	   76.5085	    15.215	       2.4	9.28886e+06	    76.517	   15.2065	       2.4	9.22262e+06	
         R10	   5607	    76.517	    15.181	       2.4	9.15143e+06	      76.5	    15.181	       2.4	9.22953e+06	      76.5	    15.198	       2.4	9.28597e+06	    76.517	    15.198	       2.4	9.19131e+06	   76.5085	    15.181	       2.4	9.18765e+06	      76.5	   15.1895	       2.4	9.25605e+06	   76.5085	    15.198	       2.4	 9.2336e+06	    76.517	   15.1895	       2.4	9.17084e+06	
         R10	   5608	    76.517	    15.164	       2.4	9.11567e+06	      76.5	    15.164	       2.4	 9.1766e+06	      76.5	    15.181	       2.4	 9.2328e+06	    76.517	    15.181	       2.4	9.15065e+06	   76.5085	    15.164	       2.4	9.14434e+06	      76.5	   15.1725	       2.4	9.20377e+06	   76.5085	    15.181	       2.4	 9.1889e+06	    76.517	   15.1725	       2.4	9.13277e+06	
         R10	   5609	    76.517	    15.147	       2.4	9.07704e+06	    76.517	     15.13	       2.4	9.03658e+06	      76.5	     15.13	       2.4	9.06524e+06	      76.5	    15.147	       2.4	9.12236e+06	    76.517	   15.1385	       2.4	9.05661e+06	   76.5085	     15.13	       2.4	9.04991e+06	      76.5	   15.1385	       2.4	9.09348e+06	   76.5085	    15.147	       2.4	9.09842e+06	
         R10	   5610	    76.551	    15.164	       2.4	9.20853e+06	    76.551	    15.147	       2.4	9.12311e+06	    76.534	    15.147	       2.4	9.08653e+06	    76.534	    15.164	       2.4	9.14372e+06	    76.551	   15.1555	       2.4	 9.1657e+06	   76.5425	    15.147	       2.4	9.10358e+06	    76.534	   15.1555	       2.4	9.11499e+06	   76.5425	    15.164	       2.4	9.17453e+06	
         R10	   5611	    76.568	    15.164	       2.4	9.27435e+06	    76.568	    15.147	       2.4	9.16622e+06	    76.551	    15.147	       2.4	9.12534e+06	    76.551	    15.164	       2.4	9.21118e+06	    76.568	   15.1555	       2.4	 9.2201e+06	   76.5595	    15.147	       2.4	9.14469e+06	    76.551	   15.1555	       2.4	9.16814e+06	   76.5595	    15.164	       2.4	9.24142e+06	
         R10	   5612	    76.585	    15.164	       2.4	9.30769e+06	    76.585	    15.147	       2.4	9.19286e+06	    76.568	    15.147	       2.4	9.16822e+06	    76.568	    15.164	       2.4	9.27531e+06	    76.585	   15.1555	       2.4	9.24999e+06	   76.5765	    15.147	       2.4	9.17959e+06	    76.568	   15.1555	       2.4	9.22158e+06	   76.5765	    15.164	       2.4	9.29035e+06	
         R10	   5613	    76.602	    15.164	       2.4	9.29856e+06	    76.602	    15.147	       2.4	9.19103e+06	    76.585	    15.147	       2.4	9.19344e+06	    76.585	    15.164	       2.4	9.30754e+06	    76.602	   15.1555	       2.4	9.24439e+06	   76.5935	    15.147	       2.4	9.19139e+06	    76.585	   15.1555	       2.4	 9.2502e+06	   76.5935	    15.164	       2.4	9.30205e+06	
         R10	   5614	    76.619	    15.164	       2.4	9.24969e+06	    76.619	    15.147	       2.4	9.15885e+06	    76.602	    15.147	       2.4	9.19045e+06	    76.602	    15.164	       2.4	9.29792e+06	    76.619	   15.1555	       2.4	9.20379e+06	   76.6105	    15.147	       2.4	 9.1739e+06	    76.602	   15.1555	       2.4	9.24379e+06	   76.6105	    15.164	       2.4	9.27295e+06	
         R10	   5615	    76.636	    15.164	       2.4	9.17042e+06	    76.636	    15.147	       2.4	9.10004e+06	    76.619	    15.147	       2.4	9.15804e+06	    76.619	    15.164	       2.4	9.24882e+06	    76.636	   15.1555	       2.4	 9.1347e+06	   76.6275	    15.147	       2.4	9.12837e+06	    76.619	   15.1555	       2.4	9.20295e+06	   76.6275	    15.164	       2.4	9.20888e+06	
         R10	   5616	    76.653	    15.164	       2.4	9.06984e+06	    76.653	    15.147	       2.4	9.02124e+06	    76.636	    15.147	       2.4	 9.0995e+06	    76.636	    15.164	       2.4	9.16955e+06	    76.653	   15.1555	       2.4	9.04502e+06	   76.6445	    15.147	       2.4	9.05977e+06	    76.636	   15.1555	       2.4	  9.134e+06	   76.6445	    15.164	       2.4	9.11905e+06	
         R10	   5617	    76.653	    15.181	       2.4	9.11361e+06	    76.653	    15.164	       2.4	9.07098e+06	    76.636	    15.164	       2.4	   9.17e+06	    76.636	    15.181	       2.4	9.24117e+06	    76.653	   15.1725	       2.4	9.09158e+06	   76.6445	    15.164	       2.4	9.11984e+06	    76.636	   15.1725	       2.4	9.20482e+06	   76.6445	    15.181	       2.4	9.17669e+06	
         R10	   5618	    76.636	    15.198	       2.4	9.30725e+06	    76.653	    15.198	       2.4	9.14512e+06	    76.653	    15.181	       2.4	9.11459e+06	    76.636	    15.181	       2.4	9.24207e+06	   76.6445	    15.198	       2.4	9.22543e+06	    76.653	   15.1895	       2.4	9.12885e+06	   76.6445	    15.181	       2.4	9.17763e+06	    76.636	   15.1895	       2.4	9.27353e+06	
         R10	   5619	    76.636	    15.215	       2.4	9.35718e+06	    76.653	    15.215	       2.4	9.15521e+06	    76.653	    15.198	       2.4	9.14633e+06	    76.636	    15.198	       2.4	9.30876e+06	   76.6445	    15.215	       2.4	9.25537e+06	    76.653	   15.2065	       2.4	9.14938e+06	   76.6445	    15.198	       2.4	9.22678e+06	    76.636	   15.2065	       2.4	 9.3313e+06	
         R10	   5620	    76.636	    15.232	       2.4	9.37616e+06	    76.653	    15.232	       2.4	9.13326e+06	    76.653	    15.215	       2.4	9.15686e+06	    76.636	    15.215	       2.4	9.35899e+06	   76.6445	    15.232	       2.4	9.25379e+06	    76.653	   15.2235	       2.4	9.14322e+06	   76.6445	    15.215	       2.4	 9.2571e+06	    76.636	   15.2235	       2.4	 9.3652e+06	
         R10	   5621	    76.636	    15.249	       2.4	9.34732e+06	    76.653	    15.249	       2.4	9.07031e+06	    76.653	    15.232	       2.4	9.13471e+06	    76.636	    15.232	       2.4	9.37799e+06	   76.6445	    15.249	       2.4	9.20773e+06	    76.653	   15.2405	       2.4	9.10015e+06	   76.6445	    15.232	       2.4	9.25542e+06	    76.636	   15.2405	       2.4	9.35943e+06	
         R10	   5622	    76.636	    15.266	       2.4	9.25851e+06	    76.653	    15.266	       2.4	8.96126e+06	    76.653	    15.249	       2.4	9.07104e+06	    76.636	    15.249	       2.4	9.34875e+06	   76.6445	    15.266	       2.4	9.10853e+06	    76.653	   15.2575	       2.4	9.01331e+06	   76.6445	    15.249	       2.4	9.20881e+06	    76.636	   15.2575	       2.4	9.29955e+06	
         R10	   5623	    76.636	    15.283	       2.4	9.11075e+06	    76.653	    15.283	       2.4	8.80993e+06	    76.653	    15.266	       2.4	8.96104e+06	    76.636	    15.266	       2.4	9.25904e+06	   76.6445	    15.283	       2.4	8.95863e+06	    76.653	   15.2745	       2.4	8.88218e+06	   76.6445	    15.266	       2.4	9.10868e+06	    76.636	   15.2745	       2.4	9.18014e+06	
         R10	   5624	    76.619	    15.283	       2.4	9.47917e+06	    76.636	    15.283	       2.4	9.10807e+06	    76.636	    15.266	       2.4	9.25794e+06	    76.619	    15.266	       2.4	9.61772e+06	   76.6275	    15.283	       2.4	9.29159e+06	    76.636	   15.2745	       2.4	9.17819e+06	   76.6275	    15.266	       2.4	9.43633e+06	    76.619	   15.2745	       2.4	 9.5413e+06	
         R10	   5625	    76.602	    15.266	       2.4	1.00514e+07	    76.602	    15.283	       2.4	 9.9413e+06	    76.619	    15.283	       2.4	  9.481e+06	    76.619	    15.266	       2.4	9.61497e+06	    76.602	   15.2745	       2.4	9.98514e+06	   76.6105	    15.283	       2.4	9.70872e+06	    76.619	   15.2745	       2.4	9.54073e+06	   76.6105	    15.266	       2.4	 9.8315e+06	
         R10	   5626	    76.585	    15.266	       2.4	1.05675e+07	    76.585	    15.283	       2.4	1.05375e+07	    76.602	    15.283	       2.4	9.94713e+06	    76.602	    15.266	       2.4	  1.005e+07	    76.585	   15.2745	       2.4	1.05343e+07	   76.5935	    15.283	       2.4	1.02396e+07	    76.602	   15.2745	       2.4	9.98728e+06	   76.5935	    15.266	       2.4	1.03066e+07	
         R10	   5627	    76.568	    15.266	       2.4	1.11357e+07	    76.568	    15.283	       2.4	1.13042e+07	    76.585	    15.283	       2.4	1.05373e+07	    76.585	    15.266	       2.4	1.05767e+07	    76.568	   15.2745	       2.4	1.11902e+07	   76.5765	    15.283	       2.4	1.09178e+07	    76.585	   15.2745	       2.4	1.05385e+07	   76.5765	    15.266	       2.4	1.08529e+07	
         R10	   5628	    76.551	    15.266	       2.4	1.16463e+07	    76.551	    15.283	       2.4	1.21847e+07	    76.568	    15.283	       2.4	1.13032e+07	    76.568	    15.266	       2.4	1.11661e+07	    76.551	   15.2745	       2.4	1.18664e+07	   76.5595	    15.283	       2.4	1.17396e+07	    76.568	   15.2745	       2.4	1.12043e+07	   76.5595	    15.266	       2.4	1.13991e+07	
         R10	   5629	    76.534	    15.266	       2.4	1.17036e+07	    76.534	    15.283	       2.4	1.29939e+07	    76.551	    15.283	       2.4	1.22187e+07	    76.551	    15.266	       2.4	1.17106e+07	    76.534	   15.2745	       2.4	1.22752e+07	   76.5425	    15.283	       2.4	1.25962e+07	    76.551	   15.2745	       2.4	1.19153e+07	   76.5425	    15.266	       2.4	 1.1691e+07	
         R10	   5630	    76.517	    15.266	       2.4	1.08801e+07	    76.517	    15.283	       2.4	1.24723e+07	    76.534	    15.283	       2.4	1.31272e+07	    76.534	    15.266	       2.4	 1.1731e+07	    76.517	   15.2745	       2.4	1.16047e+07	   76.5255	    15.283	       2.4	1.27756e+07	    76.534	   15.2745	       2.4	1.23576e+07	   76.5255	    15.266	       2.4	1.12752e+07	
         R10	   5631	    76.517	    15.249	       2.4	9.83061e+06	    76.517	    15.266	       2.4	1.07738e+07	    76.534	    15.266	       2.4	1.16655e+07	    76.534	    15.249	       2.4	1.05913e+07	    76.517	   15.2575	       2.4	1.02954e+07	   76.5255	    15.266	       2.4	1.11892e+07	    76.534	   15.2575	       2.4	1.11114e+07	   76.5255	    15.249	       2.4	1.01928e+07	
         R10	   5632	    76.534	    15.232	       2.4	9.88633e+06	    76.517	    15.232	       2.4	9.45058e+06	    76.517	    15.249	       2.4	9.82731e+06	    76.534	    15.249	       2.4	 1.0592e+07	   76.5255	    15.232	       2.4	9.65682e+06	    76.517	   15.2405	       2.4	9.63827e+06	   76.5255	    15.249	       2.4	1.01909e+07	    76.534	   15.2405	       2.4	1.02362e+07	
         R10	   5633	    76.534	    15.215	       2.4	9.51864e+06	    76.517	    15.215	       2.4	9.28169e+06	    76.517	    15.232	       2.4	9.45109e+06	    76.534	    15.232	       2.4	9.90449e+06	   76.5255	    15.215	       2.4	9.39326e+06	    76.517	   15.2235	       2.4	9.36581e+06	   76.5255	    15.232	       2.4	9.66606e+06	    76.534	   15.2235	       2.4	9.71106e+06	
         R10	   5634	    76.534	    15.198	       2.4	9.32169e+06	    76.517	    15.198	       2.4	9.20439e+06	    76.517	    15.215	       2.4	 9.2819e+06	    76.534	    15.215	       2.4	9.53256e+06	   76.5255	    15.198	       2.4	9.25882e+06	    76.517	   15.2065	       2.4	9.24256e+06	   76.5255	    15.215	       2.4	9.40033e+06	    76.534	   15.2065	       2.4	9.42694e+06	
         R10	   5635	    76.534	    15.181	       2.4	9.21034e+06	    76.517	    15.181	       2.4	9.15721e+06	    76.517	    15.198	       2.4	9.20423e+06	    76.534	    15.198	       2.4	9.32919e+06	   76.5255	    15.181	       2.4	9.18108e+06	    76.517	   15.1895	       2.4	9.18022e+06	   76.5255	    15.198	       2.4	9.26251e+06	    76.534	   15.1895	       2.4	9.26962e+06	
         R10	   5636	    76.517	    15.147	       2.4	9.07749e+06	      76.5	    15.147	       2.4	9.12206e+06	      76.5	    15.164	       2.4	9.17804e+06	    76.517	    15.164	       2.4	9.11486e+06	   76.5085	    15.147	       2.4	 9.0985e+06	      76.5	   15.1555	       2.4	9.14952e+06	   76.5085	    15.164	       2.4	9.14465e+06	    76.517	   15.1555	       2.4	 9.0959e+06	
         R10	   5637	    76.534	    15.164	       2.4	9.14011e+06	    76.534	    15.147	       2.4	9.08473e+06	    76.517	    15.147	       2.4	 9.0785e+06	    76.517	    15.164	       2.4	9.11797e+06	    76.534	   15.1555	       2.4	9.11228e+06	   76.5255	    15.147	       2.4	9.08027e+06	    76.517	   15.1555	       2.4	9.09797e+06	   76.5255	    15.164	       2.4	 9.1272e+06	
         R10	   5638	    76.568	    15.181	       2.4	9.42111e+06	    76.568	    15.164	       2.4	9.27253e+06	    76.551	    15.164	       2.4	9.20996e+06	    76.551	    15.181	       2.4	9.33213e+06	    76.568	   15.1725	       2.4	9.34654e+06	   76.5595	    15.164	       2.4	9.23991e+06	    76.551	   15.1725	       2.4	 9.2709e+06	   76.5595	    15.181	       2.4	 9.3749e+06	
         R10	   5639	    76.585	    15.181	       2.4	9.45539e+06	    76.585	    15.164	       2.4	9.30688e+06	    76.568	    15.164	       2.4	9.27436e+06	    76.568	    15.181	       2.4	9.42176e+06	    76.585	   15.1725	       2.4	9.38067e+06	   76.5765	    15.164	       2.4	9.28948e+06	    76.568	   15.1725	       2.4	9.34778e+06	   76.5765	    15.181	       2.4	9.43713e+06	
         R10	   5640	    76.602	    15.181	       2.4	9.42824e+06	    76.602	    15.164	       2.4	9.29845e+06	    76.585	    15.164	       2.4	9.30723e+06	    76.585	    15.181	       2.4	9.45442e+06	    76.602	   15.1725	       2.4	 9.3627e+06	   76.5935	    15.164	       2.4	9.30184e+06	    76.585	   15.1725	       2.4	9.38035e+06	   76.5935	    15.181	       2.4	9.44012e+06	
         R10	   5641	    76.619	    15.181	       2.4	 9.3518e+06	    76.619	    15.164	       2.4	9.25023e+06	    76.602	    15.164	       2.4	9.29797e+06	    76.602	    15.181	       2.4	9.42672e+06	    76.619	   15.1725	       2.4	9.30027e+06	   76.6105	    15.164	       2.4	9.27324e+06	    76.602	   15.1725	       2.4	 9.3617e+06	   76.6105	    15.181	       2.4	9.38826e+06	
         R10	   5642	    76.636	    15.181	       2.4	9.24215e+06	    76.636	    15.164	       2.4	9.17101e+06	    76.619	    15.164	       2.4	9.24939e+06	    76.619	    15.181	       2.4	9.35038e+06	    76.636	   15.1725	       2.4	9.20581e+06	   76.6275	    15.164	       2.4	9.20946e+06	    76.619	   15.1725	       2.4	9.29915e+06	   76.6275	    15.181	       2.4	9.29544e+06	
         R10	   5643	    76.636	    15.198	       2.4	9.30837e+06	    76.636	    15.181	       2.4	9.24343e+06	    76.619	    15.181	       2.4	9.35135e+06	    76.619	    15.198	       2.4	9.45769e+06	    76.636	   15.1895	       2.4	9.27477e+06	   76.6275	    15.181	       2.4	9.29656e+06	    76.619	   15.1895	       2.4	9.40334e+06	   76.6275	    15.198	       2.4	9.38211e+06	
         R10	   5644	    76.619	    15.215	       2.4	9.55979e+06	    76.636	    15.215	       2.4	 9.3583e+06	    76.636	    15.198	       2.4	9.31037e+06	    76.619	    15.198	       2.4	9.45937e+06	   76.6275	    15.215	       2.4	9.45804e+06	    76.636	   15.2065	       2.4	9.33267e+06	   76.6275	    15.198	       2.4	9.38395e+06	    76.619	   15.2065	       2.4	 9.5077e+06	
         R10	   5645	    76.619	    15.232	       2.4	9.63743e+06	    76.636	    15.232	       2.4	9.37681e+06	    76.636	    15.215	       2.4	9.36068e+06	    76.619	    15.215	       2.4	9.56234e+06	   76.6275	    15.232	       2.4	9.50603e+06	    76.636	   15.2235	       2.4	9.36637e+06	   76.6275	    15.215	       2.4	 9.4605e+06	    76.619	   15.2235	       2.4	9.59694e+06	
         R10	   5646	    76.619	    15.249	       2.4	9.66476e+06	    76.636	    15.249	       2.4	 9.3473e+06	    76.636	    15.232	       2.4	9.37911e+06	    76.619	    15.232	       2.4	9.64076e+06	   76.6275	    15.249	       2.4	9.50479e+06	    76.636	   15.2405	       2.4	9.35997e+06	   76.6275	    15.232	       2.4	9.50884e+06	    76.619	   15.2405	       2.4	9.64841e+06	
         R10	   5647	    76.619	    15.266	       2.4	9.61551e+06	    76.636	    15.266	       2.4	9.25839e+06	    76.636	    15.249	       2.4	9.34858e+06	    76.619	    15.249	       2.4	9.66784e+06	   76.6275	    15.266	       2.4	9.43546e+06	    76.636	   15.2575	       2.4	 9.2994e+06	   76.6275	    15.249	       2.4	9.50697e+06	    76.619	   15.2575	       2.4	9.63576e+06	
         R10	   5648	    76.602	    15.266	       2.4	1.00469e+07	    76.619	    15.266	       2.4	9.61498e+06	    76.619	    15.249	       2.4	9.66918e+06	    76.602	    15.249	       2.4	1.00257e+07	   76.6105	    15.266	       2.4	9.82923e+06	    76.619	   15.2575	       2.4	9.63616e+06	   76.6105	    15.249	       2.4	 9.8459e+06	    76.602	   15.2575	       2.4	1.00277e+07	
         R10	   5649	    76.585	    15.249	       2.4	1.04017e+07	    76.585	    15.266	       2.4	1.05556e+07	    76.602	    15.266	       2.4	1.00466e+07	    76.602	    15.249	       2.4	1.00307e+07	    76.585	   15.2575	       2.4	1.04664e+07	   76.5935	    15.266	       2.4	 1.0299e+07	    76.602	   15.2575	       2.4	  1.003e+07	   76.5935	    15.249	       2.4	 1.0214e+07	
         R10	   5650	    76.568	    15.249	       2.4	1.07305e+07	    76.568	    15.266	       2.4	1.11117e+07	    76.585	    15.266	       2.4	1.05609e+07	    76.585	    15.249	       2.4	1.04141e+07	    76.568	   15.2575	       2.4	1.09044e+07	   76.5765	    15.266	       2.4	1.08331e+07	    76.585	   15.2575	       2.4	1.04752e+07	   76.5765	    15.249	       2.4	1.05685e+07	
         R10	   5651	    76.551	    15.249	       2.4	1.08729e+07	    76.551	    15.266	       2.4	1.15842e+07	    76.568	    15.266	       2.4	1.11319e+07	    76.568	    15.249	       2.4	1.07535e+07	    76.551	   15.2575	       2.4	1.12087e+07	   76.5595	    15.266	       2.4	1.13518e+07	    76.568	   15.2575	       2.4	1.09259e+07	   76.5595	    15.249	       2.4	1.08062e+07	
         R10	   5652	    76.534	    15.249	       2.4	1.06005e+07	    76.534	    15.266	       2.4	1.16581e+07	    76.551	    15.266	       2.4	1.16135e+07	    76.551	    15.249	       2.4	1.09071e+07	    76.534	   15.2575	       2.4	1.11121e+07	   76.5425	    15.266	       2.4	 1.1622e+07	    76.551	   15.2575	       2.4	1.12402e+07	   76.5425	    15.249	       2.4	1.07425e+07	
         R10	   5653	    76.534	    15.232	       2.4	9.92054e+06	    76.534	    15.249	       2.4	1.05801e+07	    76.551	    15.249	       2.4	1.08729e+07	    76.551	    15.232	       2.4	1.02408e+07	    76.534	   15.2405	       2.4	1.02473e+07	   76.5425	    15.249	       2.4	 1.0716e+07	    76.551	   15.2405	       2.4	1.05506e+07	   76.5425	    15.232	       2.4	1.00739e+07	
         R10	   5654	    76.551	    15.215	       2.4	9.79374e+06	    76.534	    15.215	       2.4	9.54016e+06	    76.534	    15.232	       2.4	9.92476e+06	    76.551	    15.232	       2.4	1.02385e+07	   76.5425	    15.215	       2.4	9.66263e+06	    76.534	   15.2235	       2.4	9.73191e+06	   76.5425	    15.232	       2.4	1.00747e+07	    76.551	   15.2235	       2.4	1.00143e+07	
         R10	   5655	    76.551	    15.198	       2.4	9.50643e+06	    76.534	    15.198	       2.4	9.33528e+06	    76.534	    15.215	       2.4	9.54622e+06	    76.551	    15.215	       2.4	9.79851e+06	   76.5425	    15.198	       2.4	9.41789e+06	    76.534	   15.2065	       2.4	9.44056e+06	   76.5425	    15.215	       2.4	9.66795e+06	    76.551	   15.2065	       2.4	 9.6519e+06	
         R10	   5656	    76.534	    15.164	       2.4	9.13843e+06	    76.517	    15.164	       2.4	9.11806e+06	    76.517	    15.181	       2.4	9.15697e+06	    76.534	    15.181	       2.4	9.21404e+06	   76.5255	    15.164	       2.4	 9.1264e+06	    76.517	   15.1725	       2.4	9.13715e+06	   76.5255	    15.181	       2.4	9.18283e+06	    76.534	   15.1725	       2.4	9.17609e+06	
         R10	   5657	    76.551	    15.181	       2.4	9.32862e+06	    76.551	    15.164	       2.4	 9.2065e+06	    76.534	    15.164	       2.4	9.14259e+06	    76.534	    15.181	       2.4	9.21999e+06	    76.551	   15.1725	       2.4	9.26741e+06	   76.5425	    15.164	       2.4	9.17295e+06	    76.534	   15.1725	       2.4	9.18114e+06	   76.5425	    15.181	       2.4	9.27216e+06	
         R10	   5658	    76.585	    15.198	       2.4	 9.6453e+06	    76.585	    15.181	       2.4	9.45496e+06	    76.568	    15.181	       2.4	9.42083e+06	    76.568	    15.198	       2.4	9.62656e+06	    76.585	   15.1895	       2.4	9.54926e+06	   76.5765	    15.181	       2.4	9.43645e+06	    76.568	   15.1895	       2.4	9.52315e+06	   76.5765	    15.198	       2.4	9.63404e+06	
         R10	   5659	    76.602	    15.198	       2.4	9.58017e+06	    76.602	    15.181	       2.4	9.42894e+06	    76.585	    15.181	       2.4	9.45453e+06	    76.585	    15.198	       2.4	9.64284e+06	    76.602	   15.1895	       2.4	9.50346e+06	   76.5935	    15.181	       2.4	9.44053e+06	    76.585	   15.1895	       2.4	9.54781e+06	   76.5935	    15.198	       2.4	9.61002e+06	
         R10	   5660	    76.619	    15.198	       2.4	9.45953e+06	    76.619	    15.181	       2.4	9.35301e+06	    76.602	    15.181	       2.4	9.42743e+06	    76.602	    15.198	       2.4	9.57775e+06	    76.619	   15.1895	       2.4	 9.4051e+06	   76.6105	    15.181	       2.4	9.38921e+06	    76.602	   15.1895	       2.4	9.50149e+06	   76.6105	    15.198	       2.4	9.51749e+06	
         R10	   5661	    76.619	    15.215	       2.4	9.56175e+06	    76.619	    15.198	       2.4	9.46181e+06	    76.602	    15.198	       2.4	9.57947e+06	    76.602	    15.215	       2.4	9.74308e+06	    76.619	   15.2065	       2.4	9.50989e+06	   76.6105	    15.198	       2.4	9.51947e+06	    76.602	   15.2065	       2.4	9.65932e+06	   76.6105	    15.215	       2.4	 9.6511e+06	
         R10	   5662	    76.602	    15.232	       2.4	9.90275e+06	    76.619	    15.232	       2.4	9.63916e+06	    76.619	    15.215	       2.4	9.56536e+06	    76.602	    15.215	       2.4	9.74641e+06	   76.6105	    15.232	       2.4	9.76954e+06	    76.619	   15.2235	       2.4	9.59931e+06	   76.6105	    15.215	       2.4	9.65456e+06	    76.602	   15.2235	       2.4	9.82115e+06	
         R10	   5663	    76.602	    15.249	       2.4	1.00197e+07	    76.619	    15.249	       2.4	9.66556e+06	    76.619	    15.232	       2.4	9.64363e+06	    76.602	    15.232	       2.4	9.90777e+06	   76.6105	    15.249	       2.4	9.84114e+06	    76.619	   15.2405	       2.4	9.65023e+06	   76.6105	    15.232	       2.4	9.77426e+06	    76.602	   15.2405	       2.4	9.95804e+06	
         R10	   5664	    76.585	    15.249	       2.4	1.03904e+07	    76.602	    15.249	       2.4	1.00229e+07	    76.602	    15.232	       2.4	9.91361e+06	    76.585	    15.232	       2.4	1.01454e+07	   76.5935	    15.249	       2.4	1.02045e+07	    76.602	   15.2405	       2.4	9.96251e+06	   76.5935	    15.232	       2.4	1.00274e+07	    76.585	   15.2405	       2.4	1.02609e+07	
         R10	   5665	    76.568	    15.232	       2.4	1.02882e+07	    76.568	    15.249	       2.4	 1.0714e+07	    76.585	    15.249	       2.4	1.03976e+07	    76.585	    15.232	       2.4	1.01557e+07	    76.568	   15.2405	       2.4	1.04935e+07	   76.5765	    15.249	       2.4	1.05522e+07	    76.585	   15.2405	       2.4	1.02696e+07	   76.5765	    15.232	       2.4	1.02186e+07	
         R10	   5666	    76.551	    15.232	       2.4	1.02401e+07	    76.551	    15.249	       2.4	1.08512e+07	    76.568	    15.249	       2.4	1.07271e+07	    76.568	    15.232	       2.4	1.03005e+07	    76.551	   15.2405	       2.4	1.05393e+07	   76.5595	    15.249	       2.4	1.07827e+07	    76.568	   15.2405	       2.4	1.05062e+07	   76.5595	    15.232	       2.4	1.02653e+07	
         R10	   5667	    76.551	    15.215	       2.4	9.79942e+06	    76.551	    15.232	       2.4	1.02345e+07	    76.568	    15.232	       2.4	1.02896e+07	    76.568	    15.215	       2.4	9.91535e+06	    76.551	   15.2235	       2.4	1.00151e+07	   76.5595	    15.232	       2.4	1.02572e+07	    76.568	   15.2235	       2.4	1.00994e+07	   76.5595	    15.215	       2.4	9.85405e+06	
         R10	   5668	    76.551	    15.181	       2.4	9.32515e+06	    76.534	    15.181	       2.4	9.21771e+06	    76.534	    15.198	       2.4	9.33937e+06	    76.551	    15.198	       2.4	9.51144e+06	   76.5425	    15.181	       2.4	 9.2693e+06	    76.534	   15.1895	       2.4	9.27839e+06	   76.5425	    15.198	       2.4	 9.4224e+06	    76.551	   15.1895	       2.4	9.41806e+06	
         R10	   5669	    76.568	    15.198	       2.4	 9.6273e+06	    76.568	    15.181	       2.4	9.41893e+06	    76.551	    15.181	       2.4	9.33039e+06	    76.551	    15.198	       2.4	9.51528e+06	    76.568	   15.1895	       2.4	9.52258e+06	   76.5595	    15.181	       2.4	9.37295e+06	    76.551	   15.1895	       2.4	9.42259e+06	   76.5595	    15.198	       2.4	9.56896e+06	
         R10	   5670	    76.602	    15.215	       2.4	9.74644e+06	    76.602	    15.198	       2.4	9.58241e+06	    76.585	    15.198	       2.4	9.64408e+06	    76.585	    15.215	       2.4	9.87512e+06	    76.602	   15.2065	       2.4	9.66247e+06	   76.5935	    15.198	       2.4	9.61174e+06	    76.585	   15.2065	       2.4	9.75785e+06	   76.5935	    15.215	       2.4	9.80897e+06	
         R10	   5671	    76.585	    15.232	       2.4	1.01383e+07	    76.602	    15.232	       2.4	9.90633e+06	    76.602	    15.215	       2.4	9.75116e+06	    76.585	    15.215	       2.4	9.87863e+06	   76.5935	    15.232	       2.4	1.00202e+07	    76.602	   15.2235	       2.4	9.82531e+06	   76.5935	    15.215	       2.4	9.81305e+06	    76.585	   15.2235	       2.4	1.00049e+07	
         R10	   5672	    76.568	    15.215	       2.4	 9.9119e+06	    76.568	    15.232	       2.4	1.02802e+07	    76.585	    15.232	       2.4	1.01449e+07	    76.585	    15.215	       2.4	9.88436e+06	    76.568	   15.2235	       2.4	 1.0093e+07	   76.5765	    15.232	       2.4	1.02094e+07	    76.585	   15.2235	       2.4	1.00111e+07	   76.5765	    15.215	       2.4	9.89558e+06	
         R10	   5673	    76.568	    15.198	       2.4	9.62562e+06	    76.551	    15.198	       2.4	9.51331e+06	    76.551	    15.215	       2.4	 9.7998e+06	    76.568	    15.215	       2.4	9.91364e+06	   76.5595	    15.198	       2.4	9.56715e+06	    76.551	   15.2065	       2.4	9.65598e+06	   76.5595	    15.215	       2.4	9.85339e+06	    76.568	   15.2065	       2.4	 9.7684e+06	
         R10	   5674	    76.585	    15.198	       2.4	9.64642e+06	    76.568	    15.198	       2.4	9.62634e+06	    76.568	    15.215	       2.4	9.90963e+06	    76.585	    15.215	       2.4	9.87969e+06	   76.5765	    15.198	       2.4	9.63449e+06	    76.568	   15.2065	       2.4	9.76676e+06	   76.5765	    15.215	       2.4	9.89214e+06	    76.585	   15.2065	       2.4	9.76131e+06	
         R10	   5675	      76.5	   15.3687	   1.73882	9.11219e+06	      76.5	      15.3	   1.75401	9.18067e+06	      76.5	      15.3	   1.82323	9.59021e+06	      76.5	   15.3662	   1.81951	9.54953e+06	      76.5	   15.3343	   1.74641	9.14208e+06	      76.5	      15.3	   1.78862	 9.3853e+06	      76.5	   15.3331	   1.82137	9.56607e+06	      76.5	   15.3674	   1.77917	9.33074e+06	
         R10	   5676	      76.5	   15.3662	   1.81951	9.47532e+06	      76.5	      15.3	   1.82323	 9.5646e+06	      76.5	      15.3	   1.88726	9.89357e+06	      76.5	   15.3619	   1.88534	9.83781e+06	      76.5	   15.3331	   1.82137	 9.5158e+06	      76.5	      15.3	   1.85525	9.72903e+06	      76.5	    15.331	    1.8863	9.86146e+06	      76.5	    15.364	   1.85243	9.65652e+06	
         R10	   5677	      76.5	   15.3619	   1.88534	9.80794e+06	      76.5	      15.3	   1.88726	9.88836e+06	      76.5	      15.3	    1.9461	1.02228e+07	      76.5	   15.3567	   1.94418	1.01454e+07	      76.5	    15.331	    1.8863	 9.8438e+06	      76.5	      15.3	   1.91668	1.00555e+07	      76.5	   15.3283	   1.94514	1.01798e+07	      76.5	   15.3593	   1.91476	9.97662e+06	
         R10	   5678	      76.5	   15.3567	   1.94418	1.01321e+07	      76.5	      15.3	    1.9461	1.02196e+07	      76.5	      15.3	   1.99975	1.05601e+07	      76.5	   15.3514	   1.99781	1.04721e+07	      76.5	   15.3283	   1.94514	1.01716e+07	      76.5	      15.3	   1.97293	1.03898e+07	      76.5	   15.3257	   1.99878	1.05119e+07	      76.5	   15.3541	   1.97099	1.03021e+07	
         R10	   5679	      76.5	   15.3514	   1.99781	1.04669e+07	      76.5	      15.3	   1.99975	1.05575e+07	      76.5	      15.3	   2.04821	1.09121e+07	      76.5	   15.3465	   2.04651	1.08168e+07	      76.5	   15.3257	   1.99878	 1.0508e+07	      76.5	      15.3	   2.02398	1.07347e+07	      76.5	   15.3233	   2.04736	1.08602e+07	      76.5	    15.349	   2.02216	1.06418e+07	
         R10	   5680	      76.5	   15.3465	   2.04651	1.08154e+07	      76.5	      15.3	   2.04821	1.09088e+07	      76.5	      15.3	   2.09149	1.12771e+07	      76.5	    15.342	   2.08988	1.11767e+07	      76.5	   15.3233	   2.04736	1.08579e+07	      76.5	      15.3	   2.06985	1.10929e+07	      76.5	    15.321	   2.09068	1.12226e+07	      76.5	   15.3443	    2.0682	 1.0996e+07	
         R10	   5681	      76.5	    15.342	   2.08988	1.11771e+07	      76.5	      15.3	   2.09149	1.12736e+07	      76.5	      15.3	   2.12957	1.16539e+07	      76.5	   15.3373	   2.12784	1.15488e+07	      76.5	    15.321	   2.09068	1.12211e+07	      76.5	      15.3	   2.11053	1.14637e+07	      76.5	   15.3186	   2.12871	1.15972e+07	      76.5	   15.3397	   2.10886	1.13629e+07	
         R10	   5682	      76.5	   15.3373	   2.12784	1.15502e+07	      76.5	      15.3	   2.12957	1.16509e+07	      76.5	      15.3	   2.16246	1.20322e+07	      76.5	   15.3318	   2.16055	1.19307e+07	      76.5	   15.3186	   2.12871	1.15964e+07	      76.5	      15.3	   2.14601	1.18415e+07	      76.5	   15.3159	   2.16151	1.19777e+07	      76.5	   15.3345	    2.1442	1.17405e+07	
         R10	   5683	      76.5	   15.3318	   2.16055	1.19323e+07	      76.5	      15.3	   2.16246	1.20378e+07	      76.5	      15.3	   2.19016	1.24076e+07	      76.5	   15.3262	   2.18837	1.23154e+07	      76.5	   15.3159	   2.16151	1.19812e+07	      76.5	      15.3	   2.17631	1.22226e+07	      76.5	   15.3131	   2.18927	1.23583e+07	      76.5	    15.329	   2.17446	1.21238e+07	
         R10	   5684	      76.5	   15.3262	   2.18837	1.23146e+07	      76.5	      15.3	   2.19016	1.24086e+07	      76.5	      15.3	   2.21268	1.27661e+07	      76.5	   15.3214	   2.21456	1.27378e+07	      76.5	   15.3131	   2.18927	1.23584e+07	      76.5	      15.3	   2.20142	1.25873e+07	      76.5	   15.3107	   2.21362	1.27491e+07	      76.5	   15.3238	   2.20147	1.25262e+07	
         R10	   5685	      76.5	   15.3214	   2.21456	1.27361e+07	      76.5	      15.3	   2.21268	1.27689e+07	      76.5	      15.3	      2.23	1.30765e+07	      76.5	   15.3141	   2.23981	 1.3226e+07	      76.5	   15.3107	   2.21362	1.27497e+07	      76.5	      15.3	   2.22134	1.29227e+07	      76.5	   15.3071	    2.2349	1.31495e+07	      76.5	   15.3178	   2.22718	 1.2981e+07	
         R10	   5686	      76.5	    15.337	   2.23521	1.30347e+07	      76.5	   15.3283	   2.24961	1.33801e+07	      76.5	   15.3424	   2.25942	 1.3498e+07	      76.5	   15.3523	   2.24433	1.30931e+07	      76.5	   15.3326	   2.24241	1.32072e+07	      76.5	   15.3354	   2.25452	1.34364e+07	      76.5	   15.3474	   2.25187	1.32954e+07	      76.5	   15.3446	   2.23977	1.30614e+07	
         R10	   5687	      76.5	   15.3523	   2.24433	1.30915e+07	      76.5	   15.3424	   2.25942	1.34962e+07	      76.5	   15.3566	   2.26923	1.35684e+07	      76.5	   15.3646	   2.25493	1.31679e+07	      76.5	   15.3474	   2.25187	1.32937e+07	      76.5	   15.3495	   2.26432	1.35292e+07	      76.5	   15.3606	   2.26208	1.33681e+07	      76.5	   15.3585	   2.24963	1.31276e+07	
         R10	   5688	      76.5	   15.3646	   2.25493	1.31696e+07	      76.5	   15.3566	   2.26923	1.35731e+07	      76.5	   15.3707	   2.27903	1.35741e+07	      76.5	    15.381	     2.265	1.31336e+07	      76.5	   15.3606	   2.26208	1.33713e+07	      76.5	   15.3636	   2.27413	  1.357e+07	      76.5	   15.3758	   2.27202	1.33538e+07	      76.5	   15.3728	   2.25996	1.31481e+07	
         R10	   5689	      76.5	    15.381	     2.265	  1.312e+07	      76.5	   15.3707	   2.27903	1.35762e+07	      76.5	   15.3848	   2.28884	1.34891e+07	      76.5	   15.3943	   2.27234	1.30292e+07	      76.5	   15.3758	   2.27202	1.33481e+07	      76.5	   15.3778	   2.28393	1.35288e+07	      76.5	   15.3896	   2.28059	1.32591e+07	      76.5	   15.3876	   2.26867	1.30723e+07	
         R10	   5690	      76.5	   15.3943	   2.27234	1.30191e+07	      76.5	   15.3848	   2.28884	1.34943e+07	      76.5	    15.399	   2.29864	1.33198e+07	      76.5	   15.4075	   2.28366	1.29161e+07	      76.5	   15.3896	   2.28059	1.32566e+07	      76.5	   15.3919	   2.29374	1.34032e+07	      76.5	   15.4032	   2.29115	1.31177e+07	      76.5	   15.4009	     2.278	1.29646e+07	
         R10	   5691	      76.5	   15.4075	   2.28366	1.29184e+07	      76.5	    15.399	   2.29864	1.33181e+07	      76.5	   15.4131	   2.30845	1.30602e+07	      76.5	   15.4241	   2.29331	1.26454e+07	      76.5	   15.4032	   2.29115	 1.3118e+07	      76.5	   15.4061	   2.30355	1.31857e+07	      76.5	   15.4186	   2.30088	1.28525e+07	      76.5	   15.4158	   2.28849	1.27788e+07	
         R10	   5692	      76.5	   15.4241	   2.29331	1.26394e+07	      76.5	   15.4131	   2.30845	1.30579e+07	      76.5	   15.4273	   2.31826	1.27356e+07	      76.5	   15.4366	   2.30084	1.24023e+07	      76.5	   15.4186	   2.30088	1.28484e+07	      76.5	   15.4202	   2.31335	 1.2894e+07	      76.5	    15.432	   2.30955	1.25682e+07	      76.5	   15.4304	   2.29708	1.25193e+07	
         R10	   5693	      76.5	   15.4366	   2.30084	1.24047e+07	      76.5	   15.4273	   2.31826	1.27329e+07	      76.5	   15.4414	   2.32806	1.23696e+07	      76.5	   15.4515	   2.31319	1.20961e+07	      76.5	    15.432	   2.30955	 1.2568e+07	      76.5	   15.4343	   2.32316	1.25491e+07	      76.5	   15.4465	   2.32063	1.22323e+07	      76.5	   15.4441	   2.30702	 1.2248e+07	
         R10	   5694	      76.5	   15.4515	   2.31319	 1.2092e+07	      76.5	   15.4414	   2.32806	1.23672e+07	      76.5	   15.4555	   2.33787	 1.1987e+07	      76.5	   15.4656	   2.32337	1.17703e+07	      76.5	   15.4465	   2.32063	1.22291e+07	      76.5	   15.4485	   2.33297	1.21756e+07	      76.5	   15.4606	   2.33062	1.18781e+07	      76.5	   15.4586	   2.31828	1.19298e+07	
         R10	   5695	      76.5	   15.4656	   2.32337	1.17686e+07	      76.5	   15.4555	   2.33787	1.19851e+07	      76.5	   15.4697	   2.34768	1.16079e+07	      76.5	   15.4797	   2.33317	  1.144e+07	      76.5	   15.4606	   2.33062	1.18762e+07	      76.5	   15.4626	   2.34277	1.17955e+07	      76.5	   15.4747	   2.34042	1.15234e+07	      76.5	   15.4727	   2.32827	1.16033e+07	
         R10	   5696	      76.5	   15.4797	   2.33317	1.14388e+07	      76.5	   15.4697	   2.34768	1.16065e+07	      76.5	   15.4838	   2.35748	1.12449e+07	      76.5	   15.4939	   2.34298	1.11175e+07	      76.5	   15.4747	   2.34042	1.15221e+07	      76.5	   15.4768	   2.35258	1.14251e+07	      76.5	   15.4889	   2.35023	1.11807e+07	      76.5	   15.4868	   2.33808	1.12775e+07	
         R10	   5697	      76.5	   15.4939	   2.34298	1.11169e+07	      76.5	   15.4838	   2.35748	1.12439e+07	      76.5	    15.498	   2.36729	1.09063e+07	      76.5	    15.508	   2.35279	1.08102e+07	      76.5	   15.4889	   2.35023	1.11799e+07	      76.5	   15.4909	   2.36239	1.10747e+07	      76.5	    15.503	   2.36004	1.08578e+07	      76.5	    15.501	   2.34788	1.09631e+07	
         R10	   5698	      76.5	    15.508	   2.35279	1.08101e+07	      76.5	    15.498	   2.36729	1.09055e+07	      76.5	   15.5121	   2.37709	1.05951e+07	      76.5	   15.5228	   2.36281	1.05116e+07	      76.5	    15.503	   2.36004	1.08573e+07	      76.5	    15.505	   2.37219	  1.075e+07	      76.5	   15.5175	   2.36995	 1.0553e+07	      76.5	   15.5154	    2.3578	1.06605e+07	
         R10	   5699	      76.5	   15.5228	   2.36281	1.05121e+07	      76.5	   15.5121	   2.37709	1.05955e+07	      76.5	   15.5263	    2.3869	1.03113e+07	      76.5	   15.5376	   2.37521	1.02232e+07	      76.5	   15.5175	   2.36995	1.05534e+07	      76.5	   15.5192	     2.382	1.04532e+07	      76.5	   15.5319	   2.38105	 1.0267e+07	      76.5	   15.5302	   2.36901	1.03674e+07	
         R10	   5700	      76.5	   15.5467	   2.42018	9.83793e+06	      76.5	   15.5285	   2.40889	1.01318e+07	      76.5	   15.5167	   2.42108	1.02167e+07	      76.5	   15.5316	   2.43326	9.93414e+06	      76.5	   15.5376	   2.41454	9.98479e+06	      76.5	   15.5226	   2.41498	 1.0174e+07	      76.5	   15.5242	   2.42717	1.00753e+07	      76.5	   15.5391	   2.42672	9.88576e+06	
         R10	   5701	      76.5	   15.5316	   2.43326	9.93746e+06	      76.5	   15.5167	   2.42108	1.02162e+07	      76.5	   15.5048	   2.43326	1.03027e+07	      76.5	   15.5178	   2.44575	1.00373e+07	      76.5	   15.5242	   2.42717	1.00767e+07	      76.5	   15.5108	   2.42717	1.02592e+07	      76.5	   15.5113	    2.4395	1.01699e+07	      76.5	   15.5247	   2.43951	9.98712e+06	
         R10	   5702	      76.5	   15.5178	   2.44575	1.00356e+07	      76.5	   15.5048	   2.43326	1.03023e+07	      76.5	    15.493	   2.44544	1.03932e+07	      76.5	   15.5061	   2.45739	1.01284e+07	      76.5	   15.5113	    2.4395	1.01688e+07	      76.5	   15.4989	   2.43935	1.03474e+07	      76.5	   15.4996	   2.45142	1.02607e+07	      76.5	    15.512	   2.45157	1.00818e+07	
         R10	   5703	      76.5	   15.5061	   2.45739	 1.0126e+07	      76.5	    15.493	   2.44544	1.03932e+07	      76.5	   15.4811	   2.45763	1.04985e+07	      76.5	   15.4939	   2.46863	1.02329e+07	      76.5	   15.4996	   2.45142	1.02595e+07	      76.5	    15.487	   2.45154	1.04456e+07	      76.5	   15.4875	   2.46313	1.03657e+07	      76.5	      15.5	   2.46301	1.01792e+07	
         R10	   5704	      76.5	   15.4939	   2.46863	1.02334e+07	      76.5	   15.4811	   2.45763	1.04982e+07	      76.5	   15.4693	   2.46981	1.06196e+07	      76.5	   15.4827	   2.48074	1.03424e+07	      76.5	   15.4875	   2.46313	1.03658e+07	      76.5	   15.4752	   2.46372	1.05587e+07	      76.5	    15.476	   2.47528	1.04809e+07	      76.5	   15.4883	   2.47469	1.02877e+07	
         R10	   5705	      76.5	   15.4827	   2.48074	1.03415e+07	      76.5	   15.4693	   2.46981	1.06189e+07	      76.5	   15.4574	     2.482	1.07689e+07	      76.5	   15.4712	   2.49513	1.04638e+07	      76.5	    15.476	   2.47528	1.04802e+07	      76.5	   15.4633	   2.47591	1.06937e+07	      76.5	   15.4643	   2.48856	1.06163e+07	      76.5	   15.4769	   2.48794	1.04024e+07	
         R10	   5706	      76.5	   15.4712	   2.49513	1.04711e+07	      76.5	   15.4574	     2.482	1.07668e+07	      76.5	   15.4456	   2.49418	1.09537e+07	      76.5	   15.4602	   2.50524	1.06238e+07	      76.5	   15.4643	   2.48856	 1.0619e+07	      76.5	   15.4515	   2.48809	  1.086e+07	      76.5	   15.4529	   2.49971	1.07887e+07	      76.5	   15.4657	   2.50019	1.05473e+07	
         R10	   5707	      76.5	   15.4602	   2.50524	1.06275e+07	      76.5	   15.4456	   2.49418	 1.0952e+07	      76.5	   15.4337	   2.50637	1.11787e+07	      76.5	   15.4462	    2.5201	1.08621e+07	      76.5	   15.4529	   2.49971	1.07897e+07	      76.5	   15.4396	   2.50027	 1.1065e+07	      76.5	     15.44	   2.51323	1.10204e+07	      76.5	   15.4532	   2.51267	1.07443e+07	
         R10	   5708	      76.5	   15.4462	    2.5201	1.08775e+07	      76.5	   15.4337	   2.50637	1.11857e+07	      76.5	   15.4218	   2.51855	1.14218e+07	      76.5	   15.4344	   2.53078	1.10731e+07	      76.5	     15.44	   2.51323	1.10316e+07	      76.5	   15.4278	   2.51246	1.13033e+07	      76.5	   15.4281	   2.52466	1.12475e+07	      76.5	   15.4403	   2.52544	 1.0975e+07	
         R10	   5709	      76.5	   15.4462	    2.5201	1.08686e+07	      76.5	   15.4344	   2.53078	1.10698e+07	      76.5	   15.4512	   2.54714	1.06722e+07	      76.5	   15.4726	   2.52798	 1.0345e+07	      76.5	   15.4403	   2.52544	1.09688e+07	      76.5	   15.4428	   2.53896	 1.0871e+07	      76.5	   15.4619	   2.53756	1.05076e+07	      76.5	   15.4594	   2.52404	1.06066e+07	
         R10	   5710	      76.5	   15.4726	   2.52798	1.03514e+07	      76.5	   15.4512	   2.54714	1.06709e+07	      76.5	   15.4723	   2.56762	1.02181e+07	      76.5	   15.4958	   2.54589	9.94182e+06	      76.5	   15.4619	   2.53756	1.05101e+07	      76.5	   15.4618	   2.55738	1.04445e+07	      76.5	    15.484	   2.55676	1.00788e+07	      76.5	   15.4842	   2.53693	1.01466e+07	
         R10	   5711	      76.5	   15.4958	   2.54589	9.93794e+06	      76.5	   15.4723	   2.56762	1.02251e+07	      76.5	   15.4976	   2.59224	 9.7633e+06	      76.5	   15.5257	   2.56725	9.49228e+06	      76.5	    15.484	   2.55676	1.00803e+07	      76.5	   15.4849	   2.57993	9.99418e+06	      76.5	   15.5116	   2.57975	9.62634e+06	      76.5	   15.5107	   2.55657	9.71509e+06	
         R10	   5712	      76.5	   15.5257	   2.56725	9.49034e+06	      76.5	   15.4976	   2.59224	9.76526e+06	      76.5	   15.5271	     2.621	9.30447e+06	      76.5	   15.5601	   2.59072	9.05845e+06	      76.5	   15.5116	   2.57975	9.62631e+06	      76.5	   15.5124	   2.60662	9.53486e+06	      76.5	   15.5436	   2.60586	9.17955e+06	      76.5	   15.5429	   2.57899	9.27437e+06	
         R10	   5713	      76.5	   15.5601	   2.59072	 9.0583e+06	      76.5	   15.5271	     2.621	9.30525e+06	      76.5	   15.5609	   2.65388	8.85842e+06	      76.5	   15.5977	   2.61892	8.65194e+06	      76.5	   15.5436	   2.60586	9.17985e+06	      76.5	    15.544	   2.63744	9.08181e+06	      76.5	   15.5793	    2.6364	8.75284e+06	      76.5	   15.5789	   2.60482	 8.8551e+06	
         R10	   5714	      76.5	   15.5977	   2.61892	8.65296e+06	      76.5	   15.5609	   2.65388	8.85412e+06	      76.5	    15.599	   2.69089	8.42735e+06	      76.5	   15.6389	   2.65253	8.26585e+06	      76.5	   15.5793	    2.6364	8.75123e+06	      76.5	     15.58	   2.67238	8.64069e+06	      76.5	   15.6189	   2.67171	8.34388e+06	      76.5	   15.6183	   2.63573	 8.4594e+06	
         R10	   5715	      76.5	   15.6389	   2.65253	8.26899e+06	      76.5	    15.599	   2.69089	8.41673e+06	      76.5	   15.6413	   2.73204	8.01967e+06	      76.5	   15.6855	   2.69013	7.89539e+06	      76.5	   15.6189	   2.67171	8.34022e+06	      76.5	   15.6201	   2.71146	8.21812e+06	      76.5	   15.6634	   2.71108	7.95423e+06	      76.5	   15.6622	   2.67133	8.08217e+06	
         R10	   5716	      76.5	   15.6855	   2.69013	7.90098e+06	      76.5	   15.6413	   2.73204	8.00121e+06	      76.5	   15.6878	   2.77731	7.63247e+06	      76.5	    15.737	    2.7305	7.56579e+06	      76.5	   15.6634	   2.71108	7.94802e+06	      76.5	   15.6645	   2.75467	 7.8167e+06	      76.5	   15.7124	    2.7539	7.59472e+06	      76.5	   15.7112	   2.71031	7.73335e+06	
         R10	   5717	      76.5	    15.737	    2.7305	7.56827e+06	      76.5	   15.6878	   2.77731	7.61275e+06	      76.5	   15.7386	   2.82672	7.30465e+06	      76.5	   15.7874	   2.77603	7.29029e+06	      76.5	   15.7124	    2.7539	7.58659e+06	      76.5	   15.7132	   2.80201	7.45827e+06	      76.5	    15.763	   2.80137	 7.2922e+06	      76.5	   15.7622	   2.75326	7.42926e+06	
         R10	   5718	      76.5	   15.7874	   2.77603	7.29191e+06	      76.5	   15.7386	   2.82672	7.27769e+06	      76.5	   15.7936	   2.88026	6.92832e+06	      76.5	   15.8419	   2.82919	  7.128e+06	      76.5	    15.763	   2.80137	7.27985e+06	      76.5	   15.7661	   2.85349	7.10257e+06	      76.5	   15.8178	   2.85472	7.02099e+06	      76.5	   15.8147	   2.80261	7.20961e+06	
         R10	   5719	      76.5	   15.8419	   2.82919	   7.21e+06	      76.5	   15.7936	   2.88026	6.85041e+06	      76.5	   15.8529	   2.93793	7.67699e+06	      76.5	   15.9033	   2.87798	6.83359e+06	      76.5	   15.8178	   2.85472	7.02377e+06	      76.5	   15.8232	   2.90909	7.25141e+06	      76.5	   15.8781	   2.90795	7.13859e+06	      76.5	   15.8726	   2.85359	6.98143e+06	
         R10	   5720	      76.5	   15.9033	   2.87798	7.64805e+06	      76.5	   15.8529	   2.93793	5.60668e+06	      76.5	   15.9164	   2.99973	9.59373e+06	      76.5	   15.9593	   2.92175	8.39666e+06	      76.5	   15.8781	   2.90795	6.52743e+06	      76.5	   15.8846	   2.96883	7.24773e+06	      76.5	   15.9378	   2.96074	8.82507e+06	      76.5	   15.9313	   2.89986	8.01047e+06	
         R10	   5721	      76.5	   15.9033	   2.87798	7.88341e+06	      76.5	   15.9593	   2.92175	7.44978e+06	      76.5	   16.0036	   2.84119	7.16404e+06	      76.5	   15.9321	   2.79079	7.09662e+06	      76.5	   15.9313	   2.89986	7.55095e+06	      76.5	   15.9814	   2.88147	7.28227e+06	      76.5	   15.9679	   2.81599	7.12609e+06	      76.5	   15.9177	   2.83439	7.45535e+06	
         R10	   5722	      76.5	   15.9321	   2.79079	7.18986e+06	      76.5	   16.0036	   2.84119	7.18539e+06	      76.5	   16.0493	   2.75805	7.04006e+06	      76.5	   15.9769	   2.70814	7.24649e+06	      76.5	   15.9679	   2.81599	7.18366e+06	      76.5	   16.0265	   2.79962	7.10436e+06	      76.5	   16.0131	   2.73309	7.14173e+06	      76.5	   15.9545	   2.74947	7.21459e+06	
         R10	   5723	      76.5	   15.9769	   2.70814	7.27177e+06	      76.5	   16.0493	   2.75805	7.05036e+06	      76.5	   16.0965	   2.67232	7.24301e+06	      76.5	    16.012	   2.62473	7.48865e+06	      76.5	   16.0131	   2.73309	7.15921e+06	      76.5	   16.0729	   2.71519	7.14144e+06	      76.5	   16.0542	   2.64853	7.36434e+06	      76.5	   15.9945	   2.66643	7.37815e+06	
         R10	   5724	      76.5	    16.012	   2.62473	7.49689e+06	      76.5	   16.0965	   2.67232	7.25162e+06	      76.5	    16.145	   2.58402	7.67253e+06	      76.5	   16.0584	   2.53504	 7.8283e+06	      76.5	   16.0542	   2.64853	7.37263e+06	      76.5	   16.1208	   2.62817	7.45928e+06	      76.5	   16.1017	   2.55953	7.74823e+06	      76.5	   16.0352	   2.57989	7.66115e+06	
         R10	   5725	      76.5	   16.0584	   2.53504	7.84027e+06	      76.5	    16.145	   2.58402	7.67795e+06	      76.5	    16.195	   2.49314	8.20786e+06	      76.5	   16.1062	   2.44317	8.26339e+06	      76.5	   16.1017	   2.55953	7.75685e+06	      76.5	     16.17	   2.53858	7.94197e+06	      76.5	   16.1506	   2.46816	8.23291e+06	      76.5	   16.0823	   2.48911	8.05124e+06	
         R10	   5726	      76.5	   16.1062	   2.44317	8.28043e+06	      76.5	    16.195	   2.49314	8.21456e+06	      76.5	   16.2464	   2.39967	8.80646e+06	      76.5	   16.1551	   2.34774	8.73363e+06	      76.5	   16.1506	   2.46816	8.24469e+06	      76.5	   16.2207	    2.4464	8.51024e+06	      76.5	   16.2008	   2.37371	8.76688e+06	      76.5	   16.1307	   2.39546	 8.5068e+06	
         R10	   5727	      76.5	   16.1551	   2.34774	8.75973e+06	      76.5	   16.2464	   2.39967	8.81389e+06	      76.5	   16.2993	   2.30363	9.41379e+06	      76.5	   16.2041	   2.24944	 9.1791e+06	      76.5	   16.2008	   2.37371	8.78349e+06	      76.5	   16.2729	   2.35165	9.11322e+06	      76.5	   16.2517	   2.27654	9.29317e+06	      76.5	   16.1796	   2.29859	8.96889e+06	
         R10	   5728	      76.5	   16.2041	   2.24944	9.21466e+06	      76.5	   16.2993	   2.30363	9.42799e+06	      76.5	   16.3535	     2.205	1.00089e+07	      76.5	   16.2567	   2.15454	9.46588e+06	      76.5	   16.2517	   2.27654	9.31792e+06	      76.5	   16.3264	   2.25431	9.71625e+06	      76.5	   16.3051	   2.17977	 9.7344e+06	      76.5	   16.2304	   2.20199	9.33864e+06	
         R10	   5729	      76.5	   16.2567	   2.15454	9.51559e+06	      76.5	   16.3535	     2.205	9.99873e+06	      76.5	   16.4092	   2.10379	 1.0222e+07	      76.5	   16.3126	   2.05747	9.80583e+06	      76.5	   16.3051	   2.17977	9.75395e+06	      76.5	   16.3814	   2.15439	1.01028e+07	      76.5	   16.3609	   2.08063	1.00131e+07	      76.5	   16.2847	   2.10601	9.65991e+06	
         R10	   5730	      76.5	   16.3126	   2.05747	  9.834e+06	      76.5	   16.4092	   2.10379	1.04292e+07	      76.5	   16.4663	         2	9.56787e+06	      76.5	   16.3597	   1.96344	9.91613e+06	      76.5	   16.3609	   2.08063	1.01309e+07	      76.5	   16.4377	   2.05189	9.99806e+06	      76.5	    16.413	   1.98172	9.73411e+06	      76.5	   16.3361	   2.01045	9.87208e+06	
         R10	   5731	      76.5	   16.3126	   2.05747	9.70784e+06	      76.5	   16.3597	   1.96344	9.83431e+06	      76.5	   16.2559	   1.92784	9.61639e+06	      76.5	   16.2166	   2.02144	9.48561e+06	      76.5	   16.3361	   2.01045	9.76827e+06	      76.5	   16.3078	   1.94564	 9.7253e+06	      76.5	   16.2362	   1.97464	9.54958e+06	      76.5	   16.2646	   2.03946	9.59528e+06	
         R10	   5732	      76.5	   16.2166	   2.02144	9.42841e+06	      76.5	   16.2559	   1.92784	9.63559e+06	      76.5	   16.1549	    1.8932	9.36717e+06	      76.5	   16.1197	   1.98743	9.33218e+06	      76.5	   16.2362	   1.97464	9.53064e+06	      76.5	   16.2054	   1.91052	9.50113e+06	      76.5	   16.1373	   1.94032	9.34894e+06	      76.5	   16.1681	   2.00444	9.37983e+06	
         R10	   5733	      76.5	   16.1197	   1.98743	9.30094e+06	      76.5	   16.1549	    1.8932	 9.3657e+06	      76.5	   16.0567	   1.85954	9.17739e+06	      76.5	   16.0256	   1.95475	9.23119e+06	      76.5	   16.1373	   1.94032	 9.3325e+06	      76.5	   16.1058	   1.87637	9.27078e+06	      76.5	   16.0412	   1.90714	9.20392e+06	      76.5	   16.0727	   1.97109	9.26526e+06	
         R10	   5734	      76.5	   16.0256	   1.95475	9.21195e+06	      76.5	   16.0567	   1.85954	9.17985e+06	      76.5	   15.9614	   1.82684	9.06042e+06	      76.5	    15.931	   1.91877	9.18691e+06	      76.5	   16.0412	   1.90714	9.19551e+06	      76.5	   16.0091	   1.84319	9.11875e+06	      76.5	   15.9462	    1.8728	9.12351e+06	      76.5	   15.9783	   1.93676	9.19816e+06	
         R10	   5735	      76.5	    15.931	   1.91877	9.17627e+06	      76.5	   15.9614	   1.82684	9.06302e+06	      76.5	   15.8689	    1.7951	8.99242e+06	      76.5	   15.8394	   1.88459	9.19362e+06	      76.5	   15.9462	    1.8728	9.11948e+06	      76.5	   15.9151	   1.81097	9.02569e+06	      76.5	   15.8541	   1.83984	9.09296e+06	      76.5	   15.8852	   1.90168	9.18308e+06	
         R10	   5736	      76.5	   15.8394	   1.88459	9.18812e+06	      76.5	   15.8689	    1.7951	8.99468e+06	      76.5	   15.7791	   1.76433	8.95689e+06	      76.5	   15.7506	   1.85109	 9.2237e+06	      76.5	   15.8541	   1.83984	9.09133e+06	      76.5	    15.824	   1.77972	8.97305e+06	      76.5	   15.7649	   1.80771	9.09026e+06	      76.5	    15.795	   1.86784	9.20328e+06	
         R10	   5737	      76.5	   15.7506	   1.85109	9.22213e+06	      76.5	   15.7791	   1.76433	8.95882e+06	      76.5	   15.6922	   1.73453	8.93682e+06	      76.5	   15.6645	   1.81869	 9.2516e+06	      76.5	   15.7649	   1.80771	9.09043e+06	      76.5	   15.7357	   1.74943	8.94446e+06	      76.5	   15.6784	   1.77661	9.09417e+06	      76.5	   15.7076	   1.83489	9.23347e+06	
         R10	   5738	      76.5	   15.6645	   1.81869	9.25197e+06	      76.5	   15.6922	   1.73453	8.93756e+06	      76.5	   15.6082	   1.70569	8.91853e+06	      76.5	   15.5845	   1.78673	9.24605e+06	      76.5	   15.6784	   1.77661	9.09472e+06	      76.5	   15.6502	   1.72011	8.92438e+06	      76.5	   15.5963	   1.74621	9.08223e+06	      76.5	   15.6245	   1.80271	9.24528e+06	
         R10	   5739	      76.5	   15.5845	   1.78673	9.24657e+06	      76.5	   15.6082	   1.70569	8.92072e+06	      76.5	   15.5269	   1.67782	8.88885e+06	      76.5	   15.5047	   1.75641	9.18248e+06	      76.5	   15.5963	   1.74621	9.08358e+06	      76.5	   15.5675	   1.69176	8.90129e+06	      76.5	   15.5158	   1.71711	9.03549e+06	      76.5	   15.5446	   1.77157	9.21058e+06	
         R10	   5740	      76.5	   15.5047	   1.75641	9.17784e+06	      76.5	   15.5269	   1.67782	8.88535e+06	      76.5	   15.4484	   1.65091	8.78012e+06	      76.5	   15.4339	   1.73552	9.08049e+06	      76.5	   15.5158	   1.71711	9.03144e+06	      76.5	   15.4877	   1.66437	8.83074e+06	      76.5	   15.4412	   1.69322	8.92955e+06	      76.5	   15.4693	   1.74596	9.12447e+06	
         R10	   5741	      76.5	   15.4326	   1.82068	 9.3687e+06	      76.5	   15.3662	   1.81951	9.48111e+06	      76.5	   15.3619	   1.88534	9.83921e+06	      76.5	   15.4233	    1.8906	9.77639e+06	      76.5	   15.3994	    1.8201	9.42084e+06	      76.5	    15.364	   1.85243	9.66011e+06	      76.5	   15.3926	   1.88797	9.80361e+06	      76.5	   15.4279	   1.85564	9.57251e+06	
         R10	   5742	      76.5	   15.4233	    1.8906	9.72958e+06	      76.5	   15.3619	   1.88534	9.80546e+06	      76.5	   15.3567	   1.94418	1.01443e+07	      76.5	   15.4125	   1.94919	1.00713e+07	      76.5	   15.3926	   1.88797	 9.7633e+06	      76.5	   15.3593	   1.91476	9.97481e+06	      76.5	   15.3846	   1.94668	1.01037e+07	      76.5	   15.4179	   1.91989	9.90041e+06	
         R10	   5743	      76.5	   15.4125	   1.94919	1.00481e+07	      76.5	   15.3567	   1.94418	1.01318e+07	      76.5	   15.3514	   1.99781	 1.0472e+07	      76.5	   15.4017	   2.00274	1.03851e+07	      76.5	   15.3846	   1.94668	1.00859e+07	      76.5	   15.3541	   1.97099	1.03018e+07	      76.5	   15.3766	   2.00027	1.04246e+07	      76.5	   15.4071	   1.97596	1.02166e+07	
         R10	   5744	      76.5	   15.4017	   2.00274	1.03751e+07	      76.5	   15.3514	   1.99781	1.04665e+07	      76.5	   15.3465	   2.04651	1.08165e+07	      76.5	    15.392	   2.05185	1.07249e+07	      76.5	   15.3766	   2.00027	1.04168e+07	      76.5	    15.349	   2.02216	1.06414e+07	      76.5	   15.3693	   2.04918	1.07667e+07	      76.5	   15.3969	    2.0273	1.05499e+07	
         R10	   5745	      76.5	    15.392	   2.05185	 1.0721e+07	      76.5	   15.3465	   2.04651	1.08151e+07	      76.5	    15.342	   2.08988	1.11773e+07	      76.5	   15.3849	   2.09576	1.10786e+07	      76.5	   15.3693	   2.04918	 1.0764e+07	      76.5	   15.3443	    2.0682	1.09961e+07	      76.5	   15.3635	   2.09282	1.11235e+07	      76.5	   15.3885	    2.0738	1.08997e+07	
         R10	   5746	      76.5	   15.3849	   2.09576	 1.1077e+07	      76.5	    15.342	   2.08988	1.11777e+07	      76.5	   15.3373	   2.12784	 1.1551e+07	      76.5	   15.3761	   2.13434	1.14576e+07	      76.5	   15.3635	   2.09282	1.11228e+07	      76.5	   15.3397	   2.10886	1.13643e+07	      76.5	   15.3567	   2.13109	1.14995e+07	      76.5	   15.3805	   2.11505	1.12672e+07	
         R10	   5747	      76.5	   15.3761	   2.13434	1.14566e+07	      76.5	   15.3373	   2.12784	1.15524e+07	      76.5	   15.3318	   2.16055	1.19326e+07	      76.5	   15.3656	   2.16659	1.18537e+07	      76.5	   15.3567	   2.13109	1.14997e+07	      76.5	   15.3345	    2.1442	1.17425e+07	      76.5	   15.3487	   2.16357	1.18885e+07	      76.5	   15.3709	   2.15046	1.16551e+07	
         R10	   5748	      76.5	   15.3656	   2.16659	1.18508e+07	      76.5	   15.3318	   2.16055	1.19346e+07	      76.5	   15.3262	   2.18837	1.23166e+07	      76.5	   15.3523	   2.19368	1.22676e+07	      76.5	   15.3487	   2.16357	1.18881e+07	      76.5	    15.329	   2.17446	1.21256e+07	      76.5	   15.3393	   2.19103	1.22886e+07	      76.5	    15.359	   2.18014	1.20591e+07	
         R10	   5749	      76.5	   15.3523	   2.19368	1.22698e+07	      76.5	   15.3262	   2.18837	1.23161e+07	      76.5	   15.3214	   2.21456	1.27375e+07	      76.5	    15.345	    2.2154	1.26384e+07	      76.5	   15.3393	   2.19103	1.22895e+07	      76.5	   15.3238	   2.20147	1.25268e+07	      76.5	   15.3332	   2.21498	1.26846e+07	      76.5	   15.3487	   2.20454	1.24541e+07	
         R10	   5750	      76.5	   15.3214	   2.21456	1.27351e+07	      76.5	   15.3141	   2.23981	1.32309e+07	      76.5	   15.3283	   2.24961	1.33761e+07	      76.5	    15.337	   2.23521	1.30308e+07	      76.5	   15.3178	   2.22718	 1.2983e+07	      76.5	   15.3212	   2.24471	1.33014e+07	      76.5	   15.3326	   2.24241	1.32033e+07	      76.5	   15.3292	   2.22489	1.28802e+07	
         R10	   5751	      76.5	    15.345	    2.2154	 1.2635e+07	      76.5	    15.337	   2.23521	1.30348e+07	      76.5	   15.3523	   2.24433	 1.3089e+07	      76.5	   15.3637	   2.22617	1.26727e+07	      76.5	    15.341	    2.2253	1.28349e+07	      76.5	   15.3446	   2.23977	1.30594e+07	      76.5	    15.358	   2.23525	1.28807e+07	      76.5	   15.3544	   2.22078	1.26509e+07	
         R10	   5752	      76.5	   15.3637	   2.22617	1.26764e+07	      76.5	   15.3523	   2.24433	1.30887e+07	      76.5	   15.3646	   2.25493	1.31686e+07	      76.5	   15.3825	   2.23961	1.26856e+07	      76.5	    15.358	   2.23525	1.28824e+07	      76.5	   15.3585	   2.24963	1.31265e+07	      76.5	   15.3736	   2.24727	1.29264e+07	      76.5	   15.3731	   2.23289	1.26773e+07	
         R10	   5753	      76.5	   15.4105	   2.24985	 1.2441e+07	      76.5	   15.3943	   2.27234	1.30132e+07	      76.5	   15.4075	   2.28366	1.29158e+07	      76.5	   15.4278	   2.27102	1.23755e+07	      76.5	   15.4024	   2.26109	1.27271e+07	      76.5	   15.4009	     2.278	1.29614e+07	      76.5	   15.4177	   2.27734	1.26453e+07	      76.5	   15.4192	   2.26043	1.24031e+07	
         R10	   5754	      76.5	   15.4467	   2.28414	1.20905e+07	      76.5	   15.4366	   2.30084	1.24042e+07	      76.5	   15.4515	   2.31319	1.20947e+07	      76.5	   15.4623	   2.29777	1.18258e+07	      76.5	   15.4417	   2.29249	1.22469e+07	      76.5	   15.4441	   2.30702	 1.2247e+07	      76.5	   15.4569	   2.30548	1.19598e+07	      76.5	   15.4545	   2.29096	1.19559e+07	
         R10	   5755	      76.5	   15.4623	   2.29777	1.18225e+07	      76.5	   15.4515	   2.31319	1.20915e+07	      76.5	   15.4656	   2.32337	1.17697e+07	      76.5	   15.4761	    2.3085	1.15518e+07	      76.5	   15.4569	   2.30548	1.19566e+07	      76.5	   15.4586	   2.31828	1.19293e+07	      76.5	   15.4709	   2.31593	1.16603e+07	      76.5	   15.4692	   2.30313	1.16859e+07	
         R10	   5756	      76.5	   15.4761	    2.3085	1.15506e+07	      76.5	   15.4656	   2.32337	1.17678e+07	      76.5	   15.4797	   2.33317	1.14395e+07	      76.5	   15.4902	   2.31811	 1.1267e+07	      76.5	   15.4709	   2.31593	1.16587e+07	      76.5	   15.4727	   2.32827	1.16027e+07	      76.5	    15.485	   2.32564	1.13528e+07	      76.5	   15.4832	    2.3133	 1.1408e+07	
         R10	   5757	      76.5	   15.4902	   2.31811	 1.1266e+07	      76.5	   15.4797	   2.33317	1.14385e+07	      76.5	   15.4939	   2.34298	1.11169e+07	      76.5	   15.5043	   2.32792	1.09825e+07	      76.5	    15.485	   2.32564	1.13517e+07	      76.5	   15.4868	   2.33808	1.12771e+07	      76.5	   15.4991	   2.33545	1.10492e+07	      76.5	   15.4973	   2.32301	1.11236e+07	
         R10	   5758	      76.5	   15.5043	   2.32792	1.09818e+07	      76.5	   15.4939	   2.34298	1.11162e+07	      76.5	    15.508	   2.35279	1.08104e+07	      76.5	   15.5185	   2.33774	1.07048e+07	      76.5	   15.4991	   2.33545	1.10485e+07	      76.5	    15.501	   2.34788	1.09629e+07	      76.5	   15.5133	   2.34526	1.07572e+07	      76.5	   15.5114	   2.33283	1.08428e+07	
         R10	   5759	      76.5	   15.5185	   2.33774	1.07043e+07	      76.5	    15.508	   2.35279	1.08101e+07	      76.5	   15.5228	   2.36281	1.05107e+07	      76.5	   15.5339	   2.34848	1.04219e+07	      76.5	   15.5133	   2.34526	1.07567e+07	      76.5	   15.5154	    2.3578	1.06601e+07	      76.5	   15.5284	   2.35564	 1.0466e+07	      76.5	   15.5262	   2.34311	1.05628e+07	
         R10	   5760	      76.5	   15.5339	   2.34848	 1.0417e+07	      76.5	   15.5228	   2.36281	1.05119e+07	      76.5	   15.5376	   2.37521	 1.0223e+07	      76.5	   15.5555	   2.35957	1.00719e+07	      76.5	   15.5284	   2.35564	1.04641e+07	      76.5	   15.5302	   2.36901	1.03671e+07	      76.5	   15.5465	   2.36739	 1.0147e+07	      76.5	   15.5447	   2.35402	1.02442e+07	
         R10	   5761	      76.5	    15.557	   2.40256	9.81964e+06	      76.5	   15.5404	   2.39671	1.00561e+07	      76.5	   15.5285	   2.40889	1.01328e+07	      76.5	   15.5467	   2.42018	9.83685e+06	      76.5	   15.5487	   2.39963	9.93781e+06	      76.5	   15.5345	    2.4028	1.00942e+07	      76.5	   15.5376	   2.41454	9.98472e+06	      76.5	   15.5518	   2.41137	9.82788e+06	
         R10	   5762	      76.5	   15.5371	   2.45443	9.75159e+06	      76.5	   15.5178	   2.44575	1.00369e+07	      76.5	   15.5061	   2.45739	1.01212e+07	      76.5	   15.5285	   2.47502	9.74347e+06	      76.5	   15.5275	   2.45009	9.89418e+06	      76.5	    15.512	   2.45157	1.00788e+07	      76.5	   15.5173	   2.46621	9.93226e+06	      76.5	   15.5328	   2.46473	9.74724e+06	
         R10	   5763	      76.5	   15.5139	   2.52159	9.74852e+06	      76.5	   15.4958	   2.54589	9.92541e+06	      76.5	   15.5257	   2.56725	9.47818e+06	      76.5	   15.5474	    2.5366	9.31828e+06	      76.5	   15.5048	   2.53374	9.83623e+06	      76.5	   15.5107	   2.55657	9.70178e+06	      76.5	   15.5365	   2.55193	9.39723e+06	      76.5	   15.5306	    2.5291	 9.5333e+06	
         R10	   5764	      76.5	   15.5474	    2.5366	9.31712e+06	      76.5	   15.5257	   2.56725	9.47654e+06	      76.5	   15.5601	   2.59072	9.04413e+06	      76.5	   15.5869	   2.55385	8.90115e+06	      76.5	   15.5365	   2.55193	9.39583e+06	      76.5	   15.5429	   2.57899	 9.2603e+06	      76.5	   15.5735	   2.57228	8.97131e+06	      76.5	   15.5671	   2.54523	  9.109e+06	
         R10	   5765	      76.5	   15.5869	   2.55385	8.90114e+06	      76.5	   15.5601	   2.59072	9.04401e+06	      76.5	   15.5977	   2.61892	8.63838e+06	      76.5	   15.6283	   2.57859	8.52538e+06	      76.5	   15.5735	   2.57228	8.97125e+06	      76.5	   15.5789	   2.60482	8.84118e+06	      76.5	    15.613	   2.59876	8.58032e+06	      76.5	   15.6076	   2.56622	8.71319e+06	
         R10	   5766	      76.5	   15.6283	   2.57859	8.52515e+06	      76.5	   15.5977	   2.61892	8.63959e+06	      76.5	   15.6389	   2.65253	8.25343e+06	      76.5	   15.6722	   2.60997	8.17932e+06	      76.5	    15.613	   2.59876	8.58081e+06	      76.5	   15.6183	   2.63573	 8.4465e+06	      76.5	   15.6556	   2.63125	8.21458e+06	      76.5	   15.6503	   2.59428	8.35219e+06	
         R10	   5767	      76.5	   15.6722	   2.60997	8.17748e+06	      76.5	   15.6389	   2.65253	8.25656e+06	      76.5	   15.6855	   2.69013	7.88705e+06	      76.5	   15.7217	   2.64523	7.85488e+06	      76.5	   15.6556	   2.63125	8.21524e+06	      76.5	   15.6622	   2.67133	8.07179e+06	      76.5	   15.7036	   2.66768	7.86887e+06	      76.5	    15.697	    2.6276	8.01611e+06	
         R10	   5768	      76.5	   15.7217	   2.64523	7.85031e+06	      76.5	   15.6855	   2.69013	7.89173e+06	      76.5	    15.737	    2.7305	7.55666e+06	      76.5	   15.7791	   2.68022	7.56955e+06	      76.5	   15.7036	   2.66768	7.86892e+06	      76.5	   15.7112	   2.71031	7.72418e+06	      76.5	    15.758	   2.70536	7.56036e+06	      76.5	   15.7504	   2.66272	7.70976e+06	
         R10	   5769	      76.5	   15.7791	   2.68022	7.57877e+06	      76.5	    15.737	    2.7305	7.55797e+06	      76.5	   15.7874	   2.77603	7.28681e+06	      76.5	    15.833	   2.72333	7.33178e+06	      76.5	    15.758	   2.70536	7.56559e+06	      76.5	   15.7622	   2.75326	7.42239e+06	      76.5	   15.8102	   2.74968	7.30545e+06	      76.5	    15.806	   2.70177	7.45504e+06	
         R10	   5770	      76.5	   15.8894	   2.66886	7.42267e+06	      76.5	   15.9769	   2.70814	7.24059e+06	      76.5	    16.012	   2.62473	7.46564e+06	      76.5	   15.9277	   2.58173	7.63342e+06	      76.5	   15.9332	    2.6885	 7.3302e+06	      76.5	   15.9945	   2.66643	7.35091e+06	      76.5	   15.9699	   2.60323	7.54828e+06	      76.5	   15.9086	   2.62529	 7.5258e+06	
         R10	   5771	      76.5	   15.9277	   2.58173	7.65394e+06	      76.5	    16.012	   2.62473	7.46777e+06	      76.5	   16.0584	   2.53504	7.81502e+06	      76.5	   15.9747	   2.49193	7.92642e+06	      76.5	   15.9699	   2.60323	7.55967e+06	      76.5	   16.0352	   2.57989	7.63985e+06	      76.5	   16.0166	   2.51349	7.86917e+06	      76.5	   15.9512	   2.53683	7.78893e+06	
         R10	   5772	      76.5	   15.9747	   2.49193	 7.9453e+06	      76.5	   16.0584	   2.53504	7.82397e+06	      76.5	   16.1062	   2.44317	8.23862e+06	      76.5	   16.0208	   2.39962	8.28678e+06	      76.5	   16.0166	   2.51349	7.88309e+06	      76.5	   16.0823	   2.48911	8.03072e+06	      76.5	   16.0635	    2.4214	8.26101e+06	      76.5	   15.9978	   2.44577	8.11548e+06	
         R10	   5773	      76.5	   16.0208	   2.39962	8.30436e+06	      76.5	   16.1062	   2.44317	8.25523e+06	      76.5	   16.1551	   2.34774	 8.7056e+06	      76.5	    16.069	   2.30326	8.65474e+06	      76.5	   16.0635	    2.4214	8.27811e+06	      76.5	   16.1307	   2.39546	 8.4802e+06	      76.5	   16.1121	    2.3255	8.67844e+06	      76.5	   16.0449	   2.35144	8.47927e+06	
         R10	   5774	      76.5	    16.069	   2.30326	8.68064e+06	      76.5	   16.1551	   2.34774	8.72847e+06	      76.5	   16.2041	   2.24944	9.12562e+06	      76.5	   16.1145	   2.20696	8.98485e+06	      76.5	   16.1121	    2.3255	8.70285e+06	      76.5	   16.1796	   2.29859	8.92652e+06	      76.5	   16.1593	    2.2282	9.05392e+06	      76.5	   16.0917	   2.25511	8.83243e+06	
         R10	   5775	      76.5	   16.1145	   2.20696	9.02015e+06	      76.5	   16.2041	   2.24944	9.15198e+06	      76.5	   16.2567	   2.15454	9.46891e+06	      76.5	   16.1647	   2.11263	9.24853e+06	      76.5	   16.1593	    2.2282	9.08477e+06	      76.5	   16.2304	   2.20199	9.30974e+06	      76.5	   16.2107	   2.13358	9.35738e+06	      76.5	   16.1396	   2.15979	9.13371e+06	
         R10	   5776	      76.5	   16.1647	   2.11263	9.29232e+06	      76.5	   16.2567	   2.15454	 9.5378e+06	      76.5	   16.3126	   2.05747	9.69198e+06	      76.5	   16.2166	   2.02144	9.43586e+06	      76.5	   16.2107	   2.13358	 9.4135e+06	      76.5	   16.2847	   2.10601	9.61207e+06	      76.5	   16.2646	   2.03946	9.56351e+06	      76.5	   16.1906	   2.06703	9.36351e+06	
         R10	   5777	      76.5	   16.1647	   2.11263	9.26746e+06	      76.5	   16.2166	   2.02144	 9.3693e+06	      76.5	   16.1197	   1.98743	9.24417e+06	      76.5	   16.0762	   2.07972	9.15039e+06	      76.5	   16.1906	   2.06703	9.31758e+06	      76.5	   16.1681	   2.00444	9.30585e+06	      76.5	   16.0979	   2.03357	 9.1968e+06	      76.5	   16.1204	   2.09617	9.20819e+06	
         R10	   5778	      76.5	   16.0762	   2.07972	9.12569e+06	      76.5	   16.1197	   1.98743	  9.213e+06	      76.5	   16.0256	   1.95475	9.13927e+06	      76.5	   15.9907	   2.04191	9.10807e+06	      76.5	   16.0979	   2.03357	9.16891e+06	      76.5	   16.0727	   1.97109	9.17534e+06	      76.5	   16.0082	   1.99833	9.12344e+06	      76.5	   16.0334	   2.06082	9.11599e+06	
         R10	   5779	      76.5	   15.9907	   2.04191	9.09509e+06	      76.5	   16.0256	   1.95475	9.11942e+06	      76.5	    15.931	   1.91877	9.09773e+06	      76.5	   15.8976	   2.00532	9.13044e+06	      76.5	   16.0082	   1.99833	9.10705e+06	      76.5	   15.9783	   1.93676	9.10725e+06	      76.5	   15.9143	   1.96204	9.11396e+06	      76.5	   15.9441	   2.02361	9.11157e+06	
         R10	   5780	      76.5	   15.8976	   2.00532	9.12683e+06	      76.5	    15.931	   1.91877	 9.0866e+06	      76.5	   15.8394	   1.88459	9.09874e+06	      76.5	   15.8076	   1.96933	9.21644e+06	      76.5	   15.9143	   1.96204	9.10659e+06	      76.5	   15.8852	   1.90168	9.09077e+06	      76.5	   15.8235	   1.92696	 9.1575e+06	      76.5	   15.8526	   1.98732	9.16984e+06	
         R10	   5781	      76.5	   15.8076	   1.96933	9.21903e+06	      76.5	   15.8394	   1.88459	 9.0935e+06	      76.5	   15.7506	   1.85109	9.12703e+06	      76.5	   15.7197	   1.93316	9.32579e+06	      76.5	   15.8235	   1.92696	9.15618e+06	      76.5	    15.795	   1.86784	9.10761e+06	      76.5	   15.7352	   1.89213	9.22635e+06	      76.5	   15.7637	   1.95125	 9.2696e+06	
         R10	   5782	      76.5	   15.7197	   1.93316	 9.3275e+06	      76.5	   15.7506	   1.85109	9.12579e+06	      76.5	   15.6645	   1.81869	 9.1512e+06	      76.5	   15.6373	   1.89656	9.41274e+06	      76.5	   15.7352	   1.89213	9.22659e+06	      76.5	   15.7076	   1.83489	9.13504e+06	      76.5	   15.6509	   1.85762	9.28193e+06	      76.5	   15.6785	   1.91486	9.36635e+06	
         R10	   5783	      76.5	   15.6373	   1.89656	9.41201e+06	      76.5	   15.6645	   1.81869	9.15195e+06	      76.5	   15.5845	   1.78673	9.14178e+06	      76.5	   15.5632	   1.86115	 9.4395e+06	      76.5	   15.6509	   1.85762	9.28195e+06	      76.5	   15.6245	   1.80271	 9.1431e+06	      76.5	   15.5738	   1.82394	9.29061e+06	      76.5	   15.6002	   1.87885	9.42161e+06	
         R10	   5784	      76.5	   15.4938	    1.8307	9.36705e+06	      76.5	   15.4326	   1.82068	9.36941e+06	      76.5	   15.4233	    1.8906	9.77106e+06	      76.5	   15.4804	   1.90204	9.70341e+06	      76.5	   15.4632	   1.82569	9.36481e+06	      76.5	   15.4279	   1.85564	9.57022e+06	      76.5	   15.4518	   1.89632	 9.7336e+06	      76.5	   15.4871	   1.86637	9.53519e+06	
         R10	   5785	      76.5	   15.4804	   1.90204	9.67453e+06	      76.5	   15.4233	    1.8906	9.72782e+06	      76.5	   15.4125	   1.94919	1.00702e+07	      76.5	   15.4662	   1.95931	9.97959e+06	      76.5	   15.4518	   1.89632	 9.6976e+06	      76.5	   15.4179	   1.91989	  9.899e+06	      76.5	   15.4394	   1.95425	1.00213e+07	      76.5	   15.4733	   1.93068	9.82704e+06	
         R10	   5786	      76.5	   15.4662	   1.95931	9.96631e+06	      76.5	   15.4125	   1.94919	1.00462e+07	      76.5	   15.4017	   2.00274	1.03843e+07	      76.5	   15.4501	    2.0121	 1.0281e+07	      76.5	   15.4394	   1.95425	1.00027e+07	      76.5	   15.4071	   1.97596	1.02153e+07	      76.5	   15.4259	   2.00742	1.03291e+07	      76.5	   15.4582	    1.9857	1.01237e+07	
         R10	   5787	      76.5	   15.4501	    2.0121	1.02773e+07	      76.5	   15.4017	   2.00274	1.03745e+07	      76.5	    15.392	   2.05185	1.07243e+07	      76.5	   15.4372	   2.06081	1.06032e+07	      76.5	   15.4259	   2.00742	1.03224e+07	      76.5	   15.3969	    2.0273	1.05494e+07	      76.5	   15.4146	   2.05633	1.06599e+07	      76.5	   15.4436	   2.03646	1.04402e+07	
         R10	   5788	      76.5	   15.4372	   2.06081	1.06017e+07	      76.5	    15.392	   2.05185	1.07204e+07	      76.5	   15.3849	   2.09576	1.10789e+07	      76.5	   15.4276	   2.10533	1.09414e+07	      76.5	   15.4146	   2.05633	1.06572e+07	      76.5	   15.3885	    2.0738	1.08995e+07	      76.5	   15.4063	   2.10054	1.10057e+07	      76.5	   15.4324	   2.08307	1.07713e+07	
         R10	   5789	      76.5	   15.4276	   2.10533	1.09398e+07	      76.5	   15.3849	   2.09576	1.10769e+07	      76.5	   15.3761	   2.13434	1.14594e+07	      76.5	   15.4151	   2.14429	1.13159e+07	      76.5	   15.4063	   2.10054	 1.1004e+07	      76.5	   15.3805	   2.11505	1.12681e+07	      76.5	   15.3956	   2.13931	1.13829e+07	      76.5	   15.4214	   2.12481	1.11278e+07	
         R10	   5790	      76.5	   15.4151	   2.14429	1.13166e+07	      76.5	   15.3761	   2.13434	1.14577e+07	      76.5	   15.3656	   2.16659	1.18571e+07	      76.5	   15.4036	   2.18325	1.17707e+07	      76.5	   15.3956	   2.13931	1.13824e+07	      76.5	   15.3709	   2.15046	1.16574e+07	      76.5	   15.3846	   2.17492	1.18071e+07	      76.5	   15.4093	   2.16377	1.15435e+07	
         R10	   5791	      76.5	   15.3756	   2.20538	1.22695e+07	      76.5	   15.3523	   2.19368	1.22662e+07	      76.5	    15.345	    2.2154	1.26366e+07	      76.5	   15.3637	   2.22617	1.26679e+07	      76.5	   15.3639	   2.19953	1.22644e+07	      76.5	   15.3487	   2.20454	1.24514e+07	      76.5	   15.3544	   2.22078	1.26493e+07	      76.5	   15.3696	   2.21577	1.24686e+07	
         R10	   5792	      76.5	   15.3825	   2.23961	 1.2708e+07	      76.5	    15.381	     2.265	1.31282e+07	      76.5	   15.3943	   2.27234	1.30102e+07	      76.5	   15.4105	   2.24985	1.24331e+07	      76.5	   15.3817	   2.25231	1.29171e+07	      76.5	   15.3876	   2.26867	1.30667e+07	      76.5	   15.4024	   2.26109	1.27216e+07	      76.5	   15.3965	   2.24473	1.25644e+07	
         R10	   5793	      76.5	   15.4278	   2.27102	1.23763e+07	      76.5	   15.4241	   2.29331	1.26452e+07	      76.5	   15.4366	   2.30084	   1.24e+07	      76.5	   15.4467	   2.28414	1.20929e+07	      76.5	    15.426	   2.28216	1.25092e+07	      76.5	   15.4304	   2.29708	 1.2521e+07	      76.5	   15.4417	   2.29249	 1.2246e+07	      76.5	   15.4373	   2.27758	1.22312e+07	
         R10	   5794	      76.5	   15.4611	   2.26646	1.17232e+07	      76.5	   15.4467	   2.28414	1.20904e+07	      76.5	   15.4623	   2.29777	1.18234e+07	      76.5	   15.4748	   2.28112	1.15463e+07	      76.5	   15.4539	    2.2753	1.19066e+07	      76.5	   15.4545	   2.29096	1.19546e+07	      76.5	   15.4685	   2.28945	1.16846e+07	      76.5	   15.4679	   2.27379	 1.1633e+07	
         R10	   5795	      76.5	   15.4748	   2.28112	1.15386e+07	      76.5	   15.4623	   2.29777	1.18219e+07	      76.5	   15.4761	    2.3085	1.15513e+07	      76.5	   15.4877	   2.29329	1.13298e+07	      76.5	   15.4685	   2.28945	1.16799e+07	      76.5	   15.4692	   2.30313	1.16854e+07	      76.5	   15.4819	   2.30089	1.14402e+07	      76.5	   15.4813	    2.2872	 1.1433e+07	
         R10	   5796	      76.5	   15.4877	   2.29329	1.13263e+07	      76.5	   15.4761	    2.3085	1.15498e+07	      76.5	   15.4902	   2.31811	1.12664e+07	      76.5	   15.5013	   2.30211	1.10903e+07	      76.5	   15.4819	   2.30089	1.14378e+07	      76.5	   15.4832	    2.3133	1.14073e+07	      76.5	   15.4957	   2.31011	1.11779e+07	      76.5	   15.4945	    2.2977	1.12077e+07	
         R10	   5797	      76.5	   15.5013	   2.30211	1.10889e+07	      76.5	   15.4902	   2.31811	1.12657e+07	      76.5	   15.5043	   2.32792	 1.0982e+07	      76.5	   15.5154	   2.31193	  1.084e+07	      76.5	   15.4957	   2.31011	1.11769e+07	      76.5	   15.4973	   2.32301	1.11232e+07	      76.5	   15.5099	   2.31992	1.09106e+07	      76.5	   15.5084	   2.30702	1.09639e+07	
         R10	   5798	      76.5	   15.5154	   2.31193	1.08396e+07	      76.5	   15.5043	   2.32792	1.09814e+07	      76.5	   15.5185	   2.33774	1.07054e+07	      76.5	   15.5298	   2.32182	  1.059e+07	      76.5	   15.5099	   2.31992	1.09101e+07	      76.5	   15.5114	   2.33283	 1.0843e+07	      76.5	   15.5242	   2.32978	1.06473e+07	      76.5	   15.5226	   2.31687	1.07144e+07	
         R10	   5799	      76.5	   15.5298	   2.32182	1.05906e+07	      76.5	   15.5185	   2.33774	 1.0704e+07	      76.5	   15.5339	   2.34848	1.04196e+07	      76.5	   15.5451	   2.33301	1.03311e+07	      76.5	   15.5242	   2.32978	1.06469e+07	      76.5	   15.5262	   2.34311	1.05614e+07	      76.5	   15.5395	   2.34075	 1.0375e+07	      76.5	   15.5375	   2.32741	1.04605e+07	
         R10	   5800	      76.5	   15.5451	   2.33301	1.03331e+07	      76.5	   15.5339	   2.34848	1.04191e+07	      76.5	   15.5555	   2.35957	1.00727e+07	      76.5	   15.5585	   2.34324	 1.0117e+07	      76.5	   15.5395	   2.34075	1.03758e+07	      76.5	   15.5447	   2.35402	1.02456e+07	      76.5	    15.557	    2.3514	1.00945e+07	      76.5	   15.5518	   2.33812	1.02248e+07	
         R10	   5801	      76.5	   15.5376	   2.37521	1.02222e+07	      76.5	   15.5404	   2.39671	1.00573e+07	      76.5	    15.557	   2.40256	 9.8191e+06	      76.5	   15.5612	    2.3816	9.88863e+06	      76.5	    15.539	   2.38596	1.01392e+07	      76.5	   15.5487	   2.39963	9.93813e+06	      76.5	   15.5591	   2.39208	9.85345e+06	      76.5	   15.5494	    2.3784	1.00553e+07	
         R10	   5802	      76.5	    15.529	   2.49683	9.64389e+06	      76.5	   15.5139	   2.52159	9.74653e+06	      76.5	   15.5474	    2.5366	9.31583e+06	      76.5	   15.5623	    2.5036	9.27247e+06	      76.5	   15.5215	   2.50921	9.69471e+06	      76.5	   15.5306	    2.5291	9.53109e+06	      76.5	   15.5549	    2.5201	9.29351e+06	      76.5	   15.5457	   2.50021	  9.458e+06	
         R10	   5803	      76.5	   15.5623	    2.5036	9.26729e+06	      76.5	   15.5474	    2.5366	9.31569e+06	      76.5	   15.5869	   2.55385	8.89666e+06	      76.5	   15.6068	   2.51448	8.85838e+06	      76.5	   15.5549	    2.5201	9.29085e+06	      76.5	   15.5671	   2.54523	9.10604e+06	      76.5	   15.5969	   2.53417	8.87669e+06	      76.5	   15.5846	   2.50904	9.06256e+06	
         R10	   5804	      76.5	   15.6068	   2.51448	8.85563e+06	      76.5	   15.5869	   2.55385	8.89738e+06	      76.5	   15.6283	   2.57859	8.52102e+06	      76.5	   15.6544	   2.53682	8.47801e+06	      76.5	   15.5969	   2.53417	8.87569e+06	      76.5	   15.6076	   2.56622	8.70913e+06	      76.5	   15.6413	   2.55771	8.49853e+06	      76.5	   15.6306	   2.52565	8.66663e+06	
         R10	   5805	      76.5	   15.6544	   2.53682	8.47706e+06	      76.5	   15.6283	   2.57859	8.52086e+06	      76.5	   15.6722	   2.60997	8.17507e+06	      76.5	   15.7018	   2.56674	 8.1538e+06	      76.5	   15.6413	   2.55771	8.49797e+06	      76.5	   15.6503	   2.59428	8.34792e+06	      76.5	    15.687	   2.58835	8.16332e+06	      76.5	   15.6781	   2.55178	 8.3153e+06	
         R10	   5806	      76.5	   15.7018	   2.56674	8.15449e+06	      76.5	   15.6722	   2.60997	8.17212e+06	      76.5	   15.7217	   2.64523	7.85416e+06	      76.5	   15.7508	   2.59913	7.87586e+06	      76.5	    15.687	   2.58835	8.16218e+06	      76.5	    15.697	    2.6276	8.01308e+06	      76.5	   15.7362	   2.62218	7.86379e+06	      76.5	   15.7263	   2.58294	8.01504e+06	
         R10	   5807	      76.5	   15.7508	   2.59913	7.87592e+06	      76.5	   15.7217	   2.64523	7.85068e+06	      76.5	   15.7791	   2.68022	7.56117e+06	      76.5	    15.817	   2.62796	7.62085e+06	      76.5	   15.7362	   2.62218	7.86206e+06	      76.5	   15.7504	   2.66272	7.70575e+06	      76.5	    15.798	   2.65409	7.58914e+06	      76.5	   15.7839	   2.61355	7.74783e+06	
         R10	   5808	      76.5	   15.8774	   2.52854	7.85895e+06	      76.5	   15.9277	   2.58173	7.63252e+06	      76.5	   15.9747	   2.49193	7.91564e+06	      76.5	   15.8938	   2.45438	8.06658e+06	      76.5	   15.9025	   2.55513	7.74535e+06	      76.5	   15.9512	   2.53683	7.77256e+06	      76.5	   15.9343	   2.47315	7.98993e+06	      76.5	   15.8856	   2.49146	7.96241e+06	
         R10	   5809	      76.5	   15.8938	   2.45438	8.08291e+06	      76.5	   15.9747	   2.49193	7.93706e+06	      76.5	   16.0208	   2.39962	8.27267e+06	      76.5	   15.9431	    2.3619	 8.3571e+06	      76.5	   15.9343	   2.47315	8.00877e+06	      76.5	   15.9978	   2.44577	8.10432e+06	      76.5	   15.9819	   2.38076	8.31385e+06	      76.5	   15.9184	   2.40814	8.21929e+06	
         R10	   5810	      76.5	   15.9431	    2.3619	8.37762e+06	      76.5	   16.0208	   2.39962	8.28936e+06	      76.5	    16.069	   2.30326	8.64228e+06	      76.5	   15.9879	   2.26414	8.66286e+06	      76.5	   15.9819	   2.38076	8.33244e+06	      76.5	   16.0449	   2.35144	8.46555e+06	      76.5	   16.0284	    2.2837	8.65152e+06	      76.5	   15.9655	   2.31302	8.51984e+06	
         R10	   5811	      76.5	   15.9879	   2.26414	8.68354e+06	      76.5	    16.069	   2.30326	8.66689e+06	      76.5	   16.1145	   2.20696	8.96153e+06	      76.5	   16.0256	   2.17045	8.89869e+06	      76.5	   16.0284	    2.2837	8.67416e+06	      76.5	   16.0917	   2.25511	8.81385e+06	      76.5	   16.0701	    2.1887	8.92922e+06	      76.5	   16.0068	    2.2173	8.79082e+06	
         R10	   5812	      76.5	   16.0256	   2.17045	8.92741e+06	      76.5	   16.1145	   2.20696	8.99655e+06	      76.5	   16.1647	   2.11263	9.20835e+06	      76.5	   16.0762	   2.07972	9.10176e+06	      76.5	   16.0701	    2.1887	8.96108e+06	      76.5	   16.1396	   2.15979	9.10194e+06	      76.5	   16.1204	   2.09617	 9.1543e+06	      76.5	   16.0509	   2.12509	9.01432e+06	
         R10	   5813	      76.5	   15.9476	   2.13299	8.95603e+06	      76.5	   16.0256	   2.17045	8.92015e+06	      76.5	   16.0762	   2.07972	9.07822e+06	      76.5	   15.9907	   2.04191	9.05639e+06	      76.5	   15.9866	   2.15172	8.93732e+06	      76.5	   16.0509	   2.12509	8.99893e+06	      76.5	   16.0334	   2.06082	 9.0665e+06	      76.5	   15.9691	   2.08745	9.00602e+06	
         R10	   5814	      76.5	   15.9476	   2.13299	8.95266e+06	      76.5	   15.9907	   2.04191	9.04067e+06	      76.5	   15.8976	   2.00532	9.08299e+06	      76.5	   15.8617	   2.09868	9.05647e+06	      76.5	   15.9691	   2.08745	8.99646e+06	      76.5	   15.9441	   2.02361	9.06058e+06	      76.5	   15.8796	     2.052	9.06946e+06	      76.5	   15.9047	   2.11583	9.00355e+06	
         R10	   5815	      76.5	   15.8617	   2.09868	9.05503e+06	      76.5	   15.8976	   2.00532	9.08252e+06	      76.5	   15.8076	   1.96933	9.16177e+06	      76.5	   15.7729	   2.04263	9.25783e+06	      76.5	   15.8796	     2.052	9.06851e+06	      76.5	   15.8526	   1.98732	9.12034e+06	      76.5	   15.7903	   2.00598	9.20969e+06	      76.5	   15.8173	   2.07065	9.15408e+06	
         R10	   5816	      76.5	   15.7729	   2.04263	9.25727e+06	      76.5	   15.8076	   1.96933	 9.1606e+06	      76.5	   15.7197	   1.93316	9.27241e+06	      76.5	   15.6886	   2.00876	9.45069e+06	      76.5	   15.7903	   2.00598	9.20883e+06	      76.5	   15.7637	   1.95125	9.21368e+06	      76.5	   15.7042	   1.97096	9.36143e+06	      76.5	   15.7308	    2.0257	9.35117e+06	
         R10	   5817	      76.5	   15.6886	   2.00876	9.45677e+06	      76.5	   15.7197	   1.93316	9.27495e+06	      76.5	   15.6373	   1.89656	9.35876e+06	      76.5	   15.6099	   1.97055	9.61491e+06	      76.5	   15.7042	   1.97096	9.36573e+06	      76.5	   15.6785	   1.91486	9.31304e+06	      76.5	   15.6236	   1.93355	9.48677e+06	      76.5	   15.6492	   1.98966	9.53155e+06	
         R10	   5818	      76.5	   15.5441	   1.92833	9.63806e+06	      76.5	   15.4804	   1.90204	9.67947e+06	      76.5	   15.4662	   1.95931	9.97949e+06	      76.5	   15.5217	   1.97976	9.90209e+06	      76.5	   15.5123	   1.91519	9.65445e+06	      76.5	   15.4733	   1.93068	9.82946e+06	      76.5	    15.494	   1.96954	9.93689e+06	      76.5	   15.5329	   1.95405	9.77008e+06	
         R10	   5819	      76.5	   15.5217	   1.97976	9.88349e+06	      76.5	   15.4662	   1.95931	9.96686e+06	      76.5	   15.4501	    2.0121	1.02797e+07	      76.5	    15.496	     2.027	 1.0183e+07	      76.5	    15.494	   1.96954	 9.9212e+06	      76.5	   15.4582	    1.9857	1.01233e+07	      76.5	    15.473	   2.01955	1.02283e+07	      76.5	   15.5089	   2.00338	1.00332e+07	
         R10	   5820	      76.5	    15.496	     2.027	1.01703e+07	      76.5	   15.4501	    2.0121	1.02756e+07	      76.5	   15.4372	   2.06081	1.06013e+07	      76.5	     15.48	   2.07297	1.04656e+07	      76.5	    15.473	   2.01955	1.02199e+07	      76.5	   15.4436	   2.03646	1.04384e+07	      76.5	   15.4586	   2.06689	1.05301e+07	      76.5	    15.488	   2.04998	1.03178e+07	
         R10	   5821	      76.5	     15.48	   2.07297	1.04638e+07	      76.5	   15.4372	   2.06081	1.06005e+07	      76.5	   15.4276	   2.10533	1.09406e+07	      76.5	   15.4696	   2.11706	1.07582e+07	      76.5	   15.4586	   2.06689	1.05289e+07	      76.5	   15.4324	   2.08307	1.07703e+07	      76.5	   15.4486	    2.1112	1.08455e+07	      76.5	   15.4748	   2.09502	1.06107e+07	
         R10	   5822	      76.5	   15.4696	   2.11706	1.07556e+07	      76.5	   15.4276	   2.10533	 1.0939e+07	      76.5	   15.4151	   2.14429	1.13184e+07	      76.5	   15.4548	   2.15718	1.11156e+07	      76.5	   15.4486	    2.1112	1.08434e+07	      76.5	   15.4214	   2.12481	1.11286e+07	      76.5	   15.4349	   2.15073	1.12123e+07	      76.5	   15.4622	   2.13712	1.09354e+07	
         R10	   5823	      76.5	   15.4548	   2.15718	1.11159e+07	      76.5	   15.4151	   2.14429	1.13164e+07	      76.5	   15.4036	   2.18325	1.17591e+07	      76.5	   15.4388	    2.1867	1.14735e+07	      76.5	   15.4349	   2.15073	1.12115e+07	      76.5	   15.4093	   2.16377	1.15375e+07	      76.5	   15.4212	   2.18498	1.16122e+07	      76.5	   15.4468	   2.17194	1.12946e+07	
         R10	   5824	      76.5	   15.4036	   2.18325	1.17743e+07	      76.5	   15.3656	   2.16659	1.18626e+07	      76.5	   15.3523	   2.19368	1.22679e+07	      76.5	   15.3756	   2.20538	1.22619e+07	      76.5	   15.3846	   2.17492	1.18114e+07	      76.5	    15.359	   2.18014	1.20651e+07	      76.5	   15.3639	   2.19953	1.22612e+07	      76.5	   15.3896	   2.19431	1.20169e+07	
         R10	   5825	      76.5	   15.4151	   2.21872	1.20261e+07	      76.5	   15.4036	   2.18325	1.17648e+07	      76.5	   15.3756	   2.20538	1.22596e+07	      76.5	   15.3931	   2.22249	1.23342e+07	      76.5	   15.4093	   2.20099	 1.1892e+07	      76.5	   15.3896	   2.19431	1.20112e+07	      76.5	   15.3843	   2.21393	1.22939e+07	      76.5	   15.4041	   2.22061	1.21787e+07	
         R10	   5826	      76.5	   15.3931	   2.22249	1.23184e+07	      76.5	   15.3756	   2.20538	1.22621e+07	      76.5	   15.3637	   2.22617	1.26704e+07	      76.5	   15.3825	   2.23961	1.26998e+07	      76.5	   15.3843	   2.21393	 1.2287e+07	      76.5	   15.3696	   2.21577	1.24662e+07	      76.5	   15.3731	   2.23289	1.26816e+07	      76.5	   15.3878	   2.23105	1.25091e+07	
         R10	   5827	      76.5	   15.4886	   2.26539	1.12747e+07	      76.5	   15.4748	   2.28112	1.15383e+07	      76.5	   15.4877	   2.29329	1.13299e+07	      76.5	   15.5006	   2.27769	1.10998e+07	      76.5	   15.4817	   2.27326	1.14063e+07	      76.5	   15.4813	    2.2872	 1.1433e+07	      76.5	   15.4942	   2.28549	1.12146e+07	      76.5	   15.4946	   2.27154	1.11864e+07	
         R10	   5828	      76.5	   15.5006	   2.27769	1.11009e+07	      76.5	   15.4877	   2.29329	1.13256e+07	      76.5	   15.5013	   2.30211	1.10895e+07	      76.5	    15.513	   2.28506	1.09121e+07	      76.5	   15.4942	   2.28549	 1.1213e+07	      76.5	   15.4945	    2.2977	1.12069e+07	      76.5	   15.5072	   2.29359	1.10005e+07	      76.5	   15.5068	   2.28138	1.10061e+07	
         R10	   5829	      76.5	    15.513	   2.28506	1.09127e+07	      76.5	   15.5013	   2.30211	1.10894e+07	      76.5	   15.5154	   2.31193	  1.084e+07	      76.5	   15.5249	   2.29561	1.07268e+07	      76.5	   15.5072	   2.29359	1.10007e+07	      76.5	   15.5084	   2.30702	1.09641e+07	      76.5	   15.5202	   2.30377	 1.0783e+07	      76.5	    15.519	   2.29034	1.08193e+07	
         R10	   5830	      76.5	   15.5249	   2.29561	1.07229e+07	      76.5	   15.5154	   2.31193	1.08394e+07	      76.5	   15.5298	   2.32182	1.05899e+07	      76.5	   15.5441	   2.30055	1.04494e+07	      76.5	   15.5202	   2.30377	1.07807e+07	      76.5	   15.5226	   2.31687	1.07142e+07	      76.5	    15.537	   2.31118	1.05191e+07	      76.5	   15.5345	   2.29808	1.05859e+07	
         R10	   5831	      76.5	   15.5441	   2.30055	1.04484e+07	      76.5	   15.5298	   2.32182	1.05898e+07	      76.5	   15.5451	   2.33301	1.03325e+07	      76.5	   15.5575	   2.31719	1.02325e+07	      76.5	    15.537	   2.31118	1.05186e+07	      76.5	   15.5375	   2.32741	1.04608e+07	      76.5	   15.5513	    2.3251	1.02822e+07	      76.5	   15.5508	   2.30887	1.03398e+07	
         R10	   5832	      76.5	   15.5575	   2.31719	1.02335e+07	      76.5	   15.5451	   2.33301	1.03295e+07	      76.5	   15.5585	   2.34324	1.01177e+07	      76.5	   15.5703	   2.33073	1.00228e+07	      76.5	   15.5513	    2.3251	1.02812e+07	      76.5	   15.5518	   2.33812	1.02233e+07	      76.5	   15.5644	   2.33698	  1.007e+07	      76.5	   15.5639	   2.32396	1.01278e+07	
         R10	   5833	      76.5	   15.5816	   2.38271	9.66325e+06	      76.5	   15.5612	    2.3816	9.88774e+06	      76.5	    15.557	   2.40256	9.81813e+06	      76.5	   15.5776	   2.40893	9.56778e+06	      76.5	   15.5714	   2.38215	9.77544e+06	      76.5	   15.5591	   2.39208	9.85249e+06	      76.5	   15.5673	   2.40574	 9.6929e+06	      76.5	   15.5796	   2.39582	9.61499e+06	
         R10	   5834	      76.5	   15.5704	   2.47027	9.32012e+06	      76.5	   15.5623	    2.5036	 9.2683e+06	      76.5	   15.6068	   2.51448	8.85563e+06	      76.5	   15.6223	   2.47416	8.89013e+06	      76.5	   15.5664	   2.48693	9.29374e+06	      76.5	   15.5846	   2.50904	 9.0617e+06	      76.5	   15.6145	   2.49432	8.87223e+06	      76.5	   15.5963	   2.47221	9.10466e+06	
         R10	   5835	      76.5	   15.6223	   2.47416	8.89325e+06	      76.5	   15.6068	   2.51448	8.85463e+06	      76.5	   15.6544	   2.53682	8.47827e+06	      76.5	   15.6764	   2.49538	8.48649e+06	      76.5	   15.6145	   2.49432	8.87328e+06	      76.5	   15.6306	   2.52565	8.66626e+06	      76.5	   15.6654	    2.5161	8.48171e+06	      76.5	   15.6494	   2.48477	8.68953e+06	
         R10	   5836	      76.5	   15.6764	   2.49538	8.49213e+06	      76.5	   15.6544	   2.53682	8.47784e+06	      76.5	   15.7018	   2.56674	8.15267e+06	      76.5	   15.7284	   2.52255	8.17909e+06	      76.5	   15.6654	    2.5161	8.48432e+06	      76.5	   15.6781	   2.55178	8.31512e+06	      76.5	   15.7151	   2.54464	8.16514e+06	      76.5	   15.7024	   2.50896	8.33535e+06	
         R10	   5837	      76.5	   15.7284	   2.52255	8.18277e+06	      76.5	   15.7018	   2.56674	8.15225e+06	      76.5	   15.7508	   2.59913	7.87711e+06	      76.5	   15.7738	   2.55229	7.94533e+06	      76.5	   15.7151	   2.54464	8.16678e+06	      76.5	   15.7263	   2.58294	8.01454e+06	      76.5	   15.7623	   2.57571	7.91043e+06	      76.5	   15.7511	   2.53742	8.06386e+06	
         R10	   5838	      76.5	    15.824	   2.40879	8.31251e+06	      76.5	   15.8938	   2.45438	8.07542e+06	      76.5	   15.9431	    2.3619	8.35086e+06	      76.5	   15.8725	   2.32833	8.50144e+06	      76.5	   15.8589	   2.43159	8.19323e+06	      76.5	   15.9184	   2.40814	8.21242e+06	      76.5	   15.9078	   2.34511	8.42538e+06	      76.5	   15.8483	   2.36856	8.40615e+06	
         R10	   5839	      76.5	   15.8725	   2.32833	8.51252e+06	      76.5	   15.9431	    2.3619	8.37071e+06	      76.5	   15.9879	   2.26414	 8.6527e+06	      76.5	   15.9131	   2.22752	8.75236e+06	      76.5	   15.9078	   2.34511	8.44088e+06	      76.5	   15.9655	   2.31302	8.51131e+06	      76.5	   15.9505	   2.24583	8.70177e+06	      76.5	   15.8928	   2.27793	8.63171e+06	
         R10	   5840	      76.5	   15.9131	   2.22752	8.76991e+06	      76.5	   15.9879	   2.26414	8.67462e+06	      76.5	   16.0256	   2.17045	8.89259e+06	      76.5	   15.9476	   2.13299	8.92556e+06	      76.5	   15.9505	   2.24583	8.72152e+06	      76.5	   16.0068	    2.2173	8.78331e+06	      76.5	   15.9866	   2.15172	8.90829e+06	      76.5	   15.9303	   2.18026	8.84734e+06	
         R10	   5841	      76.5	   15.8453	   2.20389	8.89512e+06	      76.5	   15.9131	   2.22752	8.76491e+06	      76.5	   15.9476	   2.13299	8.92096e+06	      76.5	   15.8617	   2.09868	9.03533e+06	      76.5	   15.8792	   2.21571	 8.8295e+06	      76.5	   15.9303	   2.18026	8.84253e+06	      76.5	   15.9047	   2.11583	8.97715e+06	      76.5	   15.8535	   2.15128	8.96423e+06	
         R10	   5842	      76.5	   15.7334	   2.10924	9.32389e+06	      76.5	   15.7729	   2.04263	9.22125e+06	      76.5	   15.6886	   2.00876	9.42204e+06	      76.5	   15.6614	    2.0768	9.58471e+06	      76.5	   15.7532	   2.07594	9.27242e+06	      76.5	   15.7308	    2.0257	9.31875e+06	      76.5	    15.675	   2.04278	9.50307e+06	      76.5	   15.6974	   2.09302	9.45188e+06	
         R10	   5843	      76.5	   15.6614	    2.0768	 9.5954e+06	      76.5	   15.6886	   2.00876	9.42932e+06	      76.5	   15.6099	   1.97055	 9.5858e+06	      76.5	   15.5826	    2.0332	9.84942e+06	      76.5	    15.675	   2.04278	9.51205e+06	      76.5	   15.6492	   1.98966	9.50325e+06	      76.5	   15.5963	   2.00188	9.71752e+06	      76.5	    15.622	     2.055	9.71681e+06	
         R10	   5844	      76.5	   15.5241	   2.08609	1.02816e+07	      76.5	     15.48	   2.07297	 1.0458e+07	      76.5	   15.4696	   2.11706	1.07585e+07	      76.5	   15.5109	   2.12873	1.05258e+07	      76.5	   15.5021	   2.07953	1.03668e+07	      76.5	   15.4748	   2.09502	1.06079e+07	      76.5	   15.4902	    2.1229	1.06391e+07	      76.5	   15.5175	   2.10741	1.04034e+07	
         R10	   5845	      76.5	   15.4947	   2.17571	1.08553e+07	      76.5	   15.4548	   2.15718	1.11166e+07	      76.5	   15.4388	    2.1867	1.14785e+07	      76.5	   15.4582	   2.21203	1.14292e+07	      76.5	   15.4747	   2.16645	1.09816e+07	      76.5	   15.4468	   2.17194	1.12975e+07	      76.5	   15.4485	   2.19936	1.14502e+07	      76.5	   15.4764	   2.19387	1.11421e+07	
         R10	   5846	      76.5	   15.4582	   2.21203	1.14561e+07	      76.5	   15.4388	    2.1867	1.14858e+07	      76.5	   15.4036	   2.18325	1.17739e+07	      76.5	   15.4151	   2.21872	1.20296e+07	      76.5	   15.4485	   2.19936	1.14675e+07	      76.5	   15.4212	   2.18498	1.16259e+07	      76.5	   15.4093	   2.20099	1.18981e+07	      76.5	   15.4366	   2.21537	1.17388e+07	
         R10	   5847	      76.5	    15.481	    2.2488	1.13357e+07	      76.5	   15.4611	   2.26646	1.17258e+07	      76.5	   15.4748	   2.28112	1.15439e+07	      76.5	   15.4886	   2.26539	1.12642e+07	      76.5	   15.4711	   2.25763	1.15307e+07	      76.5	   15.4679	   2.27379	 1.1633e+07	      76.5	   15.4817	   2.27326	1.14039e+07	      76.5	   15.4848	   2.25709	1.12989e+07	
         R10	   5848	      76.5	   15.5024	   2.25284	 1.1031e+07	      76.5	   15.4886	   2.26539	1.12687e+07	      76.5	   15.5006	   2.27769	   1.11e+07	      76.5	   15.5142	    2.2567	1.08898e+07	      76.5	   15.4955	   2.25911	1.11498e+07	      76.5	   15.4946	   2.27154	1.11834e+07	      76.5	   15.5074	    2.2672	1.09945e+07	      76.5	   15.5083	   2.25477	1.09602e+07	
         R10	   5849	      76.5	   15.5142	    2.2567	1.08804e+07	      76.5	   15.5006	   2.27769	1.11022e+07	      76.5	    15.513	   2.28506	 1.0913e+07	      76.5	   15.5262	   2.26594	1.07264e+07	      76.5	   15.5074	    2.2672	1.09909e+07	      76.5	   15.5068	   2.28138	1.10072e+07	      76.5	   15.5196	    2.2755	1.08194e+07	      76.5	   15.5202	   2.26132	1.08029e+07	
         R10	   5850	      76.5	   15.5262	   2.26594	1.07293e+07	      76.5	    15.513	   2.28506	1.09117e+07	      76.5	   15.5249	   2.29561	 1.0724e+07	      76.5	   15.5416	   2.27841	1.05199e+07	      76.5	   15.5196	    2.2755	1.08202e+07	      76.5	    15.519	   2.29034	1.08174e+07	      76.5	   15.5333	   2.28701	1.06217e+07	      76.5	   15.5339	   2.27217	 1.0624e+07	
         R10	   5851	      76.5	   15.6177	   2.38533	9.31269e+06	      76.5	   15.5816	   2.38271	9.65832e+06	      76.5	   15.5776	   2.40893	9.56212e+06	      76.5	   15.6113	   2.40923	9.26018e+06	      76.5	   15.5997	   2.38402	9.48535e+06	      76.5	   15.5796	   2.39582	9.60969e+06	      76.5	   15.5944	   2.40908	9.41096e+06	      76.5	   15.6145	   2.39728	9.28613e+06	
         R10	   5852	      76.5	   15.5724	   2.43746	9.46608e+06	      76.5	   15.5776	   2.40893	9.56207e+06	      76.5	    15.557	   2.40256	9.82019e+06	      76.5	   15.5467	   2.42018	9.83064e+06	      76.5	    15.575	   2.42319	9.51355e+06	      76.5	   15.5673	   2.40574	9.69107e+06	      76.5	   15.5518	   2.41137	9.82509e+06	      76.5	   15.5595	   2.42882	9.64821e+06	
         R10	   5853	      76.5	    15.656	   2.42567	8.86446e+06	      76.5	   15.6223	   2.47416	8.88736e+06	      76.5	   15.6764	   2.49538	 8.4885e+06	      76.5	    15.708	   2.44333	8.53392e+06	      76.5	   15.6391	   2.44991	 8.8747e+06	      76.5	   15.6494	   2.48477	 8.6876e+06	      76.5	   15.6922	   2.46935	8.51024e+06	      76.5	    15.682	    2.4345	8.69887e+06	
         R10	   5854	      76.5	    15.708	   2.44333	8.52783e+06	      76.5	   15.6764	   2.49538	8.49374e+06	      76.5	   15.7284	   2.52255	8.17661e+06	      76.5	   15.7677	   2.46944	8.22676e+06	      76.5	   15.6922	   2.46935	 8.5098e+06	      76.5	   15.7024	   2.50896	 8.3349e+06	      76.5	   15.7481	     2.496	8.20073e+06	      76.5	   15.7379	   2.45639	8.37687e+06	
         R10	   5855	      76.5	   15.7677	   2.46944	8.23306e+06	      76.5	   15.7284	   2.52255	8.17937e+06	      76.5	   15.7738	   2.55229	7.94967e+06	      76.5	   15.8105	   2.49883	8.02552e+06	      76.5	   15.7481	     2.496	8.20525e+06	      76.5	   15.7511	   2.53742	8.06433e+06	      76.5	   15.7921	   2.52556	7.98666e+06	      76.5	   15.7891	   2.48414	8.12903e+06	
         R10	   5856	      76.5	   15.8331	   2.58669	7.70851e+06	      76.5	   15.7738	   2.55229	7.93758e+06	      76.5	   15.7508	   2.59913	7.87708e+06	      76.5	    15.817	   2.62796	7.63753e+06	      76.5	   15.8035	   2.56949	7.82263e+06	      76.5	   15.7623	   2.57571	 7.9065e+06	      76.5	   15.7839	   2.61355	7.75676e+06	      76.5	   15.8251	   2.60733	7.67263e+06	
         R10	   5857	      76.5	   15.7557	    2.3786	 8.5901e+06	      76.5	    15.824	   2.40879	8.30499e+06	      76.5	   15.8725	   2.32833	8.49811e+06	      76.5	   15.8098	   2.29598	8.70385e+06	      76.5	   15.7899	    2.3937	8.44691e+06	      76.5	   15.8483	   2.36856	 8.4007e+06	      76.5	   15.8412	   2.31215	8.60041e+06	      76.5	   15.7828	   2.33729	 8.6456e+06	
         R10	   5858	      76.5	   15.8098	   2.29598	8.72163e+06	      76.5	   15.8725	   2.32833	8.51021e+06	      76.5	   15.9131	   2.22752	8.74764e+06	      76.5	   15.8453	   2.20389	8.87634e+06	      76.5	   15.8412	   2.31215	8.61535e+06	      76.5	   15.8928	   2.27793	 8.6282e+06	      76.5	   15.8792	   2.21571	8.81147e+06	      76.5	   15.8276	   2.24994	8.79803e+06	
         R10	   5859	      76.5	   15.7517	    2.2673	8.96911e+06	      76.5	   15.8098	   2.29598	8.71766e+06	      76.5	   15.8453	   2.20389	8.87477e+06	      76.5	    15.777	   2.19395	9.06195e+06	      76.5	   15.7808	   2.28164	8.84286e+06	      76.5	   15.8276	   2.24994	8.79527e+06	      76.5	   15.8111	   2.19892	8.96794e+06	      76.5	   15.7643	   2.23062	9.01455e+06	
         R10	   5860	      76.5	   15.7057	   2.17504	9.35871e+06	      76.5	   15.7334	   2.10924	9.30895e+06	      76.5	   15.6614	    2.0768	   9.57e+06	      76.5	   15.6384	   2.14211	9.72663e+06	      76.5	   15.7195	   2.14214	9.33318e+06	      76.5	   15.6974	   2.09302	9.43702e+06	      76.5	   15.6499	   2.10946	9.64758e+06	      76.5	    15.672	   2.15858	9.54022e+06	
         R10	   5861	      76.5	   15.5765	   2.09764	1.00073e+07	      76.5	   15.5241	   2.08609	  1.028e+07	      76.5	   15.5109	   2.12873	1.05264e+07	      76.5	   15.5518	   2.13844	1.02673e+07	      76.5	   15.5503	   2.09186	1.01408e+07	      76.5	   15.5175	   2.10741	1.04029e+07	      76.5	   15.5313	   2.13359	1.03947e+07	      76.5	   15.5641	   2.11804	1.01372e+07	
         R10	   5862	      76.5	   15.5109	   2.12873	1.05282e+07	      76.5	   15.4696	   2.11706	1.07547e+07	      76.5	   15.4548	   2.15718	1.11122e+07	      76.5	   15.4947	   2.17571	 1.0866e+07	      76.5	   15.4902	    2.1229	1.06384e+07	      76.5	   15.4622	   2.13712	1.09333e+07	      76.5	   15.4747	   2.16645	1.09846e+07	      76.5	   15.5028	   2.15222	1.06964e+07	
         R10	   5863	      76.5	    15.481	    2.2488	1.13354e+07	      76.5	   15.4886	   2.26539	1.12769e+07	      76.5	   15.5024	   2.25284	1.10477e+07	      76.5	   15.4974	   2.22558	1.10216e+07	      76.5	   15.4848	   2.25709	1.13051e+07	      76.5	   15.4955	   2.25911	1.11622e+07	      76.5	   15.4999	   2.23921	1.10327e+07	      76.5	   15.4892	   2.23719	1.11782e+07	
         R10	   5864	      76.5	   15.5428	   2.24893	1.05202e+07	      76.5	   15.5262	   2.26594	1.07272e+07	      76.5	   15.5416	   2.27841	1.05162e+07	      76.5	   15.5617	   2.26908	1.02928e+07	      76.5	   15.5345	   2.25744	1.06235e+07	      76.5	   15.5339	   2.27217	 1.0621e+07	      76.5	   15.5517	   2.27374	1.04045e+07	      76.5	   15.5523	   2.25901	1.04053e+07	
         R10	   5865	      76.5	   15.5555	   2.35957	1.00736e+07	      76.5	   15.5612	    2.3816	9.88888e+06	      76.5	   15.5816	   2.38271	9.66155e+06	      76.5	    15.585	   2.35516	9.75928e+06	      76.5	   15.5583	   2.37058	9.98067e+06	      76.5	   15.5714	   2.38215	9.77515e+06	      76.5	   15.5833	   2.36894	 9.7098e+06	      76.5	   15.5702	   2.35737	9.91629e+06	
         R10	   5866	      76.5	   15.6113	   2.40923	9.26265e+06	      76.5	   15.5776	   2.40893	9.56014e+06	      76.5	   15.5724	   2.43746	 9.4703e+06	      76.5	   15.5969	   2.43849	9.24053e+06	      76.5	   15.5944	   2.40908	 9.4112e+06	      76.5	    15.575	   2.42319	9.51471e+06	      76.5	   15.5847	   2.43797	9.35533e+06	      76.5	   15.6041	   2.42386	9.25104e+06	
         R10	   5867	      76.5	   15.7557	    2.3786	8.59442e+06	      76.5	   15.8098	   2.29598	8.70327e+06	      76.5	   15.7517	    2.2673	8.96659e+06	      76.5	   15.7281	   2.31949	8.91025e+06	      76.5	   15.7828	   2.33729	8.64745e+06	      76.5	   15.7808	   2.28164	8.83442e+06	      76.5	   15.7399	    2.2934	8.93774e+06	      76.5	   15.7419	   2.34905	8.75154e+06	
         R10	   5868	      76.5	   15.5386	   2.16842	 1.0442e+07	      76.5	   15.5518	   2.13844	1.02618e+07	      76.5	   15.5109	   2.12873	 1.0526e+07	      76.5	   15.4947	   2.17571	1.08415e+07	      76.5	   15.5452	   2.15343	1.03517e+07	      76.5	   15.5313	   2.13359	1.03918e+07	      76.5	   15.5028	   2.15222	1.06831e+07	      76.5	   15.5166	   2.17206	1.06404e+07	
         R10	   5869	      76.5	   15.5255	   2.23291	1.07086e+07	      76.5	   15.4974	   2.22558	 1.1032e+07	      76.5	   15.5024	   2.25284	 1.1046e+07	      76.5	   15.5142	    2.2567	1.08776e+07	      76.5	   15.5115	   2.22925	 1.0869e+07	      76.5	   15.4999	   2.23921	1.10375e+07	      76.5	   15.5083	   2.25477	1.09615e+07	      76.5	   15.5199	   2.24481	1.07927e+07	
         R10	   5870	      76.5	   15.5255	   2.23291	1.07122e+07	      76.5	   15.5142	    2.2567	1.08848e+07	      76.5	   15.5262	   2.26594	1.07258e+07	      76.5	   15.5428	   2.24893	1.05218e+07	      76.5	   15.5199	   2.24481	 1.0798e+07	      76.5	   15.5202	   2.26132	1.08048e+07	      76.5	   15.5345	   2.25744	1.06237e+07	      76.5	   15.5342	   2.24092	1.06159e+07	
         R10	   5871	      76.5	   15.5368	   2.21888	1.05667e+07	      76.5	   15.5255	   2.23291	  1.071e+07	      76.5	   15.5428	   2.24893	1.05194e+07	      76.5	   15.5608	   2.23494	1.03186e+07	      76.5	   15.5311	    2.2259	1.06383e+07	      76.5	   15.5342	   2.24092	1.06136e+07	      76.5	   15.5518	   2.24193	1.04189e+07	      76.5	   15.5488	   2.22691	1.04415e+07	
         R10	   5872	      76.5	   15.5729	   2.29223	1.01253e+07	      76.5	   15.5617	   2.26908	 1.0288e+07	      76.5	   15.5416	   2.27841	1.05233e+07	      76.5	   15.5441	   2.30055	1.04445e+07	      76.5	   15.5673	   2.28066	1.02058e+07	      76.5	   15.5517	   2.27374	1.04057e+07	      76.5	   15.5428	   2.28948	 1.0483e+07	      76.5	   15.5585	   2.29639	1.02849e+07	
         R10	   5873	      76.5	   15.6777	   2.30985	9.20508e+06	      76.5	   15.7281	   2.31949	8.89992e+06	      76.5	   15.7517	    2.2673	 8.9687e+06	      76.5	   15.6918	   2.24066	9.30685e+06	      76.5	   15.7029	   2.31467	9.05226e+06	      76.5	   15.7399	    2.2934	8.93363e+06	      76.5	   15.7218	   2.25398	9.13703e+06	      76.5	   15.6848	   2.27526	9.25416e+06	
         R10	   5874	      76.5	   15.5832	   2.15064	1.00669e+07	      76.5	   15.5518	   2.13844	1.02616e+07	      76.5	   15.5386	   2.16842	1.04459e+07	      76.5	   15.5786	   2.17189	1.01086e+07	      76.5	   15.5675	   2.14454	1.01633e+07	      76.5	   15.5452	   2.15343	1.03536e+07	      76.5	   15.5586	   2.17016	1.02759e+07	      76.5	   15.5809	   2.16127	1.00874e+07	
         R10	   5875	      76.5	   15.7557	    2.3786	8.58687e+06	      76.5	   15.7281	   2.31949	8.88892e+06	      76.5	   15.6777	   2.30985	9.19409e+06	      76.5	   15.6771	    2.3798	8.92913e+06	      76.5	   15.7419	   2.34905	8.73715e+06	      76.5	   15.7029	   2.31467	 9.0412e+06	      76.5	   15.6774	   2.34482	9.05971e+06	      76.5	   15.7164	    2.3792	8.75719e+06	
         R10	   5876	      76.5	   15.4151	   2.21872	1.20243e+07	      76.5	   15.3931	   2.22249	1.23127e+07	      76.5	   15.3825	   2.23961	  1.269e+07	      76.5	   15.4105	   2.24985	1.24503e+07	      76.5	   15.4041	   2.22061	 1.2167e+07	      76.5	   15.3878	   2.23105	1.25014e+07	      76.5	   15.3965	   2.24473	1.25643e+07	      76.5	   15.4128	   2.23429	 1.2236e+07	
         R10	   5877	      76.5	   15.4417	   2.26005	1.20157e+07	      76.5	   15.4278	   2.27102	 1.2373e+07	      76.5	   15.4467	   2.28414	1.20891e+07	      76.5	   15.4611	   2.26646	1.17295e+07	      76.5	   15.4347	   2.26553	1.21943e+07	      76.5	   15.4373	   2.27758	1.22278e+07	      76.5	   15.4539	    2.2753	1.19091e+07	      76.5	   15.4514	   2.26326	 1.1871e+07	
         R10	   5878	      76.5	   15.4417	   2.26005	1.20384e+07	      76.5	   15.4611	   2.26646	  1.173e+07	      76.5	   15.4623	   2.24308	1.15842e+07	      76.5	   15.4351	   2.24298	1.19861e+07	      76.5	   15.4514	   2.26326	1.18826e+07	      76.5	   15.4617	   2.25477	1.16559e+07	      76.5	   15.4487	   2.24303	1.17833e+07	      76.5	   15.4384	   2.25152	1.20107e+07	
         R10	   5879	      76.5	   15.4417	   2.26005	1.20215e+07	      76.5	   15.4351	   2.24298	1.19896e+07	      76.5	   15.4105	   2.24985	1.24552e+07	      76.5	   15.4278	   2.27102	1.23722e+07	      76.5	   15.4384	   2.25152	1.20039e+07	      76.5	   15.4228	   2.24641	1.22212e+07	      76.5	   15.4192	   2.26043	1.24089e+07	      76.5	   15.4347	   2.26553	1.21967e+07	
         R10	   5880	      76.5	   15.4582	   2.21203	1.14365e+07	      76.5	   15.4151	   2.21872	1.20187e+07	      76.5	   15.4105	   2.24985	1.24328e+07	      76.5	   15.4351	   2.24298	1.19665e+07	      76.5	   15.4366	   2.21537	1.17237e+07	      76.5	   15.4128	   2.23429	1.22247e+07	      76.5	   15.4228	   2.24641	1.21982e+07	      76.5	   15.4466	    2.2275	1.17015e+07	
         R10	   5881	      76.5	   15.4974	   2.22558	1.10429e+07	      76.5	   15.4582	   2.21203	1.14529e+07	      76.5	   15.4623	   2.24308	1.15915e+07	      76.5	    15.481	    2.2488	1.13234e+07	      76.5	   15.4778	    2.2188	1.12434e+07	      76.5	   15.4602	   2.22755	1.15199e+07	      76.5	   15.4717	   2.24594	1.14563e+07	      76.5	   15.4892	   2.23719	 1.1183e+07	
         R10	   5882	      76.5	   15.5703	   2.33073	1.00323e+07	      76.5	   15.5585	   2.34324	  1.011e+07	      76.5	    15.585	   2.35516	9.75939e+06	      76.5	   15.5644	   2.33698	 1.0071e+07	      76.5	   15.5717	    2.3492	9.93443e+06	      76.5	   15.5776	   2.34295	9.89516e+06	       N/A	       N/A	       N/A	        N/A	       N/A	       N/A	       N/A	        N/A	
         R10	   5883	      76.5	   15.5456	   2.44371	9.71053e+06	      76.5	   15.5371	   2.45443	9.75122e+06	      76.5	   15.5704	   2.47027	9.31657e+06	      76.5	   15.5724	   2.43746	 9.4711e+06	      76.5	   15.5414	   2.44907	9.73078e+06	      76.5	   15.5537	   2.46235	9.53377e+06	      76.5	   15.5714	   2.45386	9.39327e+06	      76.5	    15.559	   2.44058	9.59057e+06	
         R10	   5884	      76.5	   15.5456	   2.44371	9.71123e+06	      76.5	   15.5724	   2.43746	9.45637e+06	      76.5	   15.5467	   2.42018	9.83235e+06	      76.5	   15.5316	   2.43326	9.93927e+06	      76.5	    15.559	   2.44058	9.58354e+06	      76.5	   15.5595	   2.42882	9.64422e+06	      76.5	   15.5391	   2.42672	9.88557e+06	      76.5	   15.5386	   2.43849	 9.8252e+06	
         R10	   5885	      76.5	   15.5456	   2.44371	9.70694e+06	      76.5	   15.5316	   2.43326	9.93942e+06	      76.5	   15.5178	   2.44575	1.00337e+07	      76.5	   15.5371	   2.45443	9.75832e+06	      76.5	   15.5386	   2.43849	9.82313e+06	      76.5	   15.5247	   2.43951	 9.9863e+06	      76.5	   15.5275	   2.45009	9.89594e+06	      76.5	   15.5414	   2.44907	9.73247e+06	
         R10	   5886	      76.5	   15.4903	   2.50639	1.01207e+07	      76.5	   15.5139	   2.52159	9.75018e+06	      76.5	    15.529	   2.49683	 9.6446e+06	      76.5	   15.5029	   2.48988	1.00036e+07	      76.5	   15.5021	   2.51399	 9.9354e+06	      76.5	   15.5215	   2.50921	9.69688e+06	      76.5	    15.516	   2.49336	9.82397e+06	      76.5	   15.4966	   2.49814	1.00618e+07	
         R10	   5887	      76.5	   15.4903	   2.50639	 1.0121e+07	      76.5	   15.4726	   2.52798	1.03367e+07	      76.5	   15.4958	   2.54589	9.92904e+06	      76.5	   15.5139	   2.52159	9.75111e+06	      76.5	   15.4814	   2.51718	1.02282e+07	      76.5	   15.4842	   2.53693	1.01328e+07	      76.5	   15.5048	   2.53374	9.83934e+06	      76.5	   15.5021	   2.51399	9.93605e+06	
         R10	   5888	      76.5	   15.4903	   2.50639	 1.0121e+07	      76.5	   15.4712	   2.49513	1.04625e+07	      76.5	   15.4602	   2.50524	1.06295e+07	      76.5	   15.4726	   2.52798	1.03449e+07	      76.5	   15.4808	   2.50076	1.02917e+07	      76.5	   15.4657	   2.50019	1.05458e+07	      76.5	   15.4664	   2.51661	1.04871e+07	      76.5	   15.4814	   2.51718	1.02322e+07	
         R10	   5889	      76.5	   15.5029	   2.48988	1.00065e+07	      76.5	   15.4827	   2.48074	1.03388e+07	      76.5	   15.4712	   2.49513	1.04685e+07	      76.5	   15.4903	   2.50639	1.01208e+07	      76.5	   15.4928	   2.48531	1.01726e+07	      76.5	   15.4769	   2.48794	1.04034e+07	      76.5	   15.4808	   2.50076	1.02946e+07	      76.5	   15.4966	   2.49814	1.00633e+07	
         R10	   5890	      76.5	   15.5062	   2.47651	1.00193e+07	      76.5	   15.5285	   2.47502	9.74266e+06	      76.5	   15.5061	   2.45739	1.01217e+07	      76.5	   15.4939	   2.46863	1.02381e+07	      76.5	   15.5173	   2.47577	9.88081e+06	      76.5	   15.5173	   2.46621	9.93208e+06	      76.5	      15.5	   2.46301	1.01797e+07	      76.5	      15.5	   2.47257	1.01287e+07	
         R10	   5891	      76.5	   15.5062	   2.47651	1.00263e+07	      76.5	   15.4939	   2.46863	 1.0234e+07	      76.5	   15.4827	   2.48074	1.03412e+07	      76.5	   15.5029	   2.48988	1.00055e+07	      76.5	      15.5	   2.47257	1.01302e+07	      76.5	   15.4883	   2.47469	1.02874e+07	      76.5	   15.4928	   2.48531	1.01733e+07	      76.5	   15.5045	    2.4832	1.00158e+07	
         R10	   5892	      76.5	   15.5062	   2.47651	 1.0015e+07	      76.5	   15.5029	   2.48988	1.00072e+07	      76.5	    15.529	   2.49683	9.64613e+06	      76.5	   15.5285	   2.47502	9.75305e+06	      76.5	   15.5045	    2.4832	 1.0011e+07	      76.5	    15.516	   2.49336	9.82656e+06	      76.5	   15.5288	   2.48592	9.69941e+06	      76.5	   15.5173	   2.47577	 9.8839e+06	
         R10	   5893	      76.5	   15.5285	   2.47502	9.74003e+06	      76.5	    15.529	   2.49683	9.64479e+06	      76.5	   15.5623	    2.5036	9.27431e+06	      76.5	   15.5704	   2.47027	9.32228e+06	      76.5	   15.5288	   2.48592	9.69221e+06	      76.5	   15.5457	   2.50021	9.45936e+06	      76.5	   15.5664	   2.48693	9.29783e+06	      76.5	   15.5494	   2.47265	9.53067e+06	
         R10	   5894	      76.5	   15.6223	   2.47416	8.88811e+06	      76.5	   15.5969	   2.43849	9.23078e+06	      76.5	   15.5724	   2.43746	9.46484e+06	      76.5	   15.5704	   2.47027	9.32301e+06	      76.5	   15.6096	   2.45632	9.05921e+06	      76.5	   15.5847	   2.43797	9.34771e+06	      76.5	   15.5714	   2.45386	9.39346e+06	      76.5	   15.5963	   2.47221	9.10509e+06	
         R10	   5895	      76.5	   15.6113	   2.40923	9.25303e+06	      76.5	   15.5969	   2.43849	9.23044e+06	      76.5	   15.6223	   2.47416	8.89875e+06	      76.5	    15.656	   2.42567	8.86657e+06	      76.5	   15.6041	   2.42386	9.24116e+06	      76.5	   15.6096	   2.45632	9.06437e+06	      76.5	   15.6391	   2.44991	8.88143e+06	      76.5	   15.6336	   2.41745	9.05954e+06	
         R10	   5896	      76.5	   15.8685	    2.7755	7.21802e+06	      76.5	   15.8419	   2.82919	7.06829e+06	      76.5	   15.9033	   2.87798	7.06963e+06	      76.5	   15.9321	   2.79079	7.25088e+06	      76.5	   15.8552	   2.80235	7.14221e+06	      76.5	   15.8726	   2.85359	7.06832e+06	      76.5	   15.9177	   2.83439	7.15662e+06	      76.5	   15.9003	   2.78315	7.23275e+06	
         R10	   5897	      76.5	   15.8685	    2.7755	7.21541e+06	      76.5	   15.9321	   2.79079	7.18092e+06	      76.5	   15.8894	   2.66886	7.38915e+06	      76.5	    15.833	   2.72333	7.33066e+06	      76.5	   15.9003	   2.78315	 7.1962e+06	      76.5	   15.9108	   2.72983	 7.2803e+06	      76.5	   15.8612	    2.6961	7.35612e+06	      76.5	   15.8508	   2.74942	7.27299e+06	
         R10	   5898	      76.5	   15.8685	    2.7755	7.14324e+06	      76.5	    15.833	   2.72333	 7.3639e+06	      76.5	   15.7874	   2.77603	 7.2939e+06	      76.5	   15.8419	   2.82919	 7.1082e+06	      76.5	   15.8508	   2.74942	7.25284e+06	      76.5	   15.8102	   2.74968	7.32598e+06	      76.5	   15.8147	   2.80261	7.20082e+06	      76.5	   15.8552	   2.80235	7.12018e+06	
         R10	   5899	      76.5	   15.8894	   2.66886	 7.4008e+06	      76.5	    15.817	   2.62796	7.61493e+06	      76.5	   15.7791	   2.68022	7.56709e+06	      76.5	    15.833	   2.72333	7.34381e+06	      76.5	   15.8532	   2.64841	7.50716e+06	      76.5	    15.798	   2.65409	7.58927e+06	      76.5	    15.806	   2.70177	7.45529e+06	      76.5	   15.8612	    2.6961	 7.3694e+06	
         R10	   5900	      76.5	   15.9277	   2.58173	7.61491e+06	      76.5	   15.8331	   2.58669	7.71754e+06	      76.5	    15.817	   2.62796	7.61412e+06	      76.5	   15.8894	   2.66886	7.41706e+06	      76.5	   15.8804	   2.58421	7.66452e+06	      76.5	   15.8251	   2.60733	7.66537e+06	      76.5	   15.8532	   2.64841	7.51496e+06	      76.5	   15.9086	   2.62529	7.51376e+06	
         R10	   5901	      76.5	   15.8351	   2.53586	7.86801e+06	      76.5	   15.8105	   2.49883	8.03426e+06	      76.5	   15.7738	   2.55229	7.94354e+06	      76.5	   15.8331	   2.58669	7.72744e+06	      76.5	   15.8228	   2.51735	7.95103e+06	      76.5	   15.7921	   2.52556	7.98789e+06	      76.5	   15.8035	   2.56949	 7.8351e+06	      76.5	   15.8341	   2.56128	7.79752e+06	
         R10	   5902	      76.5	   15.8351	   2.53586	7.86393e+06	      76.5	   15.8331	   2.58669	7.73885e+06	      76.5	   15.9277	   2.58173	7.61833e+06	      76.5	   15.8774	   2.52854	7.83612e+06	      76.5	   15.8341	   2.56128	7.80126e+06	      76.5	   15.8804	   2.58421	7.67666e+06	      76.5	   15.9025	   2.55513	7.72677e+06	      76.5	   15.8563	    2.5322	 7.8494e+06	
         R10	   5903	      76.5	   15.8351	   2.53586	7.83473e+06	      76.5	   15.8774	   2.52854	 7.8604e+06	      76.5	   15.8938	   2.45438	8.06945e+06	      76.5	   15.8105	   2.49883	8.03706e+06	      76.5	   15.8563	    2.5322	7.84706e+06	      76.5	   15.8856	   2.49146	7.96457e+06	      76.5	   15.8522	    2.4766	8.05201e+06	      76.5	   15.8228	   2.51735	7.93575e+06	
         R10	   5904	      76.5	   15.7677	   2.46944	 8.2327e+06	      76.5	   15.8105	   2.49883	8.03174e+06	      76.5	   15.8938	   2.45438	 8.0566e+06	      76.5	    15.824	   2.40879	 8.3002e+06	      76.5	   15.7891	   2.48414	8.13195e+06	      76.5	   15.8522	    2.4766	8.04271e+06	      76.5	   15.8589	   2.43159	8.17762e+06	      76.5	   15.7959	   2.43912	8.26532e+06	
         R10	   5905	      76.5	    15.708	   2.44333	8.52917e+06	      76.5	   15.7677	   2.46944	8.22776e+06	      76.5	    15.824	   2.40879	8.29577e+06	      76.5	   15.7557	    2.3786	8.58306e+06	      76.5	   15.7379	   2.45639	8.37803e+06	      76.5	   15.7959	   2.43912	8.26066e+06	      76.5	   15.7899	    2.3937	8.43878e+06	      76.5	   15.7318	   2.41096	8.55473e+06	
         R10	   5906	      76.5	    15.656	   2.42567	8.86597e+06	      76.5	    15.708	   2.44333	8.53349e+06	      76.5	   15.7557	    2.3786	8.57588e+06	      76.5	   15.6771	    2.3798	8.92707e+06	      76.5	    15.682	    2.4345	8.69941e+06	      76.5	   15.7318	   2.41096	8.55328e+06	      76.5	   15.7164	    2.3792	8.75071e+06	      76.5	   15.6665	   2.40273	8.89568e+06	
         R10	   5907	      76.5	   15.6771	    2.3798	8.93128e+06	      76.5	   15.6177	   2.38533	9.30807e+06	      76.5	   15.6113	   2.40923	9.25324e+06	      76.5	    15.656	   2.42567	8.86896e+06	      76.5	   15.6474	   2.38256	9.11916e+06	      76.5	   15.6145	   2.39728	 9.2803e+06	      76.5	   15.6336	   2.41745	9.06087e+06	      76.5	   15.6665	   2.40273	8.89921e+06	
         R10	   5908	      76.5	   15.7932	   2.13386	9.11205e+06	      76.5	   15.7334	   2.10924	 9.3055e+06	      76.5	   15.7057	   2.17504	9.35634e+06	      76.5	    15.777	   2.19395	9.05557e+06	      76.5	   15.7633	   2.12155	9.20777e+06	      76.5	   15.7195	   2.14214	9.33027e+06	      76.5	   15.7413	   2.18449	9.20503e+06	      76.5	   15.7851	    2.1639	9.08335e+06	
         R10	   5909	      76.5	   15.7932	   2.13386	9.11745e+06	      76.5	    15.777	   2.19395	 9.0508e+06	      76.5	   15.8453	   2.20389	8.89493e+06	      76.5	   15.8617	   2.09868	9.03985e+06	      76.5	   15.7851	    2.1639	9.08362e+06	      76.5	   15.8111	   2.19892	8.97248e+06	      76.5	   15.8535	   2.15128	8.96635e+06	      76.5	   15.8274	   2.11627	9.07855e+06	
         R10	   5910	      76.5	   15.7932	   2.13386	9.12214e+06	      76.5	   15.8617	   2.09868	9.01744e+06	      76.5	   15.7729	   2.04263	9.22345e+06	      76.5	   15.7334	   2.10924	9.31612e+06	      76.5	   15.8274	   2.11627	 9.0697e+06	      76.5	   15.8173	   2.07065	9.11795e+06	      76.5	   15.7532	   2.07594	9.26962e+06	      76.5	   15.7633	   2.12155	9.21815e+06	
         R10	   5911	      76.5	   15.6918	   2.24066	9.31665e+06	      76.5	   15.7517	    2.2673	8.97074e+06	      76.5	    15.777	   2.19395	9.05842e+06	      76.5	   15.7057	   2.17504	 9.3481e+06	      76.5	   15.7218	   2.25398	9.14294e+06	      76.5	   15.7643	   2.23062	9.01363e+06	      76.5	   15.7413	   2.18449	9.20233e+06	      76.5	   15.6988	   2.20785	9.33105e+06	
         R10	   5912	      76.5	   15.5984	   2.23455	9.96164e+06	      76.5	   15.5862	   2.25735	1.00584e+07	      76.5	   15.6111	   2.29418	9.74157e+06	      76.5	    15.637	   2.26387	9.60475e+06	      76.5	   15.5923	   2.24595	1.00097e+07	      76.5	   15.5987	   2.27577	9.89813e+06	      76.5	    15.624	   2.27903	9.67269e+06	      76.5	   15.6177	   2.24921	9.78164e+06	
         R10	   5913	      76.5	   15.6116	   2.20846	9.87881e+06	      76.5	    15.649	   2.21643	9.62469e+06	      76.5	   15.6384	   2.14211	9.73363e+06	      76.5	   15.6014	   2.18794	9.93544e+06	      76.5	   15.6303	   2.21245	9.75125e+06	      76.5	   15.6437	   2.17927	9.67531e+06	      76.5	   15.6199	   2.16503	 9.8342e+06	      76.5	   15.6065	    2.1982	9.90656e+06	
         R10	   5914	      76.5	   15.6116	   2.20846	9.84406e+06	      76.5	   15.6014	   2.18794	9.98145e+06	      76.5	   15.5623	   2.20506	1.02891e+07	      76.5	   15.5984	   2.23455	 9.9827e+06	      76.5	   15.6065	    2.1982	9.91245e+06	      76.5	   15.5818	    2.1965	1.01351e+07	      76.5	   15.5804	   2.21981	1.01335e+07	      76.5	    15.605	   2.22151	9.91296e+06	
         R10	   5915	      76.5	   15.6116	   2.20846	9.89696e+06	      76.5	   15.5984	   2.23455	9.96302e+06	      76.5	    15.637	   2.26387	9.61505e+06	      76.5	    15.649	   2.21643	9.59202e+06	      76.5	    15.605	   2.22151	9.92957e+06	      76.5	   15.6177	   2.24921	9.78773e+06	      76.5	    15.643	   2.24015	9.60233e+06	      76.5	   15.6303	   2.21245	9.74397e+06	
         R10	   5916	      76.5	   15.6918	   2.24066	9.31971e+06	      76.5	   15.7057	   2.17504	9.35041e+06	      76.5	   15.6384	   2.14211	9.72894e+06	      76.5	    15.649	   2.21643	9.62008e+06	      76.5	   15.6988	   2.20785	 9.3338e+06	      76.5	    15.672	   2.15858	9.53735e+06	      76.5	   15.6437	   2.17927	9.67138e+06	      76.5	   15.6704	   2.22855	9.46903e+06	
         R10	   5917	      76.5	   15.6777	   2.30985	 9.2007e+06	      76.5	   15.6918	   2.24066	 9.3173e+06	      76.5	    15.649	   2.21643	 9.6054e+06	      76.5	    15.637	   2.26387	 9.6165e+06	      76.5	   15.6848	   2.27526	9.25712e+06	      76.5	   15.6704	   2.22855	 9.4605e+06	      76.5	    15.643	   2.24015	 9.6098e+06	      76.5	   15.6574	   2.28686	  9.407e+06	
         R10	   5918	      76.5	   15.6368	   2.32051	9.43198e+06	      76.5	   15.6777	   2.30985	9.18395e+06	      76.5	    15.637	   2.26387	9.60789e+06	      76.5	   15.6111	   2.29418	9.73935e+06	      76.5	   15.6573	   2.31518	9.30773e+06	      76.5	   15.6574	   2.28686	9.39437e+06	      76.5	    15.624	   2.27903	9.67324e+06	      76.5	   15.6239	   2.30734	9.58488e+06	
         R10	   5919	      76.5	   15.6368	   2.32051	9.42203e+06	      76.5	   15.6111	   2.29418	9.74423e+06	      76.5	   15.5986	   2.32704	 9.7396e+06	      76.5	   15.6287	   2.34646	9.41363e+06	      76.5	   15.6239	   2.30734	 9.5824e+06	      76.5	   15.6048	   2.31061	9.74099e+06	      76.5	   15.6136	   2.33675	9.57625e+06	      76.5	   15.6327	   2.33348	 9.4174e+06	
         R10	   5920	      76.5	   15.6368	   2.32051	9.43186e+06	      76.5	   15.6287	   2.34646	9.40079e+06	      76.5	   15.6771	    2.3798	8.92376e+06	      76.5	   15.6777	   2.30985	9.21469e+06	      76.5	   15.6327	   2.33348	 9.4159e+06	      76.5	   15.6529	   2.36313	9.16164e+06	      76.5	   15.6774	   2.34482	9.06721e+06	      76.5	   15.6573	   2.31518	9.32313e+06	
         R10	   5921	      76.5	   15.6137	   2.36232	9.45516e+06	      76.5	    15.585	   2.35516	9.76137e+06	      76.5	   15.5816	   2.38271	9.65916e+06	      76.5	   15.6177	   2.38533	9.31643e+06	      76.5	   15.5993	   2.35874	9.60814e+06	      76.5	   15.5833	   2.36894	9.70961e+06	      76.5	   15.5997	   2.38402	9.48763e+06	      76.5	   15.6157	   2.37383	9.38551e+06	
         R10	   5922	      76.5	   15.6137	   2.36232	 9.4649e+06	      76.5	   15.6177	   2.38533	9.32283e+06	      76.5	   15.6287	   2.34646	9.40183e+06	      76.5	   15.6157	   2.37383	9.39357e+06	      76.5	   15.6232	    2.3659	9.36148e+06	      76.5	   15.6212	   2.35439	9.43318e+06	       N/A	       N/A	       N/A	        N/A	       N/A	       N/A	       N/A	        N/A	
         R10	   5923	      76.5	   15.6137	   2.36232	9.45485e+06	      76.5	   15.6287	   2.34646	9.39752e+06	      76.5	   15.5986	   2.32704	9.74236e+06	      76.5	    15.585	   2.35516	9.75909e+06	      76.5	   15.6212	   2.35439	  9.426e+06	      76.5	   15.6136	   2.33675	 9.5695e+06	      76.5	   15.5918	    2.3411	9.75002e+06	      76.5	   15.5993	   2.35874	9.60685e+06	
         R10	   5924	      76.5	   15.5811	   2.31504	9.95573e+06	      76.5	   15.5703	   2.33073	1.00319e+07	      76.5	    15.585	   2.35516	9.76099e+06	      76.5	   15.5986	   2.32704	9.75488e+06	      76.5	   15.5757	   2.32288	9.99358e+06	      76.5	   15.5776	   2.34295	9.89576e+06	      76.5	   15.5918	    2.3411	9.75721e+06	      76.5	   15.5898	   2.32104	9.85508e+06	
         R10	   5925	      76.5	   15.5811	   2.31504	9.96645e+06	      76.5	   15.5986	   2.32704	9.74377e+06	      76.5	   15.6111	   2.29418	9.73511e+06	      76.5	   15.5729	   2.29223	1.01206e+07	      76.5	   15.5898	   2.32104	 9.8549e+06	      76.5	   15.6048	   2.31061	9.73867e+06	      76.5	    15.592	   2.29321	9.92765e+06	      76.5	    15.577	   2.30363	1.00429e+07	
         R10	   5926	      76.5	   15.5811	   2.31504	 9.9768e+06	      76.5	   15.5729	   2.29223	1.01153e+07	      76.5	   15.5575	   2.31719	 1.0232e+07	      76.5	   15.5703	   2.33073	1.00266e+07	      76.5	    15.577	   2.30363	1.00453e+07	      76.5	   15.5652	   2.30471	 1.0173e+07	      76.5	   15.5639	   2.32396	 1.0129e+07	      76.5	   15.5757	   2.32288	1.00015e+07	
         R10	   5927	      76.5	   15.5617	   2.26908	1.02919e+07	      76.5	   15.5729	   2.29223	1.01143e+07	      76.5	   15.6111	   2.29418	 9.7337e+06	      76.5	   15.5862	   2.25735	1.00569e+07	      76.5	   15.5673	   2.28066	1.02022e+07	      76.5	    15.592	   2.29321	9.92378e+06	      76.5	   15.5987	   2.27577	9.89345e+06	      76.5	    15.574	   2.26322	1.01744e+07	
         R10	   5928	      76.5	   15.5862	   2.25735	1.00458e+07	      76.5	   15.5608	   2.23494	1.03252e+07	      76.5	   15.5428	   2.24893	1.05206e+07	      76.5	   15.5617	   2.26908	1.02901e+07	      76.5	   15.5735	   2.24615	1.01842e+07	      76.5	   15.5518	   2.24193	1.04229e+07	      76.5	   15.5523	   2.25901	1.04042e+07	      76.5	    15.574	   2.26322	1.01679e+07	
         R10	   5929	      76.5	   15.5623	   2.20506	1.02904e+07	      76.5	   15.5608	   2.23494	1.03312e+07	      76.5	   15.5862	   2.25735	1.00494e+07	      76.5	   15.5984	   2.23455	9.98516e+06	      76.5	   15.5615	      2.22	1.03099e+07	      76.5	   15.5735	   2.24615	1.01889e+07	      76.5	   15.5923	   2.24595	 1.0017e+07	      76.5	   15.5804	   2.21981	1.01355e+07	
         R10	   5930	      76.5	   15.4974	   2.22558	1.10247e+07	      76.5	   15.5255	   2.23291	1.07101e+07	      76.5	   15.5368	   2.21888	1.05694e+07	      76.5	   15.5132	   2.20249	1.07759e+07	      76.5	   15.5115	   2.22925	1.08663e+07	      76.5	   15.5311	    2.2259	1.06397e+07	      76.5	    15.525	   2.21068	1.06709e+07	      76.5	   15.5053	   2.21403	   1.09e+07	
         R10	   5931	      76.5	   15.5132	   2.20249	1.07651e+07	      76.5	   15.4947	   2.17571	 1.0859e+07	      76.5	   15.4582	   2.21203	1.14383e+07	      76.5	   15.4974	   2.22558	1.10368e+07	      76.5	   15.5039	    2.1891	1.08098e+07	      76.5	   15.4764	   2.19387	1.11485e+07	      76.5	   15.4778	    2.2188	1.12335e+07	      76.5	   15.5053	   2.21403	1.09008e+07	
         R10	   5932	      76.5	   15.5623	   2.20506	1.02989e+07	      76.5	   15.5386	   2.16842	1.04509e+07	      76.5	   15.4947	   2.17571	 1.0853e+07	      76.5	   15.5132	   2.20249	1.07816e+07	      76.5	   15.5504	   2.18674	1.03721e+07	      76.5	   15.5166	   2.17206	1.06505e+07	      76.5	   15.5039	    2.1891	1.08148e+07	      76.5	   15.5378	   2.20378	1.05384e+07	
         R10	   5933	      76.5	   15.6384	   2.14211	 9.6857e+06	      76.5	   15.5832	   2.15064	1.00778e+07	      76.5	   15.5786	   2.17189	1.01265e+07	      76.5	   15.6014	   2.18794	9.97225e+06	      76.5	   15.6108	   2.14638	9.88098e+06	      76.5	   15.5809	   2.16127	 1.0102e+07	      76.5	     15.59	   2.17992	1.00487e+07	      76.5	   15.6199	   2.16503	9.82875e+06	
         R10	   5934	      76.5	   15.6384	   2.14211	9.70825e+06	      76.5	   15.5765	   2.09764	1.00284e+07	      76.5	   15.5518	   2.13844	1.02581e+07	      76.5	   15.5832	   2.15064	1.00601e+07	      76.5	   15.6075	   2.11987	9.86309e+06	      76.5	   15.5641	   2.11804	1.01432e+07	      76.5	   15.5675	   2.14454	1.01578e+07	      76.5	   15.6108	   2.14638	9.88339e+06	
         R10	   5935	      76.5	   15.5826	    2.0332	9.84081e+06	      76.5	   15.5765	   2.09764	 1.0033e+07	      76.5	   15.6384	   2.14211	9.72703e+06	      76.5	   15.6614	    2.0768	9.58332e+06	      76.5	   15.5796	   2.06542	9.93579e+06	      76.5	   15.6075	   2.11987	9.87512e+06	      76.5	   15.6499	   2.10946	9.65445e+06	      76.5	    15.622	     2.055	9.70644e+06	
         R10	   5936	      76.5	   15.5296	   2.04743	1.01112e+07	      76.5	   15.5241	   2.08609	1.02758e+07	      76.5	   15.5765	   2.09764	1.00237e+07	      76.5	   15.5826	    2.0332	9.82684e+06	      76.5	   15.5269	   2.06676	1.01932e+07	      76.5	   15.5503	   2.09186	 1.0147e+07	      76.5	   15.5796	   2.06542	9.92402e+06	      76.5	   15.5561	   2.04032	9.96776e+06	
         R10	   5937	      76.5	   15.5296	   2.04743	1.01107e+07	      76.5	   15.5826	    2.0332	9.83998e+06	      76.5	   15.5217	   1.97976	9.90121e+06	      76.5	    15.496	     2.027	1.01669e+07	      76.5	   15.5561	   2.04032	 9.9741e+06	      76.5	   15.5522	   2.00648	9.86442e+06	      76.5	   15.5089	   2.00338	1.00341e+07	      76.5	   15.5128	   2.03722	1.01367e+07	
         R10	   5938	      76.5	   15.5296	   2.04743	1.01054e+07	      76.5	    15.496	     2.027	1.01725e+07	      76.5	     15.48	   2.07297	1.04638e+07	      76.5	   15.5241	   2.08609	1.02799e+07	      76.5	   15.5128	   2.03722	1.01369e+07	      76.5	    15.488	   2.04998	 1.0318e+07	      76.5	   15.5021	   2.07953	 1.0369e+07	      76.5	   15.5269	   2.06676	1.01924e+07	
         R10	   5939	      76.5	   15.5441	   1.92833	9.64153e+06	      76.5	   15.5217	   1.97976	9.91039e+06	      76.5	   15.5826	    2.0332	9.84928e+06	      76.5	   15.6099	   1.97055	9.59259e+06	      76.5	   15.5329	   1.95405	9.77596e+06	      76.5	   15.5522	   2.00648	9.87398e+06	      76.5	   15.5963	   2.00188	9.72085e+06	      76.5	    15.577	   1.94944	9.61253e+06	
         R10	   5940	      76.5	   15.5632	   1.86115	9.38649e+06	      76.5	   15.5441	   1.92833	9.66924e+06	      76.5	   15.6099	   1.97055	9.61864e+06	      76.5	   15.6373	   1.89656	9.35855e+06	      76.5	   15.5537	   1.89474	9.52783e+06	      76.5	    15.577	   1.94944	9.63939e+06	      76.5	   15.6236	   1.93355	9.48853e+06	      76.5	   15.6002	   1.87885	9.36835e+06	
         R10	   5941	      76.5	   15.4938	    1.8307	9.36365e+06	      76.5	   15.4804	   1.90204	9.70804e+06	      76.5	   15.5441	   1.92833	9.66874e+06	      76.5	   15.5632	   1.86115	9.38441e+06	      76.5	   15.4871	   1.86637	9.53581e+06	      76.5	   15.5123	   1.91519	9.68396e+06	      76.5	   15.5537	   1.89474	9.52654e+06	      76.5	   15.5285	   1.84592	9.36967e+06	
         R10	   5942	      76.5	   15.5047	   1.75641	9.07909e+06	      76.5	   15.4938	    1.8307	9.42151e+06	      76.5	   15.5632	   1.86115	9.44024e+06	      76.5	   15.5845	   1.78673	 9.1408e+06	      76.5	   15.4992	   1.79355	9.25024e+06	      76.5	   15.5285	   1.84592	9.42655e+06	      76.5	   15.5738	   1.82394	 9.2905e+06	      76.5	   15.5446	   1.77157	9.10545e+06	
         R10	   5943	      76.5	   15.4339	   1.73552	8.99627e+06	      76.5	   15.4326	   1.82068	9.44377e+06	      76.5	   15.4938	    1.8307	9.41842e+06	      76.5	   15.5047	   1.75641	9.07014e+06	      76.5	   15.4332	    1.7781	9.22001e+06	      76.5	   15.4632	   1.82569	9.42706e+06	      76.5	   15.4992	   1.79355	 9.2442e+06	      76.5	   15.4693	   1.74596	9.02937e+06	
         R10	   5944	      76.5	   15.4339	   1.73552	8.97553e+06	      76.5	   15.3687	   1.73882	9.03922e+06	      76.5	   15.3662	   1.81951	9.54642e+06	      76.5	   15.4326	   1.82068	9.43757e+06	      76.5	   15.4013	   1.73717	 9.0006e+06	      76.5	   15.3674	   1.77917	9.29249e+06	      76.5	   15.3994	    1.8201	9.48814e+06	      76.5	   15.4332	    1.7781	9.20644e+06	
         R10	   5945	      76.5	   15.3687	   1.73882	9.08166e+06	      76.5	   15.4339	   1.73552	9.05503e+06	      76.5	   15.4484	   1.65091	8.78136e+06	      76.5	   15.3728	   1.62497	8.38327e+06	      76.5	   15.4013	   1.73717	9.06231e+06	      76.5	   15.4412	   1.69322	8.91746e+06	      76.5	   15.4106	   1.63794	8.58075e+06	      76.5	   15.3707	    1.6819	8.72852e+06	
         R10	   5946	      76.5	   15.3728	   1.62497	8.18831e+06	      76.5	      15.3	    1.6796	8.99742e+06	      76.5	      15.3	   1.75401	9.34176e+06	      76.5	   15.3687	   1.73882	9.14947e+06	      76.5	   15.3364	   1.65229	8.58208e+06	      76.5	      15.3	    1.7168	 9.1671e+06	      76.5	   15.3343	   1.74641	9.24102e+06	      76.5	   15.3707	    1.6819	  8.665e+06	
         R10	   5947	      76.5	   15.3728	   1.62497	8.09771e+06	      76.5	      15.3	       1.6	6.67611e+06	      76.5	      15.3	    1.6796	 9.3932e+06	      76.5	   15.3364	   1.61249	7.38338e+06	      76.5	      15.3	    1.6398	8.01312e+06	      76.5	   15.3364	   1.65229	8.69967e+06	       N/A	       N/A	       N/A	        N/A	       N/A	       N/A	       N/A	        N/A	
         R10	   5948	      76.5	   15.5376	   2.37521	1.02253e+07	      76.5	   15.5263	    2.3869	1.03119e+07	      76.5	   15.5404	   2.39671	1.00574e+07	      76.5	   15.5319	   2.38105	1.02684e+07	      76.5	   15.5333	    2.3918	1.01845e+07	      76.5	    15.539	   2.38596	1.01407e+07	       N/A	       N/A	       N/A	        N/A	       N/A	       N/A	       N/A	        N/A	
         R10	   5949	      76.5	    15.345	    2.2154	1.26368e+07	      76.5	   15.3214	   2.21456	1.27466e+07	      76.5	    15.337	   2.23521	 1.3027e+07	      76.5	   15.3332	   2.21498	1.26882e+07	      76.5	   15.3292	   2.22489	1.28841e+07	      76.5	    15.341	    2.2253	1.28318e+07	       N/A	       N/A	       N/A	        N/A	       N/A	       N/A	       N/A	        N/A	
         R10	   5950	      76.5	   15.3825	   2.23961	1.26697e+07	      76.5	   15.3646	   2.25493	1.31728e+07	      76.5	    15.381	     2.265	1.31367e+07	      76.5	   15.3736	   2.24727	1.29206e+07	      76.5	   15.3728	   2.25996	1.31514e+07	      76.5	   15.3817	   2.25231	1.29021e+07	       N/A	       N/A	       N/A	        N/A	       N/A	       N/A	       N/A	        N/A	
         R10	   5951	      76.5	   15.4278	   2.27102	1.23524e+07	      76.5	   15.4075	   2.28366	1.29158e+07	      76.5	   15.4241	   2.29331	1.26544e+07	      76.5	   15.4177	   2.27734	1.26338e+07	      76.5	   15.4158	   2.28849	1.27822e+07	      76.5	    15.426	   2.28216	1.25019e+07	       N/A	       N/A	       N/A	        N/A	       N/A	       N/A	       N/A	        N/A	
         R10	   5952	      76.5	   15.5416	   2.27841	 1.0524e+07	      76.5	   15.5249	   2.29561	1.07208e+07	      76.5	   15.5441	   2.30055	1.04503e+07	      76.5	   15.5333	   2.28701	1.06221e+07	      76.5	   15.5345	   2.29808	1.05853e+07	      76.5	   15.5428	   2.28948	1.04862e+07	       N/A	       N/A	       N/A	        N/A	       N/A	       N/A	       N/A	        N/A	
         R10	   5953	      76.5	   15.5555	   2.35957	 1.0077e+07	      76.5	   15.5376	   2.37521	1.02201e+07	      76.5	   15.5612	    2.3816	9.88993e+06	      76.5	   15.5465	   2.36739	1.01482e+07	      76.5	   15.5494	    2.3784	1.00549e+07	      76.5	   15.5583	   2.37058	9.98285e+06	       N/A	       N/A	       N/A	        N/A	       N/A	       N/A	       N/A	        N/A	
         R10	   5954	      76.5	   15.5729	   2.29223	1.01194e+07	      76.5	   15.5441	   2.30055	1.04451e+07	      76.5	   15.5575	   2.31719	1.02339e+07	      76.5	   15.5585	   2.29639	1.02822e+07	      76.5	   15.5508	   2.30887	 1.0339e+07	      76.5	   15.5652	   2.30471	1.01761e+07	       N/A	       N/A	       N/A	        N/A	       N/A	       N/A	       N/A	        N/A	
         R10	   5955	      76.5	   15.4623	   2.24308	1.15859e+07	      76.5	   15.4611	   2.26646	1.17209e+07	      76.5	    15.481	    2.2488	1.13353e+07	      76.5	   15.4617	   2.25477	1.16522e+07	      76.5	   15.4711	   2.25763	1.15281e+07	      76.5	   15.4717	   2.24594	1.14596e+07	       N/A	       N/A	       N/A	        N/A	       N/A	       N/A	       N/A	        N/A	
         R10	   5956	      76.5	   15.4351	   2.24298	1.19804e+07	      76.5	   15.4623	   2.24308	1.15902e+07	      76.5	   15.4582	   2.21203	 1.1437e+07	      76.5	   15.4487	   2.24303	1.17836e+07	      76.5	   15.4602	   2.22755	1.15111e+07	      76.5	   15.4466	    2.2275	1.17085e+07	       N/A	       N/A	       N/A	        N/A	       N/A	       N/A	       N/A	        N/A	
         R10	   5957	      76.5	   15.5623	   2.20506	1.03004e+07	      76.5	   15.5786	   2.17189	1.01164e+07	      76.5	   15.5386	   2.16842	1.04507e+07	      76.5	   15.5704	   2.18848	 1.0208e+07	      76.5	   15.5586	   2.17016	1.02825e+07	      76.5	   15.5504	   2.18674	1.03728e+07	       N/A	       N/A	       N/A	        N/A	       N/A	       N/A	       N/A	        N/A	
         R10	   5958	      76.5	   15.5623	   2.20506	1.02887e+07	      76.5	   15.5368	   2.21888	1.05611e+07	      76.5	   15.5608	   2.23494	1.03246e+07	      76.5	   15.5495	   2.21197	1.04248e+07	      76.5	   15.5488	   2.22691	1.04417e+07	      76.5	   15.5615	      2.22	1.03057e+07	       N/A	       N/A	       N/A	        N/A	       N/A	       N/A	       N/A	        N/A	
         R10	   5959	      76.5	   15.5623	   2.20506	1.02826e+07	      76.5	   15.5132	   2.20249	1.07829e+07	      76.5	   15.5368	   2.21888	1.05622e+07	      76.5	   15.5378	   2.20378	1.05309e+07	      76.5	    15.525	   2.21068	1.06711e+07	      76.5	   15.5495	   2.21197	1.04224e+07	       N/A	       N/A	       N/A	        N/A	       N/A	       N/A	       N/A	        N/A	
         R10	   5960	      76.5	   15.5623	   2.20506	1.02724e+07	      76.5	   15.6014	   2.18794	9.97807e+06	      76.5	   15.5786	   2.17189	1.01203e+07	      76.5	   15.5818	    2.1965	1.01251e+07	      76.5	     15.59	   2.17992	1.00484e+07	      76.5	   15.5704	   2.18848	 1.0196e+07	       N/A	       N/A	       N/A	        N/A	       N/A	       N/A	       N/A	        N/A	
         R10	   5961	      76.5	   15.9321	   2.79079	7.15531e+06	      76.5	   15.9769	   2.70814	 7.2147e+06	      76.5	   15.8894	   2.66886	7.40683e+06	      76.5	   15.9545	   2.74947	7.17972e+06	      76.5	   15.9332	    2.6885	7.30857e+06	      76.5	   15.9108	   2.72983	 7.2747e+06	       N/A	       N/A	       N/A	        N/A	       N/A	       N/A	       N/A	        N/A	
         R10	   5962	      76.5	   15.4462	    2.5201	1.08581e+07	      76.5	   15.4726	   2.52798	1.03408e+07	      76.5	   15.4602	   2.50524	1.06325e+07	      76.5	   15.4594	   2.52404	1.05993e+07	      76.5	   15.4664	   2.51661	1.04865e+07	      76.5	   15.4532	   2.51267	1.07448e+07	       N/A	       N/A	       N/A	        N/A	       N/A	       N/A	       N/A	        N/A	
         R10	   5963	      76.5	   15.5371	   2.45443	9.74672e+06	      76.5	   15.5285	   2.47502	9.74433e+06	      76.5	   15.5704	   2.47027	9.32252e+06	      76.5	   15.5328	   2.46473	9.74521e+06	      76.5	   15.5494	   2.47265	 9.5329e+06	      76.5	   15.5537	   2.46235	 9.5345e+06	       N/A	       N/A	       N/A	        N/A	       N/A	       N/A	       N/A	        N/A	
         R10	   5964	      76.5	   15.5585	   2.34324	1.01133e+07	      76.5	   15.5555	   2.35957	1.00734e+07	      76.5	    15.585	   2.35516	9.75532e+06	      76.5	    15.557	    2.3514	 1.0093e+07	      76.5	   15.5702	   2.35737	9.91423e+06	      76.5	   15.5717	    2.3492	9.93405e+06	       N/A	       N/A	       N/A	        N/A	       N/A	       N/A	       N/A	        N/A	
         R10	   5965	      76.5	   15.6177	   2.38533	9.31058e+06	      76.5	   15.6771	    2.3798	8.91999e+06	      76.5	   15.6287	   2.34646	9.39891e+06	      76.5	   15.6474	   2.38256	9.11476e+06	      76.5	   15.6529	   2.36313	9.15888e+06	      76.5	   15.6232	    2.3659	 9.3539e+06	       N/A	       N/A	       N/A	        N/A	       N/A	       N/A	       N/A	        N/A	
         R10	   5966	    76.347	      15.3	      2.23	 6.7145e+06	     76.33	      15.3	      2.23	6.57386e+06	     76.33	      15.3	     2.247	6.36214e+06	    76.347	      15.3	     2.247	6.48756e+06	   76.3385	      15.3	      2.23	6.64349e+06	     76.33	      15.3	    2.2385	6.46768e+06	   76.3385	      15.3	     2.247	6.42391e+06	    76.347	      15.3	    2.2385	 6.6007e+06	
         R10	   5967	    76.347	      15.3	     2.247	6.48799e+06	     76.33	      15.3	     2.247	6.36153e+06	     76.33	      15.3	     2.264	6.12629e+06	    76.347	      15.3	     2.264	6.22993e+06	   76.3385	      15.3	     2.247	6.42381e+06	     76.33	      15.3	    2.2555	6.24341e+06	   76.3385	      15.3	     2.264	6.17686e+06	    76.347	      15.3	    2.2555	6.35849e+06	
         R10	   5968	    76.347	      15.3	     2.264	6.22931e+06	     76.33	      15.3	     2.264	6.12727e+06	     76.33	      15.3	     2.281	5.87916e+06	    76.347	      15.3	     2.281	5.94259e+06	   76.3385	      15.3	     2.264	6.17705e+06	     76.33	      15.3	    2.2725	6.00236e+06	   76.3385	      15.3	     2.281	5.90929e+06	    76.347	      15.3	    2.2725	6.08516e+06	
         R10	   5969	    76.347	      15.3	     2.281	5.94164e+06	     76.33	      15.3	     2.281	5.87978e+06	     76.33	      15.3	     2.298	5.63384e+06	    76.347	      15.3	     2.298	5.63878e+06	   76.3385	      15.3	     2.281	5.90914e+06	     76.33	      15.3	    2.2895	 5.7554e+06	   76.3385	      15.3	     2.298	5.63456e+06	    76.347	      15.3	    2.2895	 5.7888e+06	
         R10	   5970	    76.347	      15.3	     2.298	5.63729e+06	     76.33	      15.3	     2.298	5.63223e+06	     76.33	      15.3	     2.315	5.40836e+06	    76.347	      15.3	     2.315	5.34228e+06	   76.3385	      15.3	     2.298	5.63299e+06	     76.33	      15.3	    2.3065	5.51798e+06	   76.3385	      15.3	     2.315	5.37363e+06	    76.347	      15.3	    2.3065	5.48717e+06	
         R10	   5971	    76.347	      15.3	     2.315	 5.3405e+06	     76.33	      15.3	     2.315	5.40691e+06	     76.33	      15.3	     2.332	5.23344e+06	    76.347	      15.3	     2.332	5.09086e+06	   76.3385	      15.3	     2.315	5.37203e+06	     76.33	      15.3	    2.3235	5.31674e+06	   76.3385	      15.3	     2.332	5.16093e+06	    76.347	      15.3	    2.3235	 5.2112e+06	
         R10	   5972	    76.347	      15.3	     2.332	 5.0897e+06	     76.33	      15.3	     2.332	5.23297e+06	     76.33	      15.3	     2.349	5.13199e+06	    76.347	      15.3	     2.349	4.93294e+06	   76.3385	      15.3	     2.332	5.16012e+06	     76.33	      15.3	    2.3405	5.17794e+06	   76.3385	      15.3	     2.349	5.03189e+06	    76.347	      15.3	    2.3405	5.00465e+06	
         R10	   5973	    76.347	      15.3	     2.349	4.93209e+06	     76.33	      15.3	     2.349	5.13521e+06	     76.33	      15.3	     2.366	5.12318e+06	    76.347	      15.3	     2.366	4.90172e+06	   76.3385	      15.3	     2.349	5.03312e+06	     76.33	      15.3	    2.3575	5.12405e+06	   76.3385	      15.3	     2.366	5.01214e+06	    76.347	      15.3	    2.3575	4.90874e+06	
         R10	   5974	    76.347	      15.3	     2.366	4.90214e+06	     76.33	      15.3	     2.366	5.12611e+06	     76.33	      15.3	     2.383	5.20417e+06	    76.347	      15.3	     2.383	 4.9987e+06	   76.3385	      15.3	     2.366	5.01377e+06	     76.33	      15.3	    2.3745	5.16041e+06	   76.3385	      15.3	     2.383	5.10061e+06	    76.347	      15.3	    2.3745	4.94216e+06	
         R10	   5975	    76.347	      15.3	     2.383	5.00144e+06	     76.33	      15.3	     2.383	5.20472e+06	     76.33	      15.3	       2.4	5.32008e+06	    76.347	      15.3	       2.4	5.18431e+06	   76.3385	      15.3	     2.383	5.10229e+06	     76.33	      15.3	    2.3915	5.25802e+06	   76.3385	      15.3	       2.4	5.25042e+06	    76.347	      15.3	    2.3915	5.08539e+06	
         R10	   5976	    76.364	      15.3	     2.383	4.77133e+06	    76.347	      15.3	     2.383	5.00238e+06	    76.347	      15.3	       2.4	 5.1887e+06	    76.364	      15.3	       2.4	5.02874e+06	   76.3555	      15.3	     2.383	4.88532e+06	    76.347	      15.3	    2.3915	5.08814e+06	   76.3555	      15.3	       2.4	 5.1053e+06	    76.364	      15.3	    2.3915	4.88686e+06	
         R10	   5977	    76.364	      15.3	     2.383	4.77228e+06	    76.364	      15.3	       2.4	5.03767e+06	    76.381	      15.3	       2.4	4.91164e+06	    76.381	      15.3	     2.383	4.49659e+06	    76.364	      15.3	    2.3915	4.89196e+06	   76.3725	      15.3	       2.4	4.96793e+06	    76.381	      15.3	    2.3915	 4.6803e+06	   76.3725	      15.3	     2.383	 4.6316e+06	
         R10	   5978	    76.381	      15.3	     2.383	4.50759e+06	    76.381	      15.3	       2.4	4.89281e+06	    76.398	      15.3	       2.4	4.87615e+06	    76.398	      15.3	     2.383	4.17636e+06	    76.381	      15.3	    2.3915	4.67561e+06	   76.3895	      15.3	       2.4	4.87124e+06	    76.398	      15.3	    2.3915	4.48141e+06	   76.3895	      15.3	     2.383	4.33684e+06	
         R10	   5979	    76.398	      15.3	     2.383	  4.191e+06	    76.398	      15.3	       2.4	4.84023e+06	    76.415	      15.3	       2.4	4.99577e+06	    76.415	      15.3	     2.383	3.82171e+06	    76.398	      15.3	    2.3915	4.46928e+06	   76.4065	      15.3	       2.4	 4.8931e+06	    76.415	      15.3	    2.3915	4.32085e+06	   76.4065	      15.3	     2.383	3.99714e+06	
         R10	   5980	    76.415	      15.3	     2.383	3.83013e+06	    76.415	      15.3	       2.4	4.96832e+06	    76.432	      15.3	       2.4	5.53069e+06	    76.432	      15.3	     2.383	3.43181e+06	    76.415	      15.3	    2.3915	4.31096e+06	   76.4235	      15.3	       2.4	5.20959e+06	    76.432	      15.3	    2.3915	4.31649e+06	   76.4235	      15.3	     2.383	3.61802e+06	
         R10	   5981	    76.432	      15.3	     2.383	3.41709e+06	    76.432	      15.3	       2.4	5.52301e+06	    76.449	      15.3	       2.4	6.78442e+06	    76.449	      15.3	     2.383	3.01996e+06	    76.432	      15.3	    2.3915	4.30896e+06	   76.4405	      15.3	       2.4	6.10643e+06	    76.449	      15.3	    2.3915	4.60561e+06	   76.4405	      15.3	     2.383	3.20926e+06	
         R10	   5982	    76.449	      15.3	     2.383	2.95196e+06	    76.449	      15.3	       2.4	6.78802e+06	    76.466	      15.3	       2.4	9.02757e+06	    76.466	      15.3	     2.383	2.81499e+06	    76.449	      15.3	    2.3915	4.58906e+06	   76.4575	      15.3	       2.4	7.88457e+06	    76.466	      15.3	    2.3915	5.23443e+06	   76.4575	      15.3	     2.383	2.84623e+06	
         R10	   5983	    76.466	      15.3	     2.383	 2.4175e+06	    76.466	      15.3	       2.4	 8.9934e+06	    76.483	      15.3	       2.4	1.22781e+07	    76.483	      15.3	     2.383	5.82911e+06	    76.466	      15.3	    2.3915	5.11134e+06	   76.4745	      15.3	       2.4	1.06169e+07	    76.483	      15.3	    2.3915	6.69651e+06	   76.4745	      15.3	     2.383	3.88967e+06	
         R10	   5984	    76.483	      15.3	     2.383	5.37176e+06	    76.483	      15.3	       2.4	1.18724e+07	      76.5	      15.3	       2.4	2.00128e+07	      76.5	      15.3	     2.383	1.85456e+07	    76.483	      15.3	    2.3915	6.01431e+06	   76.4915	      15.3	       2.4	1.49839e+07	      76.5	      15.3	    2.3915	1.71881e+07	   76.4915	      15.3	     2.383	1.19198e+07	
         R10	   5985	    76.483	      15.3	     2.366	1.02866e+07	    76.483	      15.3	     2.383	 5.5184e+06	      76.5	      15.3	     2.383	1.80755e+07	      76.5	      15.3	     2.366	1.69163e+07	    76.483	      15.3	    2.3745	7.83649e+06	   76.4915	      15.3	     2.383	 1.1711e+07	      76.5	      15.3	    2.3745	1.73968e+07	   76.4915	      15.3	     2.366	1.34293e+07	
         R10	   5986	    76.483	      15.3	     2.366	9.93777e+06	      76.5	      15.3	     2.366	1.66931e+07	      76.5	      15.3	     2.349	1.47182e+07	    76.483	      15.3	     2.349	1.12405e+07	   76.4915	      15.3	     2.366	1.31532e+07	      76.5	      15.3	    2.3575	1.56943e+07	   76.4915	      15.3	     2.349	1.28801e+07	    76.483	      15.3	    2.3575	1.05891e+07	
         R10	   5987	    76.483	      15.3	     2.349	1.11078e+07	      76.5	      15.3	     2.349	1.46343e+07	      76.5	      15.3	     2.332	1.29322e+07	    76.483	      15.3	     2.332	1.10525e+07	   76.4915	      15.3	     2.349	1.27733e+07	      76.5	      15.3	    2.3405	1.37788e+07	   76.4915	      15.3	     2.332	1.19407e+07	    76.483	      15.3	    2.3405	1.10796e+07	
         R10	   5988	    76.483	      15.3	     2.332	1.10211e+07	      76.5	      15.3	     2.332	1.29052e+07	      76.5	      15.3	     2.315	1.16593e+07	    76.483	      15.3	     2.315	1.05982e+07	   76.4915	      15.3	     2.332	1.19108e+07	      76.5	      15.3	    2.3235	1.22794e+07	   76.4915	      15.3	     2.315	1.11023e+07	    76.483	      15.3	    2.3235	1.08092e+07	
         R10	   5989	    76.483	      15.3	     2.315	1.05968e+07	      76.5	      15.3	     2.315	1.16506e+07	      76.5	      15.3	     2.298	1.07737e+07	    76.483	      15.3	     2.298	1.01381e+07	   76.4915	      15.3	     2.315	1.10967e+07	      76.5	      15.3	    2.3065	1.12103e+07	   76.4915	      15.3	     2.298	 1.0442e+07	    76.483	      15.3	    2.3065	1.03672e+07	
         R10	   5990	    76.483	      15.3	     2.298	1.01434e+07	      76.5	      15.3	     2.298	1.07715e+07	      76.5	      15.3	     2.281	1.01498e+07	    76.483	      15.3	     2.281	9.74513e+06	   76.4915	      15.3	     2.298	1.04432e+07	      76.5	      15.3	    2.2895	1.04595e+07	   76.4915	      15.3	     2.281	9.93991e+06	    76.483	      15.3	    2.2895	9.94406e+06	
         R10	   5991	    76.483	      15.3	     2.281	9.75037e+06	      76.5	      15.3	     2.281	1.01492e+07	      76.5	      15.3	     2.264	9.70029e+06	    76.483	      15.3	     2.264	9.42604e+06	   76.4915	      15.3	     2.281	9.94205e+06	      76.5	      15.3	    2.2725	9.92391e+06	   76.4915	      15.3	     2.264	 9.5589e+06	    76.483	      15.3	    2.2725	9.58804e+06	
         R10	   5992	    76.483	      15.3	     2.264	9.43023e+06	      76.5	      15.3	     2.264	9.69961e+06	      76.5	      15.3	     2.247	9.36643e+06	    76.483	      15.3	     2.247	9.17211e+06	   76.4915	      15.3	     2.264	9.56057e+06	      76.5	      15.3	    2.2555	9.53245e+06	   76.4915	      15.3	     2.247	9.26676e+06	    76.483	      15.3	    2.2555	9.30101e+06	
         R10	   5993	    76.483	      15.3	     2.247	9.17476e+06	      76.5	      15.3	     2.247	9.36639e+06	      76.5	      15.3	      2.23	9.11296e+06	    76.483	      15.3	      2.23	8.96817e+06	   76.4915	      15.3	     2.247	9.26802e+06	      76.5	      15.3	    2.2385	9.23924e+06	   76.4915	      15.3	      2.23	9.03907e+06	    76.483	      15.3	    2.2385	9.07131e+06	
         R10	   5994	    76.466	      15.3	     2.247	8.86193e+06	    76.483	      15.3	     2.247	9.17029e+06	    76.483	      15.3	      2.23	8.96964e+06	    76.466	      15.3	      2.23	8.73555e+06	   76.4745	      15.3	     2.247	9.01424e+06	    76.483	      15.3	    2.2385	9.06982e+06	   76.4745	      15.3	      2.23	8.85141e+06	    76.466	      15.3	    2.2385	8.79853e+06	
         R10	   5995	    76.466	      15.3	     2.247	8.85708e+06	    76.466	      15.3	      2.23	8.73345e+06	    76.449	      15.3	      2.23	8.43583e+06	    76.449	      15.3	     2.247	 8.4683e+06	    76.466	      15.3	    2.2385	8.79505e+06	   76.4575	      15.3	      2.23	8.58393e+06	    76.449	      15.3	    2.2385	8.45166e+06	   76.4575	      15.3	     2.247	8.66163e+06	
         R10	   5996	    76.449	      15.3	     2.247	8.46386e+06	    76.449	      15.3	      2.23	8.43231e+06	    76.432	      15.3	      2.23	8.09627e+06	    76.432	      15.3	     2.247	8.04001e+06	    76.449	      15.3	    2.2385	8.44768e+06	   76.4405	      15.3	      2.23	8.26401e+06	    76.432	      15.3	    2.2385	8.06759e+06	   76.4405	      15.3	     2.247	8.25154e+06	
         R10	   5997	    76.432	      15.3	     2.247	8.03693e+06	    76.432	      15.3	      2.23	8.09395e+06	    76.415	      15.3	      2.23	 7.7522e+06	    76.415	      15.3	     2.247	7.62009e+06	    76.432	      15.3	    2.2385	8.06489e+06	   76.4235	      15.3	      2.23	7.92301e+06	    76.415	      15.3	    2.2385	7.68555e+06	   76.4235	      15.3	     2.247	7.82843e+06	
         R10	   5998	    76.415	      15.3	     2.247	7.61843e+06	    76.415	      15.3	      2.23	7.74963e+06	    76.398	      15.3	      2.23	7.42685e+06	    76.398	      15.3	     2.247	7.24145e+06	    76.415	      15.3	    2.2385	7.68344e+06	   76.4065	      15.3	      2.23	 7.5882e+06	    76.398	      15.3	    2.2385	7.33362e+06	   76.4065	      15.3	     2.247	7.42982e+06	
         R10	   5999	    76.398	      15.3	     2.247	7.24075e+06	    76.398	      15.3	      2.23	7.42608e+06	    76.381	      15.3	      2.23	7.13923e+06	    76.381	      15.3	     2.247	6.92293e+06	    76.398	      15.3	    2.2385	7.33289e+06	   76.3895	      15.3	      2.23	7.28248e+06	    76.381	      15.3	    2.2385	7.03065e+06	   76.3895	      15.3	     2.247	7.08147e+06	
         R10	   6000	    76.381	      15.3	     2.247	6.92394e+06	    76.381	      15.3	      2.23	7.13777e+06	    76.364	      15.3	      2.23	6.90341e+06	    76.364	      15.3	     2.247	6.67153e+06	    76.381	      15.3	    2.2385	7.03043e+06	   76.3725	      15.3	      2.23	7.02018e+06	    76.364	      15.3	    2.2385	 6.7871e+06	   76.3725	      15.3	     2.247	6.79708e+06	
         R10	   6001	    76.364	      15.3	     2.247	6.67199e+06	    76.364	      15.3	      2.23	6.90111e+06	    76.347	      15.3	      2.23	6.71208e+06	    76.347	      15.3	     2.247	6.48726e+06	    76.364	      15.3	    2.2385	6.78617e+06	   76.3555	      15.3	      2.23	6.80601e+06	    76.347	      15.3	    2.2385	6.59935e+06	   76.3555	      15.3	     2.247	6.57877e+06	
         R10	   6002	    76.364	      15.3	     2.264	 6.3985e+06	    76.364	      15.3	     2.247	6.67296e+06	    76.347	      15.3	     2.247	6.48738e+06	    76.347	      15.3	     2.264	6.22868e+06	    76.364	      15.3	    2.2555	6.53526e+06	   76.3555	      15.3	     2.247	6.57931e+06	    76.347	      15.3	    2.2555	6.35754e+06	   76.3555	      15.3	     2.264	6.31233e+06	
         R10	   6003	    76.364	      15.3	     2.264	6.39879e+06	    76.347	      15.3	     2.264	6.22763e+06	    76.347	      15.3	     2.281	5.94116e+06	    76.364	      15.3	     2.281	6.07623e+06	   76.3555	      15.3	     2.264	6.31194e+06	    76.347	      15.3	    2.2725	6.08361e+06	   76.3555	      15.3	     2.281	6.00693e+06	    76.364	      15.3	    2.2725	6.23678e+06	
         R10	   6004	    76.364	      15.3	     2.281	6.07611e+06	    76.347	      15.3	     2.281	5.93947e+06	    76.347	      15.3	     2.298	5.63709e+06	    76.364	      15.3	     2.298	5.71216e+06	   76.3555	      15.3	     2.281	6.00601e+06	    76.347	      15.3	    2.2895	5.78685e+06	   76.3555	      15.3	     2.298	5.67235e+06	    76.364	      15.3	    2.2895	5.89282e+06	
         R10	   6005	    76.364	      15.3	     2.298	5.71135e+06	    76.347	      15.3	     2.298	5.63496e+06	    76.347	      15.3	     2.315	5.34052e+06	    76.364	      15.3	     2.315	5.32869e+06	   76.3555	      15.3	     2.298	5.67085e+06	    76.347	      15.3	    2.3065	5.48512e+06	   76.3555	      15.3	     2.315	5.33209e+06	    76.364	      15.3	    2.3065	5.51731e+06	
         R10	   6006	    76.364	      15.3	     2.315	 5.3269e+06	    76.347	      15.3	     2.315	5.33798e+06	    76.347	      15.3	     2.332	5.09036e+06	    76.364	      15.3	     2.332	4.97206e+06	   76.3555	      15.3	     2.315	 5.3299e+06	    76.347	      15.3	    2.3235	5.20968e+06	   76.3555	      15.3	     2.332	5.02911e+06	    76.364	      15.3	    2.3235	5.14399e+06	
         R10	   6007	    76.364	      15.3	     2.332	4.96971e+06	    76.347	      15.3	     2.332	5.08772e+06	    76.347	      15.3	     2.349	4.93227e+06	    76.364	      15.3	     2.349	4.71589e+06	   76.3555	      15.3	     2.332	5.02658e+06	    76.347	      15.3	    2.3405	5.00332e+06	   76.3555	      15.3	     2.349	4.82298e+06	    76.364	      15.3	    2.3405	4.83302e+06	
         R10	   6008	    76.364	      15.3	     2.349	4.71458e+06	    76.347	      15.3	     2.349	4.93145e+06	    76.347	      15.3	     2.366	4.90199e+06	    76.364	      15.3	     2.366	4.63741e+06	   76.3555	      15.3	     2.349	4.82191e+06	    76.347	      15.3	    2.3575	4.90855e+06	   76.3555	      15.3	     2.366	 4.7692e+06	    76.364	      15.3	    2.3575	4.66223e+06	
         R10	   6009	    76.364	      15.3	     2.366	4.63898e+06	    76.347	      15.3	     2.366	4.90476e+06	    76.347	      15.3	     2.383	4.99824e+06	    76.364	      15.3	     2.383	4.76652e+06	   76.3555	      15.3	     2.366	4.77136e+06	    76.347	      15.3	    2.3745	4.94323e+06	   76.3555	      15.3	     2.383	4.88095e+06	    76.364	      15.3	    2.3745	 4.6882e+06	
         R10	   6010	    76.381	      15.3	     2.366	4.32919e+06	    76.364	      15.3	     2.366	4.64156e+06	    76.364	      15.3	     2.383	4.76389e+06	    76.381	      15.3	     2.383	4.48831e+06	   76.3725	      15.3	     2.366	 4.4845e+06	    76.364	      15.3	    2.3745	4.68815e+06	   76.3725	      15.3	     2.383	4.62353e+06	    76.381	      15.3	    2.3745	4.38126e+06	
         R10	   6011	    76.381	      15.3	     2.366	4.32892e+06	    76.381	      15.3	     2.383	4.49304e+06	    76.398	      15.3	     2.383	4.15825e+06	    76.398	      15.3	     2.366	3.97505e+06	    76.381	      15.3	    2.3745	4.38349e+06	   76.3895	      15.3	     2.383	4.32107e+06	    76.398	      15.3	    2.3745	4.01163e+06	   76.3895	      15.3	     2.366	4.15033e+06	
         R10	   6012	    76.398	      15.3	     2.366	3.97062e+06	    76.398	      15.3	     2.383	4.16553e+06	    76.415	      15.3	     2.383	3.78433e+06	    76.415	      15.3	     2.366	3.61359e+06	    76.398	      15.3	    2.3745	4.01292e+06	   76.4065	      15.3	     2.383	3.96721e+06	    76.415	      15.3	    2.3745	3.58134e+06	   76.4065	      15.3	     2.366	3.78779e+06	
         R10	   6013	    76.415	      15.3	     2.366	3.59693e+06	    76.415	      15.3	     2.383	3.78479e+06	    76.432	      15.3	     2.383	3.36096e+06	    76.432	      15.3	     2.366	  3.409e+06	    76.415	      15.3	    2.3745	3.57277e+06	   76.4235	      15.3	     2.383	3.56255e+06	    76.432	      15.3	    2.3745	3.12343e+06	   76.4235	      15.3	     2.366	3.48865e+06	
         R10	   6014	    76.432	      15.3	     2.366	3.35805e+06	    76.432	      15.3	     2.383	3.33955e+06	    76.449	      15.3	     2.383	2.89788e+06	    76.449	      15.3	     2.366	 3.8403e+06	    76.432	      15.3	    2.3745	3.08495e+06	   76.4405	      15.3	     2.383	3.11256e+06	    76.449	      15.3	    2.3745	 2.8768e+06	   76.4405	      15.3	     2.366	3.56686e+06	
         R10	   6015	    76.449	      15.3	     2.366	3.73437e+06	    76.449	      15.3	     2.383	2.80763e+06	    76.466	      15.3	     2.383	2.73581e+06	    76.466	      15.3	     2.366	5.77623e+06	    76.449	      15.3	    2.3745	2.76467e+06	   76.4575	      15.3	     2.383	2.74324e+06	    76.466	      15.3	    2.3745	3.80597e+06	   76.4575	      15.3	     2.366	4.73391e+06	
         R10	   6016	    76.466	      15.3	     2.366	5.68523e+06	    76.466	      15.3	     2.383	2.53204e+06	    76.483	      15.3	     2.383	5.92326e+06	    76.483	      15.3	     2.366	9.89687e+06	    76.466	      15.3	    2.3745	3.66631e+06	   76.4745	      15.3	     2.383	4.11505e+06	    76.483	      15.3	    2.3745	7.79446e+06	   76.4745	      15.3	     2.366	7.75933e+06	
         R10	   6017	    76.466	      15.3	     2.349	8.06296e+06	    76.466	      15.3	     2.366	5.62891e+06	    76.483	      15.3	     2.366	9.84404e+06	    76.483	      15.3	     2.349	1.10386e+07	    76.466	      15.3	    2.3575	6.83939e+06	   76.4745	      15.3	     2.366	7.70908e+06	    76.483	      15.3	    2.3575	1.04405e+07	   76.4745	      15.3	     2.349	9.52093e+06	
         R10	   6018	    76.466	      15.3	     2.349	7.96272e+06	    76.483	      15.3	     2.349	1.09733e+07	    76.483	      15.3	     2.332	1.09679e+07	    76.466	      15.3	     2.332	8.99831e+06	   76.4745	      15.3	     2.349	9.43909e+06	    76.483	      15.3	    2.3405	1.09698e+07	   76.4745	      15.3	     2.332	  9.961e+06	    76.466	      15.3	    2.3405	8.47596e+06	
         R10	   6019	    76.466	      15.3	     2.332	8.93412e+06	    76.483	      15.3	     2.332	 1.0938e+07	    76.483	      15.3	     2.315	 1.0562e+07	    76.466	      15.3	     2.315	9.26656e+06	   76.4745	      15.3	     2.332	9.91478e+06	    76.483	      15.3	    2.3235	1.07494e+07	   76.4745	      15.3	     2.315	9.90035e+06	    76.466	      15.3	    2.3235	9.09724e+06	
         R10	   6020	    76.466	      15.3	     2.315	9.23671e+06	    76.483	      15.3	     2.315	1.05489e+07	    76.483	      15.3	     2.298	1.01233e+07	    76.466	      15.3	     2.298	9.25676e+06	   76.4745	      15.3	     2.315	9.87927e+06	    76.483	      15.3	    2.3065	1.03358e+07	   76.4745	      15.3	     2.298	9.68153e+06	    76.466	      15.3	    2.3065	9.24503e+06	
         R10	   6021	    76.466	      15.3	     2.298	9.24438e+06	    76.483	      15.3	     2.298	 1.0118e+07	    76.483	      15.3	     2.281	9.73848e+06	    76.466	      15.3	     2.281	9.14323e+06	   76.4745	      15.3	     2.298	9.67288e+06	    76.483	      15.3	    2.2895	9.92803e+06	   76.4745	      15.3	     2.281	9.43576e+06	    76.466	      15.3	    2.2895	 9.1929e+06	
         R10	   6022	    76.466	      15.3	     2.281	9.13874e+06	    76.483	      15.3	     2.281	9.73678e+06	    76.483	      15.3	     2.264	9.42329e+06	    76.466	      15.3	     2.264	9.00124e+06	   76.4745	      15.3	     2.281	9.43274e+06	    76.483	      15.3	    2.2725	9.57987e+06	   76.4745	      15.3	     2.264	9.20918e+06	    76.466	      15.3	    2.2725	9.06949e+06	
         R10	   6023	    76.466	      15.3	     2.264	8.99994e+06	    76.483	      15.3	     2.264	9.42302e+06	    76.483	      15.3	     2.247	9.17018e+06	    76.466	      15.3	     2.247	8.86203e+06	   76.4745	      15.3	     2.264	9.20843e+06	    76.483	      15.3	    2.2555	9.29644e+06	   76.4745	      15.3	     2.247	9.01422e+06	    76.466	      15.3	    2.2555	8.93068e+06	
         R10	   6024	    76.449	      15.3	     2.264	8.47819e+06	    76.466	      15.3	     2.264	8.99224e+06	    76.466	      15.3	     2.247	8.85799e+06	    76.449	      15.3	     2.247	8.47009e+06	   76.4575	      15.3	     2.264	8.73363e+06	    76.466	      15.3	    2.2555	 8.9248e+06	   76.4575	      15.3	     2.247	8.66297e+06	    76.449	      15.3	    2.2555	8.47352e+06	
         R10	   6025	    76.449	      15.3	     2.264	8.47225e+06	    76.449	      15.3	     2.247	8.46549e+06	    76.432	      15.3	     2.247	8.04308e+06	    76.432	      15.3	     2.264	7.93403e+06	    76.449	      15.3	    2.2555	8.46825e+06	   76.4405	      15.3	     2.247	8.25388e+06	    76.432	      15.3	    2.2555	7.98775e+06	   76.4405	      15.3	     2.264	8.20263e+06	
         R10	   6026	    76.432	      15.3	     2.264	7.93043e+06	    76.432	      15.3	     2.247	 8.0386e+06	    76.415	      15.3	     2.247	7.62308e+06	    76.415	      15.3	     2.264	7.42605e+06	    76.432	      15.3	    2.2555	7.98371e+06	   76.4235	      15.3	     2.247	7.83076e+06	    76.415	      15.3	    2.2555	7.52378e+06	   76.4235	      15.3	     2.264	7.67811e+06	
         R10	   6027	    76.415	      15.3	     2.264	 7.4247e+06	    76.415	      15.3	     2.247	 7.6203e+06	    76.398	      15.3	     2.247	7.24363e+06	    76.398	      15.3	     2.264	6.99185e+06	    76.415	      15.3	    2.2555	7.52172e+06	   76.4065	      15.3	     2.247	7.43185e+06	    76.398	      15.3	    2.2555	7.11708e+06	   76.4065	      15.3	     2.264	7.20797e+06	
         R10	   6028	    76.398	      15.3	     2.264	6.99201e+06	    76.398	      15.3	     2.247	7.24214e+06	    76.381	      15.3	     2.247	6.92426e+06	    76.381	      15.3	     2.264	6.64876e+06	    76.398	      15.3	    2.2555	7.11643e+06	   76.3895	      15.3	     2.247	7.08284e+06	    76.381	      15.3	    2.2555	6.78598e+06	   76.3895	      15.3	     2.264	6.81967e+06	
         R10	   6029	    76.381	      15.3	     2.264	6.64947e+06	    76.381	      15.3	     2.247	6.92439e+06	    76.364	      15.3	     2.247	6.67188e+06	    76.364	      15.3	     2.264	6.39725e+06	    76.381	      15.3	    2.2555	 6.7864e+06	   76.3725	      15.3	     2.247	6.79749e+06	    76.364	      15.3	    2.2555	6.53409e+06	   76.3725	      15.3	     2.264	6.52227e+06	
         R10	   6030	    76.381	      15.3	     2.281	6.30719e+06	    76.381	      15.3	     2.264	6.65022e+06	    76.364	      15.3	     2.264	6.39762e+06	    76.364	      15.3	     2.281	6.07441e+06	    76.381	      15.3	    2.2725	  6.478e+06	   76.3725	      15.3	     2.264	6.52283e+06	    76.364	      15.3	    2.2725	6.23529e+06	   76.3725	      15.3	     2.281	6.18906e+06	
         R10	   6031	    76.381	      15.3	     2.281	6.30767e+06	    76.364	      15.3	     2.281	6.07371e+06	    76.364	      15.3	     2.298	5.70993e+06	    76.381	      15.3	     2.298	5.89082e+06	   76.3725	      15.3	     2.281	6.18894e+06	    76.364	      15.3	    2.2895	5.89049e+06	   76.3725	      15.3	     2.298	5.79775e+06	    76.381	      15.3	    2.2895	6.09808e+06	
         R10	   6032	    76.381	      15.3	     2.298	5.89065e+06	    76.364	      15.3	     2.298	5.70784e+06	    76.364	      15.3	     2.315	5.32611e+06	    76.381	      15.3	     2.315	 5.4121e+06	   76.3725	      15.3	     2.298	5.79659e+06	    76.364	      15.3	    2.3065	5.51424e+06	   76.3725	      15.3	     2.315	5.36562e+06	    76.381	      15.3	    2.3065	5.64891e+06	
         R10	   6033	    76.381	      15.3	     2.315	5.41052e+06	    76.364	      15.3	     2.315	 5.3225e+06	    76.364	      15.3	     2.332	4.96987e+06	    76.381	      15.3	     2.332	4.91588e+06	   76.3725	      15.3	     2.315	5.36297e+06	    76.364	      15.3	    2.3235	5.14067e+06	   76.3725	      15.3	     2.332	4.93925e+06	    76.381	      15.3	    2.3235	5.15725e+06	
         R10	   6034	    76.381	      15.3	     2.332	4.91282e+06	    76.364	      15.3	     2.332	4.96595e+06	    76.364	      15.3	     2.349	4.71473e+06	    76.381	      15.3	     2.349	4.50399e+06	   76.3725	      15.3	     2.332	4.93571e+06	    76.364	      15.3	    2.3405	4.83054e+06	   76.3725	      15.3	     2.349	4.60708e+06	    76.381	      15.3	    2.3405	4.69501e+06	
         R10	   6035	    76.381	      15.3	     2.349	4.50082e+06	    76.364	      15.3	     2.349	4.71291e+06	    76.364	      15.3	     2.366	4.63801e+06	    76.381	      15.3	     2.366	4.32746e+06	   76.3725	      15.3	     2.349	4.60457e+06	    76.364	      15.3	    2.3575	4.66169e+06	   76.3725	      15.3	     2.366	4.48189e+06	    76.381	      15.3	    2.3575	4.39075e+06	
         R10	   6036	    76.398	      15.3	     2.349	4.34378e+06	    76.381	      15.3	     2.349	4.49616e+06	    76.381	      15.3	     2.366	4.32594e+06	    76.398	      15.3	     2.366	3.97482e+06	   76.3895	      15.3	     2.349	  4.415e+06	    76.381	      15.3	    2.3575	4.38765e+06	   76.3895	      15.3	     2.366	4.14876e+06	    76.398	      15.3	    2.3575	4.12037e+06	
         R10	   6037	    76.398	      15.3	     2.349	4.33159e+06	    76.398	      15.3	     2.366	 3.9701e+06	    76.415	      15.3	     2.366	3.61647e+06	    76.415	      15.3	     2.349	4.36611e+06	    76.398	      15.3	    2.3575	4.11172e+06	   76.4065	      15.3	     2.366	3.78911e+06	    76.415	      15.3	    2.3575	3.93378e+06	   76.4065	      15.3	     2.349	4.33897e+06	
         R10	   6038	    76.415	      15.3	     2.349	4.34061e+06	    76.415	      15.3	     2.366	3.60673e+06	    76.432	      15.3	     2.366	3.41654e+06	    76.432	      15.3	     2.349	4.79518e+06	    76.415	      15.3	    2.3575	3.91533e+06	   76.4235	      15.3	     2.366	3.49845e+06	    76.432	      15.3	    2.3575	4.04589e+06	   76.4235	      15.3	     2.349	4.55391e+06	
         R10	   6039	    76.432	      15.3	     2.349	4.75606e+06	    76.432	      15.3	     2.366	3.39336e+06	    76.449	      15.3	     2.366	3.84519e+06	    76.449	      15.3	     2.349	5.92968e+06	    76.432	      15.3	    2.3575	4.01276e+06	   76.4405	      15.3	     2.366	3.59061e+06	    76.449	      15.3	    2.3575	4.85558e+06	   76.4405	      15.3	     2.349	5.33316e+06	
         R10	   6040	    76.449	      15.3	     2.349	 5.9057e+06	    76.449	      15.3	     2.366	3.80084e+06	    76.466	      15.3	     2.366	5.70299e+06	    76.466	      15.3	     2.349	7.98706e+06	    76.449	      15.3	    2.3575	4.82124e+06	   76.4575	      15.3	     2.366	4.73514e+06	    76.466	      15.3	    2.3575	6.83705e+06	   76.4575	      15.3	     2.349	6.94089e+06	
         R10	   6041	    76.449	      15.3	     2.332	7.25116e+06	    76.449	      15.3	     2.349	5.88698e+06	    76.466	      15.3	     2.349	7.94958e+06	    76.466	      15.3	     2.332	8.93227e+06	    76.449	      15.3	    2.3405	6.56353e+06	   76.4575	      15.3	     2.349	6.91342e+06	    76.466	      15.3	    2.3405	8.43674e+06	   76.4575	      15.3	     2.332	8.08666e+06	
         R10	   6042	    76.449	      15.3	     2.332	7.21634e+06	    76.466	      15.3	     2.332	8.90577e+06	    76.466	      15.3	     2.315	9.22617e+06	    76.449	      15.3	     2.315	7.96107e+06	   76.4575	      15.3	     2.332	 8.0564e+06	    76.466	      15.3	    2.3235	9.06298e+06	   76.4575	      15.3	     2.315	8.58924e+06	    76.449	      15.3	    2.3235	7.58503e+06	
         R10	   6043	    76.449	      15.3	     2.315	7.93538e+06	    76.466	      15.3	     2.315	9.21103e+06	    76.466	      15.3	     2.298	9.23413e+06	    76.449	      15.3	     2.298	 8.3019e+06	   76.4575	      15.3	     2.315	8.56902e+06	    76.466	      15.3	    2.3065	9.22087e+06	   76.4575	      15.3	     2.298	8.76469e+06	    76.449	      15.3	    2.3065	 8.1161e+06	
         R10	   6044	    76.449	      15.3	     2.298	8.28698e+06	    76.466	      15.3	     2.298	 9.2261e+06	    76.466	      15.3	     2.281	9.13086e+06	    76.449	      15.3	     2.281	8.44353e+06	   76.4575	      15.3	     2.298	 8.7533e+06	    76.466	      15.3	    2.2895	9.17756e+06	   76.4575	      15.3	     2.281	8.78484e+06	    76.449	      15.3	    2.2895	8.36365e+06	
         R10	   6045	    76.449	      15.3	     2.281	8.43554e+06	    76.466	      15.3	     2.281	9.12662e+06	    76.466	      15.3	     2.264	8.99445e+06	    76.449	      15.3	     2.264	8.48221e+06	   76.4575	      15.3	     2.281	8.77876e+06	    76.466	      15.3	    2.2725	9.06002e+06	   76.4575	      15.3	     2.264	8.73673e+06	    76.449	      15.3	    2.2725	8.45789e+06	
         R10	   6046	    76.432	      15.3	     2.281	7.74369e+06	    76.449	      15.3	     2.281	8.42775e+06	    76.449	      15.3	     2.264	8.47491e+06	    76.432	      15.3	     2.264	  7.939e+06	   76.4405	      15.3	     2.281	8.08509e+06	    76.449	      15.3	    2.2725	8.45034e+06	   76.4405	      15.3	     2.264	8.20643e+06	    76.432	      15.3	    2.2725	7.84018e+06	
         R10	   6047	    76.432	      15.3	     2.281	7.74005e+06	    76.432	      15.3	     2.264	7.93326e+06	    76.415	      15.3	     2.264	 7.4301e+06	    76.415	      15.3	     2.281	7.13778e+06	    76.432	      15.3	    2.2725	7.83549e+06	   76.4235	      15.3	     2.264	7.68155e+06	    76.415	      15.3	    2.2725	7.28292e+06	   76.4235	      15.3	     2.281	7.43866e+06	
         R10	   6048	    76.415	      15.3	     2.281	7.13732e+06	    76.415	      15.3	     2.264	7.42699e+06	    76.398	      15.3	     2.264	6.99448e+06	    76.398	      15.3	     2.281	6.65561e+06	    76.415	      15.3	    2.2725	7.28114e+06	   76.4065	      15.3	     2.264	7.21044e+06	    76.398	      15.3	    2.2725	6.82423e+06	   76.4065	      15.3	     2.281	6.89574e+06	
         R10	   6049	    76.398	      15.3	     2.281	6.65692e+06	    76.398	      15.3	     2.264	6.99361e+06	    76.381	      15.3	     2.264	6.64978e+06	    76.381	      15.3	     2.281	6.30539e+06	    76.398	      15.3	    2.2725	6.82445e+06	   76.3895	      15.3	     2.264	6.82098e+06	    76.381	      15.3	    2.2725	6.47687e+06	   76.3895	      15.3	     2.281	6.47979e+06	
         R10	   6050	    76.398	      15.3	     2.298	6.21438e+06	    76.398	      15.3	     2.281	6.65845e+06	    76.381	      15.3	     2.281	 6.3056e+06	    76.381	      15.3	     2.298	  5.888e+06	    76.398	      15.3	    2.2895	 6.4353e+06	   76.3895	      15.3	     2.281	6.48065e+06	    76.381	      15.3	    2.2895	6.09562e+06	   76.3895	      15.3	     2.298	6.04869e+06	
         R10	   6051	    76.398	      15.3	     2.298	6.21553e+06	    76.381	      15.3	     2.298	5.88647e+06	    76.381	      15.3	     2.315	5.40822e+06	    76.398	      15.3	     2.315	5.65283e+06	   76.3895	      15.3	     2.298	6.04848e+06	    76.381	      15.3	    2.3065	5.64485e+06	   76.3895	      15.3	     2.315	5.52638e+06	    76.398	      15.3	    2.3065	5.93215e+06	
         R10	   6052	    76.398	      15.3	     2.315	5.65256e+06	    76.381	      15.3	     2.315	5.40412e+06	    76.381	      15.3	     2.332	4.91187e+06	    76.398	      15.3	     2.332	4.99479e+06	   76.3895	      15.3	     2.315	5.52412e+06	    76.381	      15.3	    2.3235	  5.152e+06	   76.3895	      15.3	     2.332	4.94767e+06	    76.398	      15.3	    2.3235	5.31834e+06	
         R10	   6053	    76.398	      15.3	     2.332	4.99194e+06	    76.381	      15.3	     2.332	4.90527e+06	    76.381	      15.3	     2.349	4.50123e+06	    76.398	      15.3	     2.349	4.34885e+06	   76.3895	      15.3	     2.332	 4.9428e+06	    76.381	      15.3	    2.3405	4.68978e+06	   76.3895	      15.3	     2.349	4.42017e+06	    76.398	      15.3	    2.3405	4.65441e+06	
         R10	   6054	    76.415	      15.3	     2.332	5.31959e+06	    76.398	      15.3	     2.332	4.97937e+06	    76.398	      15.3	     2.349	4.34277e+06	    76.415	      15.3	     2.349	4.37208e+06	   76.4065	      15.3	     2.332	5.14219e+06	    76.398	      15.3	    2.3405	4.64494e+06	   76.4065	      15.3	     2.349	4.34792e+06	    76.415	      15.3	    2.3405	4.83131e+06	
         R10	   6055	    76.415	      15.3	     2.332	5.30354e+06	    76.415	      15.3	     2.349	4.35915e+06	    76.432	      15.3	     2.349	4.79491e+06	    76.432	      15.3	     2.332	6.03161e+06	    76.415	      15.3	    2.3405	4.81665e+06	   76.4235	      15.3	     2.349	4.56384e+06	    76.432	      15.3	    2.3405	5.40408e+06	   76.4235	      15.3	     2.332	5.66168e+06	
         R10	   6056	    76.432	      15.3	     2.332	6.02105e+06	    76.432	      15.3	     2.349	 4.7756e+06	    76.449	      15.3	     2.349	 5.9074e+06	    76.449	      15.3	     2.332	7.23277e+06	    76.432	      15.3	    2.3405	 5.3891e+06	   76.4405	      15.3	     2.349	5.33257e+06	    76.449	      15.3	    2.3405	 6.5647e+06	   76.4405	      15.3	     2.332	6.62439e+06	
         R10	   6057	    76.432	      15.3	     2.315	6.88558e+06	    76.432	      15.3	     2.332	6.01548e+06	    76.449	      15.3	     2.332	7.21521e+06	    76.449	      15.3	     2.315	7.93934e+06	    76.432	      15.3	    2.3235	6.44722e+06	   76.4405	      15.3	     2.332	6.61293e+06	    76.449	      15.3	    2.3235	7.57375e+06	   76.4405	      15.3	     2.315	 7.4114e+06	
         R10	   6058	    76.432	      15.3	     2.315	6.87274e+06	    76.449	      15.3	     2.315	7.92741e+06	    76.449	      15.3	     2.298	8.28514e+06	    76.432	      15.3	     2.298	7.42775e+06	   76.4405	      15.3	     2.315	7.39905e+06	    76.449	      15.3	    2.3065	8.10381e+06	   76.4405	      15.3	     2.298	7.85567e+06	    76.432	      15.3	    2.3065	7.14798e+06	
         R10	   6059	    76.432	      15.3	     2.298	7.41634e+06	    76.449	      15.3	     2.298	 8.2774e+06	    76.449	      15.3	     2.281	8.43232e+06	    76.432	      15.3	     2.281	 7.7517e+06	   76.4405	      15.3	     2.298	7.84612e+06	    76.449	      15.3	    2.2895	8.35326e+06	   76.4405	      15.3	     2.281	8.09136e+06	    76.432	      15.3	    2.2895	7.58236e+06	
         R10	   6060	    76.415	      15.3	     2.298	6.71586e+06	    76.432	      15.3	     2.298	7.41429e+06	    76.432	      15.3	     2.281	 7.7443e+06	    76.415	      15.3	     2.281	7.14292e+06	   76.4235	      15.3	     2.298	7.06438e+06	    76.432	      15.3	    2.2895	7.57766e+06	   76.4235	      15.3	     2.281	7.44334e+06	    76.415	      15.3	    2.2895	6.92806e+06	
         R10	   6061	    76.415	      15.3	     2.298	6.71736e+06	    76.415	      15.3	     2.281	7.14021e+06	    76.398	      15.3	     2.281	6.65804e+06	    76.398	      15.3	     2.298	6.21147e+06	    76.415	      15.3	    2.2895	6.92748e+06	   76.4065	      15.3	     2.281	6.89839e+06	    76.398	      15.3	    2.2895	6.43363e+06	   76.4065	      15.3	     2.298	6.46272e+06	
         R10	   6062	    76.415	      15.3	     2.315	6.12077e+06	    76.415	      15.3	     2.298	6.72079e+06	    76.398	      15.3	     2.298	 6.2123e+06	    76.398	      15.3	     2.315	5.64791e+06	    76.415	      15.3	    2.3065	6.41893e+06	   76.4065	      15.3	     2.298	6.46483e+06	    76.398	      15.3	    2.3065	5.92805e+06	   76.4065	      15.3	     2.315	5.88065e+06	
         R10	   6063	    76.415	      15.3	     2.315	6.12375e+06	    76.398	      15.3	     2.315	5.64494e+06	    76.398	      15.3	     2.332	4.98805e+06	    76.415	      15.3	     2.332	5.31958e+06	   76.4065	      15.3	     2.315	5.88057e+06	    76.398	      15.3	    2.3235	5.31109e+06	   76.4065	      15.3	     2.332	5.14677e+06	    76.415	      15.3	    2.3235	5.71772e+06	
         R10	   6064	    76.415	      15.3	     2.315	6.11806e+06	    76.415	      15.3	     2.332	5.31028e+06	    76.432	      15.3	     2.332	6.02411e+06	    76.432	      15.3	     2.315	6.88175e+06	    76.415	      15.3	    2.3235	5.71015e+06	   76.4235	      15.3	     2.332	5.66151e+06	    76.432	      15.3	    2.3235	6.44971e+06	   76.4235	      15.3	     2.315	6.49784e+06	
         R10	   6065	    76.415	      15.3	     2.298	6.72114e+06	    76.415	      15.3	     2.315	6.11604e+06	    76.432	      15.3	     2.315	6.87441e+06	    76.432	      15.3	     2.298	7.41988e+06	    76.415	      15.3	    2.3065	6.41671e+06	   76.4235	      15.3	     2.315	6.49321e+06	    76.432	      15.3	    2.3065	7.14494e+06	   76.4235	      15.3	     2.298	 7.0698e+06	
         R10	   6066	    76.517	      15.3	      2.23	8.32695e+06	      76.5	      15.3	      2.23	8.53189e+06	      76.5	      15.3	     2.247	8.81164e+06	    76.517	      15.3	     2.247	8.54383e+06	   76.5085	      15.3	      2.23	8.42803e+06	      76.5	      15.3	    2.2385	8.67153e+06	   76.5085	      15.3	     2.247	8.67544e+06	    76.517	      15.3	    2.2385	 8.4353e+06	
         R10	   6067	    76.517	      15.3	     2.247	8.54121e+06	      76.5	      15.3	     2.247	8.81071e+06	      76.5	      15.3	     2.264	9.17409e+06	    76.517	      15.3	     2.264	8.81121e+06	   76.5085	      15.3	     2.247	 8.6737e+06	      76.5	      15.3	    2.2555	 8.9921e+06	   76.5085	      15.3	     2.264	8.98872e+06	    76.517	      15.3	    2.2555	8.67613e+06	
         R10	   6068	    76.517	      15.3	     2.264	8.80708e+06	      76.5	      15.3	     2.264	9.17418e+06	      76.5	      15.3	     2.281	9.65755e+06	    76.517	      15.3	     2.281	9.14023e+06	   76.5085	      15.3	     2.264	8.98679e+06	      76.5	      15.3	    2.2725	9.41544e+06	   76.5085	      15.3	     2.281	9.39198e+06	    76.517	      15.3	    2.2725	8.97357e+06	
         R10	   6069	    76.517	      15.3	     2.281	9.13518e+06	      76.5	      15.3	     2.281	9.65684e+06	      76.5	      15.3	     2.298	1.03177e+07	    76.517	      15.3	     2.298	9.53871e+06	   76.5085	      15.3	     2.281	9.38928e+06	      76.5	      15.3	    2.2895	9.98667e+06	   76.5085	      15.3	     2.298	9.91565e+06	    76.517	      15.3	    2.2895	9.33683e+06	
         R10	   6070	    76.517	      15.3	     2.298	9.53356e+06	      76.5	      15.3	     2.298	1.03177e+07	      76.5	      15.3	     2.315	1.12385e+07	    76.517	      15.3	     2.315	9.99285e+06	   76.5085	      15.3	     2.298	9.91343e+06	      76.5	      15.3	    2.3065	1.07772e+07	   76.5085	      15.3	     2.315	1.05922e+07	    76.517	      15.3	    2.3065	9.76299e+06	
         R10	   6071	    76.517	      15.3	     2.315	9.99395e+06	      76.5	      15.3	     2.315	1.12435e+07	      76.5	      15.3	     2.332	1.25366e+07	    76.517	      15.3	     2.332	1.04122e+07	   76.5085	      15.3	     2.315	1.05958e+07	      76.5	      15.3	    2.3235	1.18886e+07	   76.5085	      15.3	     2.332	1.14299e+07	    76.517	      15.3	    2.3235	1.02026e+07	
         R10	   6072	    76.517	      15.3	     2.332	1.04428e+07	      76.5	      15.3	     2.332	1.25575e+07	      76.5	      15.3	     2.349	1.43067e+07	    76.517	      15.3	     2.349	1.04919e+07	   76.5085	      15.3	     2.332	 1.1456e+07	      76.5	      15.3	    2.3405	1.34293e+07	   76.5085	      15.3	     2.349	1.23185e+07	    76.517	      15.3	    2.3405	1.04666e+07	
         R10	   6073	    76.517	      15.3	     2.349	1.06206e+07	      76.5	      15.3	     2.349	1.43823e+07	      76.5	      15.3	     2.366	1.63894e+07	    76.517	      15.3	     2.366	9.32457e+06	   76.5085	      15.3	     2.349	1.24182e+07	      76.5	      15.3	    2.3575	1.53766e+07	   76.5085	      15.3	     2.366	1.27336e+07	    76.517	      15.3	    2.3575	9.97199e+06	
         R10	   6074	    76.517	      15.3	     2.366	9.68296e+06	      76.5	      15.3	     2.366	1.66074e+07	      76.5	      15.3	     2.383	1.77478e+07	    76.517	      15.3	     2.383	4.98121e+06	   76.5085	      15.3	     2.366	1.30078e+07	      76.5	      15.3	    2.3745	1.70777e+07	   76.5085	      15.3	     2.383	1.13331e+07	    76.517	      15.3	    2.3745	7.24723e+06	
         R10	   6075	    76.517	      15.3	     2.383	5.04931e+06	      76.5	      15.3	     2.383	1.83014e+07	      76.5	      15.3	       2.4	 1.9543e+07	    76.517	      15.3	       2.4	1.17446e+07	   76.5085	      15.3	     2.383	1.16565e+07	      76.5	      15.3	    2.3915	1.67754e+07	   76.5085	      15.3	       2.4	1.47144e+07	    76.517	      15.3	    2.3915	5.85077e+06	
         R10	   6076	    76.534	      15.3	     2.383	3.20292e+06	    76.517	      15.3	     2.383	5.66623e+06	    76.517	      15.3	       2.4	1.21602e+07	    76.534	      15.3	       2.4	8.92052e+06	   76.5255	      15.3	     2.383	4.05536e+06	    76.517	      15.3	    2.3915	6.60654e+06	   76.5255	      15.3	       2.4	1.05289e+07	    76.534	      15.3	    2.3915	5.27497e+06	
         R10	   6077	    76.534	      15.3	     2.383	3.44293e+06	    76.534	      15.3	       2.4	8.92863e+06	    76.551	      15.3	       2.4	6.61613e+06	    76.551	      15.3	     2.383	3.58029e+06	    76.534	      15.3	    2.3915	5.34946e+06	   76.5425	      15.3	       2.4	7.75645e+06	    76.551	      15.3	    2.3915	 4.6932e+06	   76.5425	      15.3	     2.383	3.48059e+06	
         R10	   6078	    76.551	      15.3	     2.383	3.58721e+06	    76.551	      15.3	       2.4	6.61437e+06	    76.568	      15.3	       2.4	5.25574e+06	    76.568	      15.3	     2.383	 3.7407e+06	    76.551	      15.3	    2.3915	4.69424e+06	   76.5595	      15.3	       2.4	5.89459e+06	    76.568	      15.3	    2.3915	4.27513e+06	   76.5595	      15.3	     2.383	3.65174e+06	
         R10	   6079	    76.568	      15.3	     2.383	3.75007e+06	    76.568	      15.3	       2.4	5.23412e+06	    76.585	      15.3	       2.4	4.63742e+06	    76.585	      15.3	     2.383	3.89219e+06	    76.568	      15.3	    2.3915	4.26567e+06	   76.5765	      15.3	       2.4	4.89357e+06	    76.585	      15.3	    2.3915	4.15081e+06	   76.5765	      15.3	     2.383	3.80501e+06	
         R10	   6080	    76.585	      15.3	     2.383	3.88642e+06	    76.585	      15.3	       2.4	4.62766e+06	    76.602	      15.3	       2.4	4.41096e+06	    76.602	      15.3	     2.383	4.08412e+06	    76.585	      15.3	    2.3915	4.14143e+06	   76.5935	      15.3	       2.4	4.49305e+06	    76.602	      15.3	    2.3915	4.18967e+06	   76.5935	      15.3	     2.383	3.97335e+06	
         R10	   6081	    76.602	      15.3	     2.383	4.06681e+06	    76.602	      15.3	       2.4	4.45553e+06	    76.619	      15.3	       2.4	4.41801e+06	    76.619	      15.3	     2.383	4.28381e+06	    76.602	      15.3	    2.3915	4.20301e+06	   76.6105	      15.3	       2.4	4.42298e+06	    76.619	      15.3	    2.3915	4.32112e+06	   76.6105	      15.3	     2.383	4.16807e+06	
         R10	   6082	    76.619	      15.3	     2.383	4.27074e+06	    76.619	      15.3	       2.4	4.46071e+06	    76.636	      15.3	       2.4	4.54903e+06	    76.636	      15.3	     2.383	 4.4709e+06	    76.619	      15.3	    2.3915	 4.3358e+06	   76.6275	      15.3	       2.4	4.49746e+06	    76.636	      15.3	    2.3915	4.49396e+06	   76.6275	      15.3	     2.383	4.36675e+06	
         R10	   6083	    76.636	      15.3	     2.383	4.46587e+06	    76.636	      15.3	       2.4	4.55681e+06	    76.653	      15.3	       2.4	4.69293e+06	    76.653	      15.3	     2.383	4.64655e+06	    76.636	      15.3	    2.3915	4.49537e+06	   76.6445	      15.3	       2.4	4.62108e+06	    76.653	      15.3	    2.3915	 4.6607e+06	   76.6445	      15.3	     2.383	4.55402e+06	
         R10	   6084	    76.653	      15.3	     2.383	4.64414e+06	    76.653	      15.3	       2.4	4.69575e+06	     76.67	      15.3	       2.4	4.82223e+06	     76.67	      15.3	     2.383	  4.809e+06	    76.653	      15.3	    2.3915	4.66083e+06	   76.6615	      15.3	       2.4	4.75707e+06	     76.67	      15.3	    2.3915	4.81048e+06	   76.6615	      15.3	     2.383	4.72533e+06	
         R10	   6085	    76.653	      15.3	     2.366	4.62104e+06	    76.653	      15.3	     2.383	4.64049e+06	     76.67	      15.3	     2.383	4.80536e+06	     76.67	      15.3	     2.366	4.79465e+06	    76.653	      15.3	    2.3745	4.62164e+06	   76.6615	      15.3	     2.383	4.72173e+06	     76.67	      15.3	    2.3745	4.79458e+06	   76.6615	      15.3	     2.366	4.70698e+06	
         R10	   6086	    76.653	      15.3	     2.366	4.61883e+06	     76.67	      15.3	     2.366	4.79188e+06	     76.67	      15.3	     2.349	4.81984e+06	    76.653	      15.3	     2.349	4.66285e+06	   76.6615	      15.3	     2.366	4.70448e+06	     76.67	      15.3	    2.3575	4.80035e+06	   76.6615	      15.3	     2.349	4.74032e+06	    76.653	      15.3	    2.3575	4.63204e+06	
         R10	   6087	    76.653	      15.3	     2.349	4.66321e+06	     76.67	      15.3	     2.349	4.81955e+06	     76.67	      15.3	     2.332	4.90043e+06	    76.653	      15.3	     2.332	4.78654e+06	   76.6615	      15.3	     2.349	4.74038e+06	     76.67	      15.3	    2.3405	4.85503e+06	   76.6615	      15.3	     2.332	4.84197e+06	    76.653	      15.3	    2.3405	4.71742e+06	
         R10	   6088	    76.653	      15.3	     2.332	4.78593e+06	     76.67	      15.3	     2.332	4.89851e+06	     76.67	      15.3	     2.315	 5.0319e+06	    76.653	      15.3	     2.315	4.97378e+06	   76.6615	      15.3	     2.332	 4.8407e+06	     76.67	      15.3	    2.3235	4.96106e+06	   76.6615	      15.3	     2.315	5.00099e+06	    76.653	      15.3	    2.3235	4.87427e+06	
         R10	   6089	    76.653	      15.3	     2.315	4.97448e+06	     76.67	      15.3	     2.315	5.03302e+06	     76.67	      15.3	     2.298	 5.2015e+06	    76.653	      15.3	     2.298	5.20031e+06	   76.6615	      15.3	     2.315	5.00192e+06	     76.67	      15.3	    2.3065	5.11421e+06	   76.6615	      15.3	     2.298	5.19895e+06	    76.653	      15.3	    2.3065	 5.0836e+06	
         R10	   6090	    76.653	      15.3	     2.298	5.20061e+06	     76.67	      15.3	     2.298	5.20206e+06	     76.67	      15.3	     2.281	5.39168e+06	    76.653	      15.3	     2.281	5.43829e+06	   76.6615	      15.3	     2.298	5.19939e+06	     76.67	      15.3	    2.2895	5.29469e+06	   76.6615	      15.3	     2.281	5.41321e+06	    76.653	      15.3	    2.2895	5.31701e+06	
         R10	   6091	    76.653	      15.3	     2.281	5.43824e+06	     76.67	      15.3	     2.281	5.39278e+06	     76.67	      15.3	     2.264	5.58587e+06	    76.653	      15.3	     2.264	5.66882e+06	   76.6615	      15.3	     2.281	5.41376e+06	     76.67	      15.3	    2.2725	5.48786e+06	   76.6615	      15.3	     2.264	5.62584e+06	    76.653	      15.3	    2.2725	5.55196e+06	
         R10	   6092	    76.653	      15.3	     2.264	5.66896e+06	     76.67	      15.3	     2.264	5.58707e+06	     76.67	      15.3	     2.247	5.77611e+06	    76.653	      15.3	     2.247	5.88076e+06	   76.6615	      15.3	     2.264	5.62652e+06	     76.67	      15.3	    2.2555	5.68056e+06	   76.6615	      15.3	     2.247	5.82727e+06	    76.653	      15.3	    2.2555	5.77383e+06	
         R10	   6093	    76.653	      15.3	     2.247	 5.8806e+06	     76.67	      15.3	     2.247	5.77543e+06	     76.67	      15.3	      2.23	 5.9511e+06	    76.653	      15.3	      2.23	6.06895e+06	   76.6615	      15.3	     2.247	5.82684e+06	     76.67	      15.3	    2.2385	5.86256e+06	   76.6615	      15.3	      2.23	6.00911e+06	    76.653	      15.3	    2.2385	5.97405e+06	
         R10	   6094	    76.636	      15.3	     2.247	6.03907e+06	    76.653	      15.3	     2.247	 5.8797e+06	    76.653	      15.3	      2.23	6.06831e+06	    76.636	      15.3	      2.23	 6.2326e+06	   76.6445	      15.3	     2.247	5.95823e+06	    76.653	      15.3	    2.2385	 5.9733e+06	   76.6445	      15.3	      2.23	6.14961e+06	    76.636	      15.3	    2.2385	 6.1351e+06	
         R10	   6095	    76.636	      15.3	     2.247	 6.0386e+06	    76.636	      15.3	      2.23	6.23392e+06	    76.619	      15.3	      2.23	6.44838e+06	    76.619	      15.3	     2.247	6.26173e+06	    76.636	      15.3	    2.2385	6.13552e+06	   76.6275	      15.3	      2.23	6.34051e+06	    76.619	      15.3	    2.2385	6.35434e+06	   76.6275	      15.3	     2.247	6.14913e+06	
         R10	   6096	    76.619	      15.3	     2.247	6.26077e+06	    76.619	      15.3	      2.23	6.44787e+06	    76.602	      15.3	      2.23	6.71387e+06	    76.602	      15.3	     2.247	6.55137e+06	    76.619	      15.3	    2.2385	6.35358e+06	   76.6105	      15.3	      2.23	 6.5804e+06	    76.602	      15.3	    2.2385	6.63187e+06	   76.6105	      15.3	     2.247	6.40529e+06	
         R10	   6097	    76.602	      15.3	     2.247	6.55152e+06	    76.602	      15.3	      2.23	6.71492e+06	    76.585	      15.3	      2.23	  7.024e+06	    76.585	      15.3	     2.247	  6.907e+06	    76.602	      15.3	    2.2385	6.63248e+06	   76.5935	      15.3	      2.23	6.86921e+06	    76.585	      15.3	    2.2385	6.96477e+06	   76.5935	      15.3	     2.247	6.72878e+06	
         R10	   6098	    76.585	      15.3	     2.247	6.90813e+06	    76.585	      15.3	      2.23	 7.0251e+06	    76.568	      15.3	      2.23	7.36427e+06	    76.568	      15.3	     2.247	7.31437e+06	    76.585	      15.3	    2.2385	6.96589e+06	   76.5765	      15.3	      2.23	7.19453e+06	    76.568	      15.3	    2.2385	7.33869e+06	   76.5765	      15.3	     2.247	7.11095e+06	
         R10	   6099	    76.568	      15.3	     2.247	7.31701e+06	    76.568	      15.3	      2.23	 7.3681e+06	    76.551	      15.3	      2.23	7.71541e+06	    76.551	      15.3	     2.247	7.74925e+06	    76.568	      15.3	    2.2385	7.34192e+06	   76.5595	      15.3	      2.23	7.54149e+06	    76.551	      15.3	    2.2385	7.73187e+06	   76.5595	      15.3	     2.247	7.53273e+06	
         R10	   6100	    76.551	      15.3	     2.247	7.75327e+06	    76.551	      15.3	      2.23	7.70933e+06	    76.534	      15.3	      2.23	8.05045e+06	    76.534	      15.3	     2.247	8.16864e+06	    76.551	      15.3	    2.2385	7.73087e+06	   76.5425	      15.3	      2.23	7.87938e+06	    76.534	      15.3	    2.2385	8.10932e+06	   76.5425	      15.3	     2.247	7.96008e+06	
         R10	   6101	    76.534	      15.3	     2.247	8.17651e+06	    76.534	      15.3	      2.23	8.04988e+06	    76.517	      15.3	      2.23	8.31979e+06	    76.517	      15.3	     2.247	8.54045e+06	    76.534	      15.3	    2.2385	8.11299e+06	   76.5255	      15.3	      2.23	8.18382e+06	    76.517	      15.3	    2.2385	8.43004e+06	   76.5255	      15.3	     2.247	8.35689e+06	
         R10	   6102	    76.534	      15.3	     2.264	8.31637e+06	    76.534	      15.3	     2.247	8.17573e+06	    76.517	      15.3	     2.247	 8.5403e+06	    76.517	      15.3	     2.264	8.80282e+06	    76.534	      15.3	    2.2555	8.24573e+06	   76.5255	      15.3	     2.247	8.35642e+06	    76.517	      15.3	    2.2555	8.67147e+06	   76.5255	      15.3	     2.264	8.55703e+06	
         R10	   6103	    76.534	      15.3	     2.264	8.31777e+06	    76.517	      15.3	     2.264	8.80335e+06	    76.517	      15.3	     2.281	9.12555e+06	    76.534	      15.3	     2.281	8.45524e+06	   76.5255	      15.3	     2.264	8.55796e+06	    76.517	      15.3	    2.2725	8.96435e+06	   76.5255	      15.3	     2.281	8.78612e+06	    76.534	      15.3	    2.2725	8.38596e+06	
         R10	   6104	    76.534	      15.3	     2.281	8.45907e+06	    76.517	      15.3	     2.281	9.12798e+06	    76.517	      15.3	     2.298	9.51224e+06	    76.534	      15.3	     2.298	8.55994e+06	   76.5255	      15.3	     2.281	 8.7892e+06	    76.517	      15.3	    2.2895	9.31997e+06	   76.5255	      15.3	     2.298	9.02894e+06	    76.534	      15.3	    2.2895	8.50852e+06	
         R10	   6105	    76.534	      15.3	     2.298	  8.571e+06	    76.517	      15.3	     2.298	9.51897e+06	    76.517	      15.3	     2.315	9.94494e+06	    76.534	      15.3	     2.315	8.55461e+06	   76.5255	      15.3	     2.298	 9.0377e+06	    76.517	      15.3	    2.3065	9.73167e+06	   76.5255	      15.3	     2.315	9.23784e+06	    76.534	      15.3	    2.3065	8.56094e+06	
         R10	   6106	    76.534	      15.3	     2.315	8.58209e+06	    76.517	      15.3	     2.315	9.96034e+06	    76.517	      15.3	     2.332	1.03343e+07	    76.534	      15.3	     2.332	8.26938e+06	   76.5255	      15.3	     2.315	9.25899e+06	    76.517	      15.3	    2.3235	1.01467e+07	   76.5255	      15.3	     2.332	9.28202e+06	    76.534	      15.3	    2.3235	8.42212e+06	
         R10	   6107	    76.534	      15.3	     2.332	8.32915e+06	    76.517	      15.3	     2.332	 1.0367e+07	    76.517	      15.3	     2.349	 1.0375e+07	    76.534	      15.3	     2.349	7.36514e+06	   76.5255	      15.3	     2.332	9.32774e+06	    76.517	      15.3	    2.3405	1.03702e+07	   76.5255	      15.3	     2.349	8.83871e+06	    76.534	      15.3	    2.3405	7.83978e+06	
         R10	   6108	    76.534	      15.3	     2.349	7.46294e+06	    76.517	      15.3	     2.349	1.04454e+07	    76.517	      15.3	     2.366	9.28746e+06	    76.534	      15.3	     2.366	5.25165e+06	   76.5255	      15.3	     2.349	8.92233e+06	    76.517	      15.3	    2.3575	9.86408e+06	   76.5255	      15.3	     2.366	7.21635e+06	    76.534	      15.3	    2.3575	6.32979e+06	
         R10	   6109	    76.534	      15.3	     2.366	 5.3423e+06	    76.517	      15.3	     2.366	9.35722e+06	    76.517	      15.3	     2.383	5.64924e+06	    76.534	      15.3	     2.383	2.94964e+06	   76.5255	      15.3	     2.366	7.28891e+06	    76.517	      15.3	    2.3745	7.34665e+06	   76.5255	      15.3	     2.383	4.06317e+06	    76.534	      15.3	    2.3745	3.56901e+06	
         R10	   6110	    76.551	      15.3	     2.366	3.80207e+06	    76.534	      15.3	     2.366	5.46259e+06	    76.534	      15.3	     2.383	3.16001e+06	    76.551	      15.3	     2.383	3.34643e+06	   76.5425	      15.3	     2.366	4.57127e+06	    76.534	      15.3	    2.3745	3.74132e+06	   76.5425	      15.3	     2.383	3.22993e+06	    76.551	      15.3	    2.3745	3.09416e+06	
         R10	   6111	    76.551	      15.3	     2.366	3.88225e+06	    76.551	      15.3	     2.383	3.40519e+06	    76.568	      15.3	     2.383	3.62453e+06	    76.568	      15.3	     2.366	3.56863e+06	    76.551	      15.3	    2.3745	3.17077e+06	   76.5595	      15.3	     2.383	3.50455e+06	    76.568	      15.3	    2.3745	3.35193e+06	   76.5595	      15.3	     2.366	3.68962e+06	
         R10	   6112	    76.568	      15.3	     2.366	3.59255e+06	    76.568	      15.3	     2.383	3.64966e+06	    76.585	      15.3	     2.383	3.83043e+06	    76.585	      15.3	     2.366	3.72409e+06	    76.568	      15.3	    2.3745	3.37766e+06	   76.5765	      15.3	     2.383	3.72627e+06	    76.585	      15.3	    2.3745	3.66118e+06	   76.5765	      15.3	     2.366	3.64391e+06	
         R10	   6113	    76.585	      15.3	     2.366	3.72638e+06	    76.585	      15.3	     2.383	3.84362e+06	    76.602	      15.3	     2.383	4.05417e+06	    76.602	      15.3	     2.366	3.96346e+06	    76.585	      15.3	    2.3745	3.66961e+06	   76.5935	      15.3	     2.383	3.93792e+06	    76.602	      15.3	    2.3745	3.95157e+06	   76.5935	      15.3	     2.366	3.83846e+06	
         R10	   6114	    76.602	      15.3	     2.366	3.96446e+06	    76.602	      15.3	     2.383	4.04624e+06	    76.619	      15.3	     2.383	4.26842e+06	    76.619	      15.3	     2.366	4.20478e+06	    76.602	      15.3	    2.3745	3.94845e+06	   76.6105	      15.3	     2.383	4.15067e+06	    76.619	      15.3	    2.3745	4.20704e+06	   76.6105	      15.3	     2.366	4.08094e+06	
         R10	   6115	    76.619	      15.3	     2.366	 4.2045e+06	    76.619	      15.3	     2.383	4.25952e+06	    76.636	      15.3	     2.383	4.46164e+06	    76.636	      15.3	     2.366	4.42669e+06	    76.619	      15.3	    2.3745	4.20256e+06	   76.6275	      15.3	     2.383	4.35685e+06	    76.636	      15.3	    2.3745	4.42815e+06	   76.6275	      15.3	     2.366	4.31335e+06	
         R10	   6116	    76.636	      15.3	     2.366	4.42475e+06	    76.636	      15.3	     2.383	4.46084e+06	    76.653	      15.3	     2.383	4.64196e+06	    76.653	      15.3	     2.366	4.62215e+06	    76.636	      15.3	    2.3745	4.42679e+06	   76.6445	      15.3	     2.383	4.54928e+06	    76.653	      15.3	    2.3745	4.62292e+06	   76.6445	      15.3	     2.366	4.52206e+06	
         R10	   6117	    76.636	      15.3	     2.349	4.49902e+06	    76.636	      15.3	     2.366	4.42194e+06	    76.653	      15.3	     2.366	4.61871e+06	    76.653	      15.3	     2.349	4.66403e+06	    76.636	      15.3	    2.3575	 4.4459e+06	   76.6445	      15.3	     2.366	4.51896e+06	    76.653	      15.3	    2.3575	4.63258e+06	   76.6445	      15.3	     2.349	4.57982e+06	
         R10	   6118	    76.636	      15.3	     2.349	4.49794e+06	    76.653	      15.3	     2.349	4.66267e+06	    76.653	      15.3	     2.332	4.78472e+06	    76.636	      15.3	     2.332	4.69046e+06	   76.6445	      15.3	     2.349	4.57861e+06	    76.653	      15.3	    2.3405	4.71624e+06	   76.6445	      15.3	     2.332	4.73517e+06	    76.636	      15.3	    2.3405	4.58299e+06	
         R10	   6119	    76.636	      15.3	     2.332	4.69065e+06	    76.653	      15.3	     2.332	4.78575e+06	    76.653	      15.3	     2.315	4.97196e+06	    76.636	      15.3	     2.315	4.95908e+06	   76.6445	      15.3	     2.332	4.73581e+06	    76.653	      15.3	    2.3235	4.87327e+06	   76.6445	      15.3	     2.315	4.96276e+06	    76.636	      15.3	    2.3235	4.81747e+06	
         R10	   6120	    76.636	      15.3	     2.315	4.95927e+06	    76.653	      15.3	     2.315	4.97336e+06	    76.653	      15.3	     2.298	5.19818e+06	    76.636	      15.3	     2.298	5.25655e+06	   76.6445	      15.3	     2.315	4.96358e+06	    76.653	      15.3	    2.3065	5.08196e+06	   76.6445	      15.3	     2.298	5.22479e+06	    76.636	      15.3	    2.3065	5.10346e+06	
         R10	   6121	    76.636	      15.3	     2.298	5.25668e+06	    76.653	      15.3	     2.298	5.19942e+06	    76.653	      15.3	     2.281	5.43643e+06	    76.636	      15.3	     2.281	5.54713e+06	   76.6445	      15.3	     2.298	5.22549e+06	    76.653	      15.3	    2.2895	5.31547e+06	   76.6445	      15.3	     2.281	5.48965e+06	    76.636	      15.3	    2.2895	5.39928e+06	
         R10	   6122	    76.636	      15.3	     2.281	5.54701e+06	    76.653	      15.3	     2.281	5.43714e+06	    76.653	      15.3	     2.264	5.66761e+06	    76.636	      15.3	     2.264	5.81073e+06	   76.6445	      15.3	     2.281	5.48996e+06	    76.653	      15.3	    2.2725	 5.5508e+06	   76.6445	      15.3	     2.264	5.73756e+06	    76.636	      15.3	    2.2725	5.67727e+06	
         R10	   6123	    76.636	      15.3	     2.264	5.81047e+06	    76.653	      15.3	     2.264	5.66774e+06	    76.653	      15.3	     2.247	5.87963e+06	    76.636	      15.3	     2.247	6.03978e+06	   76.6445	      15.3	     2.264	 5.7375e+06	    76.653	      15.3	    2.2555	5.77264e+06	   76.6445	      15.3	     2.247	5.95854e+06	    76.636	      15.3	    2.2555	5.92409e+06	
         R10	   6124	    76.619	      15.3	     2.264	6.02844e+06	    76.636	      15.3	     2.264	5.80925e+06	    76.636	      15.3	     2.247	6.03884e+06	    76.619	      15.3	     2.247	6.26221e+06	   76.6275	      15.3	     2.264	5.91728e+06	    76.636	      15.3	    2.2555	  5.923e+06	   76.6275	      15.3	     2.247	6.14949e+06	    76.619	      15.3	    2.2555	6.14428e+06	
         R10	   6125	    76.619	      15.3	     2.264	6.02737e+06	    76.619	      15.3	     2.247	6.26217e+06	    76.602	      15.3	     2.247	6.55262e+06	    76.602	      15.3	     2.264	6.33519e+06	    76.619	      15.3	    2.2555	6.14372e+06	   76.6105	      15.3	     2.247	6.40661e+06	    76.602	      15.3	    2.2555	6.44286e+06	   76.6105	      15.3	     2.264	6.17997e+06	
         R10	   6126	    76.602	      15.3	     2.264	6.33445e+06	    76.602	      15.3	     2.247	6.55353e+06	    76.585	      15.3	     2.247	6.90849e+06	    76.585	      15.3	     2.264	6.73543e+06	    76.602	      15.3	    2.2555	6.44293e+06	   76.5935	      15.3	     2.247	6.73053e+06	    76.585	      15.3	    2.2555	6.82093e+06	   76.5935	      15.3	     2.264	6.53402e+06	
         R10	   6127	    76.585	      15.3	     2.264	 6.7359e+06	    76.585	      15.3	     2.247	6.91067e+06	    76.568	      15.3	     2.247	7.31645e+06	    76.568	      15.3	     2.264	7.21935e+06	    76.585	      15.3	    2.2555	6.82225e+06	   76.5765	      15.3	     2.247	7.11325e+06	    76.568	      15.3	    2.2555	7.26696e+06	   76.5765	      15.3	     2.264	6.97703e+06	
         R10	   6128	    76.568	      15.3	     2.264	7.22189e+06	    76.568	      15.3	     2.247	7.31994e+06	    76.551	      15.3	     2.247	7.74901e+06	    76.551	      15.3	     2.264	7.76018e+06	    76.568	      15.3	    2.2555	7.26998e+06	   76.5595	      15.3	     2.247	7.53406e+06	    76.551	      15.3	    2.2555	7.75391e+06	   76.5595	      15.3	     2.264	7.49036e+06	
         R10	   6129	    76.551	      15.3	     2.264	  7.765e+06	    76.551	      15.3	     2.247	7.75576e+06	    76.534	      15.3	     2.247	8.17167e+06	    76.534	      15.3	     2.264	8.30915e+06	    76.551	      15.3	    2.2555	7.75969e+06	   76.5425	      15.3	     2.247	7.96285e+06	    76.534	      15.3	    2.2555	8.24008e+06	   76.5425	      15.3	     2.264	 8.0357e+06	
         R10	   6130	    76.551	      15.3	     2.281	7.72807e+06	    76.551	      15.3	     2.264	7.76845e+06	    76.534	      15.3	     2.264	8.31135e+06	    76.534	      15.3	     2.281	8.44406e+06	    76.551	      15.3	    2.2725	7.74716e+06	   76.5425	      15.3	     2.264	8.03853e+06	    76.534	      15.3	    2.2725	8.37715e+06	   76.5425	      15.3	     2.281	8.08392e+06	
         R10	   6131	    76.551	      15.3	     2.281	7.73547e+06	    76.534	      15.3	     2.281	 8.4481e+06	    76.534	      15.3	     2.298	  8.544e+06	    76.551	      15.3	     2.298	7.59223e+06	   76.5425	      15.3	     2.281	8.08961e+06	    76.534	      15.3	    2.2895	8.49505e+06	   76.5425	      15.3	     2.298	8.06472e+06	    76.551	      15.3	    2.2895	  7.662e+06	
         R10	   6132	    76.551	      15.3	     2.298	7.60633e+06	    76.534	      15.3	     2.298	8.55127e+06	    76.534	      15.3	     2.315	8.53433e+06	    76.551	      15.3	     2.315	7.27232e+06	   76.5425	      15.3	     2.298	8.07532e+06	    76.534	      15.3	    2.3065	8.54093e+06	   76.5425	      15.3	     2.315	7.89791e+06	    76.551	      15.3	    2.3065	 7.4361e+06	
         R10	   6133	    76.551	      15.3	     2.315	7.29654e+06	    76.534	      15.3	     2.315	8.54731e+06	    76.534	      15.3	     2.332	  8.252e+06	    76.551	      15.3	     2.332	6.62887e+06	   76.5425	      15.3	     2.315	7.91628e+06	    76.534	      15.3	    2.3235	8.39613e+06	   76.5425	      15.3	     2.332	7.43134e+06	    76.551	      15.3	    2.3235	6.95663e+06	
         R10	   6134	    76.551	      15.3	     2.332	6.66319e+06	    76.534	      15.3	     2.332	8.27568e+06	    76.534	      15.3	     2.349	7.37084e+06	    76.551	      15.3	     2.349	5.47227e+06	   76.5425	      15.3	     2.332	7.45978e+06	    76.534	      15.3	    2.3405	7.81621e+06	   76.5425	      15.3	     2.349	6.40318e+06	    76.551	      15.3	    2.3405	6.05235e+06	
         R10	   6135	    76.551	      15.3	     2.349	5.50189e+06	    76.534	      15.3	     2.349	7.41076e+06	    76.534	      15.3	     2.366	5.34999e+06	    76.551	      15.3	     2.366	3.80623e+06	   76.5425	      15.3	     2.349	6.43667e+06	    76.534	      15.3	    2.3575	 6.3527e+06	   76.5425	      15.3	     2.366	4.52608e+06	    76.551	      15.3	    2.3575	4.57821e+06	
         R10	   6136	    76.568	      15.3	     2.349	4.54784e+06	    76.551	      15.3	     2.349	5.53058e+06	    76.551	      15.3	     2.366	3.84612e+06	    76.568	      15.3	     2.366	3.55897e+06	   76.5595	      15.3	     2.349	5.01844e+06	    76.551	      15.3	    2.3575	4.61436e+06	   76.5595	      15.3	     2.366	3.67029e+06	    76.568	      15.3	    2.3575	3.96341e+06	
         R10	   6137	    76.568	      15.3	     2.349	 4.5822e+06	    76.568	      15.3	     2.366	3.56715e+06	    76.585	      15.3	     2.366	3.71248e+06	    76.585	      15.3	     2.349	4.22607e+06	    76.568	      15.3	    2.3575	3.98672e+06	   76.5765	      15.3	     2.366	3.62644e+06	    76.585	      15.3	    2.3575	3.90174e+06	   76.5765	      15.3	     2.349	4.38718e+06	
         R10	   6138	    76.585	      15.3	     2.349	4.24539e+06	    76.585	      15.3	     2.366	3.71365e+06	    76.602	      15.3	     2.366	3.95355e+06	    76.602	      15.3	     2.349	4.21836e+06	    76.585	      15.3	    2.3575	3.91262e+06	   76.5935	      15.3	     2.366	3.82735e+06	    76.602	      15.3	    2.3575	4.04402e+06	   76.5935	      15.3	     2.349	4.22164e+06	
         R10	   6139	    76.602	      15.3	     2.349	  4.226e+06	    76.602	      15.3	     2.366	3.95621e+06	    76.619	      15.3	     2.366	4.19741e+06	    76.619	      15.3	     2.349	4.33822e+06	    76.602	      15.3	    2.3575	4.04926e+06	   76.6105	      15.3	     2.366	4.07326e+06	    76.619	      15.3	    2.3575	4.24313e+06	   76.6105	      15.3	     2.349	4.27664e+06	
         R10	   6140	    76.619	      15.3	     2.349	4.34039e+06	    76.619	      15.3	     2.366	4.19971e+06	    76.636	      15.3	     2.366	4.42146e+06	    76.636	      15.3	     2.349	4.49863e+06	    76.619	      15.3	    2.3575	4.24534e+06	   76.6275	      15.3	     2.366	4.30838e+06	    76.636	      15.3	    2.3575	4.44546e+06	   76.6275	      15.3	     2.349	4.41654e+06	
         R10	   6141	    76.619	      15.3	     2.332	4.64463e+06	    76.619	      15.3	     2.349	4.33933e+06	    76.636	      15.3	     2.349	4.49778e+06	    76.636	      15.3	     2.332	4.68779e+06	    76.619	      15.3	    2.3405	4.47567e+06	   76.6275	      15.3	     2.349	4.41562e+06	    76.636	      15.3	    2.3405	4.58158e+06	   76.6275	      15.3	     2.332	4.66225e+06	
         R10	   6142	    76.619	      15.3	     2.332	4.64456e+06	    76.636	      15.3	     2.332	4.68921e+06	    76.636	      15.3	     2.315	4.95565e+06	    76.619	      15.3	     2.315	5.02372e+06	   76.6275	      15.3	     2.332	4.66299e+06	    76.636	      15.3	    2.3235	4.81502e+06	   76.6275	      15.3	     2.315	4.98575e+06	    76.619	      15.3	    2.3235	4.82502e+06	
         R10	   6143	    76.619	      15.3	     2.315	5.02356e+06	    76.636	      15.3	     2.315	4.95755e+06	    76.636	      15.3	     2.298	5.25351e+06	    76.619	      15.3	     2.298	5.40327e+06	   76.6275	      15.3	     2.315	4.98668e+06	    76.636	      15.3	    2.3065	5.10106e+06	   76.6275	      15.3	     2.298	5.32519e+06	    76.619	      15.3	    2.3065	5.20859e+06	
         R10	   6144	    76.619	      15.3	     2.298	5.40275e+06	    76.636	      15.3	     2.298	5.25479e+06	    76.636	      15.3	     2.281	5.54495e+06	    76.619	      15.3	     2.281	5.74307e+06	   76.6275	      15.3	     2.298	5.32561e+06	    76.636	      15.3	    2.2895	5.39723e+06	   76.6275	      15.3	     2.281	 5.6417e+06	    76.619	      15.3	    2.2895	5.57026e+06	
         R10	   6145	    76.619	      15.3	     2.281	5.74237e+06	    76.636	      15.3	     2.281	5.54541e+06	    76.636	      15.3	     2.264	5.80949e+06	    76.619	      15.3	     2.264	6.02922e+06	   76.6275	      15.3	     2.281	5.64159e+06	    76.636	      15.3	    2.2725	5.67584e+06	   76.6275	      15.3	     2.264	5.91778e+06	    76.619	      15.3	    2.2725	5.88421e+06	
         R10	   6146	    76.602	      15.3	     2.281	 6.0485e+06	    76.619	      15.3	     2.281	5.74048e+06	    76.619	      15.3	     2.264	 6.0284e+06	    76.602	      15.3	     2.264	6.33662e+06	   76.6105	      15.3	     2.281	5.89231e+06	    76.619	      15.3	    2.2725	5.88284e+06	   76.6105	      15.3	     2.264	6.18119e+06	    76.602	      15.3	    2.2725	  6.191e+06	
         R10	   6147	    76.602	      15.3	     2.281	6.04677e+06	    76.602	      15.3	     2.264	6.33681e+06	    76.585	      15.3	     2.264	6.73726e+06	    76.585	      15.3	     2.281	 6.4833e+06	    76.602	      15.3	    2.2725	6.19023e+06	   76.5935	      15.3	     2.264	6.53612e+06	    76.585	      15.3	    2.2725	6.60875e+06	   76.5935	      15.3	     2.281	6.26332e+06	
         R10	   6148	    76.585	      15.3	     2.281	6.48281e+06	    76.585	      15.3	     2.264	6.73969e+06	    76.568	      15.3	     2.264	7.22194e+06	    76.568	      15.3	     2.281	7.04912e+06	    76.585	      15.3	    2.2725	6.60971e+06	   76.5765	      15.3	     2.264	6.98021e+06	    76.568	      15.3	    2.2725	 7.1341e+06	   76.5765	      15.3	     2.281	6.76479e+06	
         R10	   6149	    76.568	      15.3	     2.281	7.05096e+06	    76.568	      15.3	     2.264	7.22641e+06	    76.551	      15.3	     2.264	7.76278e+06	    76.551	      15.3	     2.281	7.72152e+06	    76.568	      15.3	    2.2725	7.13725e+06	   76.5595	      15.3	     2.264	7.49392e+06	    76.551	      15.3	    2.2725	7.74104e+06	   76.5595	      15.3	     2.281	 7.3851e+06	
         R10	   6150	    76.568	      15.3	     2.298	 6.7592e+06	    76.568	      15.3	     2.281	7.05833e+06	    76.551	      15.3	     2.281	7.72562e+06	    76.551	      15.3	     2.298	7.58568e+06	    76.568	      15.3	    2.2895	6.90648e+06	   76.5595	      15.3	     2.281	7.39083e+06	    76.551	      15.3	    2.2895	7.65381e+06	   76.5595	      15.3	     2.298	 7.1704e+06	
         R10	   6151	    76.568	      15.3	     2.298	6.76976e+06	    76.551	      15.3	     2.298	 7.5924e+06	    76.551	      15.3	     2.315	7.26877e+06	    76.568	      15.3	     2.315	6.28429e+06	   76.5595	      15.3	     2.298	7.17902e+06	    76.551	      15.3	    2.3065	7.42743e+06	   76.5595	      15.3	     2.315	6.77257e+06	    76.568	      15.3	    2.3065	6.52308e+06	
         R10	   6152	    76.568	      15.3	     2.315	6.29666e+06	    76.551	      15.3	     2.315	7.28016e+06	    76.551	      15.3	     2.332	6.63365e+06	    76.568	      15.3	     2.332	5.55518e+06	   76.5595	      15.3	     2.315	 6.7844e+06	    76.551	      15.3	    2.3235	6.95103e+06	   76.5595	      15.3	     2.332	6.08589e+06	    76.568	      15.3	    2.3235	 5.9178e+06	
         R10	   6153	    76.568	      15.3	     2.332	5.56395e+06	    76.551	      15.3	     2.332	6.65283e+06	    76.551	      15.3	     2.349	5.49904e+06	    76.568	      15.3	     2.349	 4.5522e+06	   76.5595	      15.3	     2.332	6.09962e+06	    76.551	      15.3	    2.3405	6.06108e+06	   76.5595	      15.3	     2.349	5.00631e+06	    76.568	      15.3	    2.3405	5.03489e+06	
         R10	   6154	    76.585	      15.3	     2.332	4.95798e+06	    76.568	      15.3	     2.332	5.57544e+06	    76.568	      15.3	     2.349	4.56962e+06	    76.585	      15.3	     2.349	4.23169e+06	   76.5765	      15.3	     2.332	5.25666e+06	    76.568	      15.3	    2.3405	5.04979e+06	   76.5765	      15.3	     2.349	4.38461e+06	    76.585	      15.3	    2.3405	4.56917e+06	
         R10	   6155	    76.585	      15.3	     2.332	4.97199e+06	    76.585	      15.3	     2.349	4.24102e+06	    76.602	      15.3	     2.349	4.22083e+06	    76.602	      15.3	     2.332	4.69612e+06	    76.585	      15.3	    2.3405	4.58105e+06	   76.5935	      15.3	     2.349	4.22106e+06	    76.602	      15.3	    2.3405	4.43637e+06	   76.5935	      15.3	     2.332	4.82515e+06	
         R10	   6156	    76.602	      15.3	     2.332	4.70628e+06	    76.602	      15.3	     2.349	 4.2242e+06	    76.619	      15.3	     2.349	4.33824e+06	    76.619	      15.3	     2.332	4.63902e+06	    76.602	      15.3	    2.3405	4.44323e+06	   76.6105	      15.3	     2.349	4.27586e+06	    76.619	      15.3	    2.3405	4.47228e+06	   76.6105	      15.3	     2.332	4.66637e+06	
         R10	   6157	    76.602	      15.3	     2.315	5.22207e+06	    76.602	      15.3	     2.332	4.70507e+06	    76.619	      15.3	     2.332	4.64189e+06	    76.619	      15.3	     2.315	5.01838e+06	    76.602	      15.3	    2.3235	 4.9535e+06	   76.6105	      15.3	     2.332	4.66735e+06	    76.619	      15.3	    2.3235	4.82097e+06	   76.6105	      15.3	     2.315	 5.1151e+06	
         R10	   6158	    76.602	      15.3	     2.315	5.22057e+06	    76.619	      15.3	     2.315	5.02064e+06	    76.619	      15.3	     2.298	5.39952e+06	    76.602	      15.3	     2.298	5.67942e+06	   76.6105	      15.3	     2.315	5.11558e+06	    76.619	      15.3	    2.3065	5.20522e+06	   76.6105	      15.3	     2.298	5.53597e+06	    76.602	      15.3	    2.3065	5.44524e+06	
         R10	   6159	    76.602	      15.3	     2.298	5.67787e+06	    76.619	      15.3	     2.298	5.40017e+06	    76.619	      15.3	     2.281	5.74101e+06	    76.602	      15.3	     2.281	6.05002e+06	   76.6105	      15.3	     2.298	5.53557e+06	    76.619	      15.3	    2.2895	5.56792e+06	   76.6105	      15.3	     2.281	5.89332e+06	    76.602	      15.3	    2.2895	 5.8614e+06	
         R10	   6160	    76.585	      15.3	     2.298	  6.121e+06	    76.602	      15.3	     2.298	5.67474e+06	    76.602	      15.3	     2.281	6.04902e+06	    76.585	      15.3	     2.281	  6.486e+06	   76.5935	      15.3	     2.298	5.89471e+06	    76.602	      15.3	    2.2895	5.85931e+06	   76.5935	      15.3	     2.281	6.26578e+06	    76.585	      15.3	    2.2895	6.30108e+06	
         R10	   6161	    76.585	      15.3	     2.298	6.11851e+06	    76.585	      15.3	     2.281	6.48749e+06	    76.568	      15.3	     2.281	7.05252e+06	    76.568	      15.3	     2.298	6.75906e+06	    76.585	      15.3	    2.2895	6.30055e+06	   76.5765	      15.3	     2.281	6.76881e+06	    76.568	      15.3	    2.2895	6.90353e+06	   76.5765	      15.3	     2.298	6.43639e+06	
         R10	   6162	    76.585	      15.3	     2.315	5.61346e+06	    76.585	      15.3	     2.298	6.12353e+06	    76.568	      15.3	     2.298	6.76434e+06	    76.568	      15.3	     2.315	6.28805e+06	    76.585	      15.3	    2.3065	5.86407e+06	   76.5765	      15.3	     2.298	6.44151e+06	    76.568	      15.3	    2.3065	6.52233e+06	   76.5765	      15.3	     2.315	5.94586e+06	
         R10	   6163	    76.585	      15.3	     2.315	5.61663e+06	    76.568	      15.3	     2.315	6.29558e+06	    76.568	      15.3	     2.332	5.56521e+06	    76.585	      15.3	     2.332	4.95985e+06	   76.5765	      15.3	     2.315	5.95111e+06	    76.568	      15.3	    2.3235	5.92248e+06	   76.5765	      15.3	     2.332	5.25282e+06	    76.585	      15.3	    2.3235	5.27851e+06	
         R10	   6164	    76.585	      15.3	     2.315	5.62283e+06	    76.585	      15.3	     2.332	4.96764e+06	    76.602	      15.3	     2.332	4.70019e+06	    76.602	      15.3	     2.315	5.21509e+06	    76.585	      15.3	    2.3235	5.28567e+06	   76.5935	      15.3	     2.332	4.82529e+06	    76.602	      15.3	    2.3235	4.94747e+06	   76.5935	      15.3	     2.315	 5.4133e+06	
         R10	   6165	    76.585	      15.3	     2.298	 6.1245e+06	    76.585	      15.3	     2.315	5.61891e+06	    76.602	      15.3	     2.315	5.21615e+06	    76.602	      15.3	     2.298	 5.6761e+06	    76.585	      15.3	    2.3065	5.86736e+06	   76.5935	      15.3	     2.315	5.41199e+06	    76.602	      15.3	    2.3065	5.44131e+06	   76.5935	      15.3	     2.298	 5.8971e+06	
