Run 1, Result case LC1, 1: Case 1
Position      : Elements
Attribute     : G-STRESS
Shell surface : Upper

Superelement	Element	X-coord(1)	Y-coord(1)	Z-coord(1)	VONMISES(1)	X-coord(2)	Y-coord(2)	Z-coord(2)	VONMISES(2)	X-coord(3)	Y-coord(3)	Z-coord(3)	VONMISES(3)	X-coord(4)	Y-coord(4)	Z-coord(4)	VONMISES(4)	X-coord(5)	Y-coord(5)	Z-coord(5)	VONMISES(5)	X-coord(6)	Y-coord(6)	Z-coord(6)	VONMISES(6)	X-coord(7)	Y-coord(7)	Z-coord(7)	VONMISES(7)	X-coord(8)	Y-coord(8)	Z-coord(8)	VONMISES(8)	
         R10	      1	     72.25	     20.66	         6	        N/A	   72.6375	     20.66	         6	        N/A	    73.025	     20.66	         6	        N/A	       N/A	       N/A	       N/A	        N/A	       N/A	       N/A	       N/A	        N/A	       N/A	       N/A	       N/A	        N/A	       N/A	       N/A	       N/A	        N/A	       N/A	       N/A	       N/A	        N/A	
         R10	      2	    73.025	     20.66	         6	        N/A	   73.3845	     20.66	         6	        N/A	    73.744	     20.66	         6	        N/A	       N/A	       N/A	       N/A	        N/A	       N/A	       N/A	       N/A	        N/A	       N/A	       N/A	       N/A	        N/A	       N/A	       N/A	       N/A	        N/A	       N/A	       N/A	       N/A	        N/A	
         R10	      3	    73.744	     20.66	         6	        N/A	   74.0755	     20.66	         6	        N/A	   74.4071	     20.66	         6	        N/A	       N/A	       N/A	       N/A	        N/A	       N/A	       N/A	       N/A	        N/A	       N/A	       N/A	       N/A	        N/A	       N/A	       N/A	       N/A	        N/A	       N/A	       N/A	       N/A	        N/A	
         R10	      4	   74.4071	     20.66	         6	        N/A	   74.7107	     20.66	         6	        N/A	   75.0142	     20.66	         6	        N/A	       N/A	       N/A	       N/A	        N/A	       N/A	       N/A	       N/A	        N/A	       N/A	       N/A	       N/A	        N/A	       N/A	       N/A	       N/A	        N/A	       N/A	       N/A	       N/A	        N/A	
         R10	      5	   75.0142	     20.66	         6	        N/A	   75.2898	     20.66	         6	        N/A	   75.5654	     20.66	         6	        N/A	       N/A	       N/A	       N/A	        N/A	       N/A	       N/A	       N/A	        N/A	       N/A	       N/A	       N/A	        N/A	       N/A	       N/A	       N/A	        N/A	       N/A	       N/A	       N/A	        N/A	
         R10	      6	   75.5654	     20.66	         6	        N/A	   75.8131	     20.66	         6	        N/A	   76.0607	     20.66	         6	        N/A	       N/A	       N/A	       N/A	        N/A	       N/A	       N/A	       N/A	        N/A	       N/A	       N/A	       N/A	        N/A	       N/A	       N/A	       N/A	        N/A	       N/A	       N/A	       N/A	        N/A	
         R10	      7	   76.0607	     20.66	         6	        N/A	   76.2803	     20.66	         6	        N/A	      76.5	     20.66	         6	        N/A	       N/A	       N/A	       N/A	        N/A	       N/A	       N/A	       N/A	        N/A	       N/A	       N/A	       N/A	        N/A	       N/A	       N/A	       N/A	        N/A	       N/A	       N/A	       N/A	        N/A	
         R10	      8	      76.5	     20.66	         6	        N/A	   76.7279	     20.66	         6	        N/A	   76.9558	     20.66	         6	        N/A	       N/A	       N/A	       N/A	        N/A	       N/A	       N/A	       N/A	        N/A	       N/A	       N/A	       N/A	        N/A	       N/A	       N/A	       N/A	        N/A	       N/A	       N/A	       N/A	        N/A	
         R10	      9	   76.9558	     20.66	         6	        N/A	   77.2089	     20.66	         6	        N/A	   77.4619	     20.66	         6	        N/A	       N/A	       N/A	       N/A	        N/A	       N/A	       N/A	       N/A	        N/A	       N/A	       N/A	       N/A	        N/A	       N/A	       N/A	       N/A	        N/A	       N/A	       N/A	       N/A	        N/A	
         R10	     10	   77.4619	     20.66	         6	        N/A	   77.7401	     20.66	         6	        N/A	   78.0183	     20.66	         6	        N/A	       N/A	       N/A	       N/A	        N/A	       N/A	       N/A	       N/A	        N/A	       N/A	       N/A	       N/A	        N/A	       N/A	       N/A	       N/A	        N/A	       N/A	       N/A	       N/A	        N/A	
         R10	     11	   78.0183	     20.66	         6	        N/A	   78.3217	     20.66	         6	        N/A	    78.625	     20.66	         6	        N/A	       N/A	       N/A	       N/A	        N/A	       N/A	       N/A	       N/A	        N/A	       N/A	       N/A	       N/A	        N/A	       N/A	       N/A	       N/A	        N/A	       N/A	       N/A	       N/A	        N/A	
         R10	     12	     72.25	     19.83	         6	        N/A	   72.6515	     19.83	         6	        N/A	    73.053	     19.83	         6	        N/A	       N/A	       N/A	       N/A	        N/A	       N/A	       N/A	       N/A	        N/A	       N/A	       N/A	       N/A	        N/A	       N/A	       N/A	       N/A	        N/A	       N/A	       N/A	       N/A	        N/A	
         R10	     13	    73.053	     19.83	         6	        N/A	   73.4218	     19.83	         6	        N/A	   73.7907	     19.83	         6	        N/A	       N/A	       N/A	       N/A	        N/A	       N/A	       N/A	       N/A	        N/A	       N/A	       N/A	       N/A	        N/A	       N/A	       N/A	       N/A	        N/A	       N/A	       N/A	       N/A	        N/A	
         R10	     14	   73.7907	     19.83	         6	        N/A	   74.1269	     19.83	         6	        N/A	   74.4631	     19.83	         6	        N/A	       N/A	       N/A	       N/A	        N/A	       N/A	       N/A	       N/A	        N/A	       N/A	       N/A	       N/A	        N/A	       N/A	       N/A	       N/A	        N/A	       N/A	       N/A	       N/A	        N/A	
         R10	     15	   74.4631	     19.83	         6	        N/A	   74.7667	     19.83	         6	        N/A	   75.0702	     19.83	         6	        N/A	       N/A	       N/A	       N/A	        N/A	       N/A	       N/A	       N/A	        N/A	       N/A	       N/A	       N/A	        N/A	       N/A	       N/A	       N/A	        N/A	       N/A	       N/A	       N/A	        N/A	
         R10	     16	   75.0702	     19.83	         6	        N/A	   75.3412	     19.83	         6	        N/A	   75.6121	     19.83	         6	        N/A	       N/A	       N/A	       N/A	        N/A	       N/A	       N/A	       N/A	        N/A	       N/A	       N/A	       N/A	        N/A	       N/A	       N/A	       N/A	        N/A	       N/A	       N/A	       N/A	        N/A	
         R10	     17	   75.6121	     19.83	         6	        N/A	   75.8504	     19.83	         6	        N/A	   76.0887	     19.83	         6	        N/A	       N/A	       N/A	       N/A	        N/A	       N/A	       N/A	       N/A	        N/A	       N/A	       N/A	       N/A	        N/A	       N/A	       N/A	       N/A	        N/A	       N/A	       N/A	       N/A	        N/A	
         R10	     18	   76.0887	     19.83	         6	        N/A	   76.2943	     19.83	         6	        N/A	      76.5	     19.83	         6	        N/A	       N/A	       N/A	       N/A	        N/A	       N/A	       N/A	       N/A	        N/A	       N/A	       N/A	       N/A	        N/A	       N/A	       N/A	       N/A	        N/A	       N/A	       N/A	       N/A	        N/A	
         R10	     19	      76.5	     19.83	         6	        N/A	   76.7251	     19.83	         6	        N/A	   76.9503	     19.83	         6	        N/A	       N/A	       N/A	       N/A	        N/A	       N/A	       N/A	       N/A	        N/A	       N/A	       N/A	       N/A	        N/A	       N/A	       N/A	       N/A	        N/A	       N/A	       N/A	       N/A	        N/A	
         R10	     20	   76.9503	     19.83	         6	        N/A	   77.2024	     19.83	         6	        N/A	   77.4545	     19.83	         6	        N/A	       N/A	       N/A	       N/A	        N/A	       N/A	       N/A	       N/A	        N/A	       N/A	       N/A	       N/A	        N/A	       N/A	       N/A	       N/A	        N/A	       N/A	       N/A	       N/A	        N/A	
         R10	     21	   77.4545	     19.83	         6	        N/A	   77.7337	     19.83	         6	        N/A	   78.0128	     19.83	         6	        N/A	       N/A	       N/A	       N/A	        N/A	       N/A	       N/A	       N/A	        N/A	       N/A	       N/A	       N/A	        N/A	       N/A	       N/A	       N/A	        N/A	       N/A	       N/A	       N/A	        N/A	
         R10	     22	   78.0128	     19.83	         6	        N/A	   78.3189	     19.83	         6	        N/A	    78.625	     19.83	         6	        N/A	       N/A	       N/A	       N/A	        N/A	       N/A	       N/A	       N/A	        N/A	       N/A	       N/A	       N/A	        N/A	       N/A	       N/A	       N/A	        N/A	       N/A	       N/A	       N/A	        N/A	
         R10	     23	     72.25	      15.3	       0.8	        N/A	    72.618	      15.3	       0.8	        N/A	    72.986	      15.3	       0.8	        N/A	       N/A	       N/A	       N/A	        N/A	       N/A	       N/A	       N/A	        N/A	       N/A	       N/A	       N/A	        N/A	       N/A	       N/A	       N/A	        N/A	       N/A	       N/A	       N/A	        N/A	
         R10	     24	    72.986	      15.3	       0.8	        N/A	   73.2857	      15.3	       0.8	        N/A	   73.5855	      15.3	       0.8	        N/A	       N/A	       N/A	       N/A	        N/A	       N/A	       N/A	       N/A	        N/A	       N/A	       N/A	       N/A	        N/A	       N/A	       N/A	       N/A	        N/A	       N/A	       N/A	       N/A	        N/A	
         R10	     25	   73.5855	      15.3	       0.8	        N/A	    73.817	      15.3	       0.8	        N/A	   74.0485	      15.3	       0.8	        N/A	       N/A	       N/A	       N/A	        N/A	       N/A	       N/A	       N/A	        N/A	       N/A	       N/A	       N/A	        N/A	       N/A	       N/A	       N/A	        N/A	       N/A	       N/A	       N/A	        N/A	
         R10	     26	   74.0485	      15.3	       0.8	        N/A	   74.2117	      15.3	       0.8	        N/A	    74.375	      15.3	       0.8	        N/A	       N/A	       N/A	       N/A	        N/A	       N/A	       N/A	       N/A	        N/A	       N/A	       N/A	       N/A	        N/A	       N/A	       N/A	       N/A	        N/A	       N/A	       N/A	       N/A	        N/A	
         R10	     27	     72.25	      15.3	       1.6	        N/A	   72.6286	      15.3	       1.6	        N/A	   73.0071	      15.3	       1.6	        N/A	       N/A	       N/A	       N/A	        N/A	       N/A	       N/A	       N/A	        N/A	       N/A	       N/A	       N/A	        N/A	       N/A	       N/A	       N/A	        N/A	       N/A	       N/A	       N/A	        N/A	
         R10	     28	   73.0071	      15.3	       1.6	        N/A	   73.3104	      15.3	       1.6	        N/A	   73.6137	      15.3	       1.6	        N/A	       N/A	       N/A	       N/A	        N/A	       N/A	       N/A	       N/A	        N/A	       N/A	       N/A	       N/A	        N/A	       N/A	       N/A	       N/A	        N/A	       N/A	       N/A	       N/A	        N/A	
         R10	     29	   73.6137	      15.3	       1.6	        N/A	   73.8416	      15.3	       1.6	        N/A	   74.0696	      15.3	       1.6	        N/A	       N/A	       N/A	       N/A	        N/A	       N/A	       N/A	       N/A	        N/A	       N/A	       N/A	       N/A	        N/A	       N/A	       N/A	       N/A	        N/A	       N/A	       N/A	       N/A	        N/A	
         R10	     30	   74.0696	      15.3	       1.6	        N/A	   74.2223	      15.3	       1.6	        N/A	    74.375	      15.3	       1.6	        N/A	       N/A	       N/A	       N/A	        N/A	       N/A	       N/A	       N/A	        N/A	       N/A	       N/A	       N/A	        N/A	       N/A	       N/A	       N/A	        N/A	       N/A	       N/A	       N/A	        N/A	
         R10	     31	     72.25	      9.35	       2.4	        N/A	    72.675	      9.35	       2.4	        N/A	      73.1	      9.35	       2.4	        N/A	       N/A	       N/A	       N/A	        N/A	       N/A	       N/A	       N/A	        N/A	       N/A	       N/A	       N/A	        N/A	       N/A	       N/A	       N/A	        N/A	       N/A	       N/A	       N/A	        N/A	
         R10	     32	      73.1	      9.35	       2.4	        N/A	    73.525	      9.35	       2.4	        N/A	     73.95	      9.35	       2.4	        N/A	       N/A	       N/A	       N/A	        N/A	       N/A	       N/A	       N/A	        N/A	       N/A	       N/A	       N/A	        N/A	       N/A	       N/A	       N/A	        N/A	       N/A	       N/A	       N/A	        N/A	
         R10	     33	     73.95	      9.35	       2.4	        N/A	    74.375	      9.35	       2.4	        N/A	      74.8	      9.35	       2.4	        N/A	       N/A	       N/A	       N/A	        N/A	       N/A	       N/A	       N/A	        N/A	       N/A	       N/A	       N/A	        N/A	       N/A	       N/A	       N/A	        N/A	       N/A	       N/A	       N/A	        N/A	
         R10	     34	      74.8	      9.35	       2.4	        N/A	    75.225	      9.35	       2.4	        N/A	     75.65	      9.35	       2.4	        N/A	       N/A	       N/A	       N/A	        N/A	       N/A	       N/A	       N/A	        N/A	       N/A	       N/A	       N/A	        N/A	       N/A	       N/A	       N/A	        N/A	       N/A	       N/A	       N/A	        N/A	
         R10	     35	     75.65	      9.35	       2.4	        N/A	    76.075	      9.35	       2.4	        N/A	      76.5	      9.35	       2.4	        N/A	       N/A	       N/A	       N/A	        N/A	       N/A	       N/A	       N/A	        N/A	       N/A	       N/A	       N/A	        N/A	       N/A	       N/A	       N/A	        N/A	       N/A	       N/A	       N/A	        N/A	
         R10	     36	      76.5	      9.35	       2.4	        N/A	   77.0313	      9.35	       2.4	        N/A	   77.5625	      9.35	       2.4	        N/A	       N/A	       N/A	       N/A	        N/A	       N/A	       N/A	       N/A	        N/A	       N/A	       N/A	       N/A	        N/A	       N/A	       N/A	       N/A	        N/A	       N/A	       N/A	       N/A	        N/A	
         R10	     37	   77.5625	      9.35	       2.4	        N/A	   78.0938	      9.35	       2.4	        N/A	    78.625	      9.35	       2.4	        N/A	       N/A	       N/A	       N/A	        N/A	       N/A	       N/A	       N/A	        N/A	       N/A	       N/A	       N/A	        N/A	       N/A	       N/A	       N/A	        N/A	       N/A	       N/A	       N/A	        N/A	
         R10	     38	     72.25	      10.2	       2.4	        N/A	    72.675	      10.2	       2.4	        N/A	      73.1	      10.2	       2.4	        N/A	       N/A	       N/A	       N/A	        N/A	       N/A	       N/A	       N/A	        N/A	       N/A	       N/A	       N/A	        N/A	       N/A	       N/A	       N/A	        N/A	       N/A	       N/A	       N/A	        N/A	
         R10	     39	      73.1	      10.2	       2.4	        N/A	    73.525	      10.2	       2.4	        N/A	     73.95	      10.2	       2.4	        N/A	       N/A	       N/A	       N/A	        N/A	       N/A	       N/A	       N/A	        N/A	       N/A	       N/A	       N/A	        N/A	       N/A	       N/A	       N/A	        N/A	       N/A	       N/A	       N/A	        N/A	
         R10	     40	     73.95	      10.2	       2.4	        N/A	    74.375	      10.2	       2.4	        N/A	      74.8	      10.2	       2.4	        N/A	       N/A	       N/A	       N/A	        N/A	       N/A	       N/A	       N/A	        N/A	       N/A	       N/A	       N/A	        N/A	       N/A	       N/A	       N/A	        N/A	       N/A	       N/A	       N/A	        N/A	
         R10	     41	      74.8	      10.2	       2.4	        N/A	    75.225	      10.2	       2.4	        N/A	     75.65	      10.2	       2.4	        N/A	       N/A	       N/A	       N/A	        N/A	       N/A	       N/A	       N/A	        N/A	       N/A	       N/A	       N/A	        N/A	       N/A	       N/A	       N/A	        N/A	       N/A	       N/A	       N/A	        N/A	
         R10	     42	     75.65	      10.2	       2.4	        N/A	    76.075	      10.2	       2.4	        N/A	      76.5	      10.2	       2.4	        N/A	       N/A	       N/A	       N/A	        N/A	       N/A	       N/A	       N/A	        N/A	       N/A	       N/A	       N/A	        N/A	       N/A	       N/A	       N/A	        N/A	       N/A	       N/A	       N/A	        N/A	
         R10	     43	      76.5	      10.2	       2.4	        N/A	   77.0313	      10.2	       2.4	        N/A	   77.5625	      10.2	       2.4	        N/A	       N/A	       N/A	       N/A	        N/A	       N/A	       N/A	       N/A	        N/A	       N/A	       N/A	       N/A	        N/A	       N/A	       N/A	       N/A	        N/A	       N/A	       N/A	       N/A	        N/A	
         R10	     44	   77.5625	      10.2	       2.4	        N/A	   78.0938	      10.2	       2.4	        N/A	    78.625	      10.2	       2.4	        N/A	       N/A	       N/A	       N/A	        N/A	       N/A	       N/A	       N/A	        N/A	       N/A	       N/A	       N/A	        N/A	       N/A	       N/A	       N/A	        N/A	       N/A	       N/A	       N/A	        N/A	
         R10	     45	     72.25	     11.05	       2.4	        N/A	   72.6438	     11.05	       2.4	        N/A	   73.0377	     11.05	       2.4	        N/A	       N/A	       N/A	       N/A	        N/A	       N/A	       N/A	       N/A	        N/A	       N/A	       N/A	       N/A	        N/A	       N/A	       N/A	       N/A	        N/A	       N/A	       N/A	       N/A	        N/A	
         R10	     46	   73.0377	     11.05	       2.4	        N/A	   73.4156	     11.05	       2.4	        N/A	   73.7936	     11.05	       2.4	        N/A	       N/A	       N/A	       N/A	        N/A	       N/A	       N/A	       N/A	        N/A	       N/A	       N/A	       N/A	        N/A	       N/A	       N/A	       N/A	        N/A	       N/A	       N/A	       N/A	        N/A	
         R10	     47	   73.7936	     11.05	       2.4	        N/A	   74.1557	     11.05	       2.4	        N/A	   74.5178	     11.05	       2.4	        N/A	       N/A	       N/A	       N/A	        N/A	       N/A	       N/A	       N/A	        N/A	       N/A	       N/A	       N/A	        N/A	       N/A	       N/A	       N/A	        N/A	       N/A	       N/A	       N/A	        N/A	
         R10	     48	   74.5178	     11.05	       2.4	        N/A	    74.864	     11.05	       2.4	        N/A	   75.2102	     11.05	       2.4	        N/A	       N/A	       N/A	       N/A	        N/A	       N/A	       N/A	       N/A	        N/A	       N/A	       N/A	       N/A	        N/A	       N/A	       N/A	       N/A	        N/A	       N/A	       N/A	       N/A	        N/A	
         R10	     49	   75.2102	     11.05	       2.4	        N/A	   75.5406	     11.05	       2.4	        N/A	    75.871	     11.05	       2.4	        N/A	       N/A	       N/A	       N/A	        N/A	       N/A	       N/A	       N/A	        N/A	       N/A	       N/A	       N/A	        N/A	       N/A	       N/A	       N/A	        N/A	       N/A	       N/A	       N/A	        N/A	
         R10	     50	    75.871	     11.05	       2.4	        N/A	   76.1855	     11.05	       2.4	        N/A	      76.5	     11.05	       2.4	        N/A	       N/A	       N/A	       N/A	        N/A	       N/A	       N/A	       N/A	        N/A	       N/A	       N/A	       N/A	        N/A	       N/A	       N/A	       N/A	        N/A	       N/A	       N/A	       N/A	        N/A	
         R10	     51	      76.5	     11.05	       2.4	        N/A	   76.8799	     11.05	       2.4	        N/A	   77.2598	     11.05	       2.4	        N/A	       N/A	       N/A	       N/A	        N/A	       N/A	       N/A	       N/A	        N/A	       N/A	       N/A	       N/A	        N/A	       N/A	       N/A	       N/A	        N/A	       N/A	       N/A	       N/A	        N/A	
         R10	     52	   77.2598	     11.05	       2.4	        N/A	   77.6139	     11.05	       2.4	        N/A	   77.9681	     11.05	       2.4	        N/A	       N/A	       N/A	       N/A	        N/A	       N/A	       N/A	       N/A	        N/A	       N/A	       N/A	       N/A	        N/A	       N/A	       N/A	       N/A	        N/A	       N/A	       N/A	       N/A	        N/A	
         R10	     53	   77.9681	     11.05	       2.4	        N/A	   78.2966	     11.05	       2.4	        N/A	    78.625	     11.05	       2.4	        N/A	       N/A	       N/A	       N/A	        N/A	       N/A	       N/A	       N/A	        N/A	       N/A	       N/A	       N/A	        N/A	       N/A	       N/A	       N/A	        N/A	       N/A	       N/A	       N/A	        N/A	
         R10	     54	     72.25	      11.9	       2.4	        N/A	   72.6626	      11.9	       2.4	        N/A	   73.0751	      11.9	       2.4	        N/A	       N/A	       N/A	       N/A	        N/A	       N/A	       N/A	       N/A	        N/A	       N/A	       N/A	       N/A	        N/A	       N/A	       N/A	       N/A	        N/A	       N/A	       N/A	       N/A	        N/A	
         R10	     55	   73.0751	      11.9	       2.4	        N/A	   73.4514	      11.9	       2.4	        N/A	   73.8276	      11.9	       2.4	        N/A	       N/A	       N/A	       N/A	        N/A	       N/A	       N/A	       N/A	        N/A	       N/A	       N/A	       N/A	        N/A	       N/A	       N/A	       N/A	        N/A	       N/A	       N/A	       N/A	        N/A	
         R10	     56	   73.8276	      11.9	       2.4	        N/A	   74.1675	      11.9	       2.4	        N/A	   74.5074	      11.9	       2.4	        N/A	       N/A	       N/A	       N/A	        N/A	       N/A	       N/A	       N/A	        N/A	       N/A	       N/A	       N/A	        N/A	       N/A	       N/A	       N/A	        N/A	       N/A	       N/A	       N/A	        N/A	
         R10	     57	   74.5074	      11.9	       2.4	        N/A	    74.811	      11.9	       2.4	        N/A	   75.1146	      11.9	       2.4	        N/A	       N/A	       N/A	       N/A	        N/A	       N/A	       N/A	       N/A	        N/A	       N/A	       N/A	       N/A	        N/A	       N/A	       N/A	       N/A	        N/A	       N/A	       N/A	       N/A	        N/A	
         R10	     58	   75.1146	      11.9	       2.4	        N/A	   75.3818	      11.9	       2.4	        N/A	   75.6491	      11.9	       2.4	        N/A	       N/A	       N/A	       N/A	        N/A	       N/A	       N/A	       N/A	        N/A	       N/A	       N/A	       N/A	        N/A	       N/A	       N/A	       N/A	        N/A	       N/A	       N/A	       N/A	        N/A	
         R10	     59	   75.6491	      11.9	       2.4	        N/A	     75.88	      11.9	       2.4	        N/A	   76.1109	      11.9	       2.4	        N/A	       N/A	       N/A	       N/A	        N/A	       N/A	       N/A	       N/A	        N/A	       N/A	       N/A	       N/A	        N/A	       N/A	       N/A	       N/A	        N/A	       N/A	       N/A	       N/A	        N/A	
         R10	     60	   76.1109	      11.9	       2.4	        N/A	   76.3054	      11.9	       2.4	        N/A	      76.5	      11.9	       2.4	        N/A	       N/A	       N/A	       N/A	        N/A	       N/A	       N/A	       N/A	        N/A	       N/A	       N/A	       N/A	        N/A	       N/A	       N/A	       N/A	        N/A	       N/A	       N/A	       N/A	        N/A	
         R10	     61	      76.5	      11.9	       2.4	        N/A	   76.7141	      11.9	       2.4	        N/A	   76.9282	      11.9	       2.4	        N/A	       N/A	       N/A	       N/A	        N/A	       N/A	       N/A	       N/A	        N/A	       N/A	       N/A	       N/A	        N/A	       N/A	       N/A	       N/A	        N/A	       N/A	       N/A	       N/A	        N/A	
         R10	     62	   76.9282	      11.9	       2.4	        N/A	   77.1415	      11.9	       2.4	        N/A	   77.3548	      11.9	       2.4	        N/A	       N/A	       N/A	       N/A	        N/A	       N/A	       N/A	       N/A	        N/A	       N/A	       N/A	       N/A	        N/A	       N/A	       N/A	       N/A	        N/A	       N/A	       N/A	       N/A	        N/A	
         R10	     63	   77.3548	      11.9	       2.4	        N/A	   77.5673	      11.9	       2.4	        N/A	   77.7798	      11.9	       2.4	        N/A	       N/A	       N/A	       N/A	        N/A	       N/A	       N/A	       N/A	        N/A	       N/A	       N/A	       N/A	        N/A	       N/A	       N/A	       N/A	        N/A	       N/A	       N/A	       N/A	        N/A	
         R10	     64	   77.7798	      11.9	       2.4	        N/A	   77.9915	      11.9	       2.4	        N/A	   78.2032	      11.9	       2.4	        N/A	       N/A	       N/A	       N/A	        N/A	       N/A	       N/A	       N/A	        N/A	       N/A	       N/A	       N/A	        N/A	       N/A	       N/A	       N/A	        N/A	       N/A	       N/A	       N/A	        N/A	
         R10	     65	   78.2032	      11.9	       2.4	        N/A	   78.4141	      11.9	       2.4	        N/A	    78.625	      11.9	       2.4	        N/A	       N/A	       N/A	       N/A	        N/A	       N/A	       N/A	       N/A	        N/A	       N/A	       N/A	       N/A	        N/A	       N/A	       N/A	       N/A	        N/A	       N/A	       N/A	       N/A	        N/A	
         R10	     66	     72.25	     12.75	       2.4	        N/A	   72.6055	     12.75	       2.4	        N/A	    72.961	     12.75	       2.4	        N/A	       N/A	       N/A	       N/A	        N/A	       N/A	       N/A	       N/A	        N/A	       N/A	       N/A	       N/A	        N/A	       N/A	       N/A	       N/A	        N/A	       N/A	       N/A	       N/A	        N/A	
         R10	     67	    72.961	     12.75	       2.4	        N/A	   73.2867	     12.75	       2.4	        N/A	   73.6123	     12.75	       2.4	        N/A	       N/A	       N/A	       N/A	        N/A	       N/A	       N/A	       N/A	        N/A	       N/A	       N/A	       N/A	        N/A	       N/A	       N/A	       N/A	        N/A	       N/A	       N/A	       N/A	        N/A	
         R10	     68	   73.6123	     12.75	       2.4	        N/A	   73.9081	     12.75	       2.4	        N/A	   74.2039	     12.75	       2.4	        N/A	       N/A	       N/A	       N/A	        N/A	       N/A	       N/A	       N/A	        N/A	       N/A	       N/A	       N/A	        N/A	       N/A	       N/A	       N/A	        N/A	       N/A	       N/A	       N/A	        N/A	
         R10	     69	   74.2039	     12.75	       2.4	        N/A	   74.4699	     12.75	       2.4	        N/A	   74.7358	     12.75	       2.4	        N/A	       N/A	       N/A	       N/A	        N/A	       N/A	       N/A	       N/A	        N/A	       N/A	       N/A	       N/A	        N/A	       N/A	       N/A	       N/A	        N/A	       N/A	       N/A	       N/A	        N/A	
         R10	     70	   74.7358	     12.75	       2.4	        N/A	    74.972	     12.75	       2.4	        N/A	   75.2081	     12.75	       2.4	        N/A	       N/A	       N/A	       N/A	        N/A	       N/A	       N/A	       N/A	        N/A	       N/A	       N/A	       N/A	        N/A	       N/A	       N/A	       N/A	        N/A	       N/A	       N/A	       N/A	        N/A	
         R10	     71	   75.2081	     12.75	       2.4	        N/A	   75.4143	     12.75	       2.4	        N/A	   75.6206	     12.75	       2.4	        N/A	       N/A	       N/A	       N/A	        N/A	       N/A	       N/A	       N/A	        N/A	       N/A	       N/A	       N/A	        N/A	       N/A	       N/A	       N/A	        N/A	       N/A	       N/A	       N/A	        N/A	
         R10	     72	   75.6206	     12.75	       2.4	        N/A	    75.797	     12.75	       2.4	        N/A	   75.9734	     12.75	       2.4	        N/A	       N/A	       N/A	       N/A	        N/A	       N/A	       N/A	       N/A	        N/A	       N/A	       N/A	       N/A	        N/A	       N/A	       N/A	       N/A	        N/A	       N/A	       N/A	       N/A	        N/A	
         R10	     73	   75.9734	     12.75	       2.4	        N/A	     76.12	     12.75	       2.4	        N/A	   76.2666	     12.75	       2.4	        N/A	       N/A	       N/A	       N/A	        N/A	       N/A	       N/A	       N/A	        N/A	       N/A	       N/A	       N/A	        N/A	       N/A	       N/A	       N/A	        N/A	       N/A	       N/A	       N/A	        N/A	
         R10	     74	   76.2666	     12.75	       2.4	        N/A	   76.3833	     12.75	       2.4	        N/A	      76.5	     12.75	       2.4	        N/A	       N/A	       N/A	       N/A	        N/A	       N/A	       N/A	       N/A	        N/A	       N/A	       N/A	       N/A	        N/A	       N/A	       N/A	       N/A	        N/A	       N/A	       N/A	       N/A	        N/A	
         R10	     75	      76.5	     12.75	       2.4	        N/A	   76.6078	     12.75	       2.4	        N/A	   76.7156	     12.75	       2.4	        N/A	       N/A	       N/A	       N/A	        N/A	       N/A	       N/A	       N/A	        N/A	       N/A	       N/A	       N/A	        N/A	       N/A	       N/A	       N/A	        N/A	       N/A	       N/A	       N/A	        N/A	
         R10	     76	   76.7156	     12.75	       2.4	        N/A	   76.8305	     12.75	       2.4	        N/A	   76.9455	     12.75	       2.4	        N/A	       N/A	       N/A	       N/A	        N/A	       N/A	       N/A	       N/A	        N/A	       N/A	       N/A	       N/A	        N/A	       N/A	       N/A	       N/A	        N/A	       N/A	       N/A	       N/A	        N/A	
         R10	     77	   76.9455	     12.75	       2.4	        N/A	   77.0676	     12.75	       2.4	        N/A	   77.1897	     12.75	       2.4	        N/A	       N/A	       N/A	       N/A	        N/A	       N/A	       N/A	       N/A	        N/A	       N/A	       N/A	       N/A	        N/A	       N/A	       N/A	       N/A	        N/A	       N/A	       N/A	       N/A	        N/A	
         R10	     78	   77.1897	     12.75	       2.4	        N/A	   77.3189	     12.75	       2.4	        N/A	   77.4482	     12.75	       2.4	        N/A	       N/A	       N/A	       N/A	        N/A	       N/A	       N/A	       N/A	        N/A	       N/A	       N/A	       N/A	        N/A	       N/A	       N/A	       N/A	        N/A	       N/A	       N/A	       N/A	        N/A	
         R10	     79	   77.4482	     12.75	       2.4	        N/A	   77.5845	     12.75	       2.4	        N/A	   77.7209	     12.75	       2.4	        N/A	       N/A	       N/A	       N/A	        N/A	       N/A	       N/A	       N/A	        N/A	       N/A	       N/A	       N/A	        N/A	       N/A	       N/A	       N/A	        N/A	       N/A	       N/A	       N/A	        N/A	
         R10	     80	   77.7209	     12.75	       2.4	        N/A	   77.8645	     12.75	       2.4	        N/A	    78.008	     12.75	       2.4	        N/A	       N/A	       N/A	       N/A	        N/A	       N/A	       N/A	       N/A	        N/A	       N/A	       N/A	       N/A	        N/A	       N/A	       N/A	       N/A	        N/A	       N/A	       N/A	       N/A	        N/A	
         R10	     81	    78.008	     12.75	       2.4	        N/A	   78.1587	     12.75	       2.4	        N/A	   78.3093	     12.75	       2.4	        N/A	       N/A	       N/A	       N/A	        N/A	       N/A	       N/A	       N/A	        N/A	       N/A	       N/A	       N/A	        N/A	       N/A	       N/A	       N/A	        N/A	       N/A	       N/A	       N/A	        N/A	
         R10	     82	   78.3093	     12.75	       2.4	        N/A	   78.4672	     12.75	       2.4	        N/A	    78.625	     12.75	       2.4	        N/A	       N/A	       N/A	       N/A	        N/A	       N/A	       N/A	       N/A	        N/A	       N/A	       N/A	       N/A	        N/A	       N/A	       N/A	       N/A	        N/A	       N/A	       N/A	       N/A	        N/A	
         R10	     83	     72.25	      13.6	       2.4	        N/A	    72.618	      13.6	       2.4	        N/A	    72.986	      13.6	       2.4	        N/A	       N/A	       N/A	       N/A	        N/A	       N/A	       N/A	       N/A	        N/A	       N/A	       N/A	       N/A	        N/A	       N/A	       N/A	       N/A	        N/A	       N/A	       N/A	       N/A	        N/A	
         R10	     84	    72.986	      13.6	       2.4	        N/A	   73.2857	      13.6	       2.4	        N/A	   73.5855	      13.6	       2.4	        N/A	       N/A	       N/A	       N/A	        N/A	       N/A	       N/A	       N/A	        N/A	       N/A	       N/A	       N/A	        N/A	       N/A	       N/A	       N/A	        N/A	       N/A	       N/A	       N/A	        N/A	
         R10	     85	   73.5855	      13.6	       2.4	        N/A	    73.817	      13.6	       2.4	        N/A	   74.0485	      13.6	       2.4	        N/A	       N/A	       N/A	       N/A	        N/A	       N/A	       N/A	       N/A	        N/A	       N/A	       N/A	       N/A	        N/A	       N/A	       N/A	       N/A	        N/A	       N/A	       N/A	       N/A	        N/A	
         R10	     86	   74.0485	      13.6	       2.4	        N/A	   74.2117	      13.6	       2.4	        N/A	    74.375	      13.6	       2.4	        N/A	       N/A	       N/A	       N/A	        N/A	       N/A	       N/A	       N/A	        N/A	       N/A	       N/A	       N/A	        N/A	       N/A	       N/A	       N/A	        N/A	       N/A	       N/A	       N/A	        N/A	
         R10	     87	     72.25	     14.45	       2.4	        N/A	   72.6286	     14.45	       2.4	        N/A	   73.0071	     14.45	       2.4	        N/A	       N/A	       N/A	       N/A	        N/A	       N/A	       N/A	       N/A	        N/A	       N/A	       N/A	       N/A	        N/A	       N/A	       N/A	       N/A	        N/A	       N/A	       N/A	       N/A	        N/A	
         R10	     88	   73.0071	     14.45	       2.4	        N/A	   73.3104	     14.45	       2.4	        N/A	   73.6137	     14.45	       2.4	        N/A	       N/A	       N/A	       N/A	        N/A	       N/A	       N/A	       N/A	        N/A	       N/A	       N/A	       N/A	        N/A	       N/A	       N/A	       N/A	        N/A	       N/A	       N/A	       N/A	        N/A	
         R10	     89	   73.6137	     14.45	       2.4	        N/A	   73.8416	     14.45	       2.4	        N/A	   74.0696	     14.45	       2.4	        N/A	       N/A	       N/A	       N/A	        N/A	       N/A	       N/A	       N/A	        N/A	       N/A	       N/A	       N/A	        N/A	       N/A	       N/A	       N/A	        N/A	       N/A	       N/A	       N/A	        N/A	
         R10	     90	   74.0696	     14.45	       2.4	        N/A	   74.2223	     14.45	       2.4	        N/A	    74.375	     14.45	       2.4	        N/A	       N/A	       N/A	       N/A	        N/A	       N/A	       N/A	       N/A	        N/A	       N/A	       N/A	       N/A	        N/A	       N/A	       N/A	       N/A	        N/A	       N/A	       N/A	       N/A	        N/A	
         R10	     91	     72.25	   15.9164	   2.99973	        N/A	   72.6286	   15.9164	   2.99973	        N/A	   73.0071	   15.9164	   2.99973	        N/A	       N/A	       N/A	       N/A	        N/A	       N/A	       N/A	       N/A	        N/A	       N/A	       N/A	       N/A	        N/A	       N/A	       N/A	       N/A	        N/A	       N/A	       N/A	       N/A	        N/A	
         R10	     92	   73.0071	   15.9164	   2.99973	        N/A	   73.3104	   15.9164	   2.99973	        N/A	   73.6137	   15.9164	   2.99973	        N/A	       N/A	       N/A	       N/A	        N/A	       N/A	       N/A	       N/A	        N/A	       N/A	       N/A	       N/A	        N/A	       N/A	       N/A	       N/A	        N/A	       N/A	       N/A	       N/A	        N/A	
         R10	     93	   73.6137	   15.9164	   2.99973	        N/A	   73.8416	   15.9164	   2.99973	        N/A	   74.0696	   15.9164	   2.99973	        N/A	       N/A	       N/A	       N/A	        N/A	       N/A	       N/A	       N/A	        N/A	       N/A	       N/A	       N/A	        N/A	       N/A	       N/A	       N/A	        N/A	       N/A	       N/A	       N/A	        N/A	
         R10	     94	   74.0696	   15.9164	   2.99973	        N/A	   74.2223	   15.9164	   2.99973	        N/A	    74.375	   15.9164	   2.99973	        N/A	       N/A	       N/A	       N/A	        N/A	       N/A	       N/A	       N/A	        N/A	       N/A	       N/A	       N/A	        N/A	       N/A	       N/A	       N/A	        N/A	       N/A	       N/A	       N/A	        N/A	
         R10	     95	     72.25	   16.5328	   3.59945	        N/A	    72.618	   16.5328	   3.59945	        N/A	    72.986	   16.5328	   3.59945	        N/A	       N/A	       N/A	       N/A	        N/A	       N/A	       N/A	       N/A	        N/A	       N/A	       N/A	       N/A	        N/A	       N/A	       N/A	       N/A	        N/A	       N/A	       N/A	       N/A	        N/A	
         R10	     96	    72.986	   16.5328	   3.59945	        N/A	   73.2857	   16.5328	   3.59945	        N/A	   73.5855	   16.5328	   3.59945	        N/A	       N/A	       N/A	       N/A	        N/A	       N/A	       N/A	       N/A	        N/A	       N/A	       N/A	       N/A	        N/A	       N/A	       N/A	       N/A	        N/A	       N/A	       N/A	       N/A	        N/A	
         R10	     97	   73.5855	   16.5328	   3.59945	        N/A	    73.817	   16.5328	   3.59945	        N/A	   74.0485	   16.5328	   3.59945	        N/A	       N/A	       N/A	       N/A	        N/A	       N/A	       N/A	       N/A	        N/A	       N/A	       N/A	       N/A	        N/A	       N/A	       N/A	       N/A	        N/A	       N/A	       N/A	       N/A	        N/A	
         R10	     98	   74.0485	   16.5328	   3.59945	        N/A	   74.2117	   16.5328	   3.59945	        N/A	    74.375	   16.5328	   3.59945	        N/A	       N/A	       N/A	       N/A	        N/A	       N/A	       N/A	       N/A	        N/A	       N/A	       N/A	       N/A	        N/A	       N/A	       N/A	       N/A	        N/A	       N/A	       N/A	       N/A	        N/A	
         R10	     99	     72.25	   17.1492	   4.19918	        N/A	   72.5969	   17.1492	   4.19918	        N/A	   72.9439	   17.1492	   4.19918	        N/A	       N/A	       N/A	       N/A	        N/A	       N/A	       N/A	       N/A	        N/A	       N/A	       N/A	       N/A	        N/A	       N/A	       N/A	       N/A	        N/A	       N/A	       N/A	       N/A	        N/A	
         R10	    100	   72.9439	   17.1492	   4.19918	        N/A	   73.2631	   17.1492	   4.19918	        N/A	   73.5823	   17.1492	   4.19918	        N/A	       N/A	       N/A	       N/A	        N/A	       N/A	       N/A	       N/A	        N/A	       N/A	       N/A	       N/A	        N/A	       N/A	       N/A	       N/A	        N/A	       N/A	       N/A	       N/A	        N/A	
         R10	    101	   73.5823	   17.1492	   4.19918	        N/A	   73.8738	   17.1492	   4.19918	        N/A	   74.1653	   17.1492	   4.19918	        N/A	       N/A	       N/A	       N/A	        N/A	       N/A	       N/A	       N/A	        N/A	       N/A	       N/A	       N/A	        N/A	       N/A	       N/A	       N/A	        N/A	       N/A	       N/A	       N/A	        N/A	
         R10	    102	   74.1653	   17.1492	   4.19918	        N/A	   74.4292	   17.1492	   4.19918	        N/A	    74.693	   17.1492	   4.19918	        N/A	       N/A	       N/A	       N/A	        N/A	       N/A	       N/A	       N/A	        N/A	       N/A	       N/A	       N/A	        N/A	       N/A	       N/A	       N/A	        N/A	       N/A	       N/A	       N/A	        N/A	
         R10	    103	    74.693	   17.1492	   4.19918	        N/A	   74.9291	   17.1492	   4.19918	        N/A	   75.1652	   17.1492	   4.19918	        N/A	       N/A	       N/A	       N/A	        N/A	       N/A	       N/A	       N/A	        N/A	       N/A	       N/A	       N/A	        N/A	       N/A	       N/A	       N/A	        N/A	       N/A	       N/A	       N/A	        N/A	
         R10	    104	   75.1652	   17.1492	   4.19918	        N/A	   75.3736	   17.1492	   4.19918	        N/A	    75.582	   17.1492	   4.19918	        N/A	       N/A	       N/A	       N/A	        N/A	       N/A	       N/A	       N/A	        N/A	       N/A	       N/A	       N/A	        N/A	       N/A	       N/A	       N/A	        N/A	       N/A	       N/A	       N/A	        N/A	
         R10	    105	    75.582	   17.1492	   4.19918	        N/A	   75.7627	   17.1492	   4.19918	        N/A	   75.9434	   17.1492	   4.19918	        N/A	       N/A	       N/A	       N/A	        N/A	       N/A	       N/A	       N/A	        N/A	       N/A	       N/A	       N/A	        N/A	       N/A	       N/A	       N/A	        N/A	       N/A	       N/A	       N/A	        N/A	
         R10	    106	   75.9434	   17.1492	   4.19918	        N/A	   76.0964	   17.1492	   4.19918	        N/A	   76.2494	   17.1492	   4.19918	        N/A	       N/A	       N/A	       N/A	        N/A	       N/A	       N/A	       N/A	        N/A	       N/A	       N/A	       N/A	        N/A	       N/A	       N/A	       N/A	        N/A	       N/A	       N/A	       N/A	        N/A	
         R10	    107	   76.2494	   17.1492	   4.19918	        N/A	   76.3747	   17.1492	   4.19918	        N/A	      76.5	   17.1492	   4.19918	        N/A	       N/A	       N/A	       N/A	        N/A	       N/A	       N/A	       N/A	        N/A	       N/A	       N/A	       N/A	        N/A	       N/A	       N/A	       N/A	        N/A	       N/A	       N/A	       N/A	        N/A	
         R10	    108	      76.5	   17.1492	   4.19918	        N/A	   76.6302	   17.1492	   4.19918	        N/A	   76.7605	   17.1492	   4.19918	        N/A	       N/A	       N/A	       N/A	        N/A	       N/A	       N/A	       N/A	        N/A	       N/A	       N/A	       N/A	        N/A	       N/A	       N/A	       N/A	        N/A	       N/A	       N/A	       N/A	        N/A	
         R10	    109	   76.7605	   17.1492	   4.19918	        N/A	   76.8979	   17.1492	   4.19918	        N/A	   77.0353	   17.1492	   4.19918	        N/A	       N/A	       N/A	       N/A	        N/A	       N/A	       N/A	       N/A	        N/A	       N/A	       N/A	       N/A	        N/A	       N/A	       N/A	       N/A	        N/A	       N/A	       N/A	       N/A	        N/A	
         R10	    110	   77.0353	   17.1492	   4.19918	        N/A	   77.1799	   17.1492	   4.19918	        N/A	   77.3245	   17.1492	   4.19918	        N/A	       N/A	       N/A	       N/A	        N/A	       N/A	       N/A	       N/A	        N/A	       N/A	       N/A	       N/A	        N/A	       N/A	       N/A	       N/A	        N/A	       N/A	       N/A	       N/A	        N/A	
         R10	    111	   77.3245	   17.1492	   4.19918	        N/A	   77.4763	   17.1492	   4.19918	        N/A	   77.6281	   17.1492	   4.19918	        N/A	       N/A	       N/A	       N/A	        N/A	       N/A	       N/A	       N/A	        N/A	       N/A	       N/A	       N/A	        N/A	       N/A	       N/A	       N/A	        N/A	       N/A	       N/A	       N/A	        N/A	
         R10	    112	   77.6281	   17.1492	   4.19918	        N/A	    77.787	   17.1492	   4.19918	        N/A	    77.946	   17.1492	   4.19918	        N/A	       N/A	       N/A	       N/A	        N/A	       N/A	       N/A	       N/A	        N/A	       N/A	       N/A	       N/A	        N/A	       N/A	       N/A	       N/A	        N/A	       N/A	       N/A	       N/A	        N/A	
         R10	    113	    77.946	   17.1492	   4.19918	        N/A	   78.1122	   17.1492	   4.19918	        N/A	   78.2783	   17.1492	   4.19918	        N/A	       N/A	       N/A	       N/A	        N/A	       N/A	       N/A	       N/A	        N/A	       N/A	       N/A	       N/A	        N/A	       N/A	       N/A	       N/A	        N/A	       N/A	       N/A	       N/A	        N/A	
         R10	    114	   78.2783	   17.1492	   4.19918	        N/A	   78.4517	   17.1492	   4.19918	        N/A	    78.625	   17.1492	   4.19918	        N/A	       N/A	       N/A	       N/A	        N/A	       N/A	       N/A	       N/A	        N/A	       N/A	       N/A	       N/A	        N/A	       N/A	       N/A	       N/A	        N/A	       N/A	       N/A	       N/A	        N/A	
         R10	    115	     72.25	   17.7655	    4.7989	        N/A	   72.6197	   17.7655	    4.7989	        N/A	   72.9894	   17.7655	    4.7989	        N/A	       N/A	       N/A	       N/A	        N/A	       N/A	       N/A	       N/A	        N/A	       N/A	       N/A	       N/A	        N/A	       N/A	       N/A	       N/A	        N/A	       N/A	       N/A	       N/A	        N/A	
         R10	    116	   72.9894	   17.7655	    4.7989	        N/A	   73.3293	   17.7655	    4.7989	        N/A	   73.6693	   17.7655	    4.7989	        N/A	       N/A	       N/A	       N/A	        N/A	       N/A	       N/A	       N/A	        N/A	       N/A	       N/A	       N/A	        N/A	       N/A	       N/A	       N/A	        N/A	       N/A	       N/A	       N/A	        N/A	
         R10	    117	   73.6693	   17.7655	    4.7989	        N/A	   73.9795	   17.7655	    4.7989	        N/A	   74.2898	   17.7655	    4.7989	        N/A	       N/A	       N/A	       N/A	        N/A	       N/A	       N/A	       N/A	        N/A	       N/A	       N/A	       N/A	        N/A	       N/A	       N/A	       N/A	        N/A	       N/A	       N/A	       N/A	        N/A	
         R10	    118	   74.2898	   17.7655	    4.7989	        N/A	   74.5703	   17.7655	    4.7989	        N/A	   74.8507	   17.7655	    4.7989	        N/A	       N/A	       N/A	       N/A	        N/A	       N/A	       N/A	       N/A	        N/A	       N/A	       N/A	       N/A	        N/A	       N/A	       N/A	       N/A	        N/A	       N/A	       N/A	       N/A	        N/A	
         R10	    119	   74.8507	   17.7655	    4.7989	        N/A	   75.1015	   17.7655	    4.7989	        N/A	   75.3523	   17.7655	    4.7989	        N/A	       N/A	       N/A	       N/A	        N/A	       N/A	       N/A	       N/A	        N/A	       N/A	       N/A	       N/A	        N/A	       N/A	       N/A	       N/A	        N/A	       N/A	       N/A	       N/A	        N/A	
         R10	    120	   75.3523	   17.7655	    4.7989	        N/A	   75.5733	   17.7655	    4.7989	        N/A	   75.7943	   17.7655	    4.7989	        N/A	       N/A	       N/A	       N/A	        N/A	       N/A	       N/A	       N/A	        N/A	       N/A	       N/A	       N/A	        N/A	       N/A	       N/A	       N/A	        N/A	       N/A	       N/A	       N/A	        N/A	
         R10	    121	   75.7943	   17.7655	    4.7989	        N/A	   75.9856	   17.7655	    4.7989	        N/A	   76.1769	   17.7655	    4.7989	        N/A	       N/A	       N/A	       N/A	        N/A	       N/A	       N/A	       N/A	        N/A	       N/A	       N/A	       N/A	        N/A	       N/A	       N/A	       N/A	        N/A	       N/A	       N/A	       N/A	        N/A	
         R10	    122	   76.1769	   17.7655	    4.7989	        N/A	   76.3384	   17.7655	    4.7989	        N/A	      76.5	   17.7655	    4.7989	        N/A	       N/A	       N/A	       N/A	        N/A	       N/A	       N/A	       N/A	        N/A	       N/A	       N/A	       N/A	        N/A	       N/A	       N/A	       N/A	        N/A	       N/A	       N/A	       N/A	        N/A	
         R10	    123	      76.5	   17.7655	    4.7989	        N/A	   76.6603	   17.7655	    4.7989	        N/A	   76.8205	   17.7655	    4.7989	        N/A	       N/A	       N/A	       N/A	        N/A	       N/A	       N/A	       N/A	        N/A	       N/A	       N/A	       N/A	        N/A	       N/A	       N/A	       N/A	        N/A	       N/A	       N/A	       N/A	        N/A	
         R10	    124	   76.8205	   17.7655	    4.7989	        N/A	   76.9875	   17.7655	    4.7989	        N/A	   77.1545	   17.7655	    4.7989	        N/A	       N/A	       N/A	       N/A	        N/A	       N/A	       N/A	       N/A	        N/A	       N/A	       N/A	       N/A	        N/A	       N/A	       N/A	       N/A	        N/A	       N/A	       N/A	       N/A	        N/A	
         R10	    125	   77.1545	   17.7655	    4.7989	        N/A	   77.3282	   17.7655	    4.7989	        N/A	   77.5019	   17.7655	    4.7989	        N/A	       N/A	       N/A	       N/A	        N/A	       N/A	       N/A	       N/A	        N/A	       N/A	       N/A	       N/A	        N/A	       N/A	       N/A	       N/A	        N/A	       N/A	       N/A	       N/A	        N/A	
         R10	    126	   77.5019	   17.7655	    4.7989	        N/A	   77.6824	   17.7655	    4.7989	        N/A	   77.8628	   17.7655	    4.7989	        N/A	       N/A	       N/A	       N/A	        N/A	       N/A	       N/A	       N/A	        N/A	       N/A	       N/A	       N/A	        N/A	       N/A	       N/A	       N/A	        N/A	       N/A	       N/A	       N/A	        N/A	
         R10	    127	   77.8628	   17.7655	    4.7989	        N/A	     78.05	   17.7655	    4.7989	        N/A	   78.2372	   17.7655	    4.7989	        N/A	       N/A	       N/A	       N/A	        N/A	       N/A	       N/A	       N/A	        N/A	       N/A	       N/A	       N/A	        N/A	       N/A	       N/A	       N/A	        N/A	       N/A	       N/A	       N/A	        N/A	
         R10	    128	   78.2372	   17.7655	    4.7989	        N/A	   78.4311	   17.7655	    4.7989	        N/A	    78.625	   17.7655	    4.7989	        N/A	       N/A	       N/A	       N/A	        N/A	       N/A	       N/A	       N/A	        N/A	       N/A	       N/A	       N/A	        N/A	       N/A	       N/A	       N/A	        N/A	       N/A	       N/A	       N/A	        N/A	
         R10	    129	     72.25	   18.3819	   5.39863	        N/A	     72.66	   18.3819	   5.39863	        N/A	   73.0701	   18.3819	   5.39863	        N/A	       N/A	       N/A	       N/A	        N/A	       N/A	       N/A	       N/A	        N/A	       N/A	       N/A	       N/A	        N/A	       N/A	       N/A	       N/A	        N/A	       N/A	       N/A	       N/A	        N/A	
         R10	    130	   73.0701	   18.3819	   5.39863	        N/A	   73.4446	   18.3819	   5.39863	        N/A	   73.8192	   18.3819	   5.39863	        N/A	       N/A	       N/A	       N/A	        N/A	       N/A	       N/A	       N/A	        N/A	       N/A	       N/A	       N/A	        N/A	       N/A	       N/A	       N/A	        N/A	       N/A	       N/A	       N/A	        N/A	
         R10	    131	   73.8192	   18.3819	   5.39863	        N/A	   74.1582	   18.3819	   5.39863	        N/A	   74.4973	   18.3819	   5.39863	        N/A	       N/A	       N/A	       N/A	        N/A	       N/A	       N/A	       N/A	        N/A	       N/A	       N/A	       N/A	        N/A	       N/A	       N/A	       N/A	        N/A	       N/A	       N/A	       N/A	        N/A	
         R10	    132	   74.4973	   18.3819	   5.39863	        N/A	   74.8009	   18.3819	   5.39863	        N/A	   75.1044	   18.3819	   5.39863	        N/A	       N/A	       N/A	       N/A	        N/A	       N/A	       N/A	       N/A	        N/A	       N/A	       N/A	       N/A	        N/A	       N/A	       N/A	       N/A	        N/A	       N/A	       N/A	       N/A	        N/A	
         R10	    133	   75.1044	   18.3819	   5.39863	        N/A	   75.3725	   18.3819	   5.39863	        N/A	   75.6406	   18.3819	   5.39863	        N/A	       N/A	       N/A	       N/A	        N/A	       N/A	       N/A	       N/A	        N/A	       N/A	       N/A	       N/A	        N/A	       N/A	       N/A	       N/A	        N/A	       N/A	       N/A	       N/A	        N/A	
         R10	    134	   75.6406	   18.3819	   5.39863	        N/A	   75.8732	   18.3819	   5.39863	        N/A	   76.1058	   18.3819	   5.39863	        N/A	       N/A	       N/A	       N/A	        N/A	       N/A	       N/A	       N/A	        N/A	       N/A	       N/A	       N/A	        N/A	       N/A	       N/A	       N/A	        N/A	       N/A	       N/A	       N/A	        N/A	
         R10	    135	   76.1058	   18.3819	   5.39863	        N/A	   76.3029	   18.3819	   5.39863	        N/A	      76.5	   18.3819	   5.39863	        N/A	       N/A	       N/A	       N/A	        N/A	       N/A	       N/A	       N/A	        N/A	       N/A	       N/A	       N/A	        N/A	       N/A	       N/A	       N/A	        N/A	       N/A	       N/A	       N/A	        N/A	
         R10	    136	      76.5	   18.3819	   5.39863	        N/A	   76.6923	   18.3819	   5.39863	        N/A	   76.8846	   18.3819	   5.39863	        N/A	       N/A	       N/A	       N/A	        N/A	       N/A	       N/A	       N/A	        N/A	       N/A	       N/A	       N/A	        N/A	       N/A	       N/A	       N/A	        N/A	       N/A	       N/A	       N/A	        N/A	
         R10	    137	   76.8846	   18.3819	   5.39863	        N/A	    77.087	   18.3819	   5.39863	        N/A	   77.2894	   18.3819	   5.39863	        N/A	       N/A	       N/A	       N/A	        N/A	       N/A	       N/A	       N/A	        N/A	       N/A	       N/A	       N/A	        N/A	       N/A	       N/A	       N/A	        N/A	       N/A	       N/A	       N/A	        N/A	
         R10	    138	   77.2894	   18.3819	   5.39863	        N/A	   77.5019	   18.3819	   5.39863	        N/A	   77.7144	   18.3819	   5.39863	        N/A	       N/A	       N/A	       N/A	        N/A	       N/A	       N/A	       N/A	        N/A	       N/A	       N/A	       N/A	        N/A	       N/A	       N/A	       N/A	        N/A	       N/A	       N/A	       N/A	        N/A	
         R10	    139	   77.7144	   18.3819	   5.39863	        N/A	    77.937	   18.3819	   5.39863	        N/A	   78.1596	   18.3819	   5.39863	        N/A	       N/A	       N/A	       N/A	        N/A	       N/A	       N/A	       N/A	        N/A	       N/A	       N/A	       N/A	        N/A	       N/A	       N/A	       N/A	        N/A	       N/A	       N/A	       N/A	        N/A	
         R10	    140	   78.1596	   18.3819	   5.39863	        N/A	   78.3923	   18.3819	   5.39863	        N/A	    78.625	   18.3819	   5.39863	        N/A	       N/A	       N/A	       N/A	        N/A	       N/A	       N/A	       N/A	        N/A	       N/A	       N/A	       N/A	        N/A	       N/A	       N/A	       N/A	        N/A	       N/A	       N/A	       N/A	        N/A	
         R10	    141	   73.0346	        19	       9.4	        N/A	   72.6423	        19	       9.4	        N/A	     72.25	        19	       9.4	        N/A	       N/A	       N/A	       N/A	        N/A	       N/A	       N/A	       N/A	        N/A	       N/A	       N/A	       N/A	        N/A	       N/A	       N/A	       N/A	        N/A	       N/A	       N/A	       N/A	        N/A	
         R10	    142	   73.7887	        19	       9.4	        N/A	   73.4117	        19	       9.4	        N/A	   73.0346	        19	       9.4	        N/A	       N/A	       N/A	       N/A	        N/A	       N/A	       N/A	       N/A	        N/A	       N/A	       N/A	       N/A	        N/A	       N/A	       N/A	       N/A	        N/A	       N/A	       N/A	       N/A	        N/A	
         R10	    143	   74.5123	        19	       9.4	        N/A	   74.1505	        19	       9.4	        N/A	   73.7887	        19	       9.4	        N/A	       N/A	       N/A	       N/A	        N/A	       N/A	       N/A	       N/A	        N/A	       N/A	       N/A	       N/A	        N/A	       N/A	       N/A	       N/A	        N/A	       N/A	       N/A	       N/A	        N/A	
         R10	    144	   75.2054	        19	       9.4	        N/A	   74.8588	        19	       9.4	        N/A	   74.5123	        19	       9.4	        N/A	       N/A	       N/A	       N/A	        N/A	       N/A	       N/A	       N/A	        N/A	       N/A	       N/A	       N/A	        N/A	       N/A	       N/A	       N/A	        N/A	       N/A	       N/A	       N/A	        N/A	
         R10	    145	   75.8679	        19	       9.4	        N/A	   75.5367	        19	       9.4	        N/A	   75.2054	        19	       9.4	        N/A	       N/A	       N/A	       N/A	        N/A	       N/A	       N/A	       N/A	        N/A	       N/A	       N/A	       N/A	        N/A	       N/A	       N/A	       N/A	        N/A	       N/A	       N/A	       N/A	        N/A	
         R10	    146	      76.5	        19	       9.4	        N/A	    76.184	        19	       9.4	        N/A	   75.8679	        19	       9.4	        N/A	       N/A	       N/A	       N/A	        N/A	       N/A	       N/A	       N/A	        N/A	       N/A	       N/A	       N/A	        N/A	       N/A	       N/A	       N/A	        N/A	       N/A	       N/A	       N/A	        N/A	
         R10	    147	   77.1671	        19	       9.4	        N/A	   76.8335	        19	       9.4	        N/A	      76.5	        19	       9.4	        N/A	       N/A	       N/A	       N/A	        N/A	       N/A	       N/A	       N/A	        N/A	       N/A	       N/A	       N/A	        N/A	       N/A	       N/A	       N/A	        N/A	       N/A	       N/A	       N/A	        N/A	
         R10	    148	   77.8754	        19	       9.4	        N/A	   77.5212	        19	       9.4	        N/A	   77.1671	        19	       9.4	        N/A	       N/A	       N/A	       N/A	        N/A	       N/A	       N/A	       N/A	        N/A	       N/A	       N/A	       N/A	        N/A	       N/A	       N/A	       N/A	        N/A	       N/A	       N/A	       N/A	        N/A	
         R10	    149	    78.625	        19	       9.4	        N/A	   78.2502	        19	       9.4	        N/A	   77.8754	        19	       9.4	        N/A	       N/A	       N/A	       N/A	        N/A	       N/A	       N/A	       N/A	        N/A	       N/A	       N/A	       N/A	        N/A	       N/A	       N/A	       N/A	        N/A	       N/A	       N/A	       N/A	        N/A	
         R10	    150	   73.1325	        19	      6.85	        N/A	   72.6913	        19	      6.85	        N/A	     72.25	        19	      6.85	        N/A	       N/A	       N/A	       N/A	        N/A	       N/A	       N/A	       N/A	        N/A	       N/A	       N/A	       N/A	        N/A	       N/A	       N/A	       N/A	        N/A	       N/A	       N/A	       N/A	        N/A	
         R10	    151	   73.9454	        19	      6.85	        N/A	    73.539	        19	      6.85	        N/A	   73.1325	        19	      6.85	        N/A	       N/A	       N/A	       N/A	        N/A	       N/A	       N/A	       N/A	        N/A	       N/A	       N/A	       N/A	        N/A	       N/A	       N/A	       N/A	        N/A	       N/A	       N/A	       N/A	        N/A	
         R10	    152	   74.6886	        19	      6.85	        N/A	    74.317	        19	      6.85	        N/A	   73.9454	        19	      6.85	        N/A	       N/A	       N/A	       N/A	        N/A	       N/A	       N/A	       N/A	        N/A	       N/A	       N/A	       N/A	        N/A	       N/A	       N/A	       N/A	        N/A	       N/A	       N/A	       N/A	        N/A	
         R10	    153	   75.3621	        19	      6.85	        N/A	   75.0253	        19	      6.85	        N/A	   74.6886	        19	      6.85	        N/A	       N/A	       N/A	       N/A	        N/A	       N/A	       N/A	       N/A	        N/A	       N/A	       N/A	       N/A	        N/A	       N/A	       N/A	       N/A	        N/A	       N/A	       N/A	       N/A	        N/A	
         R10	    154	   75.9659	        19	      6.85	        N/A	    75.664	        19	      6.85	        N/A	   75.3621	        19	      6.85	        N/A	       N/A	       N/A	       N/A	        N/A	       N/A	       N/A	       N/A	        N/A	       N/A	       N/A	       N/A	        N/A	       N/A	       N/A	       N/A	        N/A	       N/A	       N/A	       N/A	        N/A	
         R10	    155	      76.5	        19	      6.85	        N/A	   76.2329	        19	      6.85	        N/A	   75.9659	        19	      6.85	        N/A	       N/A	       N/A	       N/A	        N/A	       N/A	       N/A	       N/A	        N/A	       N/A	       N/A	       N/A	        N/A	       N/A	       N/A	       N/A	        N/A	       N/A	       N/A	       N/A	        N/A	
         R10	    156	   77.0003	        19	      6.85	        N/A	   76.7502	        19	      6.85	        N/A	      76.5	        19	      6.85	        N/A	       N/A	       N/A	       N/A	        N/A	       N/A	       N/A	       N/A	        N/A	       N/A	       N/A	       N/A	        N/A	       N/A	       N/A	       N/A	        N/A	       N/A	       N/A	       N/A	        N/A	
         R10	    157	   77.5212	        19	      6.85	        N/A	   77.2608	        19	      6.85	        N/A	   77.0003	        19	      6.85	        N/A	       N/A	       N/A	       N/A	        N/A	       N/A	       N/A	       N/A	        N/A	       N/A	       N/A	       N/A	        N/A	       N/A	       N/A	       N/A	        N/A	       N/A	       N/A	       N/A	        N/A	
         R10	    158	   78.0628	        19	      6.85	        N/A	    77.792	        19	      6.85	        N/A	   77.5212	        19	      6.85	        N/A	       N/A	       N/A	       N/A	        N/A	       N/A	       N/A	       N/A	        N/A	       N/A	       N/A	       N/A	        N/A	       N/A	       N/A	       N/A	        N/A	       N/A	       N/A	       N/A	        N/A	
         R10	    159	    78.625	        19	      6.85	        N/A	   78.3439	        19	      6.85	        N/A	   78.0628	        19	      6.85	        N/A	       N/A	       N/A	       N/A	        N/A	       N/A	       N/A	       N/A	        N/A	       N/A	       N/A	       N/A	        N/A	       N/A	       N/A	       N/A	        N/A	       N/A	       N/A	       N/A	        N/A	
         R10	    160	   73.1005	        19	       7.7	        N/A	   72.6752	        19	       7.7	        N/A	     72.25	        19	       7.7	        N/A	       N/A	       N/A	       N/A	        N/A	       N/A	       N/A	       N/A	        N/A	       N/A	       N/A	       N/A	        N/A	       N/A	       N/A	       N/A	        N/A	       N/A	       N/A	       N/A	        N/A	
         R10	    161	   73.8941	        19	       7.7	        N/A	   73.4973	        19	       7.7	        N/A	   73.1005	        19	       7.7	        N/A	       N/A	       N/A	       N/A	        N/A	       N/A	       N/A	       N/A	        N/A	       N/A	       N/A	       N/A	        N/A	       N/A	       N/A	       N/A	        N/A	       N/A	       N/A	       N/A	        N/A	
         R10	    162	   74.6308	        19	       7.7	        N/A	   74.2625	        19	       7.7	        N/A	   73.8941	        19	       7.7	        N/A	       N/A	       N/A	       N/A	        N/A	       N/A	       N/A	       N/A	        N/A	       N/A	       N/A	       N/A	        N/A	       N/A	       N/A	       N/A	        N/A	       N/A	       N/A	       N/A	        N/A	
         R10	    163	   75.3107	        19	       7.7	        N/A	   74.9708	        19	       7.7	        N/A	   74.6308	        19	       7.7	        N/A	       N/A	       N/A	       N/A	        N/A	       N/A	       N/A	       N/A	        N/A	       N/A	       N/A	       N/A	        N/A	       N/A	       N/A	       N/A	        N/A	       N/A	       N/A	       N/A	        N/A	
         R10	    164	   75.9338	        19	       7.7	        N/A	   75.6223	        19	       7.7	        N/A	   75.3107	        19	       7.7	        N/A	       N/A	       N/A	       N/A	        N/A	       N/A	       N/A	       N/A	        N/A	       N/A	       N/A	       N/A	        N/A	       N/A	       N/A	       N/A	        N/A	       N/A	       N/A	       N/A	        N/A	
         R10	    165	      76.5	        19	       7.7	        N/A	   76.2169	        19	       7.7	        N/A	   75.9338	        19	       7.7	        N/A	       N/A	       N/A	       N/A	        N/A	       N/A	       N/A	       N/A	        N/A	       N/A	       N/A	       N/A	        N/A	       N/A	       N/A	       N/A	        N/A	       N/A	       N/A	       N/A	        N/A	
         R10	    166	   77.0003	        19	       7.7	        N/A	   76.7502	        19	       7.7	        N/A	      76.5	        19	       7.7	        N/A	       N/A	       N/A	       N/A	        N/A	       N/A	       N/A	       N/A	        N/A	       N/A	       N/A	       N/A	        N/A	       N/A	       N/A	       N/A	        N/A	       N/A	       N/A	       N/A	        N/A	
         R10	    167	   77.5212	        19	       7.7	        N/A	   77.2608	        19	       7.7	        N/A	   77.0003	        19	       7.7	        N/A	       N/A	       N/A	       N/A	        N/A	       N/A	       N/A	       N/A	        N/A	       N/A	       N/A	       N/A	        N/A	       N/A	       N/A	       N/A	        N/A	       N/A	       N/A	       N/A	        N/A	
         R10	    168	   78.0628	        19	       7.7	        N/A	    77.792	        19	       7.7	        N/A	   77.5212	        19	       7.7	        N/A	       N/A	       N/A	       N/A	        N/A	       N/A	       N/A	       N/A	        N/A	       N/A	       N/A	       N/A	        N/A	       N/A	       N/A	       N/A	        N/A	       N/A	       N/A	       N/A	        N/A	
         R10	    169	    78.625	        19	       7.7	        N/A	   78.3439	        19	       7.7	        N/A	   78.0628	        19	       7.7	        N/A	       N/A	       N/A	       N/A	        N/A	       N/A	       N/A	       N/A	        N/A	       N/A	       N/A	       N/A	        N/A	       N/A	       N/A	       N/A	        N/A	       N/A	       N/A	       N/A	        N/A	
         R10	    170	   73.0678	        19	      8.55	        N/A	   72.6589	        19	      8.55	        N/A	     72.25	        19	      8.55	        N/A	       N/A	       N/A	       N/A	        N/A	       N/A	       N/A	       N/A	        N/A	       N/A	       N/A	       N/A	        N/A	       N/A	       N/A	       N/A	        N/A	       N/A	       N/A	       N/A	        N/A	
         R10	    171	   73.8418	        19	      8.55	        N/A	   73.4548	        19	      8.55	        N/A	   73.0678	        19	      8.55	        N/A	       N/A	       N/A	       N/A	        N/A	       N/A	       N/A	       N/A	        N/A	       N/A	       N/A	       N/A	        N/A	       N/A	       N/A	       N/A	        N/A	       N/A	       N/A	       N/A	        N/A	
         R10	    172	    74.572	        19	      8.55	        N/A	   74.2069	        19	      8.55	        N/A	   73.8418	        19	      8.55	        N/A	       N/A	       N/A	       N/A	        N/A	       N/A	       N/A	       N/A	        N/A	       N/A	       N/A	       N/A	        N/A	       N/A	       N/A	       N/A	        N/A	       N/A	       N/A	       N/A	        N/A	
         R10	    173	   75.2585	        19	      8.55	        N/A	   74.9152	        19	      8.55	        N/A	    74.572	        19	      8.55	        N/A	       N/A	       N/A	       N/A	        N/A	       N/A	       N/A	       N/A	        N/A	       N/A	       N/A	       N/A	        N/A	       N/A	       N/A	       N/A	        N/A	       N/A	       N/A	       N/A	        N/A	
         R10	    174	   75.9011	        19	      8.55	        N/A	   75.5798	        19	      8.55	        N/A	   75.2585	        19	      8.55	        N/A	       N/A	       N/A	       N/A	        N/A	       N/A	       N/A	       N/A	        N/A	       N/A	       N/A	       N/A	        N/A	       N/A	       N/A	       N/A	        N/A	       N/A	       N/A	       N/A	        N/A	
         R10	    175	      76.5	        19	      8.55	        N/A	   76.2006	        19	      8.55	        N/A	   75.9011	        19	      8.55	        N/A	       N/A	       N/A	       N/A	        N/A	       N/A	       N/A	       N/A	        N/A	       N/A	       N/A	       N/A	        N/A	       N/A	       N/A	       N/A	        N/A	       N/A	       N/A	       N/A	        N/A	
         R10	    176	   77.1671	        19	      8.55	        N/A	   76.8335	        19	      8.55	        N/A	      76.5	        19	      8.55	        N/A	       N/A	       N/A	       N/A	        N/A	       N/A	       N/A	       N/A	        N/A	       N/A	       N/A	       N/A	        N/A	       N/A	       N/A	       N/A	        N/A	       N/A	       N/A	       N/A	        N/A	
         R10	    177	   77.8754	        19	      8.55	        N/A	   77.5212	        19	      8.55	        N/A	   77.1671	        19	      8.55	        N/A	       N/A	       N/A	       N/A	        N/A	       N/A	       N/A	       N/A	        N/A	       N/A	       N/A	       N/A	        N/A	       N/A	       N/A	       N/A	        N/A	       N/A	       N/A	       N/A	        N/A	
         R10	    178	    78.625	        19	      8.55	        N/A	   78.2502	        19	      8.55	        N/A	   77.8754	        19	      8.55	        N/A	       N/A	       N/A	       N/A	        N/A	       N/A	       N/A	       N/A	        N/A	       N/A	       N/A	       N/A	        N/A	       N/A	       N/A	       N/A	        N/A	       N/A	       N/A	       N/A	        N/A	
         R10	    179	     72.25	      9.35	         0	        N/A	    72.675	      9.35	         0	        N/A	      73.1	      9.35	         0	        N/A	       N/A	       N/A	       N/A	        N/A	       N/A	       N/A	       N/A	        N/A	       N/A	       N/A	       N/A	        N/A	       N/A	       N/A	       N/A	        N/A	       N/A	       N/A	       N/A	        N/A	
         R10	    180	      73.1	      9.35	         0	        N/A	    73.525	      9.35	         0	        N/A	     73.95	      9.35	         0	        N/A	       N/A	       N/A	       N/A	        N/A	       N/A	       N/A	       N/A	        N/A	       N/A	       N/A	       N/A	        N/A	       N/A	       N/A	       N/A	        N/A	       N/A	       N/A	       N/A	        N/A	
         R10	    181	     73.95	      9.35	         0	        N/A	    74.375	      9.35	         0	        N/A	      74.8	      9.35	         0	        N/A	       N/A	       N/A	       N/A	        N/A	       N/A	       N/A	       N/A	        N/A	       N/A	       N/A	       N/A	        N/A	       N/A	       N/A	       N/A	        N/A	       N/A	       N/A	       N/A	        N/A	
         R10	    182	      74.8	      9.35	         0	        N/A	    75.225	      9.35	         0	        N/A	     75.65	      9.35	         0	        N/A	       N/A	       N/A	       N/A	        N/A	       N/A	       N/A	       N/A	        N/A	       N/A	       N/A	       N/A	        N/A	       N/A	       N/A	       N/A	        N/A	       N/A	       N/A	       N/A	        N/A	
         R10	    183	     75.65	      9.35	         0	        N/A	    76.075	      9.35	         0	        N/A	      76.5	      9.35	         0	        N/A	       N/A	       N/A	       N/A	        N/A	       N/A	       N/A	       N/A	        N/A	       N/A	       N/A	       N/A	        N/A	       N/A	       N/A	       N/A	        N/A	       N/A	       N/A	       N/A	        N/A	
         R10	    184	      76.5	      9.35	         0	        N/A	   77.0313	      9.35	         0	        N/A	   77.5625	      9.35	         0	        N/A	       N/A	       N/A	       N/A	        N/A	       N/A	       N/A	       N/A	        N/A	       N/A	       N/A	       N/A	        N/A	       N/A	       N/A	       N/A	        N/A	       N/A	       N/A	       N/A	        N/A	
         R10	    185	   77.5625	      9.35	         0	        N/A	   78.0938	      9.35	         0	        N/A	    78.625	      9.35	         0	        N/A	       N/A	       N/A	       N/A	        N/A	       N/A	       N/A	       N/A	        N/A	       N/A	       N/A	       N/A	        N/A	       N/A	       N/A	       N/A	        N/A	       N/A	       N/A	       N/A	        N/A	
         R10	    186	     80.75	      9.35	       2.4	        N/A	   80.2188	      9.35	       2.4	        N/A	   79.6875	      9.35	       2.4	        N/A	       N/A	       N/A	       N/A	        N/A	       N/A	       N/A	       N/A	        N/A	       N/A	       N/A	       N/A	        N/A	       N/A	       N/A	       N/A	        N/A	       N/A	       N/A	       N/A	        N/A	
         R10	    187	   79.6875	      9.35	       2.4	        N/A	   79.1563	      9.35	       2.4	        N/A	    78.625	      9.35	       2.4	        N/A	       N/A	       N/A	       N/A	        N/A	       N/A	       N/A	       N/A	        N/A	       N/A	       N/A	       N/A	        N/A	       N/A	       N/A	       N/A	        N/A	       N/A	       N/A	       N/A	        N/A	
         R10	    188	     72.25	      10.2	         0	        N/A	    72.675	      10.2	         0	        N/A	      73.1	      10.2	         0	        N/A	       N/A	       N/A	       N/A	        N/A	       N/A	       N/A	       N/A	        N/A	       N/A	       N/A	       N/A	        N/A	       N/A	       N/A	       N/A	        N/A	       N/A	       N/A	       N/A	        N/A	
         R10	    189	      73.1	      10.2	         0	        N/A	    73.525	      10.2	         0	        N/A	     73.95	      10.2	         0	        N/A	       N/A	       N/A	       N/A	        N/A	       N/A	       N/A	       N/A	        N/A	       N/A	       N/A	       N/A	        N/A	       N/A	       N/A	       N/A	        N/A	       N/A	       N/A	       N/A	        N/A	
         R10	    190	     73.95	      10.2	         0	        N/A	    74.375	      10.2	         0	        N/A	      74.8	      10.2	         0	        N/A	       N/A	       N/A	       N/A	        N/A	       N/A	       N/A	       N/A	        N/A	       N/A	       N/A	       N/A	        N/A	       N/A	       N/A	       N/A	        N/A	       N/A	       N/A	       N/A	        N/A	
         R10	    191	      74.8	      10.2	         0	        N/A	    75.225	      10.2	         0	        N/A	     75.65	      10.2	         0	        N/A	       N/A	       N/A	       N/A	        N/A	       N/A	       N/A	       N/A	        N/A	       N/A	       N/A	       N/A	        N/A	       N/A	       N/A	       N/A	        N/A	       N/A	       N/A	       N/A	        N/A	
         R10	    192	     75.65	      10.2	         0	        N/A	    76.075	      10.2	         0	        N/A	      76.5	      10.2	         0	        N/A	       N/A	       N/A	       N/A	        N/A	       N/A	       N/A	       N/A	        N/A	       N/A	       N/A	       N/A	        N/A	       N/A	       N/A	       N/A	        N/A	       N/A	       N/A	       N/A	        N/A	
         R10	    193	      76.5	      10.2	         0	        N/A	   77.0313	      10.2	         0	        N/A	   77.5625	      10.2	         0	        N/A	       N/A	       N/A	       N/A	        N/A	       N/A	       N/A	       N/A	        N/A	       N/A	       N/A	       N/A	        N/A	       N/A	       N/A	       N/A	        N/A	       N/A	       N/A	       N/A	        N/A	
         R10	    194	   77.5625	      10.2	         0	        N/A	   78.0938	      10.2	         0	        N/A	    78.625	      10.2	         0	        N/A	       N/A	       N/A	       N/A	        N/A	       N/A	       N/A	       N/A	        N/A	       N/A	       N/A	       N/A	        N/A	       N/A	       N/A	       N/A	        N/A	       N/A	       N/A	       N/A	        N/A	
         R10	    195	     72.25	      13.6	         0	        N/A	   72.6769	      13.6	         0	        N/A	   73.1038	      13.6	         0	        N/A	       N/A	       N/A	       N/A	        N/A	       N/A	       N/A	       N/A	        N/A	       N/A	       N/A	       N/A	        N/A	       N/A	       N/A	       N/A	        N/A	       N/A	       N/A	       N/A	        N/A	
         R10	    196	   73.1038	      13.6	         0	        N/A	   73.4895	      13.6	         0	        N/A	   73.8753	      13.6	         0	        N/A	       N/A	       N/A	       N/A	        N/A	       N/A	       N/A	       N/A	        N/A	       N/A	       N/A	       N/A	        N/A	       N/A	       N/A	       N/A	        N/A	       N/A	       N/A	       N/A	        N/A	
         R10	    197	   73.8753	      13.6	         0	        N/A	     74.22	      13.6	         0	        N/A	   74.5647	      13.6	         0	        N/A	       N/A	       N/A	       N/A	        N/A	       N/A	       N/A	       N/A	        N/A	       N/A	       N/A	       N/A	        N/A	       N/A	       N/A	       N/A	        N/A	       N/A	       N/A	       N/A	        N/A	
         R10	    198	   74.5647	      13.6	         0	        N/A	   74.8682	      13.6	         0	        N/A	   75.1718	      13.6	         0	        N/A	       N/A	       N/A	       N/A	        N/A	       N/A	       N/A	       N/A	        N/A	       N/A	       N/A	       N/A	        N/A	       N/A	       N/A	       N/A	        N/A	       N/A	       N/A	       N/A	        N/A	
         R10	    199	   75.1718	      13.6	         0	        N/A	   75.4343	      13.6	         0	        N/A	   75.6967	      13.6	         0	        N/A	       N/A	       N/A	       N/A	        N/A	       N/A	       N/A	       N/A	        N/A	       N/A	       N/A	       N/A	        N/A	       N/A	       N/A	       N/A	        N/A	       N/A	       N/A	       N/A	        N/A	
         R10	    200	   75.6967	      13.6	         0	        N/A	   75.9181	      13.6	         0	        N/A	   76.1395	      13.6	         0	        N/A	       N/A	       N/A	       N/A	        N/A	       N/A	       N/A	       N/A	        N/A	       N/A	       N/A	       N/A	        N/A	       N/A	       N/A	       N/A	        N/A	       N/A	       N/A	       N/A	        N/A	
         R10	    201	   76.1395	      13.6	         0	        N/A	   76.3197	      13.6	         0	        N/A	      76.5	      13.6	         0	        N/A	       N/A	       N/A	       N/A	        N/A	       N/A	       N/A	       N/A	        N/A	       N/A	       N/A	       N/A	        N/A	       N/A	       N/A	       N/A	        N/A	       N/A	       N/A	       N/A	        N/A	
         R10	    202	      76.5	      13.6	         0	        N/A	   76.6823	      13.6	         0	        N/A	   76.8646	      13.6	         0	        N/A	       N/A	       N/A	       N/A	        N/A	       N/A	       N/A	       N/A	        N/A	       N/A	       N/A	       N/A	        N/A	       N/A	       N/A	       N/A	        N/A	       N/A	       N/A	       N/A	        N/A	
         R10	    203	   76.8646	      13.6	         0	        N/A	   77.0621	      13.6	         0	        N/A	   77.2595	      13.6	         0	        N/A	       N/A	       N/A	       N/A	        N/A	       N/A	       N/A	       N/A	        N/A	       N/A	       N/A	       N/A	        N/A	       N/A	       N/A	       N/A	        N/A	       N/A	       N/A	       N/A	        N/A	
         R10	    204	   77.2595	      13.6	         0	        N/A	    77.472	      13.6	         0	        N/A	   77.6845	      13.6	         0	        N/A	       N/A	       N/A	       N/A	        N/A	       N/A	       N/A	       N/A	        N/A	       N/A	       N/A	       N/A	        N/A	       N/A	       N/A	       N/A	        N/A	       N/A	       N/A	       N/A	        N/A	
         R10	    205	   77.6845	      13.6	         0	        N/A	   77.9121	      13.6	         0	        N/A	   78.1396	      13.6	         0	        N/A	       N/A	       N/A	       N/A	        N/A	       N/A	       N/A	       N/A	        N/A	       N/A	       N/A	       N/A	        N/A	       N/A	       N/A	       N/A	        N/A	       N/A	       N/A	       N/A	        N/A	
         R10	    206	   78.1396	      13.6	         0	        N/A	   78.3823	      13.6	         0	        N/A	    78.625	      13.6	         0	        N/A	       N/A	       N/A	       N/A	        N/A	       N/A	       N/A	       N/A	        N/A	       N/A	       N/A	       N/A	        N/A	       N/A	       N/A	       N/A	        N/A	       N/A	       N/A	       N/A	        N/A	
         R10	    207	     72.25	     11.05	         0	        N/A	   72.6823	     11.05	         0	        N/A	   73.1146	     11.05	         0	        N/A	       N/A	       N/A	       N/A	        N/A	       N/A	       N/A	       N/A	        N/A	       N/A	       N/A	       N/A	        N/A	       N/A	       N/A	       N/A	        N/A	       N/A	       N/A	       N/A	        N/A	
         R10	    208	   73.1146	     11.05	         0	        N/A	   73.5432	     11.05	         0	        N/A	   73.9718	     11.05	         0	        N/A	       N/A	       N/A	       N/A	        N/A	       N/A	       N/A	       N/A	        N/A	       N/A	       N/A	       N/A	        N/A	       N/A	       N/A	       N/A	        N/A	       N/A	       N/A	       N/A	        N/A	
         R10	    209	   73.9718	     11.05	         0	        N/A	   74.3969	     11.05	         0	        N/A	   74.8218	     11.05	         0	        N/A	       N/A	       N/A	       N/A	        N/A	       N/A	       N/A	       N/A	        N/A	       N/A	       N/A	       N/A	        N/A	       N/A	       N/A	       N/A	        N/A	       N/A	       N/A	       N/A	        N/A	
         R10	    210	   74.8218	     11.05	         0	        N/A	   75.2432	     11.05	         0	        N/A	   75.6646	     11.05	         0	        N/A	       N/A	       N/A	       N/A	        N/A	       N/A	       N/A	       N/A	        N/A	       N/A	       N/A	       N/A	        N/A	       N/A	       N/A	       N/A	        N/A	       N/A	       N/A	       N/A	        N/A	
         R10	    211	   75.6646	     11.05	         0	        N/A	   76.0823	     11.05	         0	        N/A	      76.5	     11.05	         0	        N/A	       N/A	       N/A	       N/A	        N/A	       N/A	       N/A	       N/A	        N/A	       N/A	       N/A	       N/A	        N/A	       N/A	       N/A	       N/A	        N/A	       N/A	       N/A	       N/A	        N/A	
         R10	    212	      76.5	     11.05	         0	        N/A	   76.8631	     11.05	         0	        N/A	   77.2261	     11.05	         0	        N/A	       N/A	       N/A	       N/A	        N/A	       N/A	       N/A	       N/A	        N/A	       N/A	       N/A	       N/A	        N/A	       N/A	       N/A	       N/A	        N/A	       N/A	       N/A	       N/A	        N/A	
         R10	    213	   77.2261	     11.05	         0	        N/A	   77.5803	     11.05	         0	        N/A	   77.9344	     11.05	         0	        N/A	       N/A	       N/A	       N/A	        N/A	       N/A	       N/A	       N/A	        N/A	       N/A	       N/A	       N/A	        N/A	       N/A	       N/A	       N/A	        N/A	       N/A	       N/A	       N/A	        N/A	
         R10	    214	   77.9344	     11.05	         0	        N/A	   78.2797	     11.05	         0	        N/A	    78.625	     11.05	         0	        N/A	       N/A	       N/A	       N/A	        N/A	       N/A	       N/A	       N/A	        N/A	       N/A	       N/A	       N/A	        N/A	       N/A	       N/A	       N/A	        N/A	       N/A	       N/A	       N/A	        N/A	
         R10	    215	     72.25	      11.9	         0	        N/A	   72.6852	      11.9	         0	        N/A	   73.1204	      11.9	         0	        N/A	       N/A	       N/A	       N/A	        N/A	       N/A	       N/A	       N/A	        N/A	       N/A	       N/A	       N/A	        N/A	       N/A	       N/A	       N/A	        N/A	       N/A	       N/A	       N/A	        N/A	
         R10	    216	   73.1204	      11.9	         0	        N/A	   73.5231	      11.9	         0	        N/A	   73.9259	      11.9	         0	        N/A	       N/A	       N/A	       N/A	        N/A	       N/A	       N/A	       N/A	        N/A	       N/A	       N/A	       N/A	        N/A	       N/A	       N/A	       N/A	        N/A	       N/A	       N/A	       N/A	        N/A	
         R10	    217	   73.9259	      11.9	         0	        N/A	   74.2963	      11.9	         0	        N/A	   74.6666	      11.9	         0	        N/A	       N/A	       N/A	       N/A	        N/A	       N/A	       N/A	       N/A	        N/A	       N/A	       N/A	       N/A	        N/A	       N/A	       N/A	       N/A	        N/A	       N/A	       N/A	       N/A	        N/A	
         R10	    218	   74.6666	      11.9	         0	        N/A	   75.0046	      11.9	         0	        N/A	   75.3426	      11.9	         0	        N/A	       N/A	       N/A	       N/A	        N/A	       N/A	       N/A	       N/A	        N/A	       N/A	       N/A	       N/A	        N/A	       N/A	       N/A	       N/A	        N/A	       N/A	       N/A	       N/A	        N/A	
         R10	    219	   75.3426	      11.9	         0	        N/A	   75.6481	      11.9	         0	        N/A	   75.9537	      11.9	         0	        N/A	       N/A	       N/A	       N/A	        N/A	       N/A	       N/A	       N/A	        N/A	       N/A	       N/A	       N/A	        N/A	       N/A	       N/A	       N/A	        N/A	       N/A	       N/A	       N/A	        N/A	
         R10	    220	   75.9537	      11.9	         0	        N/A	   76.2268	      11.9	         0	        N/A	      76.5	      11.9	         0	        N/A	       N/A	       N/A	       N/A	        N/A	       N/A	       N/A	       N/A	        N/A	       N/A	       N/A	       N/A	        N/A	       N/A	       N/A	       N/A	        N/A	       N/A	       N/A	       N/A	        N/A	
         R10	    221	      76.5	      11.9	         0	        N/A	   76.8039	      11.9	         0	        N/A	   77.1077	      11.9	         0	        N/A	       N/A	       N/A	       N/A	        N/A	       N/A	       N/A	       N/A	        N/A	       N/A	       N/A	       N/A	        N/A	       N/A	       N/A	       N/A	        N/A	       N/A	       N/A	       N/A	        N/A	
         R10	    222	   77.1077	      11.9	         0	        N/A	   77.4619	      11.9	         0	        N/A	   77.8161	      11.9	         0	        N/A	       N/A	       N/A	       N/A	        N/A	       N/A	       N/A	       N/A	        N/A	       N/A	       N/A	       N/A	        N/A	       N/A	       N/A	       N/A	        N/A	       N/A	       N/A	       N/A	        N/A	
         R10	    223	   77.8161	      11.9	         0	        N/A	   78.2205	      11.9	         0	        N/A	    78.625	      11.9	         0	        N/A	       N/A	       N/A	       N/A	        N/A	       N/A	       N/A	       N/A	        N/A	       N/A	       N/A	       N/A	        N/A	       N/A	       N/A	       N/A	        N/A	       N/A	       N/A	       N/A	        N/A	
         R10	    224	     72.25	      16.1	         0	        N/A	   72.6055	      16.1	         0	        N/A	    72.961	      16.1	         0	        N/A	       N/A	       N/A	       N/A	        N/A	       N/A	       N/A	       N/A	        N/A	       N/A	       N/A	       N/A	        N/A	       N/A	       N/A	       N/A	        N/A	       N/A	       N/A	       N/A	        N/A	
         R10	    225	    72.961	      16.1	         0	        N/A	   73.2867	      16.1	         0	        N/A	   73.6123	      16.1	         0	        N/A	       N/A	       N/A	       N/A	        N/A	       N/A	       N/A	       N/A	        N/A	       N/A	       N/A	       N/A	        N/A	       N/A	       N/A	       N/A	        N/A	       N/A	       N/A	       N/A	        N/A	
         R10	    226	   73.6123	      16.1	         0	        N/A	   73.9081	      16.1	         0	        N/A	   74.2039	      16.1	         0	        N/A	       N/A	       N/A	       N/A	        N/A	       N/A	       N/A	       N/A	        N/A	       N/A	       N/A	       N/A	        N/A	       N/A	       N/A	       N/A	        N/A	       N/A	       N/A	       N/A	        N/A	
         R10	    227	   74.2039	      16.1	         0	        N/A	   74.4699	      16.1	         0	        N/A	   74.7358	      16.1	         0	        N/A	       N/A	       N/A	       N/A	        N/A	       N/A	       N/A	       N/A	        N/A	       N/A	       N/A	       N/A	        N/A	       N/A	       N/A	       N/A	        N/A	       N/A	       N/A	       N/A	        N/A	
         R10	    228	   74.7358	      16.1	         0	        N/A	    74.972	      16.1	         0	        N/A	   75.2081	      16.1	         0	        N/A	       N/A	       N/A	       N/A	        N/A	       N/A	       N/A	       N/A	        N/A	       N/A	       N/A	       N/A	        N/A	       N/A	       N/A	       N/A	        N/A	       N/A	       N/A	       N/A	        N/A	
         R10	    229	   75.2081	      16.1	         0	        N/A	   75.4143	      16.1	         0	        N/A	   75.6206	      16.1	         0	        N/A	       N/A	       N/A	       N/A	        N/A	       N/A	       N/A	       N/A	        N/A	       N/A	       N/A	       N/A	        N/A	       N/A	       N/A	       N/A	        N/A	       N/A	       N/A	       N/A	        N/A	
         R10	    230	   75.6206	      16.1	         0	        N/A	    75.797	      16.1	         0	        N/A	   75.9734	      16.1	         0	        N/A	       N/A	       N/A	       N/A	        N/A	       N/A	       N/A	       N/A	        N/A	       N/A	       N/A	       N/A	        N/A	       N/A	       N/A	       N/A	        N/A	       N/A	       N/A	       N/A	        N/A	
         R10	    231	   75.9734	      16.1	         0	        N/A	     76.12	      16.1	         0	        N/A	   76.2666	      16.1	         0	        N/A	       N/A	       N/A	       N/A	        N/A	       N/A	       N/A	       N/A	        N/A	       N/A	       N/A	       N/A	        N/A	       N/A	       N/A	       N/A	        N/A	       N/A	       N/A	       N/A	        N/A	
         R10	    232	   76.2666	      16.1	         0	        N/A	   76.3833	      16.1	         0	        N/A	      76.5	      16.1	         0	        N/A	       N/A	       N/A	       N/A	        N/A	       N/A	       N/A	       N/A	        N/A	       N/A	       N/A	       N/A	        N/A	       N/A	       N/A	       N/A	        N/A	       N/A	       N/A	       N/A	        N/A	
         R10	    233	      76.5	      16.1	         0	        N/A	   76.6232	      16.1	         0	        N/A	   76.7464	      16.1	         0	        N/A	       N/A	       N/A	       N/A	        N/A	       N/A	       N/A	       N/A	        N/A	       N/A	       N/A	       N/A	        N/A	       N/A	       N/A	       N/A	        N/A	       N/A	       N/A	       N/A	        N/A	
         R10	    234	   76.7464	      16.1	         0	        N/A	   76.8791	      16.1	         0	        N/A	   77.0118	      16.1	         0	        N/A	       N/A	       N/A	       N/A	        N/A	       N/A	       N/A	       N/A	        N/A	       N/A	       N/A	       N/A	        N/A	       N/A	       N/A	       N/A	        N/A	       N/A	       N/A	       N/A	        N/A	
         R10	    235	   77.0118	      16.1	         0	        N/A	   77.1541	      16.1	         0	        N/A	   77.2964	      16.1	         0	        N/A	       N/A	       N/A	       N/A	        N/A	       N/A	       N/A	       N/A	        N/A	       N/A	       N/A	       N/A	        N/A	       N/A	       N/A	       N/A	        N/A	       N/A	       N/A	       N/A	        N/A	
         R10	    236	   77.2964	      16.1	         0	        N/A	   77.4482	      16.1	         0	        N/A	   77.5999	      16.1	         0	        N/A	       N/A	       N/A	       N/A	        N/A	       N/A	       N/A	       N/A	        N/A	       N/A	       N/A	       N/A	        N/A	       N/A	       N/A	       N/A	        N/A	       N/A	       N/A	       N/A	        N/A	
         R10	    237	   77.5999	      16.1	         0	        N/A	   77.7612	      16.1	         0	        N/A	   77.9226	      16.1	         0	        N/A	       N/A	       N/A	       N/A	        N/A	       N/A	       N/A	       N/A	        N/A	       N/A	       N/A	       N/A	        N/A	       N/A	       N/A	       N/A	        N/A	       N/A	       N/A	       N/A	        N/A	
         R10	    238	   77.9226	      16.1	         0	        N/A	   78.0934	      16.1	         0	        N/A	   78.2643	      16.1	         0	        N/A	       N/A	       N/A	       N/A	        N/A	       N/A	       N/A	       N/A	        N/A	       N/A	       N/A	       N/A	        N/A	       N/A	       N/A	       N/A	        N/A	       N/A	       N/A	       N/A	        N/A	
         R10	    239	   78.2643	      16.1	         0	        N/A	   78.4446	      16.1	         0	        N/A	    78.625	      16.1	         0	        N/A	       N/A	       N/A	       N/A	        N/A	       N/A	       N/A	       N/A	        N/A	       N/A	       N/A	       N/A	        N/A	       N/A	       N/A	       N/A	        N/A	       N/A	       N/A	       N/A	        N/A	
         R10	    240	     72.25	     12.75	         0	        N/A	    72.701	     12.75	         0	        N/A	    73.152	     12.75	         0	        N/A	       N/A	       N/A	       N/A	        N/A	       N/A	       N/A	       N/A	        N/A	       N/A	       N/A	       N/A	        N/A	       N/A	       N/A	       N/A	        N/A	       N/A	       N/A	       N/A	        N/A	
         R10	    241	    73.152	     12.75	         0	        N/A	   73.5642	     12.75	         0	        N/A	   73.9765	     12.75	         0	        N/A	       N/A	       N/A	       N/A	        N/A	       N/A	       N/A	       N/A	        N/A	       N/A	       N/A	       N/A	        N/A	       N/A	       N/A	       N/A	        N/A	       N/A	       N/A	       N/A	        N/A	
         R10	    242	   73.9765	     12.75	         0	        N/A	     74.35	     12.75	         0	        N/A	   74.7236	     12.75	         0	        N/A	       N/A	       N/A	       N/A	        N/A	       N/A	       N/A	       N/A	        N/A	       N/A	       N/A	       N/A	        N/A	       N/A	       N/A	       N/A	        N/A	       N/A	       N/A	       N/A	        N/A	
         R10	    243	   74.7236	     12.75	         0	        N/A	   75.0584	     12.75	         0	        N/A	   75.3932	     12.75	         0	        N/A	       N/A	       N/A	       N/A	        N/A	       N/A	       N/A	       N/A	        N/A	       N/A	       N/A	       N/A	        N/A	       N/A	       N/A	       N/A	        N/A	       N/A	       N/A	       N/A	        N/A	
         R10	    244	   75.3932	     12.75	         0	        N/A	   75.6892	     12.75	         0	        N/A	   75.9853	     12.75	         0	        N/A	       N/A	       N/A	       N/A	        N/A	       N/A	       N/A	       N/A	        N/A	       N/A	       N/A	       N/A	        N/A	       N/A	       N/A	       N/A	        N/A	       N/A	       N/A	       N/A	        N/A	
         R10	    245	   75.9853	     12.75	         0	        N/A	   76.2427	     12.75	         0	        N/A	      76.5	     12.75	         0	        N/A	       N/A	       N/A	       N/A	        N/A	       N/A	       N/A	       N/A	        N/A	       N/A	       N/A	       N/A	        N/A	       N/A	       N/A	       N/A	        N/A	       N/A	       N/A	       N/A	        N/A	
         R10	    246	      76.5	     12.75	         0	        N/A	    76.755	     12.75	         0	        N/A	     77.01	     12.75	         0	        N/A	       N/A	       N/A	       N/A	        N/A	       N/A	       N/A	       N/A	        N/A	       N/A	       N/A	       N/A	        N/A	       N/A	       N/A	       N/A	        N/A	       N/A	       N/A	       N/A	        N/A	
         R10	    247	     77.01	     12.75	         0	        N/A	    77.272	     12.75	         0	        N/A	   77.5341	     12.75	         0	        N/A	       N/A	       N/A	       N/A	        N/A	       N/A	       N/A	       N/A	        N/A	       N/A	       N/A	       N/A	        N/A	       N/A	       N/A	       N/A	        N/A	       N/A	       N/A	       N/A	        N/A	
         R10	    248	   77.5341	     12.75	         0	        N/A	   77.8033	     12.75	         0	        N/A	   78.0725	     12.75	         0	        N/A	       N/A	       N/A	       N/A	        N/A	       N/A	       N/A	       N/A	        N/A	       N/A	       N/A	       N/A	        N/A	       N/A	       N/A	       N/A	        N/A	       N/A	       N/A	       N/A	        N/A	
         R10	    249	   78.0725	     12.75	         0	        N/A	   78.3487	     12.75	         0	        N/A	    78.625	     12.75	         0	        N/A	       N/A	       N/A	       N/A	        N/A	       N/A	       N/A	       N/A	        N/A	       N/A	       N/A	       N/A	        N/A	       N/A	       N/A	       N/A	        N/A	       N/A	       N/A	       N/A	        N/A	
         R10	    250	     72.25	      17.7	         0	        N/A	   72.6273	      17.7	         0	        N/A	   73.0047	      17.7	         0	        N/A	       N/A	       N/A	       N/A	        N/A	       N/A	       N/A	       N/A	        N/A	       N/A	       N/A	       N/A	        N/A	       N/A	       N/A	       N/A	        N/A	       N/A	       N/A	       N/A	        N/A	
         R10	    251	   73.0047	      17.7	         0	        N/A	   73.3501	      17.7	         0	        N/A	   73.6955	      17.7	         0	        N/A	       N/A	       N/A	       N/A	        N/A	       N/A	       N/A	       N/A	        N/A	       N/A	       N/A	       N/A	        N/A	       N/A	       N/A	       N/A	        N/A	       N/A	       N/A	       N/A	        N/A	
         R10	    252	   73.6955	      17.7	         0	        N/A	    74.009	      17.7	         0	        N/A	   74.3225	      17.7	         0	        N/A	       N/A	       N/A	       N/A	        N/A	       N/A	       N/A	       N/A	        N/A	       N/A	       N/A	       N/A	        N/A	       N/A	       N/A	       N/A	        N/A	       N/A	       N/A	       N/A	        N/A	
         R10	    253	   74.3225	      17.7	         0	        N/A	   74.6041	      17.7	         0	        N/A	   74.8857	      17.7	         0	        N/A	       N/A	       N/A	       N/A	        N/A	       N/A	       N/A	       N/A	        N/A	       N/A	       N/A	       N/A	        N/A	       N/A	       N/A	       N/A	        N/A	       N/A	       N/A	       N/A	        N/A	
         R10	    254	   74.8857	      17.7	         0	        N/A	   75.1354	      17.7	         0	        N/A	    75.385	      17.7	         0	        N/A	       N/A	       N/A	       N/A	        N/A	       N/A	       N/A	       N/A	        N/A	       N/A	       N/A	       N/A	        N/A	       N/A	       N/A	       N/A	        N/A	       N/A	       N/A	       N/A	        N/A	
         R10	    255	    75.385	      17.7	         0	        N/A	   75.6028	      17.7	         0	        N/A	   75.8205	      17.7	         0	        N/A	       N/A	       N/A	       N/A	        N/A	       N/A	       N/A	       N/A	        N/A	       N/A	       N/A	       N/A	        N/A	       N/A	       N/A	       N/A	        N/A	       N/A	       N/A	       N/A	        N/A	
         R10	    256	   75.8205	      17.7	         0	        N/A	   76.0064	      17.7	         0	        N/A	   76.1922	      17.7	         0	        N/A	       N/A	       N/A	       N/A	        N/A	       N/A	       N/A	       N/A	        N/A	       N/A	       N/A	       N/A	        N/A	       N/A	       N/A	       N/A	        N/A	       N/A	       N/A	       N/A	        N/A	
         R10	    257	   76.1922	      17.7	         0	        N/A	   76.3461	      17.7	         0	        N/A	      76.5	      17.7	         0	        N/A	       N/A	       N/A	       N/A	        N/A	       N/A	       N/A	       N/A	        N/A	       N/A	       N/A	       N/A	        N/A	       N/A	       N/A	       N/A	        N/A	       N/A	       N/A	       N/A	        N/A	
         R10	    258	      76.5	      17.7	         0	        N/A	   76.6725	      17.7	         0	        N/A	    76.845	      17.7	         0	        N/A	       N/A	       N/A	       N/A	        N/A	       N/A	       N/A	       N/A	        N/A	       N/A	       N/A	       N/A	        N/A	       N/A	       N/A	       N/A	        N/A	       N/A	       N/A	       N/A	        N/A	
         R10	    259	    76.845	      17.7	         0	        N/A	   77.0374	      17.7	         0	        N/A	   77.2299	      17.7	         0	        N/A	       N/A	       N/A	       N/A	        N/A	       N/A	       N/A	       N/A	        N/A	       N/A	       N/A	       N/A	        N/A	       N/A	       N/A	       N/A	        N/A	       N/A	       N/A	       N/A	        N/A	
         R10	    260	   77.2299	      17.7	         0	        N/A	   77.4424	      17.7	         0	        N/A	   77.6549	      17.7	         0	        N/A	       N/A	       N/A	       N/A	        N/A	       N/A	       N/A	       N/A	        N/A	       N/A	       N/A	       N/A	        N/A	       N/A	       N/A	       N/A	        N/A	       N/A	       N/A	       N/A	        N/A	
         R10	    261	   77.6549	      17.7	         0	        N/A	   77.8874	      17.7	         0	        N/A	     78.12	      17.7	         0	        N/A	       N/A	       N/A	       N/A	        N/A	       N/A	       N/A	       N/A	        N/A	       N/A	       N/A	       N/A	        N/A	       N/A	       N/A	       N/A	        N/A	       N/A	       N/A	       N/A	        N/A	
         R10	    262	     78.12	      17.7	         0	        N/A	   78.3725	      17.7	         0	        N/A	    78.625	      17.7	         0	        N/A	       N/A	       N/A	       N/A	        N/A	       N/A	       N/A	       N/A	        N/A	       N/A	       N/A	       N/A	        N/A	       N/A	       N/A	       N/A	        N/A	       N/A	       N/A	       N/A	        N/A	
         R10	    263	     72.25	     14.45	         0	        N/A	   72.7001	     14.45	         0	        N/A	   73.1501	     14.45	         0	        N/A	       N/A	       N/A	       N/A	        N/A	       N/A	       N/A	       N/A	        N/A	       N/A	       N/A	       N/A	        N/A	       N/A	       N/A	       N/A	        N/A	       N/A	       N/A	       N/A	        N/A	
         R10	    264	   73.1501	     14.45	         0	        N/A	   73.5514	     14.45	         0	        N/A	   73.9526	     14.45	         0	        N/A	       N/A	       N/A	       N/A	        N/A	       N/A	       N/A	       N/A	        N/A	       N/A	       N/A	       N/A	        N/A	       N/A	       N/A	       N/A	        N/A	       N/A	       N/A	       N/A	        N/A	
         R10	    265	   73.9526	     14.45	         0	        N/A	    74.305	     14.45	         0	        N/A	   74.6574	     14.45	         0	        N/A	       N/A	       N/A	       N/A	        N/A	       N/A	       N/A	       N/A	        N/A	       N/A	       N/A	       N/A	        N/A	       N/A	       N/A	       N/A	        N/A	       N/A	       N/A	       N/A	        N/A	
         R10	    266	   74.6574	     14.45	         0	        N/A	    74.961	     14.45	         0	        N/A	   75.2646	     14.45	         0	        N/A	       N/A	       N/A	       N/A	        N/A	       N/A	       N/A	       N/A	        N/A	       N/A	       N/A	       N/A	        N/A	       N/A	       N/A	       N/A	        N/A	       N/A	       N/A	       N/A	        N/A	
         R10	    267	   75.2646	     14.45	         0	        N/A	   75.5193	     14.45	         0	        N/A	   75.7741	     14.45	         0	        N/A	       N/A	       N/A	       N/A	        N/A	       N/A	       N/A	       N/A	        N/A	       N/A	       N/A	       N/A	        N/A	       N/A	       N/A	       N/A	        N/A	       N/A	       N/A	       N/A	        N/A	
         R10	    268	   75.7741	     14.45	         0	        N/A	     75.98	     14.45	         0	        N/A	   76.1859	     14.45	         0	        N/A	       N/A	       N/A	       N/A	        N/A	       N/A	       N/A	       N/A	        N/A	       N/A	       N/A	       N/A	        N/A	       N/A	       N/A	       N/A	        N/A	       N/A	       N/A	       N/A	        N/A	
         R10	    269	   76.1859	     14.45	         0	        N/A	   76.3429	     14.45	         0	        N/A	      76.5	     14.45	         0	        N/A	       N/A	       N/A	       N/A	        N/A	       N/A	       N/A	       N/A	        N/A	       N/A	       N/A	       N/A	        N/A	       N/A	       N/A	       N/A	        N/A	       N/A	       N/A	       N/A	        N/A	
         R10	    270	      76.5	     14.45	         0	        N/A	   76.6437	     14.45	         0	        N/A	   76.7875	     14.45	         0	        N/A	       N/A	       N/A	       N/A	        N/A	       N/A	       N/A	       N/A	        N/A	       N/A	       N/A	       N/A	        N/A	       N/A	       N/A	       N/A	        N/A	       N/A	       N/A	       N/A	        N/A	
         R10	    271	   76.7875	     14.45	         0	        N/A	   76.9445	     14.45	         0	        N/A	   77.1016	     14.45	         0	        N/A	       N/A	       N/A	       N/A	        N/A	       N/A	       N/A	       N/A	        N/A	       N/A	       N/A	       N/A	        N/A	       N/A	       N/A	       N/A	        N/A	       N/A	       N/A	       N/A	        N/A	
         R10	    272	   77.1016	     14.45	         0	        N/A	    77.272	     14.45	         0	        N/A	   77.4424	     14.45	         0	        N/A	       N/A	       N/A	       N/A	        N/A	       N/A	       N/A	       N/A	        N/A	       N/A	       N/A	       N/A	        N/A	       N/A	       N/A	       N/A	        N/A	       N/A	       N/A	       N/A	        N/A	
         R10	    273	   77.4424	     14.45	         0	        N/A	   77.6262	     14.45	         0	        N/A	   77.8099	     14.45	         0	        N/A	       N/A	       N/A	       N/A	        N/A	       N/A	       N/A	       N/A	        N/A	       N/A	       N/A	       N/A	        N/A	       N/A	       N/A	       N/A	        N/A	       N/A	       N/A	       N/A	        N/A	
         R10	    274	   77.8099	     14.45	         0	        N/A	    78.007	     14.45	         0	        N/A	   78.2041	     14.45	         0	        N/A	       N/A	       N/A	       N/A	        N/A	       N/A	       N/A	       N/A	        N/A	       N/A	       N/A	       N/A	        N/A	       N/A	       N/A	       N/A	        N/A	       N/A	       N/A	       N/A	        N/A	
         R10	    275	   78.2041	     14.45	         0	        N/A	   78.4146	     14.45	         0	        N/A	    78.625	     14.45	         0	        N/A	       N/A	       N/A	       N/A	        N/A	       N/A	       N/A	       N/A	        N/A	       N/A	       N/A	       N/A	        N/A	       N/A	       N/A	       N/A	        N/A	       N/A	       N/A	       N/A	        N/A	
         R10	    276	     72.25	      16.9	         0	        N/A	   72.6376	      16.9	         0	        N/A	   73.0251	      16.9	         0	        N/A	       N/A	       N/A	       N/A	        N/A	       N/A	       N/A	       N/A	        N/A	       N/A	       N/A	       N/A	        N/A	       N/A	       N/A	       N/A	        N/A	       N/A	       N/A	       N/A	        N/A	
         R10	    277	   73.0251	      16.9	         0	        N/A	   73.3778	      16.9	         0	        N/A	   73.7305	      16.9	         0	        N/A	       N/A	       N/A	       N/A	        N/A	       N/A	       N/A	       N/A	        N/A	       N/A	       N/A	       N/A	        N/A	       N/A	       N/A	       N/A	        N/A	       N/A	       N/A	       N/A	        N/A	
         R10	    278	   73.7305	      16.9	         0	        N/A	   74.0484	      16.9	         0	        N/A	   74.3663	      16.9	         0	        N/A	       N/A	       N/A	       N/A	        N/A	       N/A	       N/A	       N/A	        N/A	       N/A	       N/A	       N/A	        N/A	       N/A	       N/A	       N/A	        N/A	       N/A	       N/A	       N/A	        N/A	
         R10	    279	   74.3663	      16.9	         0	        N/A	   74.6493	      16.9	         0	        N/A	   74.9324	      16.9	         0	        N/A	       N/A	       N/A	       N/A	        N/A	       N/A	       N/A	       N/A	        N/A	       N/A	       N/A	       N/A	        N/A	       N/A	       N/A	       N/A	        N/A	       N/A	       N/A	       N/A	        N/A	
         R10	    280	   74.9324	      16.9	         0	        N/A	   75.1806	      16.9	         0	        N/A	   75.4288	      16.9	         0	        N/A	       N/A	       N/A	       N/A	        N/A	       N/A	       N/A	       N/A	        N/A	       N/A	       N/A	       N/A	        N/A	       N/A	       N/A	       N/A	        N/A	       N/A	       N/A	       N/A	        N/A	
         R10	    281	   75.4288	      16.9	         0	        N/A	   75.6422	      16.9	         0	        N/A	   75.8555	      16.9	         0	        N/A	       N/A	       N/A	       N/A	        N/A	       N/A	       N/A	       N/A	        N/A	       N/A	       N/A	       N/A	        N/A	       N/A	       N/A	       N/A	        N/A	       N/A	       N/A	       N/A	        N/A	
         R10	    282	   75.8555	      16.9	         0	        N/A	   76.0341	      16.9	         0	        N/A	   76.2126	      16.9	         0	        N/A	       N/A	       N/A	       N/A	        N/A	       N/A	       N/A	       N/A	        N/A	       N/A	       N/A	       N/A	        N/A	       N/A	       N/A	       N/A	        N/A	       N/A	       N/A	       N/A	        N/A	
         R10	    283	   76.2126	      16.9	         0	        N/A	   76.3563	      16.9	         0	        N/A	      76.5	      16.9	         0	        N/A	       N/A	       N/A	       N/A	        N/A	       N/A	       N/A	       N/A	        N/A	       N/A	       N/A	       N/A	        N/A	       N/A	       N/A	       N/A	        N/A	       N/A	       N/A	       N/A	        N/A	
         R10	    284	      76.5	      16.9	         0	        N/A	   76.6437	      16.9	         0	        N/A	   76.7875	      16.9	         0	        N/A	       N/A	       N/A	       N/A	        N/A	       N/A	       N/A	       N/A	        N/A	       N/A	       N/A	       N/A	        N/A	       N/A	       N/A	       N/A	        N/A	       N/A	       N/A	       N/A	        N/A	
         R10	    285	   76.7875	      16.9	         0	        N/A	   76.9445	      16.9	         0	        N/A	   77.1016	      16.9	         0	        N/A	       N/A	       N/A	       N/A	        N/A	       N/A	       N/A	       N/A	        N/A	       N/A	       N/A	       N/A	        N/A	       N/A	       N/A	       N/A	        N/A	       N/A	       N/A	       N/A	        N/A	
         R10	    286	   77.1016	      16.9	         0	        N/A	    77.272	      16.9	         0	        N/A	   77.4424	      16.9	         0	        N/A	       N/A	       N/A	       N/A	        N/A	       N/A	       N/A	       N/A	        N/A	       N/A	       N/A	       N/A	        N/A	       N/A	       N/A	       N/A	        N/A	       N/A	       N/A	       N/A	        N/A	
         R10	    287	   77.4424	      16.9	         0	        N/A	   77.6262	      16.9	         0	        N/A	   77.8099	      16.9	         0	        N/A	       N/A	       N/A	       N/A	        N/A	       N/A	       N/A	       N/A	        N/A	       N/A	       N/A	       N/A	        N/A	       N/A	       N/A	       N/A	        N/A	       N/A	       N/A	       N/A	        N/A	
         R10	    288	   77.8099	      16.9	         0	        N/A	    78.007	      16.9	         0	        N/A	   78.2041	      16.9	         0	        N/A	       N/A	       N/A	       N/A	        N/A	       N/A	       N/A	       N/A	        N/A	       N/A	       N/A	       N/A	        N/A	       N/A	       N/A	       N/A	        N/A	       N/A	       N/A	       N/A	        N/A	
         R10	    289	   78.2041	      16.9	         0	        N/A	   78.4146	      16.9	         0	        N/A	    78.625	      16.9	         0	        N/A	       N/A	       N/A	       N/A	        N/A	       N/A	       N/A	       N/A	        N/A	       N/A	       N/A	       N/A	        N/A	       N/A	       N/A	       N/A	        N/A	       N/A	       N/A	       N/A	        N/A	
         R10	    290	     72.25	      18.5	         0	        N/A	   72.4927	      18.5	         0	        N/A	   72.7354	      18.5	         0	        N/A	       N/A	       N/A	       N/A	        N/A	       N/A	       N/A	       N/A	        N/A	       N/A	       N/A	       N/A	        N/A	       N/A	       N/A	       N/A	        N/A	       N/A	       N/A	       N/A	        N/A	
         R10	    291	   72.7354	      18.5	         0	        N/A	   72.9714	      18.5	         0	        N/A	   73.2074	      18.5	         0	        N/A	       N/A	       N/A	       N/A	        N/A	       N/A	       N/A	       N/A	        N/A	       N/A	       N/A	       N/A	        N/A	       N/A	       N/A	       N/A	        N/A	       N/A	       N/A	       N/A	        N/A	
         R10	    292	   73.2074	      18.5	         0	        N/A	   73.4367	      18.5	         0	        N/A	   73.6659	      18.5	         0	        N/A	       N/A	       N/A	       N/A	        N/A	       N/A	       N/A	       N/A	        N/A	       N/A	       N/A	       N/A	        N/A	       N/A	       N/A	       N/A	        N/A	       N/A	       N/A	       N/A	        N/A	
         R10	    293	   73.6659	      18.5	         0	        N/A	   73.8885	      18.5	         0	        N/A	   74.1111	      18.5	         0	        N/A	       N/A	       N/A	       N/A	        N/A	       N/A	       N/A	       N/A	        N/A	       N/A	       N/A	       N/A	        N/A	       N/A	       N/A	       N/A	        N/A	       N/A	       N/A	       N/A	        N/A	
         R10	    294	   74.1111	      18.5	         0	        N/A	   74.3269	      18.5	         0	        N/A	   74.5428	      18.5	         0	        N/A	       N/A	       N/A	       N/A	        N/A	       N/A	       N/A	       N/A	        N/A	       N/A	       N/A	       N/A	        N/A	       N/A	       N/A	       N/A	        N/A	       N/A	       N/A	       N/A	        N/A	
         R10	    295	   74.5428	      18.5	         0	        N/A	   74.7519	      18.5	         0	        N/A	   74.9611	      18.5	         0	        N/A	       N/A	       N/A	       N/A	        N/A	       N/A	       N/A	       N/A	        N/A	       N/A	       N/A	       N/A	        N/A	       N/A	       N/A	       N/A	        N/A	       N/A	       N/A	       N/A	        N/A	
         R10	    296	   74.9611	      18.5	         0	        N/A	   75.1635	      18.5	         0	        N/A	   75.3659	      18.5	         0	        N/A	       N/A	       N/A	       N/A	        N/A	       N/A	       N/A	       N/A	        N/A	       N/A	       N/A	       N/A	        N/A	       N/A	       N/A	       N/A	        N/A	       N/A	       N/A	       N/A	        N/A	
         R10	    297	   75.3659	      18.5	         0	        N/A	   75.5617	      18.5	         0	        N/A	   75.7574	      18.5	         0	        N/A	       N/A	       N/A	       N/A	        N/A	       N/A	       N/A	       N/A	        N/A	       N/A	       N/A	       N/A	        N/A	       N/A	       N/A	       N/A	        N/A	       N/A	       N/A	       N/A	        N/A	
         R10	    298	   75.7574	      18.5	         0	        N/A	   75.9464	      18.5	         0	        N/A	   76.1354	      18.5	         0	        N/A	       N/A	       N/A	       N/A	        N/A	       N/A	       N/A	       N/A	        N/A	       N/A	       N/A	       N/A	        N/A	       N/A	       N/A	       N/A	        N/A	       N/A	       N/A	       N/A	        N/A	
         R10	    299	   76.1354	      18.5	         0	        N/A	   76.3177	      18.5	         0	        N/A	      76.5	      18.5	         0	        N/A	       N/A	       N/A	       N/A	        N/A	       N/A	       N/A	       N/A	        N/A	       N/A	       N/A	       N/A	        N/A	       N/A	       N/A	       N/A	        N/A	       N/A	       N/A	       N/A	        N/A	
         R10	    300	      76.5	      18.5	         0	        N/A	   76.6823	      18.5	         0	        N/A	   76.8646	      18.5	         0	        N/A	       N/A	       N/A	       N/A	        N/A	       N/A	       N/A	       N/A	        N/A	       N/A	       N/A	       N/A	        N/A	       N/A	       N/A	       N/A	        N/A	       N/A	       N/A	       N/A	        N/A	
         R10	    301	   76.8646	      18.5	         0	        N/A	    77.062	      18.5	         0	        N/A	   77.2594	      18.5	         0	        N/A	       N/A	       N/A	       N/A	        N/A	       N/A	       N/A	       N/A	        N/A	       N/A	       N/A	       N/A	        N/A	       N/A	       N/A	       N/A	        N/A	       N/A	       N/A	       N/A	        N/A	
         R10	    302	   77.2594	      18.5	         0	        N/A	   77.4719	      18.5	         0	        N/A	   77.6844	      18.5	         0	        N/A	       N/A	       N/A	       N/A	        N/A	       N/A	       N/A	       N/A	        N/A	       N/A	       N/A	       N/A	        N/A	       N/A	       N/A	       N/A	        N/A	       N/A	       N/A	       N/A	        N/A	
         R10	    303	   77.6844	      18.5	         0	        N/A	    77.912	      18.5	         0	        N/A	   78.1396	      18.5	         0	        N/A	       N/A	       N/A	       N/A	        N/A	       N/A	       N/A	       N/A	        N/A	       N/A	       N/A	       N/A	        N/A	       N/A	       N/A	       N/A	        N/A	       N/A	       N/A	       N/A	        N/A	
         R10	    304	   78.1396	      18.5	         0	        N/A	   78.3823	      18.5	         0	        N/A	    78.625	      18.5	         0	        N/A	       N/A	       N/A	       N/A	        N/A	       N/A	       N/A	       N/A	        N/A	       N/A	       N/A	       N/A	        N/A	       N/A	       N/A	       N/A	        N/A	       N/A	       N/A	       N/A	        N/A	
         R10	    305	     80.75	      10.2	       2.4	        N/A	   80.2188	      10.2	       2.4	        N/A	   79.6875	      10.2	       2.4	        N/A	       N/A	       N/A	       N/A	        N/A	       N/A	       N/A	       N/A	        N/A	       N/A	       N/A	       N/A	        N/A	       N/A	       N/A	       N/A	        N/A	       N/A	       N/A	       N/A	        N/A	
         R10	    306	   79.6875	      10.2	       2.4	        N/A	   79.1563	      10.2	       2.4	        N/A	    78.625	      10.2	       2.4	        N/A	       N/A	       N/A	       N/A	        N/A	       N/A	       N/A	       N/A	        N/A	       N/A	       N/A	       N/A	        N/A	       N/A	       N/A	       N/A	        N/A	       N/A	       N/A	       N/A	        N/A	
         R10	    307	     72.25	      19.3	         0	        N/A	   72.4625	      19.3	         0	        N/A	   72.6751	      19.3	         0	        N/A	       N/A	       N/A	       N/A	        N/A	       N/A	       N/A	       N/A	        N/A	       N/A	       N/A	       N/A	        N/A	       N/A	       N/A	       N/A	        N/A	       N/A	       N/A	       N/A	        N/A	
         R10	    308	   72.6751	      19.3	         0	        N/A	   72.8876	      19.3	         0	        N/A	   73.1001	      19.3	         0	        N/A	       N/A	       N/A	       N/A	        N/A	       N/A	       N/A	       N/A	        N/A	       N/A	       N/A	       N/A	        N/A	       N/A	       N/A	       N/A	        N/A	       N/A	       N/A	       N/A	        N/A	
         R10	    309	   73.1001	      19.3	         0	        N/A	   73.3126	      19.3	         0	        N/A	   73.5251	      19.3	         0	        N/A	       N/A	       N/A	       N/A	        N/A	       N/A	       N/A	       N/A	        N/A	       N/A	       N/A	       N/A	        N/A	       N/A	       N/A	       N/A	        N/A	       N/A	       N/A	       N/A	        N/A	
         R10	    310	   73.5251	      19.3	         0	        N/A	   73.7376	      19.3	         0	        N/A	   73.9501	      19.3	         0	        N/A	       N/A	       N/A	       N/A	        N/A	       N/A	       N/A	       N/A	        N/A	       N/A	       N/A	       N/A	        N/A	       N/A	       N/A	       N/A	        N/A	       N/A	       N/A	       N/A	        N/A	
         R10	    311	   73.9501	      19.3	         0	        N/A	   74.1627	      19.3	         0	        N/A	   74.3752	      19.3	         0	        N/A	       N/A	       N/A	       N/A	        N/A	       N/A	       N/A	       N/A	        N/A	       N/A	       N/A	       N/A	        N/A	       N/A	       N/A	       N/A	        N/A	       N/A	       N/A	       N/A	        N/A	
         R10	    312	   74.3752	      19.3	         0	        N/A	   74.5877	      19.3	         0	        N/A	   74.8001	      19.3	         0	        N/A	       N/A	       N/A	       N/A	        N/A	       N/A	       N/A	       N/A	        N/A	       N/A	       N/A	       N/A	        N/A	       N/A	       N/A	       N/A	        N/A	       N/A	       N/A	       N/A	        N/A	
         R10	    313	   74.8001	      19.3	         0	        N/A	   75.0126	      19.3	         0	        N/A	   75.2251	      19.3	         0	        N/A	       N/A	       N/A	       N/A	        N/A	       N/A	       N/A	       N/A	        N/A	       N/A	       N/A	       N/A	        N/A	       N/A	       N/A	       N/A	        N/A	       N/A	       N/A	       N/A	        N/A	
         R10	    314	   75.2251	      19.3	         0	        N/A	   75.4376	      19.3	         0	        N/A	   75.6501	      19.3	         0	        N/A	       N/A	       N/A	       N/A	        N/A	       N/A	       N/A	       N/A	        N/A	       N/A	       N/A	       N/A	        N/A	       N/A	       N/A	       N/A	        N/A	       N/A	       N/A	       N/A	        N/A	
         R10	    315	   75.6501	      19.3	         0	        N/A	   75.8626	      19.3	         0	        N/A	   76.0751	      19.3	         0	        N/A	       N/A	       N/A	       N/A	        N/A	       N/A	       N/A	       N/A	        N/A	       N/A	       N/A	       N/A	        N/A	       N/A	       N/A	       N/A	        N/A	       N/A	       N/A	       N/A	        N/A	
         R10	    316	   76.0751	      19.3	         0	        N/A	   76.2875	      19.3	         0	        N/A	      76.5	      19.3	         0	        N/A	       N/A	       N/A	       N/A	        N/A	       N/A	       N/A	       N/A	        N/A	       N/A	       N/A	       N/A	        N/A	       N/A	       N/A	       N/A	        N/A	       N/A	       N/A	       N/A	        N/A	
         R10	    317	      76.5	      19.3	         0	        N/A	   76.7125	      19.3	         0	        N/A	   76.9249	      19.3	         0	        N/A	       N/A	       N/A	       N/A	        N/A	       N/A	       N/A	       N/A	        N/A	       N/A	       N/A	       N/A	        N/A	       N/A	       N/A	       N/A	        N/A	       N/A	       N/A	       N/A	        N/A	
         R10	    318	   76.9249	      19.3	         0	        N/A	   77.1374	      19.3	         0	        N/A	   77.3499	      19.3	         0	        N/A	       N/A	       N/A	       N/A	        N/A	       N/A	       N/A	       N/A	        N/A	       N/A	       N/A	       N/A	        N/A	       N/A	       N/A	       N/A	        N/A	       N/A	       N/A	       N/A	        N/A	
         R10	    319	   77.3499	      19.3	         0	        N/A	   77.5624	      19.3	         0	        N/A	   77.7749	      19.3	         0	        N/A	       N/A	       N/A	       N/A	        N/A	       N/A	       N/A	       N/A	        N/A	       N/A	       N/A	       N/A	        N/A	       N/A	       N/A	       N/A	        N/A	       N/A	       N/A	       N/A	        N/A	
         R10	    320	   77.7749	      19.3	         0	        N/A	   77.9874	      19.3	         0	        N/A	   78.1999	      19.3	         0	        N/A	       N/A	       N/A	       N/A	        N/A	       N/A	       N/A	       N/A	        N/A	       N/A	       N/A	       N/A	        N/A	       N/A	       N/A	       N/A	        N/A	       N/A	       N/A	       N/A	        N/A	
         R10	    321	   78.1999	      19.3	         0	        N/A	   78.4125	      19.3	         0	        N/A	    78.625	      19.3	         0	        N/A	       N/A	       N/A	       N/A	        N/A	       N/A	       N/A	       N/A	        N/A	       N/A	       N/A	       N/A	        N/A	       N/A	       N/A	       N/A	        N/A	       N/A	       N/A	       N/A	        N/A	
         R10	    322	     72.25	      21.5	      2.25	        N/A	   72.4861	      21.5	      2.25	        N/A	   72.7222	      21.5	      2.25	        N/A	       N/A	       N/A	       N/A	        N/A	       N/A	       N/A	       N/A	        N/A	       N/A	       N/A	       N/A	        N/A	       N/A	       N/A	       N/A	        N/A	       N/A	       N/A	       N/A	        N/A	
         R10	    323	   72.7222	      21.5	      2.25	        N/A	   72.9583	      21.5	      2.25	        N/A	   73.1944	      21.5	      2.25	        N/A	       N/A	       N/A	       N/A	        N/A	       N/A	       N/A	       N/A	        N/A	       N/A	       N/A	       N/A	        N/A	       N/A	       N/A	       N/A	        N/A	       N/A	       N/A	       N/A	        N/A	
         R10	    324	   73.1944	      21.5	      2.25	        N/A	   73.4306	      21.5	      2.25	        N/A	   73.6667	      21.5	      2.25	        N/A	       N/A	       N/A	       N/A	        N/A	       N/A	       N/A	       N/A	        N/A	       N/A	       N/A	       N/A	        N/A	       N/A	       N/A	       N/A	        N/A	       N/A	       N/A	       N/A	        N/A	
         R10	    325	   73.6667	      21.5	      2.25	        N/A	   73.9028	      21.5	      2.25	        N/A	   74.1389	      21.5	      2.25	        N/A	       N/A	       N/A	       N/A	        N/A	       N/A	       N/A	       N/A	        N/A	       N/A	       N/A	       N/A	        N/A	       N/A	       N/A	       N/A	        N/A	       N/A	       N/A	       N/A	        N/A	
         R10	    326	   74.1389	      21.5	      2.25	        N/A	    74.375	      21.5	      2.25	        N/A	   74.6111	      21.5	      2.25	        N/A	       N/A	       N/A	       N/A	        N/A	       N/A	       N/A	       N/A	        N/A	       N/A	       N/A	       N/A	        N/A	       N/A	       N/A	       N/A	        N/A	       N/A	       N/A	       N/A	        N/A	
         R10	    327	   74.6111	      21.5	      2.25	        N/A	   74.8472	      21.5	      2.25	        N/A	   75.0833	      21.5	      2.25	        N/A	       N/A	       N/A	       N/A	        N/A	       N/A	       N/A	       N/A	        N/A	       N/A	       N/A	       N/A	        N/A	       N/A	       N/A	       N/A	        N/A	       N/A	       N/A	       N/A	        N/A	
         R10	    328	   75.0833	      21.5	      2.25	        N/A	   75.3194	      21.5	      2.25	        N/A	   75.5556	      21.5	      2.25	        N/A	       N/A	       N/A	       N/A	        N/A	       N/A	       N/A	       N/A	        N/A	       N/A	       N/A	       N/A	        N/A	       N/A	       N/A	       N/A	        N/A	       N/A	       N/A	       N/A	        N/A	
         R10	    329	   75.5556	      21.5	      2.25	        N/A	   75.7917	      21.5	      2.25	        N/A	   76.0278	      21.5	      2.25	        N/A	       N/A	       N/A	       N/A	        N/A	       N/A	       N/A	       N/A	        N/A	       N/A	       N/A	       N/A	        N/A	       N/A	       N/A	       N/A	        N/A	       N/A	       N/A	       N/A	        N/A	
         R10	    330	   76.0278	      21.5	      2.25	        N/A	   76.2639	      21.5	      2.25	        N/A	      76.5	      21.5	      2.25	        N/A	       N/A	       N/A	       N/A	        N/A	       N/A	       N/A	       N/A	        N/A	       N/A	       N/A	       N/A	        N/A	       N/A	       N/A	       N/A	        N/A	       N/A	       N/A	       N/A	        N/A	
         R10	    331	      76.5	      21.5	      2.25	        N/A	   76.7656	      21.5	      2.25	        N/A	   77.0313	      21.5	      2.25	        N/A	       N/A	       N/A	       N/A	        N/A	       N/A	       N/A	       N/A	        N/A	       N/A	       N/A	       N/A	        N/A	       N/A	       N/A	       N/A	        N/A	       N/A	       N/A	       N/A	        N/A	
         R10	    332	   77.0313	      21.5	      2.25	        N/A	   77.2969	      21.5	      2.25	        N/A	   77.5625	      21.5	      2.25	        N/A	       N/A	       N/A	       N/A	        N/A	       N/A	       N/A	       N/A	        N/A	       N/A	       N/A	       N/A	        N/A	       N/A	       N/A	       N/A	        N/A	       N/A	       N/A	       N/A	        N/A	
         R10	    333	   77.5625	      21.5	      2.25	        N/A	   77.8281	      21.5	      2.25	        N/A	   78.0938	      21.5	      2.25	        N/A	       N/A	       N/A	       N/A	        N/A	       N/A	       N/A	       N/A	        N/A	       N/A	       N/A	       N/A	        N/A	       N/A	       N/A	       N/A	        N/A	       N/A	       N/A	       N/A	        N/A	
         R10	    334	   78.0938	      21.5	      2.25	        N/A	   78.3594	      21.5	      2.25	        N/A	    78.625	      21.5	      2.25	        N/A	       N/A	       N/A	       N/A	        N/A	       N/A	       N/A	       N/A	        N/A	       N/A	       N/A	       N/A	        N/A	       N/A	       N/A	       N/A	        N/A	       N/A	       N/A	       N/A	        N/A	
         R10	    335	     72.25	      21.5	         3	        N/A	   72.5156	      21.5	         3	        N/A	   72.7813	      21.5	         3	        N/A	       N/A	       N/A	       N/A	        N/A	       N/A	       N/A	       N/A	        N/A	       N/A	       N/A	       N/A	        N/A	       N/A	       N/A	       N/A	        N/A	       N/A	       N/A	       N/A	        N/A	
         R10	    336	   72.7813	      21.5	         3	        N/A	   73.0469	      21.5	         3	        N/A	   73.3125	      21.5	         3	        N/A	       N/A	       N/A	       N/A	        N/A	       N/A	       N/A	       N/A	        N/A	       N/A	       N/A	       N/A	        N/A	       N/A	       N/A	       N/A	        N/A	       N/A	       N/A	       N/A	        N/A	
         R10	    337	   73.3125	      21.5	         3	        N/A	   73.5781	      21.5	         3	        N/A	   73.8438	      21.5	         3	        N/A	       N/A	       N/A	       N/A	        N/A	       N/A	       N/A	       N/A	        N/A	       N/A	       N/A	       N/A	        N/A	       N/A	       N/A	       N/A	        N/A	       N/A	       N/A	       N/A	        N/A	
         R10	    338	   73.8438	      21.5	         3	        N/A	   74.1094	      21.5	         3	        N/A	    74.375	      21.5	         3	        N/A	       N/A	       N/A	       N/A	        N/A	       N/A	       N/A	       N/A	        N/A	       N/A	       N/A	       N/A	        N/A	       N/A	       N/A	       N/A	        N/A	       N/A	       N/A	       N/A	        N/A	
         R10	    339	    74.375	      21.5	         3	        N/A	   74.6406	      21.5	         3	        N/A	   74.9063	      21.5	         3	        N/A	       N/A	       N/A	       N/A	        N/A	       N/A	       N/A	       N/A	        N/A	       N/A	       N/A	       N/A	        N/A	       N/A	       N/A	       N/A	        N/A	       N/A	       N/A	       N/A	        N/A	
         R10	    340	   74.9063	      21.5	         3	        N/A	   75.1719	      21.5	         3	        N/A	   75.4375	      21.5	         3	        N/A	       N/A	       N/A	       N/A	        N/A	       N/A	       N/A	       N/A	        N/A	       N/A	       N/A	       N/A	        N/A	       N/A	       N/A	       N/A	        N/A	       N/A	       N/A	       N/A	        N/A	
         R10	    341	   75.4375	      21.5	         3	        N/A	   75.7031	      21.5	         3	        N/A	   75.9688	      21.5	         3	        N/A	       N/A	       N/A	       N/A	        N/A	       N/A	       N/A	       N/A	        N/A	       N/A	       N/A	       N/A	        N/A	       N/A	       N/A	       N/A	        N/A	       N/A	       N/A	       N/A	        N/A	
         R10	    342	   75.9688	      21.5	         3	        N/A	   76.2344	      21.5	         3	        N/A	      76.5	      21.5	         3	        N/A	       N/A	       N/A	       N/A	        N/A	       N/A	       N/A	       N/A	        N/A	       N/A	       N/A	       N/A	        N/A	       N/A	       N/A	       N/A	        N/A	       N/A	       N/A	       N/A	        N/A	
         R10	    343	      76.5	      21.5	         3	        N/A	   76.7656	      21.5	         3	        N/A	   77.0313	      21.5	         3	        N/A	       N/A	       N/A	       N/A	        N/A	       N/A	       N/A	       N/A	        N/A	       N/A	       N/A	       N/A	        N/A	       N/A	       N/A	       N/A	        N/A	       N/A	       N/A	       N/A	        N/A	
         R10	    344	   77.0313	      21.5	         3	        N/A	   77.2969	      21.5	         3	        N/A	   77.5625	      21.5	         3	        N/A	       N/A	       N/A	       N/A	        N/A	       N/A	       N/A	       N/A	        N/A	       N/A	       N/A	       N/A	        N/A	       N/A	       N/A	       N/A	        N/A	       N/A	       N/A	       N/A	        N/A	
         R10	    345	   77.5625	      21.5	         3	        N/A	   77.8281	      21.5	         3	        N/A	   78.0938	      21.5	         3	        N/A	       N/A	       N/A	       N/A	        N/A	       N/A	       N/A	       N/A	        N/A	       N/A	       N/A	       N/A	        N/A	       N/A	       N/A	       N/A	        N/A	       N/A	       N/A	       N/A	        N/A	
         R10	    346	   78.0938	      21.5	         3	        N/A	   78.3594	      21.5	         3	        N/A	    78.625	      21.5	         3	        N/A	       N/A	       N/A	       N/A	        N/A	       N/A	       N/A	       N/A	        N/A	       N/A	       N/A	       N/A	        N/A	       N/A	       N/A	       N/A	        N/A	       N/A	       N/A	       N/A	        N/A	
         R10	    347	     72.25	      21.5	      3.75	        N/A	   72.5576	      21.5	      3.75	        N/A	   72.8652	      21.5	      3.75	        N/A	       N/A	       N/A	       N/A	        N/A	       N/A	       N/A	       N/A	        N/A	       N/A	       N/A	       N/A	        N/A	       N/A	       N/A	       N/A	        N/A	       N/A	       N/A	       N/A	        N/A	
         R10	    348	   72.8652	      21.5	      3.75	        N/A	   73.1714	      21.5	      3.75	        N/A	   73.4777	      21.5	      3.75	        N/A	       N/A	       N/A	       N/A	        N/A	       N/A	       N/A	       N/A	        N/A	       N/A	       N/A	       N/A	        N/A	       N/A	       N/A	       N/A	        N/A	       N/A	       N/A	       N/A	        N/A	
         R10	    349	   73.4777	      21.5	      3.75	        N/A	   73.7826	      21.5	      3.75	        N/A	   74.0875	      21.5	      3.75	        N/A	       N/A	       N/A	       N/A	        N/A	       N/A	       N/A	       N/A	        N/A	       N/A	       N/A	       N/A	        N/A	       N/A	       N/A	       N/A	        N/A	       N/A	       N/A	       N/A	        N/A	
         R10	    350	   74.0875	      21.5	      3.75	        N/A	   74.3911	      21.5	      3.75	        N/A	   74.6946	      21.5	      3.75	        N/A	       N/A	       N/A	       N/A	        N/A	       N/A	       N/A	       N/A	        N/A	       N/A	       N/A	       N/A	        N/A	       N/A	       N/A	       N/A	        N/A	       N/A	       N/A	       N/A	        N/A	
         R10	    351	   74.6946	      21.5	      3.75	        N/A	   74.9969	      21.5	      3.75	        N/A	   75.2991	      21.5	      3.75	        N/A	       N/A	       N/A	       N/A	        N/A	       N/A	       N/A	       N/A	        N/A	       N/A	       N/A	       N/A	        N/A	       N/A	       N/A	       N/A	        N/A	       N/A	       N/A	       N/A	        N/A	
         R10	    352	   75.2991	      21.5	      3.75	        N/A	      75.6	      21.5	      3.75	        N/A	   75.9009	      21.5	      3.75	        N/A	       N/A	       N/A	       N/A	        N/A	       N/A	       N/A	       N/A	        N/A	       N/A	       N/A	       N/A	        N/A	       N/A	       N/A	       N/A	        N/A	       N/A	       N/A	       N/A	        N/A	
         R10	    353	   75.9009	      21.5	      3.75	        N/A	   76.2004	      21.5	      3.75	        N/A	      76.5	      21.5	      3.75	        N/A	       N/A	       N/A	       N/A	        N/A	       N/A	       N/A	       N/A	        N/A	       N/A	       N/A	       N/A	        N/A	       N/A	       N/A	       N/A	        N/A	       N/A	       N/A	       N/A	        N/A	
         R10	    354	      76.5	      21.5	      3.75	        N/A	   76.7621	      21.5	      3.75	        N/A	   77.0242	      21.5	      3.75	        N/A	       N/A	       N/A	       N/A	        N/A	       N/A	       N/A	       N/A	        N/A	       N/A	       N/A	       N/A	        N/A	       N/A	       N/A	       N/A	        N/A	       N/A	       N/A	       N/A	        N/A	
         R10	    355	   77.0242	      21.5	      3.75	        N/A	   77.2887	      21.5	      3.75	        N/A	   77.5531	      21.5	      3.75	        N/A	       N/A	       N/A	       N/A	        N/A	       N/A	       N/A	       N/A	        N/A	       N/A	       N/A	       N/A	        N/A	       N/A	       N/A	       N/A	        N/A	       N/A	       N/A	       N/A	        N/A	
         R10	    356	   77.5531	      21.5	      3.75	        N/A	   77.8199	      21.5	      3.75	        N/A	   78.0867	      21.5	      3.75	        N/A	       N/A	       N/A	       N/A	        N/A	       N/A	       N/A	       N/A	        N/A	       N/A	       N/A	       N/A	        N/A	       N/A	       N/A	       N/A	        N/A	       N/A	       N/A	       N/A	        N/A	
         R10	    357	   78.0867	      21.5	      3.75	        N/A	   78.3559	      21.5	      3.75	        N/A	    78.625	      21.5	      3.75	        N/A	       N/A	       N/A	       N/A	        N/A	       N/A	       N/A	       N/A	        N/A	       N/A	       N/A	       N/A	        N/A	       N/A	       N/A	       N/A	        N/A	       N/A	       N/A	       N/A	        N/A	
         R10	    358	     72.25	      21.5	       4.5	        N/A	   72.5864	      21.5	       4.5	        N/A	   72.9228	      21.5	       4.5	        N/A	       N/A	       N/A	       N/A	        N/A	       N/A	       N/A	       N/A	        N/A	       N/A	       N/A	       N/A	        N/A	       N/A	       N/A	       N/A	        N/A	       N/A	       N/A	       N/A	        N/A	
         R10	    359	   72.9228	      21.5	       4.5	        N/A	   73.2482	      21.5	       4.5	        N/A	   73.5737	      21.5	       4.5	        N/A	       N/A	       N/A	       N/A	        N/A	       N/A	       N/A	       N/A	        N/A	       N/A	       N/A	       N/A	        N/A	       N/A	       N/A	       N/A	        N/A	       N/A	       N/A	       N/A	        N/A	
         R10	    360	   73.5737	      21.5	       4.5	        N/A	   73.8882	      21.5	       4.5	        N/A	   74.2027	      21.5	       4.5	        N/A	       N/A	       N/A	       N/A	        N/A	       N/A	       N/A	       N/A	        N/A	       N/A	       N/A	       N/A	        N/A	       N/A	       N/A	       N/A	        N/A	       N/A	       N/A	       N/A	        N/A	
         R10	    361	   74.2027	      21.5	       4.5	        N/A	   74.5063	      21.5	       4.5	        N/A	   74.8099	      21.5	       4.5	        N/A	       N/A	       N/A	       N/A	        N/A	       N/A	       N/A	       N/A	        N/A	       N/A	       N/A	       N/A	        N/A	       N/A	       N/A	       N/A	        N/A	       N/A	       N/A	       N/A	        N/A	
         R10	    362	   74.8099	      21.5	       4.5	        N/A	   75.1025	      21.5	       4.5	        N/A	   75.3951	      21.5	       4.5	        N/A	       N/A	       N/A	       N/A	        N/A	       N/A	       N/A	       N/A	        N/A	       N/A	       N/A	       N/A	        N/A	       N/A	       N/A	       N/A	        N/A	       N/A	       N/A	       N/A	        N/A	
         R10	    363	   75.3951	      21.5	       4.5	        N/A	   75.6768	      21.5	       4.5	        N/A	   75.9585	      21.5	       4.5	        N/A	       N/A	       N/A	       N/A	        N/A	       N/A	       N/A	       N/A	        N/A	       N/A	       N/A	       N/A	        N/A	       N/A	       N/A	       N/A	        N/A	       N/A	       N/A	       N/A	        N/A	
         R10	    364	   75.9585	      21.5	       4.5	        N/A	   76.2292	      21.5	       4.5	        N/A	      76.5	      21.5	       4.5	        N/A	       N/A	       N/A	       N/A	        N/A	       N/A	       N/A	       N/A	        N/A	       N/A	       N/A	       N/A	        N/A	       N/A	       N/A	       N/A	        N/A	       N/A	       N/A	       N/A	        N/A	
         R10	    365	      76.5	      21.5	       4.5	        N/A	   76.7369	      21.5	       4.5	        N/A	   76.9738	      21.5	       4.5	        N/A	       N/A	       N/A	       N/A	        N/A	       N/A	       N/A	       N/A	        N/A	       N/A	       N/A	       N/A	        N/A	       N/A	       N/A	       N/A	        N/A	       N/A	       N/A	       N/A	        N/A	
         R10	    366	   76.9738	      21.5	       4.5	        N/A	   77.2299	      21.5	       4.5	        N/A	   77.4859	      21.5	       4.5	        N/A	       N/A	       N/A	       N/A	        N/A	       N/A	       N/A	       N/A	        N/A	       N/A	       N/A	       N/A	        N/A	       N/A	       N/A	       N/A	        N/A	       N/A	       N/A	       N/A	        N/A	
         R10	    367	   77.4859	      21.5	       4.5	        N/A	   77.7611	      21.5	       4.5	        N/A	   78.0363	      21.5	       4.5	        N/A	       N/A	       N/A	       N/A	        N/A	       N/A	       N/A	       N/A	        N/A	       N/A	       N/A	       N/A	        N/A	       N/A	       N/A	       N/A	        N/A	       N/A	       N/A	       N/A	        N/A	
         R10	    368	   78.0363	      21.5	       4.5	        N/A	   78.3307	      21.5	       4.5	        N/A	    78.625	      21.5	       4.5	        N/A	       N/A	       N/A	       N/A	        N/A	       N/A	       N/A	       N/A	        N/A	       N/A	       N/A	       N/A	        N/A	       N/A	       N/A	       N/A	        N/A	       N/A	       N/A	       N/A	        N/A	
         R10	    369	      76.5	   19.5952	       7.7	        N/A	      76.5	   19.2976	       7.7	        N/A	      76.5	        19	       7.7	        N/A	       N/A	       N/A	       N/A	        N/A	       N/A	       N/A	       N/A	        N/A	       N/A	       N/A	       N/A	        N/A	       N/A	       N/A	       N/A	        N/A	       N/A	       N/A	       N/A	        N/A	
         R10	    370	      76.5	   20.2103	       7.7	        N/A	      76.5	   19.9028	       7.7	        N/A	      76.5	   19.5952	       7.7	        N/A	       N/A	       N/A	       N/A	        N/A	       N/A	       N/A	       N/A	        N/A	       N/A	       N/A	       N/A	        N/A	       N/A	       N/A	       N/A	        N/A	       N/A	       N/A	       N/A	        N/A	
         R10	    371	      76.5	   20.8452	       7.7	        N/A	      76.5	   20.5278	       7.7	        N/A	      76.5	   20.2103	       7.7	        N/A	       N/A	       N/A	       N/A	        N/A	       N/A	       N/A	       N/A	        N/A	       N/A	       N/A	       N/A	        N/A	       N/A	       N/A	       N/A	        N/A	       N/A	       N/A	       N/A	        N/A	
         R10	    372	      76.5	      21.5	       7.7	        N/A	      76.5	   21.1726	       7.7	        N/A	      76.5	   20.8452	       7.7	        N/A	       N/A	       N/A	       N/A	        N/A	       N/A	       N/A	       N/A	        N/A	       N/A	       N/A	       N/A	        N/A	       N/A	       N/A	       N/A	        N/A	       N/A	       N/A	       N/A	        N/A	
         R10	    373	      76.5	   19.4762	      6.85	        N/A	      76.5	   19.2381	      6.85	        N/A	      76.5	        19	      6.85	        N/A	       N/A	       N/A	       N/A	        N/A	       N/A	       N/A	       N/A	        N/A	       N/A	       N/A	       N/A	        N/A	       N/A	       N/A	       N/A	        N/A	       N/A	       N/A	       N/A	        N/A	
         R10	    374	      76.5	   19.9643	      6.85	        N/A	      76.5	   19.7202	      6.85	        N/A	      76.5	   19.4762	      6.85	        N/A	       N/A	       N/A	       N/A	        N/A	       N/A	       N/A	       N/A	        N/A	       N/A	       N/A	       N/A	        N/A	       N/A	       N/A	       N/A	        N/A	       N/A	       N/A	       N/A	        N/A	
         R10	    375	      76.5	   20.4643	      6.85	        N/A	      76.5	   20.2143	      6.85	        N/A	      76.5	   19.9643	      6.85	        N/A	       N/A	       N/A	       N/A	        N/A	       N/A	       N/A	       N/A	        N/A	       N/A	       N/A	       N/A	        N/A	       N/A	       N/A	       N/A	        N/A	       N/A	       N/A	       N/A	        N/A	
         R10	    376	      76.5	   20.9762	      6.85	        N/A	      76.5	   20.7202	      6.85	        N/A	      76.5	   20.4643	      6.85	        N/A	       N/A	       N/A	       N/A	        N/A	       N/A	       N/A	       N/A	        N/A	       N/A	       N/A	       N/A	        N/A	       N/A	       N/A	       N/A	        N/A	       N/A	       N/A	       N/A	        N/A	
         R10	    377	      76.5	      21.5	      6.85	        N/A	      76.5	   21.2381	      6.85	        N/A	      76.5	   20.9762	      6.85	        N/A	       N/A	       N/A	       N/A	        N/A	       N/A	       N/A	       N/A	        N/A	       N/A	       N/A	       N/A	        N/A	       N/A	       N/A	       N/A	        N/A	       N/A	       N/A	       N/A	        N/A	
         R10	    378	      76.5	   19.7937	       9.4	        N/A	      76.5	   19.3968	       9.4	        N/A	      76.5	        19	       9.4	        N/A	       N/A	       N/A	       N/A	        N/A	       N/A	       N/A	       N/A	        N/A	       N/A	       N/A	       N/A	        N/A	       N/A	       N/A	       N/A	        N/A	       N/A	       N/A	       N/A	        N/A	
         R10	    379	      76.5	    20.627	       9.4	        N/A	      76.5	   20.2103	       9.4	        N/A	      76.5	   19.7937	       9.4	        N/A	       N/A	       N/A	       N/A	        N/A	       N/A	       N/A	       N/A	        N/A	       N/A	       N/A	       N/A	        N/A	       N/A	       N/A	       N/A	        N/A	       N/A	       N/A	       N/A	        N/A	
         R10	    380	      76.5	      21.5	       9.4	        N/A	      76.5	   21.0635	       9.4	        N/A	      76.5	    20.627	       9.4	        N/A	       N/A	       N/A	       N/A	        N/A	       N/A	       N/A	       N/A	        N/A	       N/A	       N/A	       N/A	        N/A	       N/A	       N/A	       N/A	        N/A	       N/A	       N/A	       N/A	        N/A	
         R10	    381	      76.5	   19.5952	      8.55	        N/A	      76.5	   19.2976	      8.55	        N/A	      76.5	        19	      8.55	        N/A	       N/A	       N/A	       N/A	        N/A	       N/A	       N/A	       N/A	        N/A	       N/A	       N/A	       N/A	        N/A	       N/A	       N/A	       N/A	        N/A	       N/A	       N/A	       N/A	        N/A	
         R10	    382	      76.5	   20.2103	      8.55	        N/A	      76.5	   19.9028	      8.55	        N/A	      76.5	   19.5952	      8.55	        N/A	       N/A	       N/A	       N/A	        N/A	       N/A	       N/A	       N/A	        N/A	       N/A	       N/A	       N/A	        N/A	       N/A	       N/A	       N/A	        N/A	       N/A	       N/A	       N/A	        N/A	
         R10	    383	      76.5	   20.8452	      8.55	        N/A	      76.5	   20.5278	      8.55	        N/A	      76.5	   20.2103	      8.55	        N/A	       N/A	       N/A	       N/A	        N/A	       N/A	       N/A	       N/A	        N/A	       N/A	       N/A	       N/A	        N/A	       N/A	       N/A	       N/A	        N/A	       N/A	       N/A	       N/A	        N/A	
         R10	    384	      76.5	      21.5	      8.55	        N/A	      76.5	   21.1726	      8.55	        N/A	      76.5	   20.8452	      8.55	        N/A	       N/A	       N/A	       N/A	        N/A	       N/A	       N/A	       N/A	        N/A	       N/A	       N/A	       N/A	        N/A	       N/A	       N/A	       N/A	        N/A	       N/A	       N/A	       N/A	        N/A	
         R10	    385	     72.25	      21.5	      5.25	        N/A	   72.6006	      21.5	      5.25	        N/A	   72.9512	      21.5	      5.25	        N/A	       N/A	       N/A	       N/A	        N/A	       N/A	       N/A	       N/A	        N/A	       N/A	       N/A	       N/A	        N/A	       N/A	       N/A	       N/A	        N/A	       N/A	       N/A	       N/A	        N/A	
         R10	    386	   72.9512	      21.5	      5.25	        N/A	   73.2861	      21.5	      5.25	        N/A	   73.6211	      21.5	      5.25	        N/A	       N/A	       N/A	       N/A	        N/A	       N/A	       N/A	       N/A	        N/A	       N/A	       N/A	       N/A	        N/A	       N/A	       N/A	       N/A	        N/A	       N/A	       N/A	       N/A	        N/A	
         R10	    387	   73.6211	      21.5	      5.25	        N/A	   73.9403	      21.5	      5.25	        N/A	   74.2596	      21.5	      5.25	        N/A	       N/A	       N/A	       N/A	        N/A	       N/A	       N/A	       N/A	        N/A	       N/A	       N/A	       N/A	        N/A	       N/A	       N/A	       N/A	        N/A	       N/A	       N/A	       N/A	        N/A	
         R10	    388	   74.2596	      21.5	      5.25	        N/A	   74.5631	      21.5	      5.25	        N/A	   74.8667	      21.5	      5.25	        N/A	       N/A	       N/A	       N/A	        N/A	       N/A	       N/A	       N/A	        N/A	       N/A	       N/A	       N/A	        N/A	       N/A	       N/A	       N/A	        N/A	       N/A	       N/A	       N/A	        N/A	
         R10	    389	   74.8667	      21.5	      5.25	        N/A	   75.1546	      21.5	      5.25	        N/A	   75.4425	      21.5	      5.25	        N/A	       N/A	       N/A	       N/A	        N/A	       N/A	       N/A	       N/A	        N/A	       N/A	       N/A	       N/A	        N/A	       N/A	       N/A	       N/A	        N/A	       N/A	       N/A	       N/A	        N/A	
         R10	    390	   75.4425	      21.5	      5.25	        N/A	   75.7147	      21.5	      5.25	        N/A	   75.9869	      21.5	      5.25	        N/A	       N/A	       N/A	       N/A	        N/A	       N/A	       N/A	       N/A	        N/A	       N/A	       N/A	       N/A	        N/A	       N/A	       N/A	       N/A	        N/A	       N/A	       N/A	       N/A	        N/A	
         R10	    391	   75.9869	      21.5	      5.25	        N/A	   76.2435	      21.5	      5.25	        N/A	      76.5	      21.5	      5.25	        N/A	       N/A	       N/A	       N/A	        N/A	       N/A	       N/A	       N/A	        N/A	       N/A	       N/A	       N/A	        N/A	       N/A	       N/A	       N/A	        N/A	       N/A	       N/A	       N/A	        N/A	
         R10	    392	      76.5	      21.5	      5.25	        N/A	   76.7279	      21.5	      5.25	        N/A	   76.9558	      21.5	      5.25	        N/A	       N/A	       N/A	       N/A	        N/A	       N/A	       N/A	       N/A	        N/A	       N/A	       N/A	       N/A	        N/A	       N/A	       N/A	       N/A	        N/A	       N/A	       N/A	       N/A	        N/A	
         R10	    393	   76.9558	      21.5	      5.25	        N/A	   77.2089	      21.5	      5.25	        N/A	   77.4619	      21.5	      5.25	        N/A	       N/A	       N/A	       N/A	        N/A	       N/A	       N/A	       N/A	        N/A	       N/A	       N/A	       N/A	        N/A	       N/A	       N/A	       N/A	        N/A	       N/A	       N/A	       N/A	        N/A	
         R10	    394	   77.4619	      21.5	      5.25	        N/A	   77.7401	      21.5	      5.25	        N/A	   78.0183	      21.5	      5.25	        N/A	       N/A	       N/A	       N/A	        N/A	       N/A	       N/A	       N/A	        N/A	       N/A	       N/A	       N/A	        N/A	       N/A	       N/A	       N/A	        N/A	       N/A	       N/A	       N/A	        N/A	
         R10	    395	   78.0183	      21.5	      5.25	        N/A	   78.3217	      21.5	      5.25	        N/A	    78.625	      21.5	      5.25	        N/A	       N/A	       N/A	       N/A	        N/A	       N/A	       N/A	       N/A	        N/A	       N/A	       N/A	       N/A	        N/A	       N/A	       N/A	       N/A	        N/A	       N/A	       N/A	       N/A	        N/A	
         R10	    396	     72.25	      21.5	      6.85	        N/A	   72.6701	      21.5	      6.85	        N/A	   73.0903	      21.5	      6.85	        N/A	       N/A	       N/A	       N/A	        N/A	       N/A	       N/A	       N/A	        N/A	       N/A	       N/A	       N/A	        N/A	       N/A	       N/A	       N/A	        N/A	       N/A	       N/A	       N/A	        N/A	
         R10	    397	   73.0903	      21.5	      6.85	        N/A	    73.484	      21.5	      6.85	        N/A	   73.8778	      21.5	      6.85	        N/A	       N/A	       N/A	       N/A	        N/A	       N/A	       N/A	       N/A	        N/A	       N/A	       N/A	       N/A	        N/A	       N/A	       N/A	       N/A	        N/A	       N/A	       N/A	       N/A	        N/A	
         R10	    398	   73.8778	      21.5	      6.85	        N/A	   74.2452	      21.5	      6.85	        N/A	   74.6125	      21.5	      6.85	        N/A	       N/A	       N/A	       N/A	        N/A	       N/A	       N/A	       N/A	        N/A	       N/A	       N/A	       N/A	        N/A	       N/A	       N/A	       N/A	        N/A	       N/A	       N/A	       N/A	        N/A	
         R10	    399	   74.6125	      21.5	      6.85	        N/A	   74.9535	      21.5	      6.85	        N/A	   75.2945	      21.5	      6.85	        N/A	       N/A	       N/A	       N/A	        N/A	       N/A	       N/A	       N/A	        N/A	       N/A	       N/A	       N/A	        N/A	       N/A	       N/A	       N/A	        N/A	       N/A	       N/A	       N/A	        N/A	
         R10	    400	   75.2945	      21.5	      6.85	        N/A	    75.609	      21.5	      6.85	        N/A	   75.9236	      21.5	      6.85	        N/A	       N/A	       N/A	       N/A	        N/A	       N/A	       N/A	       N/A	        N/A	       N/A	       N/A	       N/A	        N/A	       N/A	       N/A	       N/A	        N/A	       N/A	       N/A	       N/A	        N/A	
         R10	    401	   75.9236	      21.5	      6.85	        N/A	   76.2118	      21.5	      6.85	        N/A	      76.5	      21.5	      6.85	        N/A	       N/A	       N/A	       N/A	        N/A	       N/A	       N/A	       N/A	        N/A	       N/A	       N/A	       N/A	        N/A	       N/A	       N/A	       N/A	        N/A	       N/A	       N/A	       N/A	        N/A	
         R10	    402	      76.5	      21.5	      6.85	        N/A	   76.8205	      21.5	      6.85	        N/A	    77.141	      21.5	      6.85	        N/A	       N/A	       N/A	       N/A	        N/A	       N/A	       N/A	       N/A	        N/A	       N/A	       N/A	       N/A	        N/A	       N/A	       N/A	       N/A	        N/A	       N/A	       N/A	       N/A	        N/A	
         R10	    403	    77.141	      21.5	      6.85	        N/A	   77.4952	      21.5	      6.85	        N/A	   77.8494	      21.5	      6.85	        N/A	       N/A	       N/A	       N/A	        N/A	       N/A	       N/A	       N/A	        N/A	       N/A	       N/A	       N/A	        N/A	       N/A	       N/A	       N/A	        N/A	       N/A	       N/A	       N/A	        N/A	
         R10	    404	   77.8494	      21.5	      6.85	        N/A	   78.2372	      21.5	      6.85	        N/A	    78.625	      21.5	      6.85	        N/A	       N/A	       N/A	       N/A	        N/A	       N/A	       N/A	       N/A	        N/A	       N/A	       N/A	       N/A	        N/A	       N/A	       N/A	       N/A	        N/A	       N/A	       N/A	       N/A	        N/A	
         R10	    405	     72.25	      21.5	       7.7	        N/A	   72.6589	      21.5	       7.7	        N/A	   73.0678	      21.5	       7.7	        N/A	       N/A	       N/A	       N/A	        N/A	       N/A	       N/A	       N/A	        N/A	       N/A	       N/A	       N/A	        N/A	       N/A	       N/A	       N/A	        N/A	       N/A	       N/A	       N/A	        N/A	
         R10	    406	   73.0678	      21.5	       7.7	        N/A	   73.4548	      21.5	       7.7	        N/A	   73.8418	      21.5	       7.7	        N/A	       N/A	       N/A	       N/A	        N/A	       N/A	       N/A	       N/A	        N/A	       N/A	       N/A	       N/A	        N/A	       N/A	       N/A	       N/A	        N/A	       N/A	       N/A	       N/A	        N/A	
         R10	    407	   73.8418	      21.5	       7.7	        N/A	   74.2069	      21.5	       7.7	        N/A	    74.572	      21.5	       7.7	        N/A	       N/A	       N/A	       N/A	        N/A	       N/A	       N/A	       N/A	        N/A	       N/A	       N/A	       N/A	        N/A	       N/A	       N/A	       N/A	        N/A	       N/A	       N/A	       N/A	        N/A	
         R10	    408	    74.572	      21.5	       7.7	        N/A	   74.9152	      21.5	       7.7	        N/A	   75.2585	      21.5	       7.7	        N/A	       N/A	       N/A	       N/A	        N/A	       N/A	       N/A	       N/A	        N/A	       N/A	       N/A	       N/A	        N/A	       N/A	       N/A	       N/A	        N/A	       N/A	       N/A	       N/A	        N/A	
         R10	    409	   75.2585	      21.5	       7.7	        N/A	   75.5798	      21.5	       7.7	        N/A	   75.9011	      21.5	       7.7	        N/A	       N/A	       N/A	       N/A	        N/A	       N/A	       N/A	       N/A	        N/A	       N/A	       N/A	       N/A	        N/A	       N/A	       N/A	       N/A	        N/A	       N/A	       N/A	       N/A	        N/A	
         R10	    410	   75.9011	      21.5	       7.7	        N/A	   76.2006	      21.5	       7.7	        N/A	      76.5	      21.5	       7.7	        N/A	       N/A	       N/A	       N/A	        N/A	       N/A	       N/A	       N/A	        N/A	       N/A	       N/A	       N/A	        N/A	       N/A	       N/A	       N/A	        N/A	       N/A	       N/A	       N/A	        N/A	
         R10	    411	      76.5	      21.5	       7.7	        N/A	   76.8205	      21.5	       7.7	        N/A	    77.141	      21.5	       7.7	        N/A	       N/A	       N/A	       N/A	        N/A	       N/A	       N/A	       N/A	        N/A	       N/A	       N/A	       N/A	        N/A	       N/A	       N/A	       N/A	        N/A	       N/A	       N/A	       N/A	        N/A	
         R10	    412	    77.141	      21.5	       7.7	        N/A	   77.4952	      21.5	       7.7	        N/A	   77.8494	      21.5	       7.7	        N/A	       N/A	       N/A	       N/A	        N/A	       N/A	       N/A	       N/A	        N/A	       N/A	       N/A	       N/A	        N/A	       N/A	       N/A	       N/A	        N/A	       N/A	       N/A	       N/A	        N/A	
         R10	    413	   77.8494	      21.5	       7.7	        N/A	   78.2372	      21.5	       7.7	        N/A	    78.625	      21.5	       7.7	        N/A	       N/A	       N/A	       N/A	        N/A	       N/A	       N/A	       N/A	        N/A	       N/A	       N/A	       N/A	        N/A	       N/A	       N/A	       N/A	        N/A	       N/A	       N/A	       N/A	        N/A	
         R10	    414	      76.5	      13.6	  0.316892	        N/A	      76.5	      13.6	  0.158446	        N/A	      76.5	      13.6	         0	        N/A	       N/A	       N/A	       N/A	        N/A	       N/A	       N/A	       N/A	        N/A	       N/A	       N/A	       N/A	        N/A	       N/A	       N/A	       N/A	        N/A	       N/A	       N/A	       N/A	        N/A	
         R10	    415	      76.5	      13.6	  0.583559	        N/A	      76.5	      13.6	  0.450225	        N/A	      76.5	      13.6	  0.316892	        N/A	       N/A	       N/A	       N/A	        N/A	       N/A	       N/A	       N/A	        N/A	       N/A	       N/A	       N/A	        N/A	       N/A	       N/A	       N/A	        N/A	       N/A	       N/A	       N/A	        N/A	
         R10	    416	      76.5	      13.6	       0.8	        N/A	      76.5	      13.6	  0.691779	        N/A	      76.5	      13.6	  0.583559	        N/A	       N/A	       N/A	       N/A	        N/A	       N/A	       N/A	       N/A	        N/A	       N/A	       N/A	       N/A	        N/A	       N/A	       N/A	       N/A	        N/A	       N/A	       N/A	       N/A	        N/A	
         R10	    417	      76.5	      13.6	   1.04677	        N/A	      76.5	      13.6	  0.923387	        N/A	      76.5	      13.6	       0.8	        N/A	       N/A	       N/A	       N/A	        N/A	       N/A	       N/A	       N/A	        N/A	       N/A	       N/A	       N/A	        N/A	       N/A	       N/A	       N/A	        N/A	       N/A	       N/A	       N/A	        N/A	
         R10	    418	      76.5	      13.6	   1.28018	        N/A	      76.5	      13.6	   1.16348	        N/A	      76.5	      13.6	   1.04677	        N/A	       N/A	       N/A	       N/A	        N/A	       N/A	       N/A	       N/A	        N/A	       N/A	       N/A	       N/A	        N/A	       N/A	       N/A	       N/A	        N/A	       N/A	       N/A	       N/A	        N/A	
         R10	    419	      76.5	      13.6	   1.50023	        N/A	      76.5	      13.6	   1.39021	        N/A	      76.5	      13.6	   1.28018	        N/A	       N/A	       N/A	       N/A	        N/A	       N/A	       N/A	       N/A	        N/A	       N/A	       N/A	       N/A	        N/A	       N/A	       N/A	       N/A	        N/A	       N/A	       N/A	       N/A	        N/A	
         R10	    420	      76.5	      13.6	   1.70691	        N/A	      76.5	      13.6	   1.60357	        N/A	      76.5	      13.6	   1.50023	        N/A	       N/A	       N/A	       N/A	        N/A	       N/A	       N/A	       N/A	        N/A	       N/A	       N/A	       N/A	        N/A	       N/A	       N/A	       N/A	        N/A	       N/A	       N/A	       N/A	        N/A	
         R10	    421	      76.5	      13.6	   1.90023	        N/A	      76.5	      13.6	   1.80357	        N/A	      76.5	      13.6	   1.70691	        N/A	       N/A	       N/A	       N/A	        N/A	       N/A	       N/A	       N/A	        N/A	       N/A	       N/A	       N/A	        N/A	       N/A	       N/A	       N/A	        N/A	       N/A	       N/A	       N/A	        N/A	
         R10	    422	      76.5	      13.6	   2.08018	        N/A	      76.5	      13.6	   1.99021	        N/A	      76.5	      13.6	   1.90023	        N/A	       N/A	       N/A	       N/A	        N/A	       N/A	       N/A	       N/A	        N/A	       N/A	       N/A	       N/A	        N/A	       N/A	       N/A	       N/A	        N/A	       N/A	       N/A	       N/A	        N/A	
         R10	    423	      76.5	      13.6	   2.24677	        N/A	      76.5	      13.6	   2.16348	        N/A	      76.5	      13.6	   2.08018	        N/A	       N/A	       N/A	       N/A	        N/A	       N/A	       N/A	       N/A	        N/A	       N/A	       N/A	       N/A	        N/A	       N/A	       N/A	       N/A	        N/A	       N/A	       N/A	       N/A	        N/A	
         R10	    424	      76.5	      13.6	       2.4	        N/A	      76.5	      13.6	   2.32339	        N/A	      76.5	      13.6	   2.24677	        N/A	       N/A	       N/A	       N/A	        N/A	       N/A	       N/A	       N/A	        N/A	       N/A	       N/A	       N/A	        N/A	       N/A	       N/A	       N/A	        N/A	       N/A	       N/A	       N/A	        N/A	
         R10	    425	     72.25	      21.5	      8.55	        N/A	   72.6423	      21.5	      8.55	        N/A	   73.0346	      21.5	      8.55	        N/A	       N/A	       N/A	       N/A	        N/A	       N/A	       N/A	       N/A	        N/A	       N/A	       N/A	       N/A	        N/A	       N/A	       N/A	       N/A	        N/A	       N/A	       N/A	       N/A	        N/A	
         R10	    426	   73.0346	      21.5	      8.55	        N/A	   73.4117	      21.5	      8.55	        N/A	   73.7887	      21.5	      8.55	        N/A	       N/A	       N/A	       N/A	        N/A	       N/A	       N/A	       N/A	        N/A	       N/A	       N/A	       N/A	        N/A	       N/A	       N/A	       N/A	        N/A	       N/A	       N/A	       N/A	        N/A	
         R10	    427	   73.7887	      21.5	      8.55	        N/A	   74.1505	      21.5	      8.55	        N/A	   74.5123	      21.5	      8.55	        N/A	       N/A	       N/A	       N/A	        N/A	       N/A	       N/A	       N/A	        N/A	       N/A	       N/A	       N/A	        N/A	       N/A	       N/A	       N/A	        N/A	       N/A	       N/A	       N/A	        N/A	
         R10	    428	   74.5123	      21.5	      8.55	        N/A	   74.8588	      21.5	      8.55	        N/A	   75.2054	      21.5	      8.55	        N/A	       N/A	       N/A	       N/A	        N/A	       N/A	       N/A	       N/A	        N/A	       N/A	       N/A	       N/A	        N/A	       N/A	       N/A	       N/A	        N/A	       N/A	       N/A	       N/A	        N/A	
         R10	    429	   75.2054	      21.5	      8.55	        N/A	   75.5367	      21.5	      8.55	        N/A	   75.8679	      21.5	      8.55	        N/A	       N/A	       N/A	       N/A	        N/A	       N/A	       N/A	       N/A	        N/A	       N/A	       N/A	       N/A	        N/A	       N/A	       N/A	       N/A	        N/A	       N/A	       N/A	       N/A	        N/A	
         R10	    430	   75.8679	      21.5	      8.55	        N/A	    76.184	      21.5	      8.55	        N/A	      76.5	      21.5	      8.55	        N/A	       N/A	       N/A	       N/A	        N/A	       N/A	       N/A	       N/A	        N/A	       N/A	       N/A	       N/A	        N/A	       N/A	       N/A	       N/A	        N/A	       N/A	       N/A	       N/A	        N/A	
         R10	    431	      76.5	      21.5	      8.55	        N/A	   76.8205	      21.5	      8.55	        N/A	    77.141	      21.5	      8.55	        N/A	       N/A	       N/A	       N/A	        N/A	       N/A	       N/A	       N/A	        N/A	       N/A	       N/A	       N/A	        N/A	       N/A	       N/A	       N/A	        N/A	       N/A	       N/A	       N/A	        N/A	
         R10	    432	    77.141	      21.5	      8.55	        N/A	   77.4952	      21.5	      8.55	        N/A	   77.8494	      21.5	      8.55	        N/A	       N/A	       N/A	       N/A	        N/A	       N/A	       N/A	       N/A	        N/A	       N/A	       N/A	       N/A	        N/A	       N/A	       N/A	       N/A	        N/A	       N/A	       N/A	       N/A	        N/A	
         R10	    433	   77.8494	      21.5	      8.55	        N/A	   78.2372	      21.5	      8.55	        N/A	    78.625	      21.5	      8.55	        N/A	       N/A	       N/A	       N/A	        N/A	       N/A	       N/A	       N/A	        N/A	       N/A	       N/A	       N/A	        N/A	       N/A	       N/A	       N/A	        N/A	       N/A	       N/A	       N/A	        N/A	
         R10	    434	      76.5	     14.45	  0.329031	        N/A	      76.5	     14.45	  0.164515	        N/A	      76.5	     14.45	         0	        N/A	       N/A	       N/A	       N/A	        N/A	       N/A	       N/A	       N/A	        N/A	       N/A	       N/A	       N/A	        N/A	       N/A	       N/A	       N/A	        N/A	       N/A	       N/A	       N/A	        N/A	
         R10	    435	      76.5	     14.45	  0.595698	        N/A	      76.5	     14.45	  0.462364	        N/A	      76.5	     14.45	  0.329031	        N/A	       N/A	       N/A	       N/A	        N/A	       N/A	       N/A	       N/A	        N/A	       N/A	       N/A	       N/A	        N/A	       N/A	       N/A	       N/A	        N/A	       N/A	       N/A	       N/A	        N/A	
         R10	    436	      76.5	     14.45	       0.8	        N/A	      76.5	     14.45	  0.697849	        N/A	      76.5	     14.45	  0.595698	        N/A	       N/A	       N/A	       N/A	        N/A	       N/A	       N/A	       N/A	        N/A	       N/A	       N/A	       N/A	        N/A	       N/A	       N/A	       N/A	        N/A	       N/A	       N/A	       N/A	        N/A	
         R10	    437	      76.5	     14.45	  0.970451	        N/A	      76.5	     14.45	  0.885226	        N/A	      76.5	     14.45	       0.8	        N/A	       N/A	       N/A	       N/A	        N/A	       N/A	       N/A	       N/A	        N/A	       N/A	       N/A	       N/A	        N/A	       N/A	       N/A	       N/A	        N/A	       N/A	       N/A	       N/A	        N/A	
         R10	    438	      76.5	     14.45	   1.12606	        N/A	      76.5	     14.45	   1.04825	        N/A	      76.5	     14.45	  0.970451	        N/A	       N/A	       N/A	       N/A	        N/A	       N/A	       N/A	       N/A	        N/A	       N/A	       N/A	       N/A	        N/A	       N/A	       N/A	       N/A	        N/A	       N/A	       N/A	       N/A	        N/A	
         R10	    439	      76.5	     14.45	   1.26681	        N/A	      76.5	     14.45	   1.19643	        N/A	      76.5	     14.45	   1.12606	        N/A	       N/A	       N/A	       N/A	        N/A	       N/A	       N/A	       N/A	        N/A	       N/A	       N/A	       N/A	        N/A	       N/A	       N/A	       N/A	        N/A	       N/A	       N/A	       N/A	        N/A	
         R10	    440	      76.5	     14.45	   1.39272	        N/A	      76.5	     14.45	   1.32977	        N/A	      76.5	     14.45	   1.26681	        N/A	       N/A	       N/A	       N/A	        N/A	       N/A	       N/A	       N/A	        N/A	       N/A	       N/A	       N/A	        N/A	       N/A	       N/A	       N/A	        N/A	       N/A	       N/A	       N/A	        N/A	
         R10	    441	      76.5	     14.45	   1.50378	        N/A	      76.5	     14.45	   1.44825	        N/A	      76.5	     14.45	   1.39272	        N/A	       N/A	       N/A	       N/A	        N/A	       N/A	       N/A	       N/A	        N/A	       N/A	       N/A	       N/A	        N/A	       N/A	       N/A	       N/A	        N/A	       N/A	       N/A	       N/A	        N/A	
         R10	    442	      76.5	     14.45	       1.6	        N/A	      76.5	     14.45	   1.55189	        N/A	      76.5	     14.45	   1.50378	        N/A	       N/A	       N/A	       N/A	        N/A	       N/A	       N/A	       N/A	        N/A	       N/A	       N/A	       N/A	        N/A	       N/A	       N/A	       N/A	        N/A	       N/A	       N/A	       N/A	        N/A	
         R10	    443	      76.5	     12.75	  0.469829	        N/A	      76.5	     12.75	  0.234915	        N/A	      76.5	     12.75	         0	        N/A	       N/A	       N/A	       N/A	        N/A	       N/A	       N/A	       N/A	        N/A	       N/A	       N/A	       N/A	        N/A	       N/A	       N/A	       N/A	        N/A	       N/A	       N/A	       N/A	        N/A	
         R10	    444	      76.5	     12.75	  0.897334	        N/A	      76.5	     12.75	  0.683582	        N/A	      76.5	     12.75	  0.469829	        N/A	       N/A	       N/A	       N/A	        N/A	       N/A	       N/A	       N/A	        N/A	       N/A	       N/A	       N/A	        N/A	       N/A	       N/A	       N/A	        N/A	       N/A	       N/A	       N/A	        N/A	
         R10	    445	      76.5	     12.75	   1.28252	        N/A	      76.5	     12.75	   1.08992	        N/A	      76.5	     12.75	  0.897334	        N/A	       N/A	       N/A	       N/A	        N/A	       N/A	       N/A	       N/A	        N/A	       N/A	       N/A	       N/A	        N/A	       N/A	       N/A	       N/A	        N/A	       N/A	       N/A	       N/A	        N/A	
         R10	    446	      76.5	     12.75	   1.62537	        N/A	      76.5	     12.75	   1.45394	        N/A	      76.5	     12.75	   1.28252	        N/A	       N/A	       N/A	       N/A	        N/A	       N/A	       N/A	       N/A	        N/A	       N/A	       N/A	       N/A	        N/A	       N/A	       N/A	       N/A	        N/A	       N/A	       N/A	       N/A	        N/A	
         R10	    447	      76.5	     12.75	   1.92591	        N/A	      76.5	     12.75	   1.77564	        N/A	      76.5	     12.75	   1.62537	        N/A	       N/A	       N/A	       N/A	        N/A	       N/A	       N/A	       N/A	        N/A	       N/A	       N/A	       N/A	        N/A	       N/A	       N/A	       N/A	        N/A	       N/A	       N/A	       N/A	        N/A	
         R10	    448	      76.5	     12.75	   2.18411	        N/A	      76.5	     12.75	   2.05501	        N/A	      76.5	     12.75	   1.92591	        N/A	       N/A	       N/A	       N/A	        N/A	       N/A	       N/A	       N/A	        N/A	       N/A	       N/A	       N/A	        N/A	       N/A	       N/A	       N/A	        N/A	       N/A	       N/A	       N/A	        N/A	
         R10	    449	      76.5	     12.75	       2.4	        N/A	      76.5	     12.75	   2.29206	        N/A	      76.5	     12.75	   2.18411	        N/A	       N/A	       N/A	       N/A	        N/A	       N/A	       N/A	       N/A	        N/A	       N/A	       N/A	       N/A	        N/A	       N/A	       N/A	       N/A	        N/A	       N/A	       N/A	       N/A	        N/A	
         R10	    450	      76.5	     11.05	  0.876018	        N/A	      76.5	     11.05	  0.438009	        N/A	      76.5	     11.05	         0	        N/A	       N/A	       N/A	       N/A	        N/A	       N/A	       N/A	       N/A	        N/A	       N/A	       N/A	       N/A	        N/A	       N/A	       N/A	       N/A	        N/A	       N/A	       N/A	       N/A	        N/A	
         R10	    451	      76.5	     11.05	   1.67602	        N/A	      76.5	     11.05	   1.27602	        N/A	      76.5	     11.05	  0.876018	        N/A	       N/A	       N/A	       N/A	        N/A	       N/A	       N/A	       N/A	        N/A	       N/A	       N/A	       N/A	        N/A	       N/A	       N/A	       N/A	        N/A	       N/A	       N/A	       N/A	        N/A	
         R10	    452	      76.5	     11.05	       2.4	        N/A	      76.5	     11.05	   2.03801	        N/A	      76.5	     11.05	   1.67602	        N/A	       N/A	       N/A	       N/A	        N/A	       N/A	       N/A	       N/A	        N/A	       N/A	       N/A	       N/A	        N/A	       N/A	       N/A	       N/A	        N/A	       N/A	       N/A	       N/A	        N/A	
         R10	    453	      76.5	      10.2	       0.8	        N/A	      76.5	      10.2	       0.4	        N/A	      76.5	      10.2	         0	        N/A	       N/A	       N/A	       N/A	        N/A	       N/A	       N/A	       N/A	        N/A	       N/A	       N/A	       N/A	        N/A	       N/A	       N/A	       N/A	        N/A	       N/A	       N/A	       N/A	        N/A	
         R10	    454	      76.5	      10.2	       1.6	        N/A	      76.5	      10.2	       1.2	        N/A	      76.5	      10.2	       0.8	        N/A	       N/A	       N/A	       N/A	        N/A	       N/A	       N/A	       N/A	        N/A	       N/A	       N/A	       N/A	        N/A	       N/A	       N/A	       N/A	        N/A	       N/A	       N/A	       N/A	        N/A	
         R10	    455	      76.5	      10.2	       2.4	        N/A	      76.5	      10.2	         2	        N/A	      76.5	      10.2	       1.6	        N/A	       N/A	       N/A	       N/A	        N/A	       N/A	       N/A	       N/A	        N/A	       N/A	       N/A	       N/A	        N/A	       N/A	       N/A	       N/A	        N/A	       N/A	       N/A	       N/A	        N/A	
         R10	    456	      76.5	      9.35	       0.8	        N/A	      76.5	      9.35	       0.4	        N/A	      76.5	      9.35	         0	        N/A	       N/A	       N/A	       N/A	        N/A	       N/A	       N/A	       N/A	        N/A	       N/A	       N/A	       N/A	        N/A	       N/A	       N/A	       N/A	        N/A	       N/A	       N/A	       N/A	        N/A	
         R10	    457	      76.5	      9.35	       1.6	        N/A	      76.5	      9.35	       1.2	        N/A	      76.5	      9.35	       0.8	        N/A	       N/A	       N/A	       N/A	        N/A	       N/A	       N/A	       N/A	        N/A	       N/A	       N/A	       N/A	        N/A	       N/A	       N/A	       N/A	        N/A	       N/A	       N/A	       N/A	        N/A	
         R10	    458	      76.5	      9.35	       2.4	        N/A	      76.5	      9.35	         2	        N/A	      76.5	      9.35	       1.6	        N/A	       N/A	       N/A	       N/A	        N/A	       N/A	       N/A	       N/A	        N/A	       N/A	       N/A	       N/A	        N/A	       N/A	       N/A	       N/A	        N/A	       N/A	       N/A	       N/A	        N/A	
         R10	    459	     72.25	      21.5	       9.4	        N/A	   72.7007	      21.5	       9.4	        N/A	   73.1513	      21.5	       9.4	        N/A	       N/A	       N/A	       N/A	        N/A	       N/A	       N/A	       N/A	        N/A	       N/A	       N/A	       N/A	        N/A	       N/A	       N/A	       N/A	        N/A	       N/A	       N/A	       N/A	        N/A	
         R10	    460	   73.1513	      21.5	       9.4	        N/A	   73.5891	      21.5	       9.4	        N/A	    74.027	      21.5	       9.4	        N/A	       N/A	       N/A	       N/A	        N/A	       N/A	       N/A	       N/A	        N/A	       N/A	       N/A	       N/A	        N/A	       N/A	       N/A	       N/A	        N/A	       N/A	       N/A	       N/A	        N/A	
         R10	    461	    74.027	      21.5	       9.4	        N/A	    74.452	      21.5	       9.4	        N/A	    74.877	      21.5	       9.4	        N/A	       N/A	       N/A	       N/A	        N/A	       N/A	       N/A	       N/A	        N/A	       N/A	       N/A	       N/A	        N/A	       N/A	       N/A	       N/A	        N/A	       N/A	       N/A	       N/A	        N/A	
         R10	    462	    74.877	      21.5	       9.4	        N/A	   75.2892	      21.5	       9.4	        N/A	   75.7013	      21.5	       9.4	        N/A	       N/A	       N/A	       N/A	        N/A	       N/A	       N/A	       N/A	        N/A	       N/A	       N/A	       N/A	        N/A	       N/A	       N/A	       N/A	        N/A	       N/A	       N/A	       N/A	        N/A	
         R10	    463	   75.7013	      21.5	       9.4	        N/A	   76.1007	      21.5	       9.4	        N/A	      76.5	      21.5	       9.4	        N/A	       N/A	       N/A	       N/A	        N/A	       N/A	       N/A	       N/A	        N/A	       N/A	       N/A	       N/A	        N/A	       N/A	       N/A	       N/A	        N/A	       N/A	       N/A	       N/A	        N/A	
         R10	    464	      76.5	      21.5	       9.4	        N/A	   76.8328	      21.5	       9.4	        N/A	   77.1656	      21.5	       9.4	        N/A	       N/A	       N/A	       N/A	        N/A	       N/A	       N/A	       N/A	        N/A	       N/A	       N/A	       N/A	        N/A	       N/A	       N/A	       N/A	        N/A	       N/A	       N/A	       N/A	        N/A	
         R10	    465	   77.1656	      21.5	       9.4	        N/A	   77.5197	      21.5	       9.4	        N/A	   77.8739	      21.5	       9.4	        N/A	       N/A	       N/A	       N/A	        N/A	       N/A	       N/A	       N/A	        N/A	       N/A	       N/A	       N/A	        N/A	       N/A	       N/A	       N/A	        N/A	       N/A	       N/A	       N/A	        N/A	
         R10	    466	   77.8739	      21.5	       9.4	        N/A	   78.2495	      21.5	       9.4	        N/A	    78.625	      21.5	       9.4	        N/A	       N/A	       N/A	       N/A	        N/A	       N/A	       N/A	       N/A	        N/A	       N/A	       N/A	       N/A	        N/A	       N/A	       N/A	       N/A	        N/A	       N/A	       N/A	       N/A	        N/A	
         R10	    467	      76.5	      11.9	   0.54816	        N/A	      76.5	      11.9	   0.27408	        N/A	      76.5	      11.9	         0	        N/A	       N/A	       N/A	       N/A	        N/A	       N/A	       N/A	       N/A	        N/A	       N/A	       N/A	       N/A	        N/A	       N/A	       N/A	       N/A	        N/A	       N/A	       N/A	       N/A	        N/A	
         R10	    468	      76.5	      11.9	   1.06224	        N/A	      76.5	      11.9	    0.8052	        N/A	      76.5	      11.9	   0.54816	        N/A	       N/A	       N/A	       N/A	        N/A	       N/A	       N/A	       N/A	        N/A	       N/A	       N/A	       N/A	        N/A	       N/A	       N/A	       N/A	        N/A	       N/A	       N/A	       N/A	        N/A	
         R10	    469	      76.5	      11.9	   1.54224	        N/A	      76.5	      11.9	   1.30224	        N/A	      76.5	      11.9	   1.06224	        N/A	       N/A	       N/A	       N/A	        N/A	       N/A	       N/A	       N/A	        N/A	       N/A	       N/A	       N/A	        N/A	       N/A	       N/A	       N/A	        N/A	       N/A	       N/A	       N/A	        N/A	
         R10	    470	      76.5	      11.9	   1.98816	        N/A	      76.5	      11.9	    1.7652	        N/A	      76.5	      11.9	   1.54224	        N/A	       N/A	       N/A	       N/A	        N/A	       N/A	       N/A	       N/A	        N/A	       N/A	       N/A	       N/A	        N/A	       N/A	       N/A	       N/A	        N/A	       N/A	       N/A	       N/A	        N/A	
         R10	    471	      76.5	      11.9	       2.4	        N/A	      76.5	      11.9	   2.19408	        N/A	      76.5	      11.9	   1.98816	        N/A	       N/A	       N/A	       N/A	        N/A	       N/A	       N/A	       N/A	        N/A	       N/A	       N/A	       N/A	        N/A	       N/A	       N/A	       N/A	        N/A	       N/A	       N/A	       N/A	        N/A	
         R10	    472	     80.75	     11.05	       2.4	        N/A	   80.3622	     11.05	       2.4	        N/A	   79.9744	     11.05	       2.4	        N/A	       N/A	       N/A	       N/A	        N/A	       N/A	       N/A	       N/A	        N/A	       N/A	       N/A	       N/A	        N/A	       N/A	       N/A	       N/A	        N/A	       N/A	       N/A	       N/A	        N/A	
         R10	    473	   79.9744	     11.05	       2.4	        N/A	   79.6202	     11.05	       2.4	        N/A	    79.266	     11.05	       2.4	        N/A	       N/A	       N/A	       N/A	        N/A	       N/A	       N/A	       N/A	        N/A	       N/A	       N/A	       N/A	        N/A	       N/A	       N/A	       N/A	        N/A	       N/A	       N/A	       N/A	        N/A	
         R10	    474	    79.266	     11.05	       2.4	        N/A	   78.9455	     11.05	       2.4	        N/A	    78.625	     11.05	       2.4	        N/A	       N/A	       N/A	       N/A	        N/A	       N/A	       N/A	       N/A	        N/A	       N/A	       N/A	       N/A	        N/A	       N/A	       N/A	       N/A	        N/A	       N/A	       N/A	       N/A	        N/A	
         R10	    475	     75.65	      15.3	       1.6	        N/A	   75.7039	      15.3	       1.6	        N/A	   75.7579	      15.3	       1.6	        N/A	       N/A	       N/A	       N/A	        N/A	       N/A	       N/A	       N/A	        N/A	       N/A	       N/A	       N/A	        N/A	       N/A	       N/A	       N/A	        N/A	       N/A	       N/A	       N/A	        N/A	
         R10	    476	   75.7579	      15.3	       1.6	        N/A	   75.8101	      15.3	       1.6	        N/A	   75.8624	      15.3	       1.6	        N/A	       N/A	       N/A	       N/A	        N/A	       N/A	       N/A	       N/A	        N/A	       N/A	       N/A	       N/A	        N/A	       N/A	       N/A	       N/A	        N/A	       N/A	       N/A	       N/A	        N/A	
         R10	    477	   75.8624	      15.3	       1.6	        N/A	   75.9129	      15.3	       1.6	        N/A	   75.9635	      15.3	       1.6	        N/A	       N/A	       N/A	       N/A	        N/A	       N/A	       N/A	       N/A	        N/A	       N/A	       N/A	       N/A	        N/A	       N/A	       N/A	       N/A	        N/A	       N/A	       N/A	       N/A	        N/A	
         R10	    478	   75.9635	      15.3	       1.6	        N/A	   76.0124	      15.3	       1.6	        N/A	   76.0613	      15.3	       1.6	        N/A	       N/A	       N/A	       N/A	        N/A	       N/A	       N/A	       N/A	        N/A	       N/A	       N/A	       N/A	        N/A	       N/A	       N/A	       N/A	        N/A	       N/A	       N/A	       N/A	        N/A	
         R10	    479	   76.0613	      15.3	       1.6	        N/A	   76.1085	      15.3	       1.6	        N/A	   76.1557	      15.3	       1.6	        N/A	       N/A	       N/A	       N/A	        N/A	       N/A	       N/A	       N/A	        N/A	       N/A	       N/A	       N/A	        N/A	       N/A	       N/A	       N/A	        N/A	       N/A	       N/A	       N/A	        N/A	
         R10	    480	   76.1557	      15.3	       1.6	        N/A	   76.2013	      15.3	       1.6	        N/A	   76.2468	      15.3	       1.6	        N/A	       N/A	       N/A	       N/A	        N/A	       N/A	       N/A	       N/A	        N/A	       N/A	       N/A	       N/A	        N/A	       N/A	       N/A	       N/A	        N/A	       N/A	       N/A	       N/A	        N/A	
         R10	    481	   76.2468	      15.3	       1.6	        N/A	   76.2907	      15.3	       1.6	        N/A	   76.3346	      15.3	       1.6	        N/A	       N/A	       N/A	       N/A	        N/A	       N/A	       N/A	       N/A	        N/A	       N/A	       N/A	       N/A	        N/A	       N/A	       N/A	       N/A	        N/A	       N/A	       N/A	       N/A	        N/A	
         R10	    482	   76.3346	      15.3	       1.6	        N/A	   76.3768	      15.3	       1.6	        N/A	    76.419	      15.3	       1.6	        N/A	       N/A	       N/A	       N/A	        N/A	       N/A	       N/A	       N/A	        N/A	       N/A	       N/A	       N/A	        N/A	       N/A	       N/A	       N/A	        N/A	       N/A	       N/A	       N/A	        N/A	
         R10	    483	    76.419	      15.3	       1.6	        N/A	   76.4595	      15.3	       1.6	        N/A	      76.5	      15.3	       1.6	        N/A	       N/A	       N/A	       N/A	        N/A	       N/A	       N/A	       N/A	        N/A	       N/A	       N/A	       N/A	        N/A	       N/A	       N/A	       N/A	        N/A	       N/A	       N/A	       N/A	        N/A	
         R10	    484	      76.5	      15.3	       1.6	        N/A	   76.5405	      15.3	       1.6	        N/A	    76.581	      15.3	       1.6	        N/A	       N/A	       N/A	       N/A	        N/A	       N/A	       N/A	       N/A	        N/A	       N/A	       N/A	       N/A	        N/A	       N/A	       N/A	       N/A	        N/A	       N/A	       N/A	       N/A	        N/A	
         R10	    485	    76.581	      15.3	       1.6	        N/A	   76.6232	      15.3	       1.6	        N/A	   76.6654	      15.3	       1.6	        N/A	       N/A	       N/A	       N/A	        N/A	       N/A	       N/A	       N/A	        N/A	       N/A	       N/A	       N/A	        N/A	       N/A	       N/A	       N/A	        N/A	       N/A	       N/A	       N/A	        N/A	
         R10	    486	   76.6654	      15.3	       1.6	        N/A	   76.7093	      15.3	       1.6	        N/A	   76.7532	      15.3	       1.6	        N/A	       N/A	       N/A	       N/A	        N/A	       N/A	       N/A	       N/A	        N/A	       N/A	       N/A	       N/A	        N/A	       N/A	       N/A	       N/A	        N/A	       N/A	       N/A	       N/A	        N/A	
         R10	    487	   76.7532	      15.3	       1.6	        N/A	   76.7987	      15.3	       1.6	        N/A	   76.8443	      15.3	       1.6	        N/A	       N/A	       N/A	       N/A	        N/A	       N/A	       N/A	       N/A	        N/A	       N/A	       N/A	       N/A	        N/A	       N/A	       N/A	       N/A	        N/A	       N/A	       N/A	       N/A	        N/A	
         R10	    488	   76.8443	      15.3	       1.6	        N/A	   76.8915	      15.3	       1.6	        N/A	   76.9387	      15.3	       1.6	        N/A	       N/A	       N/A	       N/A	        N/A	       N/A	       N/A	       N/A	        N/A	       N/A	       N/A	       N/A	        N/A	       N/A	       N/A	       N/A	        N/A	       N/A	       N/A	       N/A	        N/A	
         R10	    489	   76.9387	      15.3	       1.6	        N/A	   76.9876	      15.3	       1.6	        N/A	   77.0365	      15.3	       1.6	        N/A	       N/A	       N/A	       N/A	        N/A	       N/A	       N/A	       N/A	        N/A	       N/A	       N/A	       N/A	        N/A	       N/A	       N/A	       N/A	        N/A	       N/A	       N/A	       N/A	        N/A	
         R10	    490	   77.0365	      15.3	       1.6	        N/A	   77.0871	      15.3	       1.6	        N/A	   77.1376	      15.3	       1.6	        N/A	       N/A	       N/A	       N/A	        N/A	       N/A	       N/A	       N/A	        N/A	       N/A	       N/A	       N/A	        N/A	       N/A	       N/A	       N/A	        N/A	       N/A	       N/A	       N/A	        N/A	
         R10	    491	   77.1376	      15.3	       1.6	        N/A	   77.1899	      15.3	       1.6	        N/A	   77.2421	      15.3	       1.6	        N/A	       N/A	       N/A	       N/A	        N/A	       N/A	       N/A	       N/A	        N/A	       N/A	       N/A	       N/A	        N/A	       N/A	       N/A	       N/A	        N/A	       N/A	       N/A	       N/A	        N/A	
         R10	    492	   77.2421	      15.3	       1.6	        N/A	   77.2961	      15.3	       1.6	        N/A	     77.35	      15.3	       1.6	        N/A	       N/A	       N/A	       N/A	        N/A	       N/A	       N/A	       N/A	        N/A	       N/A	       N/A	       N/A	        N/A	       N/A	       N/A	       N/A	        N/A	       N/A	       N/A	       N/A	        N/A	
         R10	    493	     75.65	     14.45	       2.4	        N/A	   75.7039	     14.45	       2.4	        N/A	   75.7579	     14.45	       2.4	        N/A	       N/A	       N/A	       N/A	        N/A	       N/A	       N/A	       N/A	        N/A	       N/A	       N/A	       N/A	        N/A	       N/A	       N/A	       N/A	        N/A	       N/A	       N/A	       N/A	        N/A	
         R10	    494	   75.7579	     14.45	       2.4	        N/A	   75.8101	     14.45	       2.4	        N/A	   75.8624	     14.45	       2.4	        N/A	       N/A	       N/A	       N/A	        N/A	       N/A	       N/A	       N/A	        N/A	       N/A	       N/A	       N/A	        N/A	       N/A	       N/A	       N/A	        N/A	       N/A	       N/A	       N/A	        N/A	
         R10	    495	   75.8624	     14.45	       2.4	        N/A	   75.9129	     14.45	       2.4	        N/A	   75.9635	     14.45	       2.4	        N/A	       N/A	       N/A	       N/A	        N/A	       N/A	       N/A	       N/A	        N/A	       N/A	       N/A	       N/A	        N/A	       N/A	       N/A	       N/A	        N/A	       N/A	       N/A	       N/A	        N/A	
         R10	    496	   75.9635	     14.45	       2.4	        N/A	   76.0124	     14.45	       2.4	        N/A	   76.0613	     14.45	       2.4	        N/A	       N/A	       N/A	       N/A	        N/A	       N/A	       N/A	       N/A	        N/A	       N/A	       N/A	       N/A	        N/A	       N/A	       N/A	       N/A	        N/A	       N/A	       N/A	       N/A	        N/A	
         R10	    497	   76.0613	     14.45	       2.4	        N/A	   76.1085	     14.45	       2.4	        N/A	   76.1557	     14.45	       2.4	        N/A	       N/A	       N/A	       N/A	        N/A	       N/A	       N/A	       N/A	        N/A	       N/A	       N/A	       N/A	        N/A	       N/A	       N/A	       N/A	        N/A	       N/A	       N/A	       N/A	        N/A	
         R10	    498	   76.1557	     14.45	       2.4	        N/A	   76.2013	     14.45	       2.4	        N/A	   76.2468	     14.45	       2.4	        N/A	       N/A	       N/A	       N/A	        N/A	       N/A	       N/A	       N/A	        N/A	       N/A	       N/A	       N/A	        N/A	       N/A	       N/A	       N/A	        N/A	       N/A	       N/A	       N/A	        N/A	
         R10	    499	   76.2468	     14.45	       2.4	        N/A	   76.2907	     14.45	       2.4	        N/A	   76.3346	     14.45	       2.4	        N/A	       N/A	       N/A	       N/A	        N/A	       N/A	       N/A	       N/A	        N/A	       N/A	       N/A	       N/A	        N/A	       N/A	       N/A	       N/A	        N/A	       N/A	       N/A	       N/A	        N/A	
         R10	    500	   76.3346	     14.45	       2.4	        N/A	   76.3768	     14.45	       2.4	        N/A	    76.419	     14.45	       2.4	        N/A	       N/A	       N/A	       N/A	        N/A	       N/A	       N/A	       N/A	        N/A	       N/A	       N/A	       N/A	        N/A	       N/A	       N/A	       N/A	        N/A	       N/A	       N/A	       N/A	        N/A	
         R10	    501	    76.419	     14.45	       2.4	        N/A	   76.4595	     14.45	       2.4	        N/A	      76.5	     14.45	       2.4	        N/A	       N/A	       N/A	       N/A	        N/A	       N/A	       N/A	       N/A	        N/A	       N/A	       N/A	       N/A	        N/A	       N/A	       N/A	       N/A	        N/A	       N/A	       N/A	       N/A	        N/A	
         R10	    502	      76.5	     14.45	       2.4	        N/A	   76.5405	     14.45	       2.4	        N/A	    76.581	     14.45	       2.4	        N/A	       N/A	       N/A	       N/A	        N/A	       N/A	       N/A	       N/A	        N/A	       N/A	       N/A	       N/A	        N/A	       N/A	       N/A	       N/A	        N/A	       N/A	       N/A	       N/A	        N/A	
         R10	    503	    76.581	     14.45	       2.4	        N/A	   76.6232	     14.45	       2.4	        N/A	   76.6654	     14.45	       2.4	        N/A	       N/A	       N/A	       N/A	        N/A	       N/A	       N/A	       N/A	        N/A	       N/A	       N/A	       N/A	        N/A	       N/A	       N/A	       N/A	        N/A	       N/A	       N/A	       N/A	        N/A	
         R10	    504	   76.6654	     14.45	       2.4	        N/A	   76.7093	     14.45	       2.4	        N/A	   76.7532	     14.45	       2.4	        N/A	       N/A	       N/A	       N/A	        N/A	       N/A	       N/A	       N/A	        N/A	       N/A	       N/A	       N/A	        N/A	       N/A	       N/A	       N/A	        N/A	       N/A	       N/A	       N/A	        N/A	
         R10	    505	   76.7532	     14.45	       2.4	        N/A	   76.7987	     14.45	       2.4	        N/A	   76.8443	     14.45	       2.4	        N/A	       N/A	       N/A	       N/A	        N/A	       N/A	       N/A	       N/A	        N/A	       N/A	       N/A	       N/A	        N/A	       N/A	       N/A	       N/A	        N/A	       N/A	       N/A	       N/A	        N/A	
         R10	    506	   76.8443	     14.45	       2.4	        N/A	   76.8915	     14.45	       2.4	        N/A	   76.9387	     14.45	       2.4	        N/A	       N/A	       N/A	       N/A	        N/A	       N/A	       N/A	       N/A	        N/A	       N/A	       N/A	       N/A	        N/A	       N/A	       N/A	       N/A	        N/A	       N/A	       N/A	       N/A	        N/A	
         R10	    507	   76.9387	     14.45	       2.4	        N/A	   76.9876	     14.45	       2.4	        N/A	   77.0365	     14.45	       2.4	        N/A	       N/A	       N/A	       N/A	        N/A	       N/A	       N/A	       N/A	        N/A	       N/A	       N/A	       N/A	        N/A	       N/A	       N/A	       N/A	        N/A	       N/A	       N/A	       N/A	        N/A	
         R10	    508	   77.0365	     14.45	       2.4	        N/A	   77.0871	     14.45	       2.4	        N/A	   77.1376	     14.45	       2.4	        N/A	       N/A	       N/A	       N/A	        N/A	       N/A	       N/A	       N/A	        N/A	       N/A	       N/A	       N/A	        N/A	       N/A	       N/A	       N/A	        N/A	       N/A	       N/A	       N/A	        N/A	
         R10	    509	   77.1376	     14.45	       2.4	        N/A	   77.1899	     14.45	       2.4	        N/A	   77.2421	     14.45	       2.4	        N/A	       N/A	       N/A	       N/A	        N/A	       N/A	       N/A	       N/A	        N/A	       N/A	       N/A	       N/A	        N/A	       N/A	       N/A	       N/A	        N/A	       N/A	       N/A	       N/A	        N/A	
         R10	    510	   77.2421	     14.45	       2.4	        N/A	   77.2961	     14.45	       2.4	        N/A	     77.35	     14.45	       2.4	        N/A	       N/A	       N/A	       N/A	        N/A	       N/A	       N/A	       N/A	        N/A	       N/A	       N/A	       N/A	        N/A	       N/A	       N/A	       N/A	        N/A	       N/A	       N/A	       N/A	        N/A	
         R10	    511	     75.65	   15.9164	   2.99973	        N/A	   75.7017	   15.9164	   2.99973	        N/A	   75.7534	   15.9164	   2.99973	        N/A	       N/A	       N/A	       N/A	        N/A	       N/A	       N/A	       N/A	        N/A	       N/A	       N/A	       N/A	        N/A	       N/A	       N/A	       N/A	        N/A	       N/A	       N/A	       N/A	        N/A	
         R10	    512	   75.7534	   15.9164	   2.99973	        N/A	    75.804	   15.9164	   2.99973	        N/A	   75.8546	   15.9164	   2.99973	        N/A	       N/A	       N/A	       N/A	        N/A	       N/A	       N/A	       N/A	        N/A	       N/A	       N/A	       N/A	        N/A	       N/A	       N/A	       N/A	        N/A	       N/A	       N/A	       N/A	        N/A	
         R10	    513	   75.8546	   15.9164	   2.99973	        N/A	   75.9041	   15.9164	   2.99973	        N/A	   75.9535	   15.9164	   2.99973	        N/A	       N/A	       N/A	       N/A	        N/A	       N/A	       N/A	       N/A	        N/A	       N/A	       N/A	       N/A	        N/A	       N/A	       N/A	       N/A	        N/A	       N/A	       N/A	       N/A	        N/A	
         R10	    514	   75.9535	   15.9164	   2.99973	        N/A	   76.0019	   15.9164	   2.99973	        N/A	   76.0502	   15.9164	   2.99973	        N/A	       N/A	       N/A	       N/A	        N/A	       N/A	       N/A	       N/A	        N/A	       N/A	       N/A	       N/A	        N/A	       N/A	       N/A	       N/A	        N/A	       N/A	       N/A	       N/A	        N/A	
         R10	    515	   76.0502	   15.9164	   2.99973	        N/A	   76.0974	   15.9164	   2.99973	        N/A	   76.1447	   15.9164	   2.99973	        N/A	       N/A	       N/A	       N/A	        N/A	       N/A	       N/A	       N/A	        N/A	       N/A	       N/A	       N/A	        N/A	       N/A	       N/A	       N/A	        N/A	       N/A	       N/A	       N/A	        N/A	
         R10	    516	   76.1447	   15.9164	   2.99973	        N/A	   76.1908	   15.9164	   2.99973	        N/A	   76.2369	   15.9164	   2.99973	        N/A	       N/A	       N/A	       N/A	        N/A	       N/A	       N/A	       N/A	        N/A	       N/A	       N/A	       N/A	        N/A	       N/A	       N/A	       N/A	        N/A	       N/A	       N/A	       N/A	        N/A	
         R10	    517	   76.2369	   15.9164	   2.99973	        N/A	   76.2818	   15.9164	   2.99973	        N/A	   76.3268	   15.9164	   2.99973	        N/A	       N/A	       N/A	       N/A	        N/A	       N/A	       N/A	       N/A	        N/A	       N/A	       N/A	       N/A	        N/A	       N/A	       N/A	       N/A	        N/A	       N/A	       N/A	       N/A	        N/A	
         R10	    518	   76.3268	   15.9164	   2.99973	        N/A	   76.3707	   15.9164	   2.99973	        N/A	   76.4145	   15.9164	   2.99973	        N/A	       N/A	       N/A	       N/A	        N/A	       N/A	       N/A	       N/A	        N/A	       N/A	       N/A	       N/A	        N/A	       N/A	       N/A	       N/A	        N/A	       N/A	       N/A	       N/A	        N/A	
         R10	    519	   76.4145	   15.9164	   2.99973	        N/A	   76.4573	   15.9164	   2.99973	        N/A	      76.5	   15.9164	   2.99973	        N/A	       N/A	       N/A	       N/A	        N/A	       N/A	       N/A	       N/A	        N/A	       N/A	       N/A	       N/A	        N/A	       N/A	       N/A	       N/A	        N/A	       N/A	       N/A	       N/A	        N/A	
         R10	    520	      76.5	   15.9164	   2.99973	        N/A	   76.5427	   15.9164	   2.99973	        N/A	   76.5855	   15.9164	   2.99973	        N/A	       N/A	       N/A	       N/A	        N/A	       N/A	       N/A	       N/A	        N/A	       N/A	       N/A	       N/A	        N/A	       N/A	       N/A	       N/A	        N/A	       N/A	       N/A	       N/A	        N/A	
         R10	    521	   76.5855	   15.9164	   2.99973	        N/A	   76.6293	   15.9164	   2.99973	        N/A	   76.6732	   15.9164	   2.99973	        N/A	       N/A	       N/A	       N/A	        N/A	       N/A	       N/A	       N/A	        N/A	       N/A	       N/A	       N/A	        N/A	       N/A	       N/A	       N/A	        N/A	       N/A	       N/A	       N/A	        N/A	
         R10	    522	   76.6732	   15.9164	   2.99973	        N/A	   76.7182	   15.9164	   2.99973	        N/A	   76.7631	   15.9164	   2.99973	        N/A	       N/A	       N/A	       N/A	        N/A	       N/A	       N/A	       N/A	        N/A	       N/A	       N/A	       N/A	        N/A	       N/A	       N/A	       N/A	        N/A	       N/A	       N/A	       N/A	        N/A	
         R10	    523	   76.7631	   15.9164	   2.99973	        N/A	   76.8092	   15.9164	   2.99973	        N/A	   76.8553	   15.9164	   2.99973	        N/A	       N/A	       N/A	       N/A	        N/A	       N/A	       N/A	       N/A	        N/A	       N/A	       N/A	       N/A	        N/A	       N/A	       N/A	       N/A	        N/A	       N/A	       N/A	       N/A	        N/A	
         R10	    524	   76.8553	   15.9164	   2.99973	        N/A	   76.9026	   15.9164	   2.99973	        N/A	   76.9498	   15.9164	   2.99973	        N/A	       N/A	       N/A	       N/A	        N/A	       N/A	       N/A	       N/A	        N/A	       N/A	       N/A	       N/A	        N/A	       N/A	       N/A	       N/A	        N/A	       N/A	       N/A	       N/A	        N/A	
         R10	    525	   76.9498	   15.9164	   2.99973	        N/A	   76.9981	   15.9164	   2.99973	        N/A	   77.0465	   15.9164	   2.99973	        N/A	       N/A	       N/A	       N/A	        N/A	       N/A	       N/A	       N/A	        N/A	       N/A	       N/A	       N/A	        N/A	       N/A	       N/A	       N/A	        N/A	       N/A	       N/A	       N/A	        N/A	
         R10	    526	   77.0465	   15.9164	   2.99973	        N/A	   77.0959	   15.9164	   2.99973	        N/A	   77.1454	   15.9164	   2.99973	        N/A	       N/A	       N/A	       N/A	        N/A	       N/A	       N/A	       N/A	        N/A	       N/A	       N/A	       N/A	        N/A	       N/A	       N/A	       N/A	        N/A	       N/A	       N/A	       N/A	        N/A	
         R10	    527	   77.1454	   15.9164	   2.99973	        N/A	    77.196	   15.9164	   2.99973	        N/A	   77.2466	   15.9164	   2.99973	        N/A	       N/A	       N/A	       N/A	        N/A	       N/A	       N/A	       N/A	        N/A	       N/A	       N/A	       N/A	        N/A	       N/A	       N/A	       N/A	        N/A	       N/A	       N/A	       N/A	        N/A	
         R10	    528	   77.2466	   15.9164	   2.99973	        N/A	   77.2983	   15.9164	   2.99973	        N/A	     77.35	   15.9164	   2.99973	        N/A	       N/A	       N/A	       N/A	        N/A	       N/A	       N/A	       N/A	        N/A	       N/A	       N/A	       N/A	        N/A	       N/A	       N/A	       N/A	        N/A	       N/A	       N/A	       N/A	        N/A	
         R10	    529	      76.5	   20.4991	    1.5164	        N/A	      76.5	   20.4495	    1.7582	        N/A	      76.5	      20.4	         2	        N/A	       N/A	       N/A	       N/A	        N/A	       N/A	       N/A	       N/A	        N/A	       N/A	       N/A	       N/A	        N/A	       N/A	       N/A	       N/A	        N/A	       N/A	       N/A	       N/A	        N/A	
         R10	    530	      76.5	   20.6085	  0.981953	        N/A	      76.5	   20.5538	   1.24918	        N/A	      76.5	   20.4991	    1.5164	        N/A	       N/A	       N/A	       N/A	        N/A	       N/A	       N/A	       N/A	        N/A	       N/A	       N/A	       N/A	        N/A	       N/A	       N/A	       N/A	        N/A	       N/A	       N/A	       N/A	        N/A	
         R10	    531	      76.5	   20.7284	  0.396646	        N/A	      76.5	   20.6685	  0.689299	        N/A	      76.5	   20.6085	  0.981953	        N/A	       N/A	       N/A	       N/A	        N/A	       N/A	       N/A	       N/A	        N/A	       N/A	       N/A	       N/A	        N/A	       N/A	       N/A	       N/A	        N/A	       N/A	       N/A	       N/A	        N/A	
         R10	    532	      76.5	   20.9224	   2.11872	        N/A	      76.5	   21.2112	   2.18436	        N/A	      76.5	      21.5	      2.25	        N/A	       N/A	       N/A	       N/A	        N/A	       N/A	       N/A	       N/A	        N/A	       N/A	       N/A	       N/A	        N/A	       N/A	       N/A	       N/A	        N/A	       N/A	       N/A	       N/A	        N/A	
         R10	    533	      76.5	      20.4	         2	        N/A	      76.5	   20.6612	   2.05936	        N/A	      76.5	   20.9224	   2.11872	        N/A	       N/A	       N/A	       N/A	        N/A	       N/A	       N/A	       N/A	        N/A	       N/A	       N/A	       N/A	        N/A	       N/A	       N/A	       N/A	        N/A	       N/A	       N/A	       N/A	        N/A	
         R10	    534	      76.5	   15.9593	   2.92175	        N/A	      76.5	   15.9378	   2.96074	        N/A	      76.5	   15.9164	   2.99973	        N/A	       N/A	       N/A	       N/A	        N/A	       N/A	       N/A	       N/A	        N/A	       N/A	       N/A	       N/A	        N/A	       N/A	       N/A	       N/A	        N/A	       N/A	       N/A	       N/A	        N/A	
         R10	    535	      76.5	   16.0036	   2.84119	        N/A	      76.5	   15.9814	   2.88147	        N/A	      76.5	   15.9593	   2.92175	        N/A	       N/A	       N/A	       N/A	        N/A	       N/A	       N/A	       N/A	        N/A	       N/A	       N/A	       N/A	        N/A	       N/A	       N/A	       N/A	        N/A	       N/A	       N/A	       N/A	        N/A	
         R10	    536	      76.5	   16.0493	   2.75805	        N/A	      76.5	   16.0265	   2.79962	        N/A	      76.5	   16.0036	   2.84119	        N/A	       N/A	       N/A	       N/A	        N/A	       N/A	       N/A	       N/A	        N/A	       N/A	       N/A	       N/A	        N/A	       N/A	       N/A	       N/A	        N/A	       N/A	       N/A	       N/A	        N/A	
         R10	    537	      76.5	   16.0965	   2.67232	        N/A	      76.5	   16.0729	   2.71519	        N/A	      76.5	   16.0493	   2.75805	        N/A	       N/A	       N/A	       N/A	        N/A	       N/A	       N/A	       N/A	        N/A	       N/A	       N/A	       N/A	        N/A	       N/A	       N/A	       N/A	        N/A	       N/A	       N/A	       N/A	        N/A	
         R10	    538	      76.5	    16.145	   2.58402	        N/A	      76.5	   16.1208	   2.62817	        N/A	      76.5	   16.0965	   2.67232	        N/A	       N/A	       N/A	       N/A	        N/A	       N/A	       N/A	       N/A	        N/A	       N/A	       N/A	       N/A	        N/A	       N/A	       N/A	       N/A	        N/A	       N/A	       N/A	       N/A	        N/A	
         R10	    539	      76.5	    16.195	   2.49314	        N/A	      76.5	     16.17	   2.53858	        N/A	      76.5	    16.145	   2.58402	        N/A	       N/A	       N/A	       N/A	        N/A	       N/A	       N/A	       N/A	        N/A	       N/A	       N/A	       N/A	        N/A	       N/A	       N/A	       N/A	        N/A	       N/A	       N/A	       N/A	        N/A	
         R10	    540	      76.5	   16.2464	   2.39967	        N/A	      76.5	   16.2207	    2.4464	        N/A	      76.5	    16.195	   2.49314	        N/A	       N/A	       N/A	       N/A	        N/A	       N/A	       N/A	       N/A	        N/A	       N/A	       N/A	       N/A	        N/A	       N/A	       N/A	       N/A	        N/A	       N/A	       N/A	       N/A	        N/A	
         R10	    541	      76.5	   16.2993	   2.30363	        N/A	      76.5	   16.2729	   2.35165	        N/A	      76.5	   16.2464	   2.39967	        N/A	       N/A	       N/A	       N/A	        N/A	       N/A	       N/A	       N/A	        N/A	       N/A	       N/A	       N/A	        N/A	       N/A	       N/A	       N/A	        N/A	       N/A	       N/A	       N/A	        N/A	
         R10	    542	      76.5	   16.3535	     2.205	        N/A	      76.5	   16.3264	   2.25431	        N/A	      76.5	   16.2993	   2.30363	        N/A	       N/A	       N/A	       N/A	        N/A	       N/A	       N/A	       N/A	        N/A	       N/A	       N/A	       N/A	        N/A	       N/A	       N/A	       N/A	        N/A	       N/A	       N/A	       N/A	        N/A	
         R10	    543	      76.5	   16.4092	   2.10379	        N/A	      76.5	   16.3814	   2.15439	        N/A	      76.5	   16.3535	     2.205	        N/A	       N/A	       N/A	       N/A	        N/A	       N/A	       N/A	       N/A	        N/A	       N/A	       N/A	       N/A	        N/A	       N/A	       N/A	       N/A	        N/A	       N/A	       N/A	       N/A	        N/A	
         R10	    544	      76.5	   16.4663	         2	        N/A	      76.5	   16.4377	   2.05189	        N/A	      76.5	   16.4092	   2.10379	        N/A	       N/A	       N/A	       N/A	        N/A	       N/A	       N/A	       N/A	        N/A	       N/A	       N/A	       N/A	        N/A	       N/A	       N/A	       N/A	        N/A	       N/A	       N/A	       N/A	        N/A	
         R10	    545	      76.5	   16.3597	   1.96344	        N/A	      76.5	    16.413	   1.98172	        N/A	      76.5	   16.4663	         2	        N/A	       N/A	       N/A	       N/A	        N/A	       N/A	       N/A	       N/A	        N/A	       N/A	       N/A	       N/A	        N/A	       N/A	       N/A	       N/A	        N/A	       N/A	       N/A	       N/A	        N/A	
         R10	    546	      76.5	   16.2559	   1.92784	        N/A	      76.5	   16.3078	   1.94564	        N/A	      76.5	   16.3597	   1.96344	        N/A	       N/A	       N/A	       N/A	        N/A	       N/A	       N/A	       N/A	        N/A	       N/A	       N/A	       N/A	        N/A	       N/A	       N/A	       N/A	        N/A	       N/A	       N/A	       N/A	        N/A	
         R10	    547	      76.5	   16.1549	    1.8932	        N/A	      76.5	   16.2054	   1.91052	        N/A	      76.5	   16.2559	   1.92784	        N/A	       N/A	       N/A	       N/A	        N/A	       N/A	       N/A	       N/A	        N/A	       N/A	       N/A	       N/A	        N/A	       N/A	       N/A	       N/A	        N/A	       N/A	       N/A	       N/A	        N/A	
         R10	    548	      76.5	   16.0567	   1.85954	        N/A	      76.5	   16.1058	   1.87637	        N/A	      76.5	   16.1549	    1.8932	        N/A	       N/A	       N/A	       N/A	        N/A	       N/A	       N/A	       N/A	        N/A	       N/A	       N/A	       N/A	        N/A	       N/A	       N/A	       N/A	        N/A	       N/A	       N/A	       N/A	        N/A	
         R10	    549	      76.5	   15.9614	   1.82684	        N/A	      76.5	   16.0091	   1.84319	        N/A	      76.5	   16.0567	   1.85954	        N/A	       N/A	       N/A	       N/A	        N/A	       N/A	       N/A	       N/A	        N/A	       N/A	       N/A	       N/A	        N/A	       N/A	       N/A	       N/A	        N/A	       N/A	       N/A	       N/A	        N/A	
         R10	    550	      76.5	   15.8689	    1.7951	        N/A	      76.5	   15.9151	   1.81097	        N/A	      76.5	   15.9614	   1.82684	        N/A	       N/A	       N/A	       N/A	        N/A	       N/A	       N/A	       N/A	        N/A	       N/A	       N/A	       N/A	        N/A	       N/A	       N/A	       N/A	        N/A	       N/A	       N/A	       N/A	        N/A	
         R10	    551	      76.5	   15.7791	   1.76433	        N/A	      76.5	    15.824	   1.77972	        N/A	      76.5	   15.8689	    1.7951	        N/A	       N/A	       N/A	       N/A	        N/A	       N/A	       N/A	       N/A	        N/A	       N/A	       N/A	       N/A	        N/A	       N/A	       N/A	       N/A	        N/A	       N/A	       N/A	       N/A	        N/A	
         R10	    552	      76.5	   15.6922	   1.73453	        N/A	      76.5	   15.7357	   1.74943	        N/A	      76.5	   15.7791	   1.76433	        N/A	       N/A	       N/A	       N/A	        N/A	       N/A	       N/A	       N/A	        N/A	       N/A	       N/A	       N/A	        N/A	       N/A	       N/A	       N/A	        N/A	       N/A	       N/A	       N/A	        N/A	
         R10	    553	      76.5	   15.6082	   1.70569	        N/A	      76.5	   15.6502	   1.72011	        N/A	      76.5	   15.6922	   1.73453	        N/A	       N/A	       N/A	       N/A	        N/A	       N/A	       N/A	       N/A	        N/A	       N/A	       N/A	       N/A	        N/A	       N/A	       N/A	       N/A	        N/A	       N/A	       N/A	       N/A	        N/A	
         R10	    554	      76.5	   15.5269	   1.67782	        N/A	      76.5	   15.5675	   1.69176	        N/A	      76.5	   15.6082	   1.70569	        N/A	       N/A	       N/A	       N/A	        N/A	       N/A	       N/A	       N/A	        N/A	       N/A	       N/A	       N/A	        N/A	       N/A	       N/A	       N/A	        N/A	       N/A	       N/A	       N/A	        N/A	
         R10	    555	      76.5	   15.4484	   1.65091	        N/A	      76.5	   15.4877	   1.66437	        N/A	      76.5	   15.5269	   1.67782	        N/A	       N/A	       N/A	       N/A	        N/A	       N/A	       N/A	       N/A	        N/A	       N/A	       N/A	       N/A	        N/A	       N/A	       N/A	       N/A	        N/A	       N/A	       N/A	       N/A	        N/A	
         R10	    556	      76.5	   15.3728	   1.62497	        N/A	      76.5	   15.4106	   1.63794	        N/A	      76.5	   15.4484	   1.65091	        N/A	       N/A	       N/A	       N/A	        N/A	       N/A	       N/A	       N/A	        N/A	       N/A	       N/A	       N/A	        N/A	       N/A	       N/A	       N/A	        N/A	       N/A	       N/A	       N/A	        N/A	
         R10	    557	      76.5	      15.3	       1.6	        N/A	      76.5	   15.3364	   1.61249	        N/A	      76.5	   15.3728	   1.62497	        N/A	       N/A	       N/A	       N/A	        N/A	       N/A	       N/A	       N/A	        N/A	       N/A	       N/A	       N/A	        N/A	       N/A	       N/A	       N/A	        N/A	       N/A	       N/A	       N/A	        N/A	
         R10	    558	     77.35	      15.3	       1.6	        N/A	   77.4007	      15.3	       1.6	        N/A	   77.4514	      15.3	       1.6	        N/A	       N/A	       N/A	       N/A	        N/A	       N/A	       N/A	       N/A	        N/A	       N/A	       N/A	       N/A	        N/A	       N/A	       N/A	       N/A	        N/A	       N/A	       N/A	       N/A	        N/A	
         R10	    559	   77.4514	      15.3	       1.6	        N/A	   77.5104	      15.3	       1.6	        N/A	   77.5694	      15.3	       1.6	        N/A	       N/A	       N/A	       N/A	        N/A	       N/A	       N/A	       N/A	        N/A	       N/A	       N/A	       N/A	        N/A	       N/A	       N/A	       N/A	        N/A	       N/A	       N/A	       N/A	        N/A	
         R10	    560	   77.5694	      15.3	       1.6	        N/A	   77.6366	      15.3	       1.6	        N/A	   77.7039	      15.3	       1.6	        N/A	       N/A	       N/A	       N/A	        N/A	       N/A	       N/A	       N/A	        N/A	       N/A	       N/A	       N/A	        N/A	       N/A	       N/A	       N/A	        N/A	       N/A	       N/A	       N/A	        N/A	
         R10	    561	   77.7039	      15.3	       1.6	        N/A	   77.7794	      15.3	       1.6	        N/A	    77.855	      15.3	       1.6	        N/A	       N/A	       N/A	       N/A	        N/A	       N/A	       N/A	       N/A	        N/A	       N/A	       N/A	       N/A	        N/A	       N/A	       N/A	       N/A	        N/A	       N/A	       N/A	       N/A	        N/A	
         R10	    562	    77.855	      15.3	       1.6	        N/A	   77.9388	      15.3	       1.6	        N/A	   78.0226	      15.3	       1.6	        N/A	       N/A	       N/A	       N/A	        N/A	       N/A	       N/A	       N/A	        N/A	       N/A	       N/A	       N/A	        N/A	       N/A	       N/A	       N/A	        N/A	       N/A	       N/A	       N/A	        N/A	
         R10	    563	   78.0226	      15.3	       1.6	        N/A	   78.1147	      15.3	       1.6	        N/A	   78.2069	      15.3	       1.6	        N/A	       N/A	       N/A	       N/A	        N/A	       N/A	       N/A	       N/A	        N/A	       N/A	       N/A	       N/A	        N/A	       N/A	       N/A	       N/A	        N/A	       N/A	       N/A	       N/A	        N/A	
         R10	    564	   78.2069	      15.3	       1.6	        N/A	   78.3073	      15.3	       1.6	        N/A	   78.4076	      15.3	       1.6	        N/A	       N/A	       N/A	       N/A	        N/A	       N/A	       N/A	       N/A	        N/A	       N/A	       N/A	       N/A	        N/A	       N/A	       N/A	       N/A	        N/A	       N/A	       N/A	       N/A	        N/A	
         R10	    565	   78.4076	      15.3	       1.6	        N/A	   78.5163	      15.3	       1.6	        N/A	    78.625	      15.3	       1.6	        N/A	       N/A	       N/A	       N/A	        N/A	       N/A	       N/A	       N/A	        N/A	       N/A	       N/A	       N/A	        N/A	       N/A	       N/A	       N/A	        N/A	       N/A	       N/A	       N/A	        N/A	
         R10	    566	      76.5	    16.834	  0.304533	        N/A	      76.5	    16.867	  0.152267	        N/A	      76.5	      16.9	         0	        N/A	       N/A	       N/A	       N/A	        N/A	       N/A	       N/A	       N/A	        N/A	       N/A	       N/A	       N/A	        N/A	       N/A	       N/A	       N/A	        N/A	       N/A	       N/A	       N/A	        N/A	
         R10	    567	      76.5	   16.7761	    0.5712	        N/A	      76.5	    16.805	  0.437866	        N/A	      76.5	    16.834	  0.304533	        N/A	       N/A	       N/A	       N/A	        N/A	       N/A	       N/A	       N/A	        N/A	       N/A	       N/A	       N/A	        N/A	       N/A	       N/A	       N/A	        N/A	       N/A	       N/A	       N/A	        N/A	
         R10	    568	      76.5	   16.7265	       0.8	        N/A	      76.5	   16.7513	    0.6856	        N/A	      76.5	   16.7761	    0.5712	        N/A	       N/A	       N/A	       N/A	        N/A	       N/A	       N/A	       N/A	        N/A	       N/A	       N/A	       N/A	        N/A	       N/A	       N/A	       N/A	        N/A	       N/A	       N/A	       N/A	        N/A	
         R10	    569	      76.5	   18.4883	  0.365008	        N/A	      76.5	   18.4941	  0.182504	        N/A	      76.5	      18.5	         0	        N/A	       N/A	       N/A	       N/A	        N/A	       N/A	       N/A	       N/A	        N/A	       N/A	       N/A	       N/A	        N/A	       N/A	       N/A	       N/A	        N/A	       N/A	       N/A	       N/A	        N/A	
         R10	    570	      76.5	   18.4769	  0.717345	        N/A	      76.5	   18.4826	  0.541176	        N/A	      76.5	   18.4883	  0.365008	        N/A	       N/A	       N/A	       N/A	        N/A	       N/A	       N/A	       N/A	        N/A	       N/A	       N/A	       N/A	        N/A	       N/A	       N/A	       N/A	        N/A	       N/A	       N/A	       N/A	        N/A	
         R10	    571	      76.5	    18.466	   1.05701	        N/A	      76.5	   18.4715	  0.887179	        N/A	      76.5	   18.4769	  0.717345	        N/A	       N/A	       N/A	       N/A	        N/A	       N/A	       N/A	       N/A	        N/A	       N/A	       N/A	       N/A	        N/A	       N/A	       N/A	       N/A	        N/A	       N/A	       N/A	       N/A	        N/A	
         R10	    572	      76.5	   18.4555	   1.38401	        N/A	      76.5	   18.4608	   1.22051	        N/A	      76.5	    18.466	   1.05701	        N/A	       N/A	       N/A	       N/A	        N/A	       N/A	       N/A	       N/A	        N/A	       N/A	       N/A	       N/A	        N/A	       N/A	       N/A	       N/A	        N/A	       N/A	       N/A	       N/A	        N/A	
         R10	    573	      76.5	   18.4454	   1.69834	        N/A	      76.5	   18.4504	   1.54118	        N/A	      76.5	   18.4555	   1.38401	        N/A	       N/A	       N/A	       N/A	        N/A	       N/A	       N/A	       N/A	        N/A	       N/A	       N/A	       N/A	        N/A	       N/A	       N/A	       N/A	        N/A	       N/A	       N/A	       N/A	        N/A	
         R10	    574	      76.5	   18.4357	         2	        N/A	      76.5	   18.4405	   1.84917	        N/A	      76.5	   18.4454	   1.69834	        N/A	       N/A	       N/A	       N/A	        N/A	       N/A	       N/A	       N/A	        N/A	       N/A	       N/A	       N/A	        N/A	       N/A	       N/A	       N/A	        N/A	       N/A	       N/A	       N/A	        N/A	
         R10	    575	      76.5	   19.3629	  0.419048	        N/A	      76.5	   19.3314	  0.209524	        N/A	      76.5	      19.3	         0	        N/A	       N/A	       N/A	       N/A	        N/A	       N/A	       N/A	       N/A	        N/A	       N/A	       N/A	       N/A	        N/A	       N/A	       N/A	       N/A	        N/A	       N/A	       N/A	       N/A	        N/A	
         R10	    576	      76.5	   19.4243	  0.828571	        N/A	      76.5	   19.3936	   0.62381	        N/A	      76.5	   19.3629	  0.419048	        N/A	       N/A	       N/A	       N/A	        N/A	       N/A	       N/A	       N/A	        N/A	       N/A	       N/A	       N/A	        N/A	       N/A	       N/A	       N/A	        N/A	       N/A	       N/A	       N/A	        N/A	
         R10	    577	      76.5	   19.4843	   1.22857	        N/A	      76.5	   19.4543	   1.02857	        N/A	      76.5	   19.4243	  0.828571	        N/A	       N/A	       N/A	       N/A	        N/A	       N/A	       N/A	       N/A	        N/A	       N/A	       N/A	       N/A	        N/A	       N/A	       N/A	       N/A	        N/A	       N/A	       N/A	       N/A	        N/A	
         R10	    578	      76.5	   19.5429	   1.61905	        N/A	      76.5	   19.5136	   1.42381	        N/A	      76.5	   19.4843	   1.22857	        N/A	       N/A	       N/A	       N/A	        N/A	       N/A	       N/A	       N/A	        N/A	       N/A	       N/A	       N/A	        N/A	       N/A	       N/A	       N/A	        N/A	       N/A	       N/A	       N/A	        N/A	
         R10	    579	      76.5	      19.6	         2	        N/A	      76.5	   19.5714	   1.80952	        N/A	      76.5	   19.5429	   1.61905	        N/A	       N/A	       N/A	       N/A	        N/A	       N/A	       N/A	       N/A	        N/A	       N/A	       N/A	       N/A	        N/A	       N/A	       N/A	       N/A	        N/A	       N/A	       N/A	       N/A	        N/A	
         R10	    580	      76.5	   20.9238	   4.32697	        N/A	      76.5	   21.2119	   4.41348	        N/A	      76.5	      21.5	       4.5	        N/A	       N/A	       N/A	       N/A	        N/A	       N/A	       N/A	       N/A	        N/A	       N/A	       N/A	       N/A	        N/A	       N/A	       N/A	       N/A	        N/A	       N/A	       N/A	       N/A	        N/A	
         R10	    581	      76.5	      20.4	   4.16966	        N/A	      76.5	   20.6619	   4.24831	        N/A	      76.5	   20.9238	   4.32697	        N/A	       N/A	       N/A	       N/A	        N/A	       N/A	       N/A	       N/A	        N/A	       N/A	       N/A	       N/A	        N/A	       N/A	       N/A	       N/A	        N/A	       N/A	       N/A	       N/A	        N/A	
         R10	    582	      76.5	   20.9224	   2.89498	        N/A	      76.5	   21.2112	   2.94749	        N/A	      76.5	      21.5	         3	        N/A	       N/A	       N/A	       N/A	        N/A	       N/A	       N/A	       N/A	        N/A	       N/A	       N/A	       N/A	        N/A	       N/A	       N/A	       N/A	        N/A	       N/A	       N/A	       N/A	        N/A	
         R10	    583	      76.5	      20.4	       2.8	        N/A	      76.5	   20.6612	   2.84749	        N/A	      76.5	   20.9224	   2.89498	        N/A	       N/A	       N/A	       N/A	        N/A	       N/A	       N/A	       N/A	        N/A	       N/A	       N/A	       N/A	        N/A	       N/A	       N/A	       N/A	        N/A	       N/A	       N/A	       N/A	        N/A	
         R10	    584	      76.5	    18.925	   4.92276	        N/A	      76.5	   19.0684	   4.79706	        N/A	      76.5	   19.2119	   4.67137	        N/A	       N/A	       N/A	       N/A	        N/A	       N/A	       N/A	       N/A	        N/A	       N/A	       N/A	       N/A	        N/A	       N/A	       N/A	       N/A	        N/A	       N/A	       N/A	       N/A	        N/A	
         R10	    585	      76.5	   18.6483	   5.16518	        N/A	      76.5	   18.7867	   5.04397	        N/A	      76.5	    18.925	   4.92276	        N/A	       N/A	       N/A	       N/A	        N/A	       N/A	       N/A	       N/A	        N/A	       N/A	       N/A	       N/A	        N/A	       N/A	       N/A	       N/A	        N/A	       N/A	       N/A	       N/A	        N/A	
         R10	    586	      76.5	   18.3819	   5.39863	        N/A	      76.5	   18.5151	    5.2819	        N/A	      76.5	   18.6483	   5.16518	        N/A	       N/A	       N/A	       N/A	        N/A	       N/A	       N/A	       N/A	        N/A	       N/A	       N/A	       N/A	        N/A	       N/A	       N/A	       N/A	        N/A	       N/A	       N/A	       N/A	        N/A	
         R10	    587	      76.5	   19.1479	   5.36211	        N/A	      76.5	   19.3364	   5.35313	        N/A	      76.5	   19.5249	   5.34415	        N/A	       N/A	       N/A	       N/A	        N/A	       N/A	       N/A	       N/A	        N/A	       N/A	       N/A	       N/A	        N/A	       N/A	       N/A	       N/A	        N/A	       N/A	       N/A	       N/A	        N/A	
         R10	    588	      76.5	    18.767	   5.38027	        N/A	      76.5	   18.9574	   5.37119	        N/A	      76.5	   19.1479	   5.36211	        N/A	       N/A	       N/A	       N/A	        N/A	       N/A	       N/A	       N/A	        N/A	       N/A	       N/A	       N/A	        N/A	       N/A	       N/A	       N/A	        N/A	       N/A	       N/A	       N/A	        N/A	
         R10	    589	      76.5	   18.3819	   5.39863	        N/A	      76.5	   18.5744	   5.38945	        N/A	      76.5	    18.767	   5.38027	        N/A	       N/A	       N/A	       N/A	        N/A	       N/A	       N/A	       N/A	        N/A	       N/A	       N/A	       N/A	        N/A	       N/A	       N/A	       N/A	        N/A	       N/A	       N/A	       N/A	        N/A	
         R10	    590	      76.5	   19.5249	   5.34415	        N/A	      76.5	   19.7179	   5.33495	        N/A	      76.5	   19.9109	   5.32574	        N/A	       N/A	       N/A	       N/A	        N/A	       N/A	       N/A	       N/A	        N/A	       N/A	       N/A	       N/A	        N/A	       N/A	       N/A	       N/A	        N/A	       N/A	       N/A	       N/A	        N/A	
         R10	    591	      76.5	   20.2199	   5.31102	        N/A	      76.5	   20.3899	   5.30292	        N/A	      76.5	   20.5598	   5.29481	        N/A	       N/A	       N/A	       N/A	        N/A	       N/A	       N/A	       N/A	        N/A	       N/A	       N/A	       N/A	        N/A	       N/A	       N/A	       N/A	        N/A	       N/A	       N/A	       N/A	        N/A	
         R10	    592	      76.5	   19.9109	   5.32574	        N/A	      76.5	   20.0654	   5.31838	        N/A	      76.5	   20.2199	   5.31102	        N/A	       N/A	       N/A	       N/A	        N/A	       N/A	       N/A	       N/A	        N/A	       N/A	       N/A	       N/A	        N/A	       N/A	       N/A	       N/A	        N/A	       N/A	       N/A	       N/A	        N/A	
         R10	    593	      76.5	   20.9852	   5.27454	        N/A	      76.5	   21.2426	   5.26227	        N/A	      76.5	      21.5	      5.25	        N/A	       N/A	       N/A	       N/A	        N/A	       N/A	       N/A	       N/A	        N/A	       N/A	       N/A	       N/A	        N/A	       N/A	       N/A	       N/A	        N/A	       N/A	       N/A	       N/A	        N/A	
         R10	    594	      76.5	   20.5598	   5.29481	        N/A	      76.5	   20.7725	   5.28468	        N/A	      76.5	   20.9852	   5.27454	        N/A	       N/A	       N/A	       N/A	        N/A	       N/A	       N/A	       N/A	        N/A	       N/A	       N/A	       N/A	        N/A	       N/A	       N/A	       N/A	        N/A	       N/A	       N/A	       N/A	        N/A	
         R10	    595	      76.5	      20.4	   2.38095	        N/A	      76.5	      20.4	   2.59048	        N/A	      76.5	      20.4	       2.8	        N/A	       N/A	       N/A	       N/A	        N/A	       N/A	       N/A	       N/A	        N/A	       N/A	       N/A	       N/A	        N/A	       N/A	       N/A	       N/A	        N/A	       N/A	       N/A	       N/A	        N/A	
         R10	    596	      76.5	      20.4	         2	        N/A	      76.5	      20.4	   2.19048	        N/A	      76.5	      20.4	   2.38095	        N/A	       N/A	       N/A	       N/A	        N/A	       N/A	       N/A	       N/A	        N/A	       N/A	       N/A	       N/A	        N/A	       N/A	       N/A	       N/A	        N/A	       N/A	       N/A	       N/A	        N/A	
         R10	    597	      76.5	      20.4	       2.8	        N/A	      76.5	      20.4	   3.14242	        N/A	      76.5	      20.4	   3.48483	        N/A	       N/A	       N/A	       N/A	        N/A	       N/A	       N/A	       N/A	        N/A	       N/A	       N/A	       N/A	        N/A	       N/A	       N/A	       N/A	        N/A	       N/A	       N/A	       N/A	        N/A	
         R10	    598	      76.5	      20.4	   3.48483	        N/A	      76.5	      20.4	   3.82725	        N/A	      76.5	      20.4	   4.16966	        N/A	       N/A	       N/A	       N/A	        N/A	       N/A	       N/A	       N/A	        N/A	       N/A	       N/A	       N/A	        N/A	       N/A	       N/A	       N/A	        N/A	       N/A	       N/A	       N/A	        N/A	
         R10	    599	      76.5	   17.6783	   3.59945	        N/A	      76.5	   17.7781	   3.48641	        N/A	      76.5	   17.8778	   3.37338	        N/A	       N/A	       N/A	       N/A	        N/A	       N/A	       N/A	       N/A	        N/A	       N/A	       N/A	       N/A	        N/A	       N/A	       N/A	       N/A	        N/A	       N/A	       N/A	       N/A	        N/A	
         R10	    600	      76.5	   17.4904	   3.81243	        N/A	      76.5	   17.5844	   3.70594	        N/A	      76.5	   17.6783	   3.59945	        N/A	       N/A	       N/A	       N/A	        N/A	       N/A	       N/A	       N/A	        N/A	       N/A	       N/A	       N/A	        N/A	       N/A	       N/A	       N/A	        N/A	       N/A	       N/A	       N/A	        N/A	
         R10	    601	      76.5	    17.314	   4.01234	        N/A	      76.5	   17.4022	   3.91239	        N/A	      76.5	   17.4904	   3.81243	        N/A	       N/A	       N/A	       N/A	        N/A	       N/A	       N/A	       N/A	        N/A	       N/A	       N/A	       N/A	        N/A	       N/A	       N/A	       N/A	        N/A	       N/A	       N/A	       N/A	        N/A	
         R10	    602	      76.5	   17.1492	   4.19918	        N/A	      76.5	   17.2316	   4.10576	        N/A	      76.5	    17.314	   4.01234	        N/A	       N/A	       N/A	       N/A	        N/A	       N/A	       N/A	       N/A	        N/A	       N/A	       N/A	       N/A	        N/A	       N/A	       N/A	       N/A	        N/A	       N/A	       N/A	       N/A	        N/A	
         R10	    603	      76.5	   20.4558	   4.56257	        N/A	      76.5	   20.4279	   4.36612	        N/A	      76.5	      20.4	   4.16966	        N/A	       N/A	       N/A	       N/A	        N/A	       N/A	       N/A	       N/A	        N/A	       N/A	       N/A	       N/A	        N/A	       N/A	       N/A	       N/A	        N/A	       N/A	       N/A	       N/A	        N/A	
         R10	    604	      76.5	   20.5091	   4.93762	        N/A	      76.5	   20.4825	    4.7501	        N/A	      76.5	   20.4558	   4.56257	        N/A	       N/A	       N/A	       N/A	        N/A	       N/A	       N/A	       N/A	        N/A	       N/A	       N/A	       N/A	        N/A	       N/A	       N/A	       N/A	        N/A	       N/A	       N/A	       N/A	        N/A	
         R10	    605	      76.5	   20.5598	   5.29481	        N/A	      76.5	   20.5345	   5.11622	        N/A	      76.5	   20.5091	   4.93762	        N/A	       N/A	       N/A	       N/A	        N/A	       N/A	       N/A	       N/A	        N/A	       N/A	       N/A	       N/A	        N/A	       N/A	       N/A	       N/A	        N/A	       N/A	       N/A	       N/A	        N/A	
         R10	    606	      76.5	   20.6075	   5.63062	        N/A	      76.5	   20.5837	   5.46272	        N/A	      76.5	   20.5598	   5.29481	        N/A	       N/A	       N/A	       N/A	        N/A	       N/A	       N/A	       N/A	        N/A	       N/A	       N/A	       N/A	        N/A	       N/A	       N/A	       N/A	        N/A	       N/A	       N/A	       N/A	        N/A	
         R10	    607	      76.5	     20.66	         6	        N/A	      76.5	   20.6338	   5.81531	        N/A	      76.5	   20.6075	   5.63062	        N/A	       N/A	       N/A	       N/A	        N/A	       N/A	       N/A	       N/A	        N/A	       N/A	       N/A	       N/A	        N/A	       N/A	       N/A	       N/A	        N/A	       N/A	       N/A	       N/A	        N/A	
         R10	    608	      76.5	   17.5663	   1.07408	        N/A	      76.5	   17.5833	   0.93704	        N/A	      76.5	   17.6004	       0.8	        N/A	       N/A	       N/A	       N/A	        N/A	       N/A	       N/A	       N/A	        N/A	       N/A	       N/A	       N/A	        N/A	       N/A	       N/A	       N/A	        N/A	       N/A	       N/A	       N/A	        N/A	
         R10	    609	      76.5	   17.5343	   1.33112	        N/A	      76.5	   17.5503	    1.2026	        N/A	      76.5	   17.5663	   1.07408	        N/A	       N/A	       N/A	       N/A	        N/A	       N/A	       N/A	       N/A	        N/A	       N/A	       N/A	       N/A	        N/A	       N/A	       N/A	       N/A	        N/A	       N/A	       N/A	       N/A	        N/A	
         R10	    610	      76.5	   17.5044	   1.57112	        N/A	      76.5	   17.5193	   1.45112	        N/A	      76.5	   17.5343	   1.33112	        N/A	       N/A	       N/A	       N/A	        N/A	       N/A	       N/A	       N/A	        N/A	       N/A	       N/A	       N/A	        N/A	       N/A	       N/A	       N/A	        N/A	       N/A	       N/A	       N/A	        N/A	
         R10	    611	      76.5	   17.4766	   1.79408	        N/A	      76.5	   17.4905	    1.6826	        N/A	      76.5	   17.5044	   1.57112	        N/A	       N/A	       N/A	       N/A	        N/A	       N/A	       N/A	       N/A	        N/A	       N/A	       N/A	       N/A	        N/A	       N/A	       N/A	       N/A	        N/A	       N/A	       N/A	       N/A	        N/A	
         R10	    612	      76.5	    17.451	         2	        N/A	      76.5	   17.4638	   1.89704	        N/A	      76.5	   17.4766	   1.79408	        N/A	       N/A	       N/A	       N/A	        N/A	       N/A	       N/A	       N/A	        N/A	       N/A	       N/A	       N/A	        N/A	       N/A	       N/A	       N/A	        N/A	       N/A	       N/A	       N/A	        N/A	
         R10	    613	      76.5	   17.6636	  0.292006	        N/A	      76.5	   17.6818	  0.146003	        N/A	      76.5	      17.7	         0	        N/A	       N/A	       N/A	       N/A	        N/A	       N/A	       N/A	       N/A	        N/A	       N/A	       N/A	       N/A	        N/A	       N/A	       N/A	       N/A	        N/A	       N/A	       N/A	       N/A	        N/A	
         R10	    614	      76.5	   17.6304	  0.558673	        N/A	      76.5	    17.647	  0.425339	        N/A	      76.5	   17.6636	  0.292006	        N/A	       N/A	       N/A	       N/A	        N/A	       N/A	       N/A	       N/A	        N/A	       N/A	       N/A	       N/A	        N/A	       N/A	       N/A	       N/A	        N/A	       N/A	       N/A	       N/A	        N/A	
         R10	    615	      76.5	   17.6004	       0.8	        N/A	      76.5	   17.6154	  0.679336	        N/A	      76.5	   17.6304	  0.558673	        N/A	       N/A	       N/A	       N/A	        N/A	       N/A	       N/A	       N/A	        N/A	       N/A	       N/A	       N/A	        N/A	       N/A	       N/A	       N/A	        N/A	       N/A	       N/A	       N/A	        N/A	
         R10	    616	      76.5	   18.1431	         2	        N/A	      76.5	   18.2894	         2	        N/A	      76.5	   18.4357	         2	        N/A	       N/A	       N/A	       N/A	        N/A	       N/A	       N/A	       N/A	        N/A	       N/A	       N/A	       N/A	        N/A	       N/A	       N/A	       N/A	        N/A	       N/A	       N/A	       N/A	        N/A	
         R10	    617	      76.5	   17.8815	         2	        N/A	      76.5	   18.0123	         2	        N/A	      76.5	   18.1431	         2	        N/A	       N/A	       N/A	       N/A	        N/A	       N/A	       N/A	       N/A	        N/A	       N/A	       N/A	       N/A	        N/A	       N/A	       N/A	       N/A	        N/A	       N/A	       N/A	       N/A	        N/A	
         R10	    618	      76.5	   17.6508	         2	        N/A	      76.5	   17.7662	         2	        N/A	      76.5	   17.8815	         2	        N/A	       N/A	       N/A	       N/A	        N/A	       N/A	       N/A	       N/A	        N/A	       N/A	       N/A	       N/A	        N/A	       N/A	       N/A	       N/A	        N/A	       N/A	       N/A	       N/A	        N/A	
         R10	    619	      76.5	    17.451	         2	        N/A	      76.5	   17.5509	         2	        N/A	      76.5	   17.6508	         2	        N/A	       N/A	       N/A	       N/A	        N/A	       N/A	       N/A	       N/A	        N/A	       N/A	       N/A	       N/A	        N/A	       N/A	       N/A	       N/A	        N/A	       N/A	       N/A	       N/A	        N/A	
         R10	    620	      76.5	   19.1568	         2	        N/A	      76.5	   19.3784	         2	        N/A	      76.5	      19.6	         2	        N/A	       N/A	       N/A	       N/A	        N/A	       N/A	       N/A	       N/A	        N/A	       N/A	       N/A	       N/A	        N/A	       N/A	       N/A	       N/A	        N/A	       N/A	       N/A	       N/A	        N/A	
         R10	    621	      76.5	   18.7687	         2	        N/A	      76.5	   18.9627	         2	        N/A	      76.5	   19.1568	         2	        N/A	       N/A	       N/A	       N/A	        N/A	       N/A	       N/A	       N/A	        N/A	       N/A	       N/A	       N/A	        N/A	       N/A	       N/A	       N/A	        N/A	       N/A	       N/A	       N/A	        N/A	
         R10	    622	      76.5	   18.4357	         2	        N/A	      76.5	   18.6022	         2	        N/A	      76.5	   18.7687	         2	        N/A	       N/A	       N/A	       N/A	        N/A	       N/A	       N/A	       N/A	        N/A	       N/A	       N/A	       N/A	        N/A	       N/A	       N/A	       N/A	        N/A	       N/A	       N/A	       N/A	        N/A	
         R10	    623	      76.5	    19.981	         2	        N/A	      76.5	   20.1905	         2	        N/A	      76.5	      20.4	         2	        N/A	       N/A	       N/A	       N/A	        N/A	       N/A	       N/A	       N/A	        N/A	       N/A	       N/A	       N/A	        N/A	       N/A	       N/A	       N/A	        N/A	       N/A	       N/A	       N/A	        N/A	
         R10	    624	      76.5	      19.6	         2	        N/A	      76.5	   19.7905	         2	        N/A	      76.5	    19.981	         2	        N/A	       N/A	       N/A	       N/A	        N/A	       N/A	       N/A	       N/A	        N/A	       N/A	       N/A	       N/A	        N/A	       N/A	       N/A	       N/A	        N/A	       N/A	       N/A	       N/A	        N/A	
         R10	    625	      76.5	   17.6578	   3.15932	        N/A	      76.5	   17.7678	   3.26635	        N/A	      76.5	   17.8778	   3.37338	        N/A	       N/A	       N/A	       N/A	        N/A	       N/A	       N/A	       N/A	        N/A	       N/A	       N/A	       N/A	        N/A	       N/A	       N/A	       N/A	        N/A	       N/A	       N/A	       N/A	        N/A	
         R10	    626	      76.5	   17.4652	   2.97188	        N/A	      76.5	   17.5615	    3.0656	        N/A	      76.5	   17.6578	   3.15932	        N/A	       N/A	       N/A	       N/A	        N/A	       N/A	       N/A	       N/A	        N/A	       N/A	       N/A	       N/A	        N/A	       N/A	       N/A	       N/A	        N/A	       N/A	       N/A	       N/A	        N/A	
         R10	    627	      76.5	   17.2999	   2.81105	        N/A	      76.5	   17.3825	   2.89147	        N/A	      76.5	   17.4652	   2.97188	        N/A	       N/A	       N/A	       N/A	        N/A	       N/A	       N/A	       N/A	        N/A	       N/A	       N/A	       N/A	        N/A	       N/A	       N/A	       N/A	        N/A	       N/A	       N/A	       N/A	        N/A	
         R10	    628	      76.5	   18.2936	   3.77795	        N/A	      76.5	   18.4131	   3.89423	        N/A	      76.5	   18.5326	    4.0105	        N/A	       N/A	       N/A	       N/A	        N/A	       N/A	       N/A	       N/A	        N/A	       N/A	       N/A	       N/A	        N/A	       N/A	       N/A	       N/A	        N/A	       N/A	       N/A	       N/A	        N/A	
         R10	    629	      76.5	   18.0753	   3.56557	        N/A	      76.5	   18.1845	   3.67176	        N/A	      76.5	   18.2936	   3.77795	        N/A	       N/A	       N/A	       N/A	        N/A	       N/A	       N/A	       N/A	        N/A	       N/A	       N/A	       N/A	        N/A	       N/A	       N/A	       N/A	        N/A	       N/A	       N/A	       N/A	        N/A	
         R10	    630	      76.5	   17.8778	   3.37338	        N/A	      76.5	   17.9766	   3.46948	        N/A	      76.5	   18.0753	   3.56557	        N/A	       N/A	       N/A	       N/A	        N/A	       N/A	       N/A	       N/A	        N/A	       N/A	       N/A	       N/A	        N/A	       N/A	       N/A	       N/A	        N/A	       N/A	       N/A	       N/A	        N/A	
         R10	    631	      76.5	   18.8436	   4.31303	        N/A	      76.5	   19.0277	    4.4922	        N/A	      76.5	   19.2119	   4.67137	        N/A	       N/A	       N/A	       N/A	        N/A	       N/A	       N/A	       N/A	        N/A	       N/A	       N/A	       N/A	        N/A	       N/A	       N/A	       N/A	        N/A	       N/A	       N/A	       N/A	        N/A	
         R10	    632	      76.5	   18.5326	    4.0105	        N/A	      76.5	   18.6881	   4.16176	        N/A	      76.5	   18.8436	   4.31303	        N/A	       N/A	       N/A	       N/A	        N/A	       N/A	       N/A	       N/A	        N/A	       N/A	       N/A	       N/A	        N/A	       N/A	       N/A	       N/A	        N/A	       N/A	       N/A	       N/A	        N/A	
         R10	    633	     77.35	   15.9164	   2.99973	        N/A	   77.4007	   15.9164	   2.99973	        N/A	   77.4514	   15.9164	   2.99973	        N/A	       N/A	       N/A	       N/A	        N/A	       N/A	       N/A	       N/A	        N/A	       N/A	       N/A	       N/A	        N/A	       N/A	       N/A	       N/A	        N/A	       N/A	       N/A	       N/A	        N/A	
         R10	    634	   77.4514	   15.9164	   2.99973	        N/A	   77.5104	   15.9164	   2.99973	        N/A	   77.5694	   15.9164	   2.99973	        N/A	       N/A	       N/A	       N/A	        N/A	       N/A	       N/A	       N/A	        N/A	       N/A	       N/A	       N/A	        N/A	       N/A	       N/A	       N/A	        N/A	       N/A	       N/A	       N/A	        N/A	
         R10	    635	   77.5694	   15.9164	   2.99973	        N/A	   77.6366	   15.9164	   2.99973	        N/A	   77.7039	   15.9164	   2.99973	        N/A	       N/A	       N/A	       N/A	        N/A	       N/A	       N/A	       N/A	        N/A	       N/A	       N/A	       N/A	        N/A	       N/A	       N/A	       N/A	        N/A	       N/A	       N/A	       N/A	        N/A	
         R10	    636	   77.7039	   15.9164	   2.99973	        N/A	   77.7794	   15.9164	   2.99973	        N/A	    77.855	   15.9164	   2.99973	        N/A	       N/A	       N/A	       N/A	        N/A	       N/A	       N/A	       N/A	        N/A	       N/A	       N/A	       N/A	        N/A	       N/A	       N/A	       N/A	        N/A	       N/A	       N/A	       N/A	        N/A	
         R10	    637	    77.855	   15.9164	   2.99973	        N/A	   77.9388	   15.9164	   2.99973	        N/A	   78.0226	   15.9164	   2.99973	        N/A	       N/A	       N/A	       N/A	        N/A	       N/A	       N/A	       N/A	        N/A	       N/A	       N/A	       N/A	        N/A	       N/A	       N/A	       N/A	        N/A	       N/A	       N/A	       N/A	        N/A	
         R10	    638	   78.0226	   15.9164	   2.99973	        N/A	   78.1147	   15.9164	   2.99973	        N/A	   78.2069	   15.9164	   2.99973	        N/A	       N/A	       N/A	       N/A	        N/A	       N/A	       N/A	       N/A	        N/A	       N/A	       N/A	       N/A	        N/A	       N/A	       N/A	       N/A	        N/A	       N/A	       N/A	       N/A	        N/A	
         R10	    639	   78.2069	   15.9164	   2.99973	        N/A	   78.3073	   15.9164	   2.99973	        N/A	   78.4076	   15.9164	   2.99973	        N/A	       N/A	       N/A	       N/A	        N/A	       N/A	       N/A	       N/A	        N/A	       N/A	       N/A	       N/A	        N/A	       N/A	       N/A	       N/A	        N/A	       N/A	       N/A	       N/A	        N/A	
         R10	    640	   78.4076	   15.9164	   2.99973	        N/A	   78.5163	   15.9164	   2.99973	        N/A	    78.625	   15.9164	   2.99973	        N/A	       N/A	       N/A	       N/A	        N/A	       N/A	       N/A	       N/A	        N/A	       N/A	       N/A	       N/A	        N/A	       N/A	       N/A	       N/A	        N/A	       N/A	       N/A	       N/A	        N/A	
         R10	    641	      76.5	   16.6425	   3.48671	        N/A	      76.5	   16.5876	   3.54308	        N/A	      76.5	   16.5328	   3.59945	        N/A	       N/A	       N/A	       N/A	        N/A	       N/A	       N/A	       N/A	        N/A	       N/A	       N/A	       N/A	        N/A	       N/A	       N/A	       N/A	        N/A	       N/A	       N/A	       N/A	        N/A	
         R10	    642	      76.5	   16.7594	    3.3665	        N/A	      76.5	   16.7009	   3.42661	        N/A	      76.5	   16.6425	   3.48671	        N/A	       N/A	       N/A	       N/A	        N/A	       N/A	       N/A	       N/A	        N/A	       N/A	       N/A	       N/A	        N/A	       N/A	       N/A	       N/A	        N/A	       N/A	       N/A	       N/A	        N/A	
         R10	    643	      76.5	   16.8836	   3.23884	        N/A	      76.5	   16.8215	   3.30267	        N/A	      76.5	   16.7594	    3.3665	        N/A	       N/A	       N/A	       N/A	        N/A	       N/A	       N/A	       N/A	        N/A	       N/A	       N/A	       N/A	        N/A	       N/A	       N/A	       N/A	        N/A	       N/A	       N/A	       N/A	        N/A	
         R10	    644	      76.5	   17.0151	   3.10371	        N/A	      76.5	   16.9494	   3.17127	        N/A	      76.5	   16.8836	   3.23884	        N/A	       N/A	       N/A	       N/A	        N/A	       N/A	       N/A	       N/A	        N/A	       N/A	       N/A	       N/A	        N/A	       N/A	       N/A	       N/A	        N/A	       N/A	       N/A	       N/A	        N/A	
         R10	    645	      76.5	   17.1539	   2.96111	        N/A	      76.5	   17.0845	   3.03241	        N/A	      76.5	   17.0151	   3.10371	        N/A	       N/A	       N/A	       N/A	        N/A	       N/A	       N/A	       N/A	        N/A	       N/A	       N/A	       N/A	        N/A	       N/A	       N/A	       N/A	        N/A	       N/A	       N/A	       N/A	        N/A	
         R10	    646	      76.5	   17.2999	   2.81105	        N/A	      76.5	   17.2269	   2.88608	        N/A	      76.5	   17.1539	   2.96111	        N/A	       N/A	       N/A	       N/A	        N/A	       N/A	       N/A	       N/A	        N/A	       N/A	       N/A	       N/A	        N/A	       N/A	       N/A	       N/A	        N/A	       N/A	       N/A	       N/A	        N/A	
         R10	    647	      76.5	   18.0091	   4.54862	        N/A	      76.5	   17.8873	   4.67376	        N/A	      76.5	   17.7655	    4.7989	        N/A	       N/A	       N/A	       N/A	        N/A	       N/A	       N/A	       N/A	        N/A	       N/A	       N/A	       N/A	        N/A	       N/A	       N/A	       N/A	        N/A	       N/A	       N/A	       N/A	        N/A	
         R10	    648	      76.5	   18.2648	   4.28582	        N/A	      76.5	   18.1369	   4.41722	        N/A	      76.5	   18.0091	   4.54862	        N/A	       N/A	       N/A	       N/A	        N/A	       N/A	       N/A	       N/A	        N/A	       N/A	       N/A	       N/A	        N/A	       N/A	       N/A	       N/A	        N/A	       N/A	       N/A	       N/A	        N/A	
         R10	    649	      76.5	   18.5326	    4.0105	        N/A	      76.5	   18.3987	   4.14816	        N/A	      76.5	   18.2648	   4.28582	        N/A	       N/A	       N/A	       N/A	        N/A	       N/A	       N/A	       N/A	        N/A	       N/A	       N/A	       N/A	        N/A	       N/A	       N/A	       N/A	        N/A	       N/A	       N/A	       N/A	        N/A	
         R10	    650	      76.5	   20.9238	    3.6111	        N/A	      76.5	   21.2119	   3.68055	        N/A	      76.5	      21.5	      3.75	        N/A	       N/A	       N/A	       N/A	        N/A	       N/A	       N/A	       N/A	        N/A	       N/A	       N/A	       N/A	        N/A	       N/A	       N/A	       N/A	        N/A	       N/A	       N/A	       N/A	        N/A	
         R10	    651	      76.5	      20.4	   3.48483	        N/A	      76.5	   20.6619	   3.54797	        N/A	      76.5	   20.9238	    3.6111	        N/A	       N/A	       N/A	       N/A	        N/A	       N/A	       N/A	       N/A	        N/A	       N/A	       N/A	       N/A	        N/A	       N/A	       N/A	       N/A	        N/A	       N/A	       N/A	       N/A	        N/A	
         R10	    652	      76.5	   18.1279	    2.0616	        N/A	      76.5	   18.2787	   2.01555	        N/A	      76.5	   18.4357	         2	        N/A	       N/A	       N/A	       N/A	        N/A	       N/A	       N/A	       N/A	        N/A	       N/A	       N/A	       N/A	        N/A	       N/A	       N/A	       N/A	        N/A	       N/A	       N/A	       N/A	        N/A	
         R10	    653	      76.5	   17.8674	    2.2369	        N/A	      76.5	    17.989	   2.13635	        N/A	      76.5	   18.1279	    2.0616	        N/A	       N/A	       N/A	       N/A	        N/A	       N/A	       N/A	       N/A	        N/A	       N/A	       N/A	       N/A	        N/A	       N/A	       N/A	       N/A	        N/A	       N/A	       N/A	       N/A	        N/A	
         R10	    654	      76.5	   17.6945	   2.49892	        N/A	      76.5	    17.768	   2.35935	        N/A	      76.5	   17.8674	    2.2369	        N/A	       N/A	       N/A	       N/A	        N/A	       N/A	       N/A	       N/A	        N/A	       N/A	       N/A	       N/A	        N/A	       N/A	       N/A	       N/A	        N/A	       N/A	       N/A	       N/A	        N/A	
         R10	    655	      76.5	   17.6357	   2.80731	        N/A	      76.5	   17.6498	    2.6502	        N/A	      76.5	   17.6945	   2.49892	        N/A	       N/A	       N/A	       N/A	        N/A	       N/A	       N/A	       N/A	        N/A	       N/A	       N/A	       N/A	        N/A	       N/A	       N/A	       N/A	        N/A	       N/A	       N/A	       N/A	        N/A	
         R10	    656	      76.5	   17.7001	   3.11456	        N/A	      76.5	   17.6527	   2.96412	        N/A	      76.5	   17.6357	   2.80731	        N/A	       N/A	       N/A	       N/A	        N/A	       N/A	       N/A	       N/A	        N/A	       N/A	       N/A	       N/A	        N/A	       N/A	       N/A	       N/A	        N/A	       N/A	       N/A	       N/A	        N/A	
         R10	    657	      76.5	   17.8778	   3.37338	        N/A	      76.5	   17.7761	   3.25277	        N/A	      76.5	   17.7001	   3.11456	        N/A	       N/A	       N/A	       N/A	        N/A	       N/A	       N/A	       N/A	        N/A	       N/A	       N/A	       N/A	        N/A	       N/A	       N/A	       N/A	        N/A	       N/A	       N/A	       N/A	        N/A	
         R10	    658	      76.5	   19.5705	   4.85758	        N/A	      76.5	   19.7746	   4.86568	        N/A	      76.5	   19.9723	   4.81453	        N/A	       N/A	       N/A	       N/A	        N/A	       N/A	       N/A	       N/A	        N/A	       N/A	       N/A	       N/A	        N/A	       N/A	       N/A	       N/A	        N/A	       N/A	       N/A	       N/A	        N/A	
         R10	    659	      76.5	   19.2119	   4.67137	        N/A	      76.5	   19.3774	   4.79092	        N/A	      76.5	   19.5705	   4.85758	        N/A	       N/A	       N/A	       N/A	        N/A	       N/A	       N/A	       N/A	        N/A	       N/A	       N/A	       N/A	        N/A	       N/A	       N/A	       N/A	        N/A	       N/A	       N/A	       N/A	        N/A	
         R10	    660	      76.5	   20.2723	   4.57268	        N/A	      76.5	   20.3673	   4.38104	        N/A	      76.5	      20.4	   4.16966	        N/A	       N/A	       N/A	       N/A	        N/A	       N/A	       N/A	       N/A	        N/A	       N/A	       N/A	       N/A	        N/A	       N/A	       N/A	       N/A	        N/A	       N/A	       N/A	       N/A	        N/A	
         R10	    661	      76.5	   19.9723	   4.81453	        N/A	      76.5	   20.1393	   4.71466	        N/A	      76.5	   20.2723	   4.57268	        N/A	       N/A	       N/A	       N/A	        N/A	       N/A	       N/A	       N/A	        N/A	       N/A	       N/A	       N/A	        N/A	       N/A	       N/A	       N/A	        N/A	       N/A	       N/A	       N/A	        N/A	
         R10	    662	      76.5	    19.965	   2.08814	        N/A	      76.5	   19.7878	   2.02235	        N/A	      76.5	      19.6	         2	        N/A	       N/A	       N/A	       N/A	        N/A	       N/A	       N/A	       N/A	        N/A	       N/A	       N/A	       N/A	        N/A	       N/A	       N/A	       N/A	        N/A	       N/A	       N/A	       N/A	        N/A	
         R10	    663	      76.5	   20.2721	   2.36604	        N/A	      76.5	   20.1369	   2.20688	        N/A	      76.5	    19.965	   2.08814	        N/A	       N/A	       N/A	       N/A	        N/A	       N/A	       N/A	       N/A	        N/A	       N/A	       N/A	       N/A	        N/A	       N/A	       N/A	       N/A	        N/A	       N/A	       N/A	       N/A	        N/A	
         R10	    664	      76.5	      20.4	       2.8	        N/A	      76.5	   20.3674	   2.57379	        N/A	      76.5	   20.2721	   2.36604	        N/A	       N/A	       N/A	       N/A	        N/A	       N/A	       N/A	       N/A	        N/A	       N/A	       N/A	       N/A	        N/A	       N/A	       N/A	       N/A	        N/A	       N/A	       N/A	       N/A	        N/A	
         R10	    665	     77.35	     14.45	       2.4	        N/A	   77.4007	     14.45	       2.4	        N/A	   77.4514	     14.45	       2.4	        N/A	       N/A	       N/A	       N/A	        N/A	       N/A	       N/A	       N/A	        N/A	       N/A	       N/A	       N/A	        N/A	       N/A	       N/A	       N/A	        N/A	       N/A	       N/A	       N/A	        N/A	
         R10	    666	   77.4514	     14.45	       2.4	        N/A	   77.5104	     14.45	       2.4	        N/A	   77.5694	     14.45	       2.4	        N/A	       N/A	       N/A	       N/A	        N/A	       N/A	       N/A	       N/A	        N/A	       N/A	       N/A	       N/A	        N/A	       N/A	       N/A	       N/A	        N/A	       N/A	       N/A	       N/A	        N/A	
         R10	    667	   77.5694	     14.45	       2.4	        N/A	   77.6366	     14.45	       2.4	        N/A	   77.7039	     14.45	       2.4	        N/A	       N/A	       N/A	       N/A	        N/A	       N/A	       N/A	       N/A	        N/A	       N/A	       N/A	       N/A	        N/A	       N/A	       N/A	       N/A	        N/A	       N/A	       N/A	       N/A	        N/A	
         R10	    668	   77.7039	     14.45	       2.4	        N/A	   77.7794	     14.45	       2.4	        N/A	    77.855	     14.45	       2.4	        N/A	       N/A	       N/A	       N/A	        N/A	       N/A	       N/A	       N/A	        N/A	       N/A	       N/A	       N/A	        N/A	       N/A	       N/A	       N/A	        N/A	       N/A	       N/A	       N/A	        N/A	
         R10	    669	    77.855	     14.45	       2.4	        N/A	   77.9388	     14.45	       2.4	        N/A	   78.0226	     14.45	       2.4	        N/A	       N/A	       N/A	       N/A	        N/A	       N/A	       N/A	       N/A	        N/A	       N/A	       N/A	       N/A	        N/A	       N/A	       N/A	       N/A	        N/A	       N/A	       N/A	       N/A	        N/A	
         R10	    670	   78.0226	     14.45	       2.4	        N/A	   78.1147	     14.45	       2.4	        N/A	   78.2069	     14.45	       2.4	        N/A	       N/A	       N/A	       N/A	        N/A	       N/A	       N/A	       N/A	        N/A	       N/A	       N/A	       N/A	        N/A	       N/A	       N/A	       N/A	        N/A	       N/A	       N/A	       N/A	        N/A	
         R10	    671	   78.2069	     14.45	       2.4	        N/A	   78.3073	     14.45	       2.4	        N/A	   78.4076	     14.45	       2.4	        N/A	       N/A	       N/A	       N/A	        N/A	       N/A	       N/A	       N/A	        N/A	       N/A	       N/A	       N/A	        N/A	       N/A	       N/A	       N/A	        N/A	       N/A	       N/A	       N/A	        N/A	
         R10	    672	   78.4076	     14.45	       2.4	        N/A	   78.5163	     14.45	       2.4	        N/A	    78.625	     14.45	       2.4	        N/A	       N/A	       N/A	       N/A	        N/A	       N/A	       N/A	       N/A	        N/A	       N/A	       N/A	       N/A	        N/A	       N/A	       N/A	       N/A	        N/A	       N/A	       N/A	       N/A	        N/A	
         R10	    673	      76.5	   19.3758	   5.02378	        N/A	      76.5	   19.2938	   4.84757	        N/A	      76.5	   19.2119	   4.67137	        N/A	       N/A	       N/A	       N/A	        N/A	       N/A	       N/A	       N/A	        N/A	       N/A	       N/A	       N/A	        N/A	       N/A	       N/A	       N/A	        N/A	       N/A	       N/A	       N/A	        N/A	
         R10	    674	      76.5	   19.5249	   5.34415	        N/A	      76.5	   19.4503	   5.18396	        N/A	      76.5	   19.3758	   5.02378	        N/A	       N/A	       N/A	       N/A	        N/A	       N/A	       N/A	       N/A	        N/A	       N/A	       N/A	       N/A	        N/A	       N/A	       N/A	       N/A	        N/A	       N/A	       N/A	       N/A	        N/A	
         R10	    675	      76.5	   19.6702	   5.65646	        N/A	      76.5	   19.5975	    5.5003	        N/A	      76.5	   19.5249	   5.34415	        N/A	       N/A	       N/A	       N/A	        N/A	       N/A	       N/A	       N/A	        N/A	       N/A	       N/A	       N/A	        N/A	       N/A	       N/A	       N/A	        N/A	       N/A	       N/A	       N/A	        N/A	
         R10	    676	      76.5	     19.83	         6	        N/A	      76.5	   19.7501	   5.82823	        N/A	      76.5	   19.6702	   5.65646	        N/A	       N/A	       N/A	       N/A	        N/A	       N/A	       N/A	       N/A	        N/A	       N/A	       N/A	       N/A	        N/A	       N/A	       N/A	       N/A	        N/A	       N/A	       N/A	       N/A	        N/A	
         R10	    677	      76.5	     14.45	   1.70151	        N/A	      76.5	     14.45	   1.65076	        N/A	      76.5	     14.45	       1.6	        N/A	       N/A	       N/A	       N/A	        N/A	       N/A	       N/A	       N/A	        N/A	       N/A	       N/A	       N/A	        N/A	       N/A	       N/A	       N/A	        N/A	       N/A	       N/A	       N/A	        N/A	
         R10	    678	      76.5	     14.45	   1.79987	        N/A	      76.5	     14.45	   1.75069	        N/A	      76.5	     14.45	   1.70151	        N/A	       N/A	       N/A	       N/A	        N/A	       N/A	       N/A	       N/A	        N/A	       N/A	       N/A	       N/A	        N/A	       N/A	       N/A	       N/A	        N/A	       N/A	       N/A	       N/A	        N/A	
         R10	    679	      76.5	     14.45	   1.89507	        N/A	      76.5	     14.45	   1.84747	        N/A	      76.5	     14.45	   1.79987	        N/A	       N/A	       N/A	       N/A	        N/A	       N/A	       N/A	       N/A	        N/A	       N/A	       N/A	       N/A	        N/A	       N/A	       N/A	       N/A	        N/A	       N/A	       N/A	       N/A	        N/A	
         R10	    680	      76.5	     14.45	   1.98711	        N/A	      76.5	     14.45	   1.94109	        N/A	      76.5	     14.45	   1.89507	        N/A	       N/A	       N/A	       N/A	        N/A	       N/A	       N/A	       N/A	        N/A	       N/A	       N/A	       N/A	        N/A	       N/A	       N/A	       N/A	        N/A	       N/A	       N/A	       N/A	        N/A	
         R10	    681	      76.5	     14.45	     2.076	        N/A	      76.5	     14.45	   2.03156	        N/A	      76.5	     14.45	   1.98711	        N/A	       N/A	       N/A	       N/A	        N/A	       N/A	       N/A	       N/A	        N/A	       N/A	       N/A	       N/A	        N/A	       N/A	       N/A	       N/A	        N/A	       N/A	       N/A	       N/A	        N/A	
         R10	    682	      76.5	     14.45	   2.16173	        N/A	      76.5	     14.45	   2.11887	        N/A	      76.5	     14.45	     2.076	        N/A	       N/A	       N/A	       N/A	        N/A	       N/A	       N/A	       N/A	        N/A	       N/A	       N/A	       N/A	        N/A	       N/A	       N/A	       N/A	        N/A	       N/A	       N/A	       N/A	        N/A	
         R10	    683	      76.5	     14.45	   2.24431	        N/A	      76.5	     14.45	   2.20302	        N/A	      76.5	     14.45	   2.16173	        N/A	       N/A	       N/A	       N/A	        N/A	       N/A	       N/A	       N/A	        N/A	       N/A	       N/A	       N/A	        N/A	       N/A	       N/A	       N/A	        N/A	       N/A	       N/A	       N/A	        N/A	
         R10	    684	      76.5	     14.45	   2.32373	        N/A	      76.5	     14.45	   2.28402	        N/A	      76.5	     14.45	   2.24431	        N/A	       N/A	       N/A	       N/A	        N/A	       N/A	       N/A	       N/A	        N/A	       N/A	       N/A	       N/A	        N/A	       N/A	       N/A	       N/A	        N/A	       N/A	       N/A	       N/A	        N/A	
         R10	    685	      76.5	     14.45	       2.4	        N/A	      76.5	     14.45	   2.36187	        N/A	      76.5	     14.45	   2.32373	        N/A	       N/A	       N/A	       N/A	        N/A	       N/A	       N/A	       N/A	        N/A	       N/A	       N/A	       N/A	        N/A	       N/A	       N/A	       N/A	        N/A	       N/A	       N/A	       N/A	        N/A	
         R10	    686	    74.375	      13.6	       2.4	        N/A	   74.5146	      13.6	       2.4	        N/A	   74.6542	      13.6	       2.4	        N/A	       N/A	       N/A	       N/A	        N/A	       N/A	       N/A	       N/A	        N/A	       N/A	       N/A	       N/A	        N/A	       N/A	       N/A	       N/A	        N/A	       N/A	       N/A	       N/A	        N/A	
         R10	    687	   74.6542	      13.6	       2.4	        N/A	   74.7878	      13.6	       2.4	        N/A	   74.9213	      13.6	       2.4	        N/A	       N/A	       N/A	       N/A	        N/A	       N/A	       N/A	       N/A	        N/A	       N/A	       N/A	       N/A	        N/A	       N/A	       N/A	       N/A	        N/A	       N/A	       N/A	       N/A	        N/A	
         R10	    688	   74.9213	      13.6	       2.4	        N/A	   75.0488	      13.6	       2.4	        N/A	   75.1763	      13.6	       2.4	        N/A	       N/A	       N/A	       N/A	        N/A	       N/A	       N/A	       N/A	        N/A	       N/A	       N/A	       N/A	        N/A	       N/A	       N/A	       N/A	        N/A	       N/A	       N/A	       N/A	        N/A	
         R10	    689	   75.1763	      13.6	       2.4	        N/A	   75.2978	      13.6	       2.4	        N/A	   75.4192	      13.6	       2.4	        N/A	       N/A	       N/A	       N/A	        N/A	       N/A	       N/A	       N/A	        N/A	       N/A	       N/A	       N/A	        N/A	       N/A	       N/A	       N/A	        N/A	       N/A	       N/A	       N/A	        N/A	
         R10	    690	   75.4192	      13.6	       2.4	        N/A	   75.5346	      13.6	       2.4	        N/A	     75.65	      13.6	       2.4	        N/A	       N/A	       N/A	       N/A	        N/A	       N/A	       N/A	       N/A	        N/A	       N/A	       N/A	       N/A	        N/A	       N/A	       N/A	       N/A	        N/A	       N/A	       N/A	       N/A	        N/A	
         R10	    691	     75.65	      13.6	       2.4	        N/A	   75.7819	      13.6	       2.4	        N/A	   75.9137	      13.6	       2.4	        N/A	       N/A	       N/A	       N/A	        N/A	       N/A	       N/A	       N/A	        N/A	       N/A	       N/A	       N/A	        N/A	       N/A	       N/A	       N/A	        N/A	       N/A	       N/A	       N/A	        N/A	
         R10	    692	   75.9137	      13.6	       2.4	        N/A	   76.0285	      13.6	       2.4	        N/A	   76.1433	      13.6	       2.4	        N/A	       N/A	       N/A	       N/A	        N/A	       N/A	       N/A	       N/A	        N/A	       N/A	       N/A	       N/A	        N/A	       N/A	       N/A	       N/A	        N/A	       N/A	       N/A	       N/A	        N/A	
         R10	    693	   76.1433	      13.6	       2.4	        N/A	    76.241	      13.6	       2.4	        N/A	   76.3387	      13.6	       2.4	        N/A	       N/A	       N/A	       N/A	        N/A	       N/A	       N/A	       N/A	        N/A	       N/A	       N/A	       N/A	        N/A	       N/A	       N/A	       N/A	        N/A	       N/A	       N/A	       N/A	        N/A	
         R10	    694	   76.3387	      13.6	       2.4	        N/A	   76.4194	      13.6	       2.4	        N/A	      76.5	      13.6	       2.4	        N/A	       N/A	       N/A	       N/A	        N/A	       N/A	       N/A	       N/A	        N/A	       N/A	       N/A	       N/A	        N/A	       N/A	       N/A	       N/A	        N/A	       N/A	       N/A	       N/A	        N/A	
         R10	    695	      76.5	      13.6	       2.4	        N/A	   76.5769	      13.6	       2.4	        N/A	   76.6538	      13.6	       2.4	        N/A	       N/A	       N/A	       N/A	        N/A	       N/A	       N/A	       N/A	        N/A	       N/A	       N/A	       N/A	        N/A	       N/A	       N/A	       N/A	        N/A	       N/A	       N/A	       N/A	        N/A	
         R10	    696	   76.6538	      13.6	       2.4	        N/A	   76.7348	      13.6	       2.4	        N/A	   76.8158	      13.6	       2.4	        N/A	       N/A	       N/A	       N/A	        N/A	       N/A	       N/A	       N/A	        N/A	       N/A	       N/A	       N/A	        N/A	       N/A	       N/A	       N/A	        N/A	       N/A	       N/A	       N/A	        N/A	
         R10	    697	   76.8158	      13.6	       2.4	        N/A	   76.9008	      13.6	       2.4	        N/A	   76.9858	      13.6	       2.4	        N/A	       N/A	       N/A	       N/A	        N/A	       N/A	       N/A	       N/A	        N/A	       N/A	       N/A	       N/A	        N/A	       N/A	       N/A	       N/A	        N/A	       N/A	       N/A	       N/A	        N/A	
         R10	    698	   76.9858	      13.6	       2.4	        N/A	   77.0748	      13.6	       2.4	        N/A	   77.1638	      13.6	       2.4	        N/A	       N/A	       N/A	       N/A	        N/A	       N/A	       N/A	       N/A	        N/A	       N/A	       N/A	       N/A	        N/A	       N/A	       N/A	       N/A	        N/A	       N/A	       N/A	       N/A	        N/A	
         R10	    699	   77.1638	      13.6	       2.4	        N/A	   77.2569	      13.6	       2.4	        N/A	     77.35	      13.6	       2.4	        N/A	       N/A	       N/A	       N/A	        N/A	       N/A	       N/A	       N/A	        N/A	       N/A	       N/A	       N/A	        N/A	       N/A	       N/A	       N/A	        N/A	       N/A	       N/A	       N/A	        N/A	
         R10	    700	     77.35	      13.6	       2.4	        N/A	   77.4412	      13.6	       2.4	        N/A	   77.5323	      13.6	       2.4	        N/A	       N/A	       N/A	       N/A	        N/A	       N/A	       N/A	       N/A	        N/A	       N/A	       N/A	       N/A	        N/A	       N/A	       N/A	       N/A	        N/A	       N/A	       N/A	       N/A	        N/A	
         R10	    701	   77.5323	      13.6	       2.4	        N/A	   77.6295	      13.6	       2.4	        N/A	   77.7267	      13.6	       2.4	        N/A	       N/A	       N/A	       N/A	        N/A	       N/A	       N/A	       N/A	        N/A	       N/A	       N/A	       N/A	        N/A	       N/A	       N/A	       N/A	        N/A	       N/A	       N/A	       N/A	        N/A	
         R10	    702	   77.7267	      13.6	       2.4	        N/A	     77.83	      13.6	       2.4	        N/A	   77.9332	      13.6	       2.4	        N/A	       N/A	       N/A	       N/A	        N/A	       N/A	       N/A	       N/A	        N/A	       N/A	       N/A	       N/A	        N/A	       N/A	       N/A	       N/A	        N/A	       N/A	       N/A	       N/A	        N/A	
         R10	    703	   77.9332	      13.6	       2.4	        N/A	   78.0424	      13.6	       2.4	        N/A	   78.1517	      13.6	       2.4	        N/A	       N/A	       N/A	       N/A	        N/A	       N/A	       N/A	       N/A	        N/A	       N/A	       N/A	       N/A	        N/A	       N/A	       N/A	       N/A	        N/A	       N/A	       N/A	       N/A	        N/A	
         R10	    704	   78.1517	      13.6	       2.4	        N/A	    78.267	      13.6	       2.4	        N/A	   78.3823	      13.6	       2.4	        N/A	       N/A	       N/A	       N/A	        N/A	       N/A	       N/A	       N/A	        N/A	       N/A	       N/A	       N/A	        N/A	       N/A	       N/A	       N/A	        N/A	       N/A	       N/A	       N/A	        N/A	
         R10	    705	   78.3823	      13.6	       2.4	        N/A	   78.5037	      13.6	       2.4	        N/A	    78.625	      13.6	       2.4	        N/A	       N/A	       N/A	       N/A	        N/A	       N/A	       N/A	       N/A	        N/A	       N/A	       N/A	       N/A	        N/A	       N/A	       N/A	       N/A	        N/A	       N/A	       N/A	       N/A	        N/A	
         R10	    706	    74.375	     14.45	       2.4	        N/A	    74.507	     14.45	       2.4	        N/A	    74.639	     14.45	       2.4	        N/A	       N/A	       N/A	       N/A	        N/A	       N/A	       N/A	       N/A	        N/A	       N/A	       N/A	       N/A	        N/A	       N/A	       N/A	       N/A	        N/A	       N/A	       N/A	       N/A	        N/A	
         R10	    707	    74.639	     14.45	       2.4	        N/A	   74.7574	     14.45	       2.4	        N/A	   74.8758	     14.45	       2.4	        N/A	       N/A	       N/A	       N/A	        N/A	       N/A	       N/A	       N/A	        N/A	       N/A	       N/A	       N/A	        N/A	       N/A	       N/A	       N/A	        N/A	       N/A	       N/A	       N/A	        N/A	
         R10	    708	   74.8758	     14.45	       2.4	        N/A	   74.9805	     14.45	       2.4	        N/A	   75.0852	     14.45	       2.4	        N/A	       N/A	       N/A	       N/A	        N/A	       N/A	       N/A	       N/A	        N/A	       N/A	       N/A	       N/A	        N/A	       N/A	       N/A	       N/A	        N/A	       N/A	       N/A	       N/A	        N/A	
         R10	    709	   75.0852	     14.45	       2.4	        N/A	   75.1763	     14.45	       2.4	        N/A	   75.2673	     14.45	       2.4	        N/A	       N/A	       N/A	       N/A	        N/A	       N/A	       N/A	       N/A	        N/A	       N/A	       N/A	       N/A	        N/A	       N/A	       N/A	       N/A	        N/A	       N/A	       N/A	       N/A	        N/A	
         R10	    710	   75.2673	     14.45	       2.4	        N/A	   75.3448	     14.45	       2.4	        N/A	   75.4222	     14.45	       2.4	        N/A	       N/A	       N/A	       N/A	        N/A	       N/A	       N/A	       N/A	        N/A	       N/A	       N/A	       N/A	        N/A	       N/A	       N/A	       N/A	        N/A	       N/A	       N/A	       N/A	        N/A	
         R10	    711	   75.4222	     14.45	       2.4	        N/A	    75.486	     14.45	       2.4	        N/A	   75.5497	     14.45	       2.4	        N/A	       N/A	       N/A	       N/A	        N/A	       N/A	       N/A	       N/A	        N/A	       N/A	       N/A	       N/A	        N/A	       N/A	       N/A	       N/A	        N/A	       N/A	       N/A	       N/A	        N/A	
         R10	    712	   75.5497	     14.45	       2.4	        N/A	   75.5999	     14.45	       2.4	        N/A	     75.65	     14.45	       2.4	        N/A	       N/A	       N/A	       N/A	        N/A	       N/A	       N/A	       N/A	        N/A	       N/A	       N/A	       N/A	        N/A	       N/A	       N/A	       N/A	        N/A	       N/A	       N/A	       N/A	        N/A	
         R10	    713	    74.375	   15.9164	   2.99973	        N/A	    74.507	   15.9164	   2.99973	        N/A	    74.639	   15.9164	   2.99973	        N/A	       N/A	       N/A	       N/A	        N/A	       N/A	       N/A	       N/A	        N/A	       N/A	       N/A	       N/A	        N/A	       N/A	       N/A	       N/A	        N/A	       N/A	       N/A	       N/A	        N/A	
         R10	    714	    74.639	   15.9164	   2.99973	        N/A	   74.7574	   15.9164	   2.99973	        N/A	   74.8758	   15.9164	   2.99973	        N/A	       N/A	       N/A	       N/A	        N/A	       N/A	       N/A	       N/A	        N/A	       N/A	       N/A	       N/A	        N/A	       N/A	       N/A	       N/A	        N/A	       N/A	       N/A	       N/A	        N/A	
         R10	    715	   74.8758	   15.9164	   2.99973	        N/A	   74.9805	   15.9164	   2.99973	        N/A	   75.0852	   15.9164	   2.99973	        N/A	       N/A	       N/A	       N/A	        N/A	       N/A	       N/A	       N/A	        N/A	       N/A	       N/A	       N/A	        N/A	       N/A	       N/A	       N/A	        N/A	       N/A	       N/A	       N/A	        N/A	
         R10	    716	   75.0852	   15.9164	   2.99973	        N/A	   75.1763	   15.9164	   2.99973	        N/A	   75.2673	   15.9164	   2.99973	        N/A	       N/A	       N/A	       N/A	        N/A	       N/A	       N/A	       N/A	        N/A	       N/A	       N/A	       N/A	        N/A	       N/A	       N/A	       N/A	        N/A	       N/A	       N/A	       N/A	        N/A	
         R10	    717	   75.2673	   15.9164	   2.99973	        N/A	   75.3448	   15.9164	   2.99973	        N/A	   75.4222	   15.9164	   2.99973	        N/A	       N/A	       N/A	       N/A	        N/A	       N/A	       N/A	       N/A	        N/A	       N/A	       N/A	       N/A	        N/A	       N/A	       N/A	       N/A	        N/A	       N/A	       N/A	       N/A	        N/A	
         R10	    718	   75.4222	   15.9164	   2.99973	        N/A	    75.486	   15.9164	   2.99973	        N/A	   75.5497	   15.9164	   2.99973	        N/A	       N/A	       N/A	       N/A	        N/A	       N/A	       N/A	       N/A	        N/A	       N/A	       N/A	       N/A	        N/A	       N/A	       N/A	       N/A	        N/A	       N/A	       N/A	       N/A	        N/A	
         R10	    719	   75.5497	   15.9164	   2.99973	        N/A	   75.5999	   15.9164	   2.99973	        N/A	     75.65	   15.9164	   2.99973	        N/A	       N/A	       N/A	       N/A	        N/A	       N/A	       N/A	       N/A	        N/A	       N/A	       N/A	       N/A	        N/A	       N/A	       N/A	       N/A	        N/A	       N/A	       N/A	       N/A	        N/A	
         R10	    720	     80.75	      11.9	       2.4	        N/A	   80.5073	      11.9	       2.4	        N/A	   80.2646	      11.9	       2.4	        N/A	       N/A	       N/A	       N/A	        N/A	       N/A	       N/A	       N/A	        N/A	       N/A	       N/A	       N/A	        N/A	       N/A	       N/A	       N/A	        N/A	       N/A	       N/A	       N/A	        N/A	
         R10	    721	   80.2646	      11.9	       2.4	        N/A	   80.0371	      11.9	       2.4	        N/A	   79.8095	      11.9	       2.4	        N/A	       N/A	       N/A	       N/A	        N/A	       N/A	       N/A	       N/A	        N/A	       N/A	       N/A	       N/A	        N/A	       N/A	       N/A	       N/A	        N/A	       N/A	       N/A	       N/A	        N/A	
         R10	    722	   79.8095	      11.9	       2.4	        N/A	    79.597	      11.9	       2.4	        N/A	   79.3845	      11.9	       2.4	        N/A	       N/A	       N/A	       N/A	        N/A	       N/A	       N/A	       N/A	        N/A	       N/A	       N/A	       N/A	        N/A	       N/A	       N/A	       N/A	        N/A	       N/A	       N/A	       N/A	        N/A	
         R10	    723	   79.3845	      11.9	       2.4	        N/A	   79.1871	      11.9	       2.4	        N/A	   78.9896	      11.9	       2.4	        N/A	       N/A	       N/A	       N/A	        N/A	       N/A	       N/A	       N/A	        N/A	       N/A	       N/A	       N/A	        N/A	       N/A	       N/A	       N/A	        N/A	       N/A	       N/A	       N/A	        N/A	
         R10	    724	   78.9896	      11.9	       2.4	        N/A	   78.8073	      11.9	       2.4	        N/A	    78.625	      11.9	       2.4	        N/A	       N/A	       N/A	       N/A	        N/A	       N/A	       N/A	       N/A	        N/A	       N/A	       N/A	       N/A	        N/A	       N/A	       N/A	       N/A	        N/A	       N/A	       N/A	       N/A	        N/A	
         R10	    725	    74.375	   16.5328	   3.59945	        N/A	   74.5267	   16.5328	   3.59945	        N/A	   74.6785	   16.5328	   3.59945	        N/A	       N/A	       N/A	       N/A	        N/A	       N/A	       N/A	       N/A	        N/A	       N/A	       N/A	       N/A	        N/A	       N/A	       N/A	       N/A	        N/A	       N/A	       N/A	       N/A	        N/A	
         R10	    726	   74.6785	   16.5328	   3.59945	        N/A	   74.8218	   16.5328	   3.59945	        N/A	   74.9651	   16.5328	   3.59945	        N/A	       N/A	       N/A	       N/A	        N/A	       N/A	       N/A	       N/A	        N/A	       N/A	       N/A	       N/A	        N/A	       N/A	       N/A	       N/A	        N/A	       N/A	       N/A	       N/A	        N/A	
         R10	    727	   74.9651	   16.5328	   3.59945	        N/A	      75.1	   16.5328	   3.59945	        N/A	   75.2349	   16.5328	   3.59945	        N/A	       N/A	       N/A	       N/A	        N/A	       N/A	       N/A	       N/A	        N/A	       N/A	       N/A	       N/A	        N/A	       N/A	       N/A	       N/A	        N/A	       N/A	       N/A	       N/A	        N/A	
         R10	    728	   75.2349	   16.5328	   3.59945	        N/A	   75.3614	   16.5328	   3.59945	        N/A	   75.4879	   16.5328	   3.59945	        N/A	       N/A	       N/A	       N/A	        N/A	       N/A	       N/A	       N/A	        N/A	       N/A	       N/A	       N/A	        N/A	       N/A	       N/A	       N/A	        N/A	       N/A	       N/A	       N/A	        N/A	
         R10	    729	   75.4879	   16.5328	   3.59945	        N/A	   75.6059	   16.5328	   3.59945	        N/A	    75.724	   16.5328	   3.59945	        N/A	       N/A	       N/A	       N/A	        N/A	       N/A	       N/A	       N/A	        N/A	       N/A	       N/A	       N/A	        N/A	       N/A	       N/A	       N/A	        N/A	       N/A	       N/A	       N/A	        N/A	
         R10	    730	    75.724	   16.5328	   3.59945	        N/A	   75.8336	   16.5328	   3.59945	        N/A	   75.9433	   16.5328	   3.59945	        N/A	       N/A	       N/A	       N/A	        N/A	       N/A	       N/A	       N/A	        N/A	       N/A	       N/A	       N/A	        N/A	       N/A	       N/A	       N/A	        N/A	       N/A	       N/A	       N/A	        N/A	
         R10	    731	   75.9433	   16.5328	   3.59945	        N/A	   76.0445	   16.5328	   3.59945	        N/A	   76.1457	   16.5328	   3.59945	        N/A	       N/A	       N/A	       N/A	        N/A	       N/A	       N/A	       N/A	        N/A	       N/A	       N/A	       N/A	        N/A	       N/A	       N/A	       N/A	        N/A	       N/A	       N/A	       N/A	        N/A	
         R10	    732	   76.1457	   16.5328	   3.59945	        N/A	   76.2385	   16.5328	   3.59945	        N/A	   76.3313	   16.5328	   3.59945	        N/A	       N/A	       N/A	       N/A	        N/A	       N/A	       N/A	       N/A	        N/A	       N/A	       N/A	       N/A	        N/A	       N/A	       N/A	       N/A	        N/A	       N/A	       N/A	       N/A	        N/A	
         R10	    733	   76.3313	   16.5328	   3.59945	        N/A	   76.4156	   16.5328	   3.59945	        N/A	      76.5	   16.5328	   3.59945	        N/A	       N/A	       N/A	       N/A	        N/A	       N/A	       N/A	       N/A	        N/A	       N/A	       N/A	       N/A	        N/A	       N/A	       N/A	       N/A	        N/A	       N/A	       N/A	       N/A	        N/A	
         R10	    734	      76.5	   16.5328	   3.59945	        N/A	   76.5862	   16.5328	   3.59945	        N/A	   76.6725	   16.5328	   3.59945	        N/A	       N/A	       N/A	       N/A	        N/A	       N/A	       N/A	       N/A	        N/A	       N/A	       N/A	       N/A	        N/A	       N/A	       N/A	       N/A	        N/A	       N/A	       N/A	       N/A	        N/A	
         R10	    735	   76.6725	   16.5328	   3.59945	        N/A	   76.7632	   16.5328	   3.59945	        N/A	   76.8539	   16.5328	   3.59945	        N/A	       N/A	       N/A	       N/A	        N/A	       N/A	       N/A	       N/A	        N/A	       N/A	       N/A	       N/A	        N/A	       N/A	       N/A	       N/A	        N/A	       N/A	       N/A	       N/A	        N/A	
         R10	    736	   76.8539	   16.5328	   3.59945	        N/A	    76.949	   16.5328	   3.59945	        N/A	   77.0441	   16.5328	   3.59945	        N/A	       N/A	       N/A	       N/A	        N/A	       N/A	       N/A	       N/A	        N/A	       N/A	       N/A	       N/A	        N/A	       N/A	       N/A	       N/A	        N/A	       N/A	       N/A	       N/A	        N/A	
         R10	    737	   77.0441	   16.5328	   3.59945	        N/A	   77.1437	   16.5328	   3.59945	        N/A	   77.2433	   16.5328	   3.59945	        N/A	       N/A	       N/A	       N/A	        N/A	       N/A	       N/A	       N/A	        N/A	       N/A	       N/A	       N/A	        N/A	       N/A	       N/A	       N/A	        N/A	       N/A	       N/A	       N/A	        N/A	
         R10	    738	   77.2433	   16.5328	   3.59945	        N/A	   77.3473	   16.5328	   3.59945	        N/A	   77.4513	   16.5328	   3.59945	        N/A	       N/A	       N/A	       N/A	        N/A	       N/A	       N/A	       N/A	        N/A	       N/A	       N/A	       N/A	        N/A	       N/A	       N/A	       N/A	        N/A	       N/A	       N/A	       N/A	        N/A	
         R10	    739	   77.4513	   16.5328	   3.59945	        N/A	   77.5598	   16.5328	   3.59945	        N/A	   77.6683	   16.5328	   3.59945	        N/A	       N/A	       N/A	       N/A	        N/A	       N/A	       N/A	       N/A	        N/A	       N/A	       N/A	       N/A	        N/A	       N/A	       N/A	       N/A	        N/A	       N/A	       N/A	       N/A	        N/A	
         R10	    740	   77.6683	   16.5328	   3.59945	        N/A	   77.7812	   16.5328	   3.59945	        N/A	   77.8941	   16.5328	   3.59945	        N/A	       N/A	       N/A	       N/A	        N/A	       N/A	       N/A	       N/A	        N/A	       N/A	       N/A	       N/A	        N/A	       N/A	       N/A	       N/A	        N/A	       N/A	       N/A	       N/A	        N/A	
         R10	    741	   77.8941	   16.5328	   3.59945	        N/A	   78.0115	   16.5328	   3.59945	        N/A	   78.1288	   16.5328	   3.59945	        N/A	       N/A	       N/A	       N/A	        N/A	       N/A	       N/A	       N/A	        N/A	       N/A	       N/A	       N/A	        N/A	       N/A	       N/A	       N/A	        N/A	       N/A	       N/A	       N/A	        N/A	
         R10	    742	   78.1288	   16.5328	   3.59945	        N/A	   78.2507	   16.5328	   3.59945	        N/A	   78.3725	   16.5328	   3.59945	        N/A	       N/A	       N/A	       N/A	        N/A	       N/A	       N/A	       N/A	        N/A	       N/A	       N/A	       N/A	        N/A	       N/A	       N/A	       N/A	        N/A	       N/A	       N/A	       N/A	        N/A	
         R10	    743	   78.3725	   16.5328	   3.59945	        N/A	   78.4987	   16.5328	   3.59945	        N/A	    78.625	   16.5328	   3.59945	        N/A	       N/A	       N/A	       N/A	        N/A	       N/A	       N/A	       N/A	        N/A	       N/A	       N/A	       N/A	        N/A	       N/A	       N/A	       N/A	        N/A	       N/A	       N/A	       N/A	        N/A	
         R10	    744	      76.5	   17.1425	   2.65791	        N/A	      76.5	   17.2212	   2.73448	        N/A	      76.5	   17.2999	   2.81105	        N/A	       N/A	       N/A	       N/A	        N/A	       N/A	       N/A	       N/A	        N/A	       N/A	       N/A	       N/A	        N/A	       N/A	       N/A	       N/A	        N/A	       N/A	       N/A	       N/A	        N/A	
         R10	    745	      76.5	   16.9978	   2.51719	        N/A	      76.5	   17.0702	   2.58755	        N/A	      76.5	   17.1425	   2.65791	        N/A	       N/A	       N/A	       N/A	        N/A	       N/A	       N/A	       N/A	        N/A	       N/A	       N/A	       N/A	        N/A	       N/A	       N/A	       N/A	        N/A	       N/A	       N/A	       N/A	        N/A	
         R10	    746	      76.5	    16.866	    2.3889	        N/A	      76.5	   16.9319	   2.45305	        N/A	      76.5	   16.9978	   2.51719	        N/A	       N/A	       N/A	       N/A	        N/A	       N/A	       N/A	       N/A	        N/A	       N/A	       N/A	       N/A	        N/A	       N/A	       N/A	       N/A	        N/A	       N/A	       N/A	       N/A	        N/A	
         R10	    747	      76.5	   16.7469	   2.27304	        N/A	      76.5	   16.8064	   2.33097	        N/A	      76.5	    16.866	    2.3889	        N/A	       N/A	       N/A	       N/A	        N/A	       N/A	       N/A	       N/A	        N/A	       N/A	       N/A	       N/A	        N/A	       N/A	       N/A	       N/A	        N/A	       N/A	       N/A	       N/A	        N/A	
         R10	    748	      76.5	   16.6406	    2.1696	        N/A	      76.5	   16.6937	   2.22132	        N/A	      76.5	   16.7469	   2.27304	        N/A	       N/A	       N/A	       N/A	        N/A	       N/A	       N/A	       N/A	        N/A	       N/A	       N/A	       N/A	        N/A	       N/A	       N/A	       N/A	        N/A	       N/A	       N/A	       N/A	        N/A	
         R10	    749	      76.5	    16.547	   2.07859	        N/A	      76.5	   16.5938	   2.12409	        N/A	      76.5	   16.6406	    2.1696	        N/A	       N/A	       N/A	       N/A	        N/A	       N/A	       N/A	       N/A	        N/A	       N/A	       N/A	       N/A	        N/A	       N/A	       N/A	       N/A	        N/A	       N/A	       N/A	       N/A	        N/A	
         R10	    750	      76.5	   16.4663	         2	        N/A	      76.5	   16.5067	   2.03929	        N/A	      76.5	    16.547	   2.07859	        N/A	       N/A	       N/A	       N/A	        N/A	       N/A	       N/A	       N/A	        N/A	       N/A	       N/A	       N/A	        N/A	       N/A	       N/A	       N/A	        N/A	       N/A	       N/A	       N/A	        N/A	
         R10	    751	      76.5	   17.2412	         2	        N/A	      76.5	   17.3461	         2	        N/A	      76.5	    17.451	         2	        N/A	       N/A	       N/A	       N/A	        N/A	       N/A	       N/A	       N/A	        N/A	       N/A	       N/A	       N/A	        N/A	       N/A	       N/A	       N/A	        N/A	       N/A	       N/A	       N/A	        N/A	
         R10	    752	      76.5	   17.0496	         2	        N/A	      76.5	   17.1454	         2	        N/A	      76.5	   17.2412	         2	        N/A	       N/A	       N/A	       N/A	        N/A	       N/A	       N/A	       N/A	        N/A	       N/A	       N/A	       N/A	        N/A	       N/A	       N/A	       N/A	        N/A	       N/A	       N/A	       N/A	        N/A	
         R10	    753	      76.5	   16.8764	         2	        N/A	      76.5	    16.963	         2	        N/A	      76.5	   17.0496	         2	        N/A	       N/A	       N/A	       N/A	        N/A	       N/A	       N/A	       N/A	        N/A	       N/A	       N/A	       N/A	        N/A	       N/A	       N/A	       N/A	        N/A	       N/A	       N/A	       N/A	        N/A	
         R10	    754	      76.5	   16.7214	         2	        N/A	      76.5	   16.7989	         2	        N/A	      76.5	   16.8764	         2	        N/A	       N/A	       N/A	       N/A	        N/A	       N/A	       N/A	       N/A	        N/A	       N/A	       N/A	       N/A	        N/A	       N/A	       N/A	       N/A	        N/A	       N/A	       N/A	       N/A	        N/A	
         R10	    755	      76.5	   16.5847	         2	        N/A	      76.5	   16.6531	         2	        N/A	      76.5	   16.7214	         2	        N/A	       N/A	       N/A	       N/A	        N/A	       N/A	       N/A	       N/A	        N/A	       N/A	       N/A	       N/A	        N/A	       N/A	       N/A	       N/A	        N/A	       N/A	       N/A	       N/A	        N/A	
         R10	    756	      76.5	   16.4663	         2	        N/A	      76.5	   16.5255	         2	        N/A	      76.5	   16.5847	         2	        N/A	       N/A	       N/A	       N/A	        N/A	       N/A	       N/A	       N/A	        N/A	       N/A	       N/A	       N/A	        N/A	       N/A	       N/A	       N/A	        N/A	       N/A	       N/A	       N/A	        N/A	
         R10	    757	      76.5	   16.6774	   1.02658	        N/A	      76.5	   16.7019	  0.913292	        N/A	      76.5	   16.7265	       0.8	        N/A	       N/A	       N/A	       N/A	        N/A	       N/A	       N/A	       N/A	        N/A	       N/A	       N/A	       N/A	        N/A	       N/A	       N/A	       N/A	        N/A	       N/A	       N/A	       N/A	        N/A	
         R10	    758	      76.5	   16.6322	   1.23478	        N/A	      76.5	   16.6548	   1.13068	        N/A	      76.5	   16.6774	   1.02658	        N/A	       N/A	       N/A	       N/A	        N/A	       N/A	       N/A	       N/A	        N/A	       N/A	       N/A	       N/A	        N/A	       N/A	       N/A	       N/A	        N/A	       N/A	       N/A	       N/A	        N/A	
         R10	    759	      76.5	   16.5911	    1.4246	        N/A	      76.5	   16.6116	   1.32969	        N/A	      76.5	   16.6322	   1.23478	        N/A	       N/A	       N/A	       N/A	        N/A	       N/A	       N/A	       N/A	        N/A	       N/A	       N/A	       N/A	        N/A	       N/A	       N/A	       N/A	        N/A	       N/A	       N/A	       N/A	        N/A	
         R10	    760	      76.5	   16.5539	   1.59602	        N/A	      76.5	   16.5725	   1.51031	        N/A	      76.5	   16.5911	    1.4246	        N/A	       N/A	       N/A	       N/A	        N/A	       N/A	       N/A	       N/A	        N/A	       N/A	       N/A	       N/A	        N/A	       N/A	       N/A	       N/A	        N/A	       N/A	       N/A	       N/A	        N/A	
         R10	    761	      76.5	   16.5207	   1.74907	        N/A	      76.5	   16.5373	   1.67255	        N/A	      76.5	   16.5539	   1.59602	        N/A	       N/A	       N/A	       N/A	        N/A	       N/A	       N/A	       N/A	        N/A	       N/A	       N/A	       N/A	        N/A	       N/A	       N/A	       N/A	        N/A	       N/A	       N/A	       N/A	        N/A	
         R10	    762	      76.5	   16.4915	   1.88373	        N/A	      76.5	   16.5061	    1.8164	        N/A	      76.5	   16.5207	   1.74907	        N/A	       N/A	       N/A	       N/A	        N/A	       N/A	       N/A	       N/A	        N/A	       N/A	       N/A	       N/A	        N/A	       N/A	       N/A	       N/A	        N/A	       N/A	       N/A	       N/A	        N/A	
         R10	    763	      76.5	   16.4663	         2	        N/A	      76.5	   16.4789	   1.94186	        N/A	      76.5	   16.4915	   1.88373	        N/A	       N/A	       N/A	       N/A	        N/A	       N/A	       N/A	       N/A	        N/A	       N/A	       N/A	       N/A	        N/A	       N/A	       N/A	       N/A	        N/A	       N/A	       N/A	       N/A	        N/A	
         R10	    764	    74.375	      15.3	       0.8	        N/A	   74.5318	      15.3	       0.8	        N/A	   74.6887	      15.3	       0.8	        N/A	       N/A	       N/A	       N/A	        N/A	       N/A	       N/A	       N/A	        N/A	       N/A	       N/A	       N/A	        N/A	       N/A	       N/A	       N/A	        N/A	       N/A	       N/A	       N/A	        N/A	
         R10	    765	   74.6887	      15.3	       0.8	        N/A	   74.8358	      15.3	       0.8	        N/A	    74.983	      15.3	       0.8	        N/A	       N/A	       N/A	       N/A	        N/A	       N/A	       N/A	       N/A	        N/A	       N/A	       N/A	       N/A	        N/A	       N/A	       N/A	       N/A	        N/A	       N/A	       N/A	       N/A	        N/A	
         R10	    766	    74.983	      15.3	       0.8	        N/A	   75.1204	      15.3	       0.8	        N/A	   75.2579	      15.3	       0.8	        N/A	       N/A	       N/A	       N/A	        N/A	       N/A	       N/A	       N/A	        N/A	       N/A	       N/A	       N/A	        N/A	       N/A	       N/A	       N/A	        N/A	       N/A	       N/A	       N/A	        N/A	
         R10	    767	   75.2579	      15.3	       0.8	        N/A	   75.3856	      15.3	       0.8	        N/A	   75.5134	      15.3	       0.8	        N/A	       N/A	       N/A	       N/A	        N/A	       N/A	       N/A	       N/A	        N/A	       N/A	       N/A	       N/A	        N/A	       N/A	       N/A	       N/A	        N/A	       N/A	       N/A	       N/A	        N/A	
         R10	    768	   75.5134	      15.3	       0.8	        N/A	   75.6314	      15.3	       0.8	        N/A	   75.7495	      15.3	       0.8	        N/A	       N/A	       N/A	       N/A	        N/A	       N/A	       N/A	       N/A	        N/A	       N/A	       N/A	       N/A	        N/A	       N/A	       N/A	       N/A	        N/A	       N/A	       N/A	       N/A	        N/A	
         R10	    769	   75.7495	      15.3	       0.8	        N/A	   75.8578	      15.3	       0.8	        N/A	   75.9662	      15.3	       0.8	        N/A	       N/A	       N/A	       N/A	        N/A	       N/A	       N/A	       N/A	        N/A	       N/A	       N/A	       N/A	        N/A	       N/A	       N/A	       N/A	        N/A	       N/A	       N/A	       N/A	        N/A	
         R10	    770	   75.9662	      15.3	       0.8	        N/A	   76.0648	      15.3	       0.8	        N/A	   76.1635	      15.3	       0.8	        N/A	       N/A	       N/A	       N/A	        N/A	       N/A	       N/A	       N/A	        N/A	       N/A	       N/A	       N/A	        N/A	       N/A	       N/A	       N/A	        N/A	       N/A	       N/A	       N/A	        N/A	
         R10	    771	   76.1635	      15.3	       0.8	        N/A	   76.2525	      15.3	       0.8	        N/A	   76.3415	      15.3	       0.8	        N/A	       N/A	       N/A	       N/A	        N/A	       N/A	       N/A	       N/A	        N/A	       N/A	       N/A	       N/A	        N/A	       N/A	       N/A	       N/A	        N/A	       N/A	       N/A	       N/A	        N/A	
         R10	    772	   76.3415	      15.3	       0.8	        N/A	   76.4207	      15.3	       0.8	        N/A	      76.5	      15.3	       0.8	        N/A	       N/A	       N/A	       N/A	        N/A	       N/A	       N/A	       N/A	        N/A	       N/A	       N/A	       N/A	        N/A	       N/A	       N/A	       N/A	        N/A	       N/A	       N/A	       N/A	        N/A	
         R10	    773	      76.5	      15.3	       0.8	        N/A	    76.574	      15.3	       0.8	        N/A	    76.648	      15.3	       0.8	        N/A	       N/A	       N/A	       N/A	        N/A	       N/A	       N/A	       N/A	        N/A	       N/A	       N/A	       N/A	        N/A	       N/A	       N/A	       N/A	        N/A	       N/A	       N/A	       N/A	        N/A	
         R10	    774	    76.648	      15.3	       0.8	        N/A	   76.7265	      15.3	       0.8	        N/A	    76.805	      15.3	       0.8	        N/A	       N/A	       N/A	       N/A	        N/A	       N/A	       N/A	       N/A	        N/A	       N/A	       N/A	       N/A	        N/A	       N/A	       N/A	       N/A	        N/A	       N/A	       N/A	       N/A	        N/A	
         R10	    775	    76.805	      15.3	       0.8	        N/A	   76.8881	      15.3	       0.8	        N/A	   76.9711	      15.3	       0.8	        N/A	       N/A	       N/A	       N/A	        N/A	       N/A	       N/A	       N/A	        N/A	       N/A	       N/A	       N/A	        N/A	       N/A	       N/A	       N/A	        N/A	       N/A	       N/A	       N/A	        N/A	
         R10	    776	   76.9711	      15.3	       0.8	        N/A	   77.0587	      15.3	       0.8	        N/A	   77.1462	      15.3	       0.8	        N/A	       N/A	       N/A	       N/A	        N/A	       N/A	       N/A	       N/A	        N/A	       N/A	       N/A	       N/A	        N/A	       N/A	       N/A	       N/A	        N/A	       N/A	       N/A	       N/A	        N/A	
         R10	    777	   77.1462	      15.3	       0.8	        N/A	   77.2383	      15.3	       0.8	        N/A	   77.3304	      15.3	       0.8	        N/A	       N/A	       N/A	       N/A	        N/A	       N/A	       N/A	       N/A	        N/A	       N/A	       N/A	       N/A	        N/A	       N/A	       N/A	       N/A	        N/A	       N/A	       N/A	       N/A	        N/A	
         R10	    778	   77.3304	      15.3	       0.8	        N/A	    77.427	      15.3	       0.8	        N/A	   77.5236	      15.3	       0.8	        N/A	       N/A	       N/A	       N/A	        N/A	       N/A	       N/A	       N/A	        N/A	       N/A	       N/A	       N/A	        N/A	       N/A	       N/A	       N/A	        N/A	       N/A	       N/A	       N/A	        N/A	
         R10	    779	   77.5236	      15.3	       0.8	        N/A	   77.6247	      15.3	       0.8	        N/A	   77.7258	      15.3	       0.8	        N/A	       N/A	       N/A	       N/A	        N/A	       N/A	       N/A	       N/A	        N/A	       N/A	       N/A	       N/A	        N/A	       N/A	       N/A	       N/A	        N/A	       N/A	       N/A	       N/A	        N/A	
         R10	    780	   77.7258	      15.3	       0.8	        N/A	   77.8314	      15.3	       0.8	        N/A	    77.937	      15.3	       0.8	        N/A	       N/A	       N/A	       N/A	        N/A	       N/A	       N/A	       N/A	        N/A	       N/A	       N/A	       N/A	        N/A	       N/A	       N/A	       N/A	        N/A	       N/A	       N/A	       N/A	        N/A	
         R10	    781	    77.937	      15.3	       0.8	        N/A	   78.0472	      15.3	       0.8	        N/A	   78.1573	      15.3	       0.8	        N/A	       N/A	       N/A	       N/A	        N/A	       N/A	       N/A	       N/A	        N/A	       N/A	       N/A	       N/A	        N/A	       N/A	       N/A	       N/A	        N/A	       N/A	       N/A	       N/A	        N/A	
         R10	    782	   78.1573	      15.3	       0.8	        N/A	    78.272	      15.3	       0.8	        N/A	   78.3866	      15.3	       0.8	        N/A	       N/A	       N/A	       N/A	        N/A	       N/A	       N/A	       N/A	        N/A	       N/A	       N/A	       N/A	        N/A	       N/A	       N/A	       N/A	        N/A	       N/A	       N/A	       N/A	        N/A	
         R10	    783	   78.3866	      15.3	       0.8	        N/A	   78.5058	      15.3	       0.8	        N/A	    78.625	      15.3	       0.8	        N/A	       N/A	       N/A	       N/A	        N/A	       N/A	       N/A	       N/A	        N/A	       N/A	       N/A	       N/A	        N/A	       N/A	       N/A	       N/A	        N/A	       N/A	       N/A	       N/A	        N/A	
         R10	    784	    74.375	      15.3	       1.6	        N/A	    74.507	      15.3	       1.6	        N/A	    74.639	      15.3	       1.6	        N/A	       N/A	       N/A	       N/A	        N/A	       N/A	       N/A	       N/A	        N/A	       N/A	       N/A	       N/A	        N/A	       N/A	       N/A	       N/A	        N/A	       N/A	       N/A	       N/A	        N/A	
         R10	    785	    74.639	      15.3	       1.6	        N/A	   74.7574	      15.3	       1.6	        N/A	   74.8758	      15.3	       1.6	        N/A	       N/A	       N/A	       N/A	        N/A	       N/A	       N/A	       N/A	        N/A	       N/A	       N/A	       N/A	        N/A	       N/A	       N/A	       N/A	        N/A	       N/A	       N/A	       N/A	        N/A	
         R10	    786	   74.8758	      15.3	       1.6	        N/A	   74.9805	      15.3	       1.6	        N/A	   75.0852	      15.3	       1.6	        N/A	       N/A	       N/A	       N/A	        N/A	       N/A	       N/A	       N/A	        N/A	       N/A	       N/A	       N/A	        N/A	       N/A	       N/A	       N/A	        N/A	       N/A	       N/A	       N/A	        N/A	
         R10	    787	   75.0852	      15.3	       1.6	        N/A	   75.1763	      15.3	       1.6	        N/A	   75.2673	      15.3	       1.6	        N/A	       N/A	       N/A	       N/A	        N/A	       N/A	       N/A	       N/A	        N/A	       N/A	       N/A	       N/A	        N/A	       N/A	       N/A	       N/A	        N/A	       N/A	       N/A	       N/A	        N/A	
         R10	    788	   75.2673	      15.3	       1.6	        N/A	   75.3448	      15.3	       1.6	        N/A	   75.4222	      15.3	       1.6	        N/A	       N/A	       N/A	       N/A	        N/A	       N/A	       N/A	       N/A	        N/A	       N/A	       N/A	       N/A	        N/A	       N/A	       N/A	       N/A	        N/A	       N/A	       N/A	       N/A	        N/A	
         R10	    789	   75.4222	      15.3	       1.6	        N/A	    75.486	      15.3	       1.6	        N/A	   75.5497	      15.3	       1.6	        N/A	       N/A	       N/A	       N/A	        N/A	       N/A	       N/A	       N/A	        N/A	       N/A	       N/A	       N/A	        N/A	       N/A	       N/A	       N/A	        N/A	       N/A	       N/A	       N/A	        N/A	
         R10	    790	   75.5497	      15.3	       1.6	        N/A	   75.5999	      15.3	       1.6	        N/A	     75.65	      15.3	       1.6	        N/A	       N/A	       N/A	       N/A	        N/A	       N/A	       N/A	       N/A	        N/A	       N/A	       N/A	       N/A	        N/A	       N/A	       N/A	       N/A	        N/A	       N/A	       N/A	       N/A	        N/A	
         R10	    791	     80.75	     20.66	         6	        N/A	   80.3752	     20.66	         6	        N/A	   80.0004	     20.66	         6	        N/A	       N/A	       N/A	       N/A	        N/A	       N/A	       N/A	       N/A	        N/A	       N/A	       N/A	       N/A	        N/A	       N/A	       N/A	       N/A	        N/A	       N/A	       N/A	       N/A	        N/A	
         R10	    792	   80.0004	     20.66	         6	        N/A	   79.6462	     20.66	         6	        N/A	   79.2921	     20.66	         6	        N/A	       N/A	       N/A	       N/A	        N/A	       N/A	       N/A	       N/A	        N/A	       N/A	       N/A	       N/A	        N/A	       N/A	       N/A	       N/A	        N/A	       N/A	       N/A	       N/A	        N/A	
         R10	    793	   79.2921	     20.66	         6	        N/A	   78.9585	     20.66	         6	        N/A	    78.625	     20.66	         6	        N/A	       N/A	       N/A	       N/A	        N/A	       N/A	       N/A	       N/A	        N/A	       N/A	       N/A	       N/A	        N/A	       N/A	       N/A	       N/A	        N/A	       N/A	       N/A	       N/A	        N/A	
         R10	    794	     80.75	     19.83	         6	        N/A	   80.4717	     19.83	         6	        N/A	   80.1935	     19.83	         6	        N/A	       N/A	       N/A	       N/A	        N/A	       N/A	       N/A	       N/A	        N/A	       N/A	       N/A	       N/A	        N/A	       N/A	       N/A	       N/A	        N/A	       N/A	       N/A	       N/A	        N/A	
         R10	    795	   80.1935	     19.83	         6	        N/A	   79.9236	     19.83	         6	        N/A	   79.6538	     19.83	         6	        N/A	       N/A	       N/A	       N/A	        N/A	       N/A	       N/A	       N/A	        N/A	       N/A	       N/A	       N/A	        N/A	       N/A	       N/A	       N/A	        N/A	       N/A	       N/A	       N/A	        N/A	
         R10	    796	   79.6538	     19.83	         6	        N/A	   79.3924	     19.83	         6	        N/A	    79.131	     19.83	         6	        N/A	       N/A	       N/A	       N/A	        N/A	       N/A	       N/A	       N/A	        N/A	       N/A	       N/A	       N/A	        N/A	       N/A	       N/A	       N/A	        N/A	       N/A	       N/A	       N/A	        N/A	
         R10	    797	    79.131	     19.83	         6	        N/A	    78.878	     19.83	         6	        N/A	    78.625	     19.83	         6	        N/A	       N/A	       N/A	       N/A	        N/A	       N/A	       N/A	       N/A	        N/A	       N/A	       N/A	       N/A	        N/A	       N/A	       N/A	       N/A	        N/A	       N/A	       N/A	       N/A	        N/A	
         R10	    798	     80.75	     12.75	       2.4	        N/A	   80.5478	     12.75	       2.4	        N/A	   80.3455	     12.75	       2.4	        N/A	       N/A	       N/A	       N/A	        N/A	       N/A	       N/A	       N/A	        N/A	       N/A	       N/A	       N/A	        N/A	       N/A	       N/A	       N/A	        N/A	       N/A	       N/A	       N/A	        N/A	
         R10	    799	   80.3455	     12.75	       2.4	        N/A	   80.1534	     12.75	       2.4	        N/A	   79.9612	     12.75	       2.4	        N/A	       N/A	       N/A	       N/A	        N/A	       N/A	       N/A	       N/A	        N/A	       N/A	       N/A	       N/A	        N/A	       N/A	       N/A	       N/A	        N/A	       N/A	       N/A	       N/A	        N/A	
         R10	    800	   79.9612	     12.75	       2.4	        N/A	   79.7791	     12.75	       2.4	        N/A	    79.597	     12.75	       2.4	        N/A	       N/A	       N/A	       N/A	        N/A	       N/A	       N/A	       N/A	        N/A	       N/A	       N/A	       N/A	        N/A	       N/A	       N/A	       N/A	        N/A	       N/A	       N/A	       N/A	        N/A	
         R10	    801	    79.597	     12.75	       2.4	        N/A	   79.4249	     12.75	       2.4	        N/A	   79.2529	     12.75	       2.4	        N/A	       N/A	       N/A	       N/A	        N/A	       N/A	       N/A	       N/A	        N/A	       N/A	       N/A	       N/A	        N/A	       N/A	       N/A	       N/A	        N/A	       N/A	       N/A	       N/A	        N/A	
         R10	    802	   79.2529	     12.75	       2.4	        N/A	   79.0909	     12.75	       2.4	        N/A	   78.9289	     12.75	       2.4	        N/A	       N/A	       N/A	       N/A	        N/A	       N/A	       N/A	       N/A	        N/A	       N/A	       N/A	       N/A	        N/A	       N/A	       N/A	       N/A	        N/A	       N/A	       N/A	       N/A	        N/A	
         R10	    803	   78.9289	     12.75	       2.4	        N/A	   78.7769	     12.75	       2.4	        N/A	    78.625	     12.75	       2.4	        N/A	       N/A	       N/A	       N/A	        N/A	       N/A	       N/A	       N/A	        N/A	       N/A	       N/A	       N/A	        N/A	       N/A	       N/A	       N/A	        N/A	       N/A	       N/A	       N/A	        N/A	
         R10	    804	     80.75	      13.6	       2.4	        N/A	   80.5236	      13.6	       2.4	        N/A	   80.2972	      13.6	       2.4	        N/A	       N/A	       N/A	       N/A	        N/A	       N/A	       N/A	       N/A	        N/A	       N/A	       N/A	       N/A	        N/A	       N/A	       N/A	       N/A	        N/A	       N/A	       N/A	       N/A	        N/A	
         R10	    805	   80.2972	      13.6	       2.4	        N/A	   80.0906	      13.6	       2.4	        N/A	   79.8839	      13.6	       2.4	        N/A	       N/A	       N/A	       N/A	        N/A	       N/A	       N/A	       N/A	        N/A	       N/A	       N/A	       N/A	        N/A	       N/A	       N/A	       N/A	        N/A	       N/A	       N/A	       N/A	        N/A	
         R10	    806	   79.8839	      13.6	       2.4	        N/A	    79.697	      13.6	       2.4	        N/A	     79.51	      13.6	       2.4	        N/A	       N/A	       N/A	       N/A	        N/A	       N/A	       N/A	       N/A	        N/A	       N/A	       N/A	       N/A	        N/A	       N/A	       N/A	       N/A	        N/A	       N/A	       N/A	       N/A	        N/A	
         R10	    807	     79.51	      13.6	       2.4	        N/A	   79.3428	      13.6	       2.4	        N/A	   79.1756	      13.6	       2.4	        N/A	       N/A	       N/A	       N/A	        N/A	       N/A	       N/A	       N/A	        N/A	       N/A	       N/A	       N/A	        N/A	       N/A	       N/A	       N/A	        N/A	       N/A	       N/A	       N/A	        N/A	
         R10	    808	   79.1756	      13.6	       2.4	        N/A	   79.0281	      13.6	       2.4	        N/A	   78.8806	      13.6	       2.4	        N/A	       N/A	       N/A	       N/A	        N/A	       N/A	       N/A	       N/A	        N/A	       N/A	       N/A	       N/A	        N/A	       N/A	       N/A	       N/A	        N/A	       N/A	       N/A	       N/A	        N/A	
         R10	    809	   78.8806	      13.6	       2.4	        N/A	   78.7528	      13.6	       2.4	        N/A	    78.625	      13.6	       2.4	        N/A	       N/A	       N/A	       N/A	        N/A	       N/A	       N/A	       N/A	        N/A	       N/A	       N/A	       N/A	        N/A	       N/A	       N/A	       N/A	        N/A	       N/A	       N/A	       N/A	        N/A	
         R10	    810	     80.75	     14.45	       2.4	        N/A	    80.556	     14.45	       2.4	        N/A	   80.3619	     14.45	       2.4	        N/A	       N/A	       N/A	       N/A	        N/A	       N/A	       N/A	       N/A	        N/A	       N/A	       N/A	       N/A	        N/A	       N/A	       N/A	       N/A	        N/A	       N/A	       N/A	       N/A	        N/A	
         R10	    811	   80.3619	     14.45	       2.4	        N/A	    80.182	     14.45	       2.4	        N/A	    80.002	     14.45	       2.4	        N/A	       N/A	       N/A	       N/A	        N/A	       N/A	       N/A	       N/A	        N/A	       N/A	       N/A	       N/A	        N/A	       N/A	       N/A	       N/A	        N/A	       N/A	       N/A	       N/A	        N/A	
         R10	    812	    80.002	     14.45	       2.4	        N/A	   79.8361	     14.45	       2.4	        N/A	   79.6703	     14.45	       2.4	        N/A	       N/A	       N/A	       N/A	        N/A	       N/A	       N/A	       N/A	        N/A	       N/A	       N/A	       N/A	        N/A	       N/A	       N/A	       N/A	        N/A	       N/A	       N/A	       N/A	        N/A	
         R10	    813	   79.6703	     14.45	       2.4	        N/A	   79.5185	     14.45	       2.4	        N/A	   79.3667	     14.45	       2.4	        N/A	       N/A	       N/A	       N/A	        N/A	       N/A	       N/A	       N/A	        N/A	       N/A	       N/A	       N/A	        N/A	       N/A	       N/A	       N/A	        N/A	       N/A	       N/A	       N/A	        N/A	
         R10	    814	   79.3667	     14.45	       2.4	        N/A	    79.229	     14.45	       2.4	        N/A	   79.0913	     14.45	       2.4	        N/A	       N/A	       N/A	       N/A	        N/A	       N/A	       N/A	       N/A	        N/A	       N/A	       N/A	       N/A	        N/A	       N/A	       N/A	       N/A	        N/A	       N/A	       N/A	       N/A	        N/A	
         R10	    815	   79.0913	     14.45	       2.4	        N/A	   78.9677	     14.45	       2.4	        N/A	   78.8441	     14.45	       2.4	        N/A	       N/A	       N/A	       N/A	        N/A	       N/A	       N/A	       N/A	        N/A	       N/A	       N/A	       N/A	        N/A	       N/A	       N/A	       N/A	        N/A	       N/A	       N/A	       N/A	        N/A	
         R10	    816	   78.8441	     14.45	       2.4	        N/A	   78.7345	     14.45	       2.4	        N/A	    78.625	     14.45	       2.4	        N/A	       N/A	       N/A	       N/A	        N/A	       N/A	       N/A	       N/A	        N/A	       N/A	       N/A	       N/A	        N/A	       N/A	       N/A	       N/A	        N/A	       N/A	       N/A	       N/A	        N/A	
         R10	    817	   80.2972	      15.3	       0.8	        N/A	   80.5236	      15.3	       0.8	        N/A	     80.75	      15.3	       0.8	        N/A	       N/A	       N/A	       N/A	        N/A	       N/A	       N/A	       N/A	        N/A	       N/A	       N/A	       N/A	        N/A	       N/A	       N/A	       N/A	        N/A	       N/A	       N/A	       N/A	        N/A	
         R10	    818	   79.8839	      15.3	       0.8	        N/A	   80.0906	      15.3	       0.8	        N/A	   80.2972	      15.3	       0.8	        N/A	       N/A	       N/A	       N/A	        N/A	       N/A	       N/A	       N/A	        N/A	       N/A	       N/A	       N/A	        N/A	       N/A	       N/A	       N/A	        N/A	       N/A	       N/A	       N/A	        N/A	
         R10	    819	     79.51	      15.3	       0.8	        N/A	    79.697	      15.3	       0.8	        N/A	   79.8839	      15.3	       0.8	        N/A	       N/A	       N/A	       N/A	        N/A	       N/A	       N/A	       N/A	        N/A	       N/A	       N/A	       N/A	        N/A	       N/A	       N/A	       N/A	        N/A	       N/A	       N/A	       N/A	        N/A	
         R10	    820	   79.1756	      15.3	       0.8	        N/A	   79.3428	      15.3	       0.8	        N/A	     79.51	      15.3	       0.8	        N/A	       N/A	       N/A	       N/A	        N/A	       N/A	       N/A	       N/A	        N/A	       N/A	       N/A	       N/A	        N/A	       N/A	       N/A	       N/A	        N/A	       N/A	       N/A	       N/A	        N/A	
         R10	    821	   78.8806	      15.3	       0.8	        N/A	   79.0281	      15.3	       0.8	        N/A	   79.1756	      15.3	       0.8	        N/A	       N/A	       N/A	       N/A	        N/A	       N/A	       N/A	       N/A	        N/A	       N/A	       N/A	       N/A	        N/A	       N/A	       N/A	       N/A	        N/A	       N/A	       N/A	       N/A	        N/A	
         R10	    822	    78.625	      15.3	       0.8	        N/A	   78.7528	      15.3	       0.8	        N/A	   78.8806	      15.3	       0.8	        N/A	       N/A	       N/A	       N/A	        N/A	       N/A	       N/A	       N/A	        N/A	       N/A	       N/A	       N/A	        N/A	       N/A	       N/A	       N/A	        N/A	       N/A	       N/A	       N/A	        N/A	
         R10	    823	     80.75	   15.9164	   2.99973	        N/A	    80.556	   15.9164	   2.99973	        N/A	   80.3619	   15.9164	   2.99973	        N/A	       N/A	       N/A	       N/A	        N/A	       N/A	       N/A	       N/A	        N/A	       N/A	       N/A	       N/A	        N/A	       N/A	       N/A	       N/A	        N/A	       N/A	       N/A	       N/A	        N/A	
         R10	    824	   80.3619	   15.9164	   2.99973	        N/A	    80.182	   15.9164	   2.99973	        N/A	    80.002	   15.9164	   2.99973	        N/A	       N/A	       N/A	       N/A	        N/A	       N/A	       N/A	       N/A	        N/A	       N/A	       N/A	       N/A	        N/A	       N/A	       N/A	       N/A	        N/A	       N/A	       N/A	       N/A	        N/A	
         R10	    825	    80.002	   15.9164	   2.99973	        N/A	   79.8361	   15.9164	   2.99973	        N/A	   79.6703	   15.9164	   2.99973	        N/A	       N/A	       N/A	       N/A	        N/A	       N/A	       N/A	       N/A	        N/A	       N/A	       N/A	       N/A	        N/A	       N/A	       N/A	       N/A	        N/A	       N/A	       N/A	       N/A	        N/A	
         R10	    826	   79.6703	   15.9164	   2.99973	        N/A	   79.5185	   15.9164	   2.99973	        N/A	   79.3667	   15.9164	   2.99973	        N/A	       N/A	       N/A	       N/A	        N/A	       N/A	       N/A	       N/A	        N/A	       N/A	       N/A	       N/A	        N/A	       N/A	       N/A	       N/A	        N/A	       N/A	       N/A	       N/A	        N/A	
         R10	    827	   79.3667	   15.9164	   2.99973	        N/A	    79.229	   15.9164	   2.99973	        N/A	   79.0913	   15.9164	   2.99973	        N/A	       N/A	       N/A	       N/A	        N/A	       N/A	       N/A	       N/A	        N/A	       N/A	       N/A	       N/A	        N/A	       N/A	       N/A	       N/A	        N/A	       N/A	       N/A	       N/A	        N/A	
         R10	    828	   79.0913	   15.9164	   2.99973	        N/A	   78.9677	   15.9164	   2.99973	        N/A	   78.8441	   15.9164	   2.99973	        N/A	       N/A	       N/A	       N/A	        N/A	       N/A	       N/A	       N/A	        N/A	       N/A	       N/A	       N/A	        N/A	       N/A	       N/A	       N/A	        N/A	       N/A	       N/A	       N/A	        N/A	
         R10	    829	   78.8441	   15.9164	   2.99973	        N/A	   78.7345	   15.9164	   2.99973	        N/A	    78.625	   15.9164	   2.99973	        N/A	       N/A	       N/A	       N/A	        N/A	       N/A	       N/A	       N/A	        N/A	       N/A	       N/A	       N/A	        N/A	       N/A	       N/A	       N/A	        N/A	       N/A	       N/A	       N/A	        N/A	
         R10	    830	     80.75	   16.5328	   3.59945	        N/A	   80.5236	   16.5328	   3.59945	        N/A	   80.2972	   16.5328	   3.59945	        N/A	       N/A	       N/A	       N/A	        N/A	       N/A	       N/A	       N/A	        N/A	       N/A	       N/A	       N/A	        N/A	       N/A	       N/A	       N/A	        N/A	       N/A	       N/A	       N/A	        N/A	
         R10	    831	   80.2972	   16.5328	   3.59945	        N/A	   80.0906	   16.5328	   3.59945	        N/A	   79.8839	   16.5328	   3.59945	        N/A	       N/A	       N/A	       N/A	        N/A	       N/A	       N/A	       N/A	        N/A	       N/A	       N/A	       N/A	        N/A	       N/A	       N/A	       N/A	        N/A	       N/A	       N/A	       N/A	        N/A	
         R10	    832	   79.8839	   16.5328	   3.59945	        N/A	    79.697	   16.5328	   3.59945	        N/A	     79.51	   16.5328	   3.59945	        N/A	       N/A	       N/A	       N/A	        N/A	       N/A	       N/A	       N/A	        N/A	       N/A	       N/A	       N/A	        N/A	       N/A	       N/A	       N/A	        N/A	       N/A	       N/A	       N/A	        N/A	
         R10	    833	     79.51	   16.5328	   3.59945	        N/A	   79.3428	   16.5328	   3.59945	        N/A	   79.1756	   16.5328	   3.59945	        N/A	       N/A	       N/A	       N/A	        N/A	       N/A	       N/A	       N/A	        N/A	       N/A	       N/A	       N/A	        N/A	       N/A	       N/A	       N/A	        N/A	       N/A	       N/A	       N/A	        N/A	
         R10	    834	   79.1756	   16.5328	   3.59945	        N/A	   79.0281	   16.5328	   3.59945	        N/A	   78.8806	   16.5328	   3.59945	        N/A	       N/A	       N/A	       N/A	        N/A	       N/A	       N/A	       N/A	        N/A	       N/A	       N/A	       N/A	        N/A	       N/A	       N/A	       N/A	        N/A	       N/A	       N/A	       N/A	        N/A	
         R10	    835	   78.8806	   16.5328	   3.59945	        N/A	   78.7528	   16.5328	   3.59945	        N/A	    78.625	   16.5328	   3.59945	        N/A	       N/A	       N/A	       N/A	        N/A	       N/A	       N/A	       N/A	        N/A	       N/A	       N/A	       N/A	        N/A	       N/A	       N/A	       N/A	        N/A	       N/A	       N/A	       N/A	        N/A	
         R10	    836	     80.75	   17.1492	   4.19918	        N/A	   80.5478	   17.1492	   4.19918	        N/A	   80.3455	   17.1492	   4.19918	        N/A	       N/A	       N/A	       N/A	        N/A	       N/A	       N/A	       N/A	        N/A	       N/A	       N/A	       N/A	        N/A	       N/A	       N/A	       N/A	        N/A	       N/A	       N/A	       N/A	        N/A	
         R10	    837	   80.3455	   17.1492	   4.19918	        N/A	   80.1534	   17.1492	   4.19918	        N/A	   79.9612	   17.1492	   4.19918	        N/A	       N/A	       N/A	       N/A	        N/A	       N/A	       N/A	       N/A	        N/A	       N/A	       N/A	       N/A	        N/A	       N/A	       N/A	       N/A	        N/A	       N/A	       N/A	       N/A	        N/A	
         R10	    838	   79.9612	   17.1492	   4.19918	        N/A	   79.7791	   17.1492	   4.19918	        N/A	    79.597	   17.1492	   4.19918	        N/A	       N/A	       N/A	       N/A	        N/A	       N/A	       N/A	       N/A	        N/A	       N/A	       N/A	       N/A	        N/A	       N/A	       N/A	       N/A	        N/A	       N/A	       N/A	       N/A	        N/A	
         R10	    839	    79.597	   17.1492	   4.19918	        N/A	   79.4249	   17.1492	   4.19918	        N/A	   79.2529	   17.1492	   4.19918	        N/A	       N/A	       N/A	       N/A	        N/A	       N/A	       N/A	       N/A	        N/A	       N/A	       N/A	       N/A	        N/A	       N/A	       N/A	       N/A	        N/A	       N/A	       N/A	       N/A	        N/A	
         R10	    840	   79.2529	   17.1492	   4.19918	        N/A	   79.0909	   17.1492	   4.19918	        N/A	   78.9289	   17.1492	   4.19918	        N/A	       N/A	       N/A	       N/A	        N/A	       N/A	       N/A	       N/A	        N/A	       N/A	       N/A	       N/A	        N/A	       N/A	       N/A	       N/A	        N/A	       N/A	       N/A	       N/A	        N/A	
         R10	    841	   78.9289	   17.1492	   4.19918	        N/A	   78.7769	   17.1492	   4.19918	        N/A	    78.625	   17.1492	   4.19918	        N/A	       N/A	       N/A	       N/A	        N/A	       N/A	       N/A	       N/A	        N/A	       N/A	       N/A	       N/A	        N/A	       N/A	       N/A	       N/A	        N/A	       N/A	       N/A	       N/A	        N/A	
         R10	    842	     80.75	   17.7655	    4.7989	        N/A	   80.5173	   17.7655	    4.7989	        N/A	   80.2846	   17.7655	    4.7989	        N/A	       N/A	       N/A	       N/A	        N/A	       N/A	       N/A	       N/A	        N/A	       N/A	       N/A	       N/A	        N/A	       N/A	       N/A	       N/A	        N/A	       N/A	       N/A	       N/A	        N/A	
         R10	    843	   80.2846	   17.7655	    4.7989	        N/A	    80.062	   17.7655	    4.7989	        N/A	   79.8394	   17.7655	    4.7989	        N/A	       N/A	       N/A	       N/A	        N/A	       N/A	       N/A	       N/A	        N/A	       N/A	       N/A	       N/A	        N/A	       N/A	       N/A	       N/A	        N/A	       N/A	       N/A	       N/A	        N/A	
         R10	    844	   79.8394	   17.7655	    4.7989	        N/A	   79.6269	   17.7655	    4.7989	        N/A	   79.4144	   17.7655	    4.7989	        N/A	       N/A	       N/A	       N/A	        N/A	       N/A	       N/A	       N/A	        N/A	       N/A	       N/A	       N/A	        N/A	       N/A	       N/A	       N/A	        N/A	       N/A	       N/A	       N/A	        N/A	
         R10	    845	   79.4144	   17.7655	    4.7989	        N/A	    79.212	   17.7655	    4.7989	        N/A	   79.0096	   17.7655	    4.7989	        N/A	       N/A	       N/A	       N/A	        N/A	       N/A	       N/A	       N/A	        N/A	       N/A	       N/A	       N/A	        N/A	       N/A	       N/A	       N/A	        N/A	       N/A	       N/A	       N/A	        N/A	
         R10	    846	   79.0096	   17.7655	    4.7989	        N/A	   78.8173	   17.7655	    4.7989	        N/A	    78.625	   17.7655	    4.7989	        N/A	       N/A	       N/A	       N/A	        N/A	       N/A	       N/A	       N/A	        N/A	       N/A	       N/A	       N/A	        N/A	       N/A	       N/A	       N/A	        N/A	       N/A	       N/A	       N/A	        N/A	
         R10	    847	     80.75	   18.3819	   5.39863	        N/A	   80.4717	   18.3819	   5.39863	        N/A	   80.1935	   18.3819	   5.39863	        N/A	       N/A	       N/A	       N/A	        N/A	       N/A	       N/A	       N/A	        N/A	       N/A	       N/A	       N/A	        N/A	       N/A	       N/A	       N/A	        N/A	       N/A	       N/A	       N/A	        N/A	
         R10	    848	   80.1935	   18.3819	   5.39863	        N/A	   79.9236	   18.3819	   5.39863	        N/A	   79.6538	   18.3819	   5.39863	        N/A	       N/A	       N/A	       N/A	        N/A	       N/A	       N/A	       N/A	        N/A	       N/A	       N/A	       N/A	        N/A	       N/A	       N/A	       N/A	        N/A	       N/A	       N/A	       N/A	        N/A	
         R10	    849	   79.6538	   18.3819	   5.39863	        N/A	   79.3924	   18.3819	   5.39863	        N/A	    79.131	   18.3819	   5.39863	        N/A	       N/A	       N/A	       N/A	        N/A	       N/A	       N/A	       N/A	        N/A	       N/A	       N/A	       N/A	        N/A	       N/A	       N/A	       N/A	        N/A	       N/A	       N/A	       N/A	        N/A	
         R10	    850	    79.131	   18.3819	   5.39863	        N/A	    78.878	   18.3819	   5.39863	        N/A	    78.625	   18.3819	   5.39863	        N/A	       N/A	       N/A	       N/A	        N/A	       N/A	       N/A	       N/A	        N/A	       N/A	       N/A	       N/A	        N/A	       N/A	       N/A	       N/A	        N/A	       N/A	       N/A	       N/A	        N/A	
         R10	    851	   80.1935	        19	      6.85	        N/A	   80.4717	        19	      6.85	        N/A	     80.75	        19	      6.85	        N/A	       N/A	       N/A	       N/A	        N/A	       N/A	       N/A	       N/A	        N/A	       N/A	       N/A	       N/A	        N/A	       N/A	       N/A	       N/A	        N/A	       N/A	       N/A	       N/A	        N/A	
         R10	    852	   79.6538	        19	      6.85	        N/A	   79.9236	        19	      6.85	        N/A	   80.1935	        19	      6.85	        N/A	       N/A	       N/A	       N/A	        N/A	       N/A	       N/A	       N/A	        N/A	       N/A	       N/A	       N/A	        N/A	       N/A	       N/A	       N/A	        N/A	       N/A	       N/A	       N/A	        N/A	
         R10	    853	    79.131	        19	      6.85	        N/A	   79.3924	        19	      6.85	        N/A	   79.6538	        19	      6.85	        N/A	       N/A	       N/A	       N/A	        N/A	       N/A	       N/A	       N/A	        N/A	       N/A	       N/A	       N/A	        N/A	       N/A	       N/A	       N/A	        N/A	       N/A	       N/A	       N/A	        N/A	
         R10	    854	    78.625	        19	      6.85	        N/A	    78.878	        19	      6.85	        N/A	    79.131	        19	      6.85	        N/A	       N/A	       N/A	       N/A	        N/A	       N/A	       N/A	       N/A	        N/A	       N/A	       N/A	       N/A	        N/A	       N/A	       N/A	       N/A	        N/A	       N/A	       N/A	       N/A	        N/A	
         R10	    855	   80.0079	        19	       7.7	        N/A	    80.379	        19	       7.7	        N/A	     80.75	        19	       7.7	        N/A	       N/A	       N/A	       N/A	        N/A	       N/A	       N/A	       N/A	        N/A	       N/A	       N/A	       N/A	        N/A	       N/A	       N/A	       N/A	        N/A	       N/A	       N/A	       N/A	        N/A	
         R10	    856	   79.2996	        19	       7.7	        N/A	   79.6538	        19	       7.7	        N/A	   80.0079	        19	       7.7	        N/A	       N/A	       N/A	       N/A	        N/A	       N/A	       N/A	       N/A	        N/A	       N/A	       N/A	       N/A	        N/A	       N/A	       N/A	       N/A	        N/A	       N/A	       N/A	       N/A	        N/A	
         R10	    857	    78.625	        19	       7.7	        N/A	   78.9623	        19	       7.7	        N/A	   79.2996	        19	       7.7	        N/A	       N/A	       N/A	       N/A	        N/A	       N/A	       N/A	       N/A	        N/A	       N/A	       N/A	       N/A	        N/A	       N/A	       N/A	       N/A	        N/A	       N/A	       N/A	       N/A	        N/A	
         R10	    858	   80.0079	        19	      8.55	        N/A	    80.379	        19	      8.55	        N/A	     80.75	        19	      8.55	        N/A	       N/A	       N/A	       N/A	        N/A	       N/A	       N/A	       N/A	        N/A	       N/A	       N/A	       N/A	        N/A	       N/A	       N/A	       N/A	        N/A	       N/A	       N/A	       N/A	        N/A	
         R10	    859	   79.2996	        19	      8.55	        N/A	   79.6538	        19	      8.55	        N/A	   80.0079	        19	      8.55	        N/A	       N/A	       N/A	       N/A	        N/A	       N/A	       N/A	       N/A	        N/A	       N/A	       N/A	       N/A	        N/A	       N/A	       N/A	       N/A	        N/A	       N/A	       N/A	       N/A	        N/A	
         R10	    860	    78.625	        19	      8.55	        N/A	   78.9623	        19	      8.55	        N/A	   79.2996	        19	      8.55	        N/A	       N/A	       N/A	       N/A	        N/A	       N/A	       N/A	       N/A	        N/A	       N/A	       N/A	       N/A	        N/A	       N/A	       N/A	       N/A	        N/A	       N/A	       N/A	       N/A	        N/A	
         R10	    861	   80.0079	        19	       9.4	        N/A	    80.379	        19	       9.4	        N/A	     80.75	        19	       9.4	        N/A	       N/A	       N/A	       N/A	        N/A	       N/A	       N/A	       N/A	        N/A	       N/A	       N/A	       N/A	        N/A	       N/A	       N/A	       N/A	        N/A	       N/A	       N/A	       N/A	        N/A	
         R10	    862	   79.2996	        19	       9.4	        N/A	   79.6538	        19	       9.4	        N/A	   80.0079	        19	       9.4	        N/A	       N/A	       N/A	       N/A	        N/A	       N/A	       N/A	       N/A	        N/A	       N/A	       N/A	       N/A	        N/A	       N/A	       N/A	       N/A	        N/A	       N/A	       N/A	       N/A	        N/A	
         R10	    863	    78.625	        19	       9.4	        N/A	   78.9623	        19	       9.4	        N/A	   79.2996	        19	       9.4	        N/A	       N/A	       N/A	       N/A	        N/A	       N/A	       N/A	       N/A	        N/A	       N/A	       N/A	       N/A	        N/A	       N/A	       N/A	       N/A	        N/A	       N/A	       N/A	       N/A	        N/A	
         R10	    864	   80.3619	      15.3	       1.6	        N/A	    80.556	      15.3	       1.6	        N/A	     80.75	      15.3	       1.6	        N/A	       N/A	       N/A	       N/A	        N/A	       N/A	       N/A	       N/A	        N/A	       N/A	       N/A	       N/A	        N/A	       N/A	       N/A	       N/A	        N/A	       N/A	       N/A	       N/A	        N/A	
         R10	    865	    80.002	      15.3	       1.6	        N/A	    80.182	      15.3	       1.6	        N/A	   80.3619	      15.3	       1.6	        N/A	       N/A	       N/A	       N/A	        N/A	       N/A	       N/A	       N/A	        N/A	       N/A	       N/A	       N/A	        N/A	       N/A	       N/A	       N/A	        N/A	       N/A	       N/A	       N/A	        N/A	
         R10	    866	   79.6703	      15.3	       1.6	        N/A	   79.8361	      15.3	       1.6	        N/A	    80.002	      15.3	       1.6	        N/A	       N/A	       N/A	       N/A	        N/A	       N/A	       N/A	       N/A	        N/A	       N/A	       N/A	       N/A	        N/A	       N/A	       N/A	       N/A	        N/A	       N/A	       N/A	       N/A	        N/A	
         R10	    867	   79.3667	      15.3	       1.6	        N/A	   79.5185	      15.3	       1.6	        N/A	   79.6703	      15.3	       1.6	        N/A	       N/A	       N/A	       N/A	        N/A	       N/A	       N/A	       N/A	        N/A	       N/A	       N/A	       N/A	        N/A	       N/A	       N/A	       N/A	        N/A	       N/A	       N/A	       N/A	        N/A	
         R10	    868	   79.0913	      15.3	       1.6	        N/A	    79.229	      15.3	       1.6	        N/A	   79.3667	      15.3	       1.6	        N/A	       N/A	       N/A	       N/A	        N/A	       N/A	       N/A	       N/A	        N/A	       N/A	       N/A	       N/A	        N/A	       N/A	       N/A	       N/A	        N/A	       N/A	       N/A	       N/A	        N/A	
         R10	    869	   78.8441	      15.3	       1.6	        N/A	   78.9677	      15.3	       1.6	        N/A	   79.0913	      15.3	       1.6	        N/A	       N/A	       N/A	       N/A	        N/A	       N/A	       N/A	       N/A	        N/A	       N/A	       N/A	       N/A	        N/A	       N/A	       N/A	       N/A	        N/A	       N/A	       N/A	       N/A	        N/A	
         R10	    870	    78.625	      15.3	       1.6	        N/A	   78.7345	      15.3	       1.6	        N/A	   78.8441	      15.3	       1.6	        N/A	       N/A	       N/A	       N/A	        N/A	       N/A	       N/A	       N/A	        N/A	       N/A	       N/A	       N/A	        N/A	       N/A	       N/A	       N/A	        N/A	       N/A	       N/A	       N/A	        N/A	
         R10	    871	     80.75	      9.35	         0	        N/A	   80.2188	      9.35	         0	        N/A	   79.6875	      9.35	         0	        N/A	       N/A	       N/A	       N/A	        N/A	       N/A	       N/A	       N/A	        N/A	       N/A	       N/A	       N/A	        N/A	       N/A	       N/A	       N/A	        N/A	       N/A	       N/A	       N/A	        N/A	
         R10	    872	   79.6875	      9.35	         0	        N/A	   79.1563	      9.35	         0	        N/A	    78.625	      9.35	         0	        N/A	       N/A	       N/A	       N/A	        N/A	       N/A	       N/A	       N/A	        N/A	       N/A	       N/A	       N/A	        N/A	       N/A	       N/A	       N/A	        N/A	       N/A	       N/A	       N/A	        N/A	
         R10	    873	     80.75	      10.2	         0	        N/A	   80.2188	      10.2	         0	        N/A	   79.6875	      10.2	         0	        N/A	       N/A	       N/A	       N/A	        N/A	       N/A	       N/A	       N/A	        N/A	       N/A	       N/A	       N/A	        N/A	       N/A	       N/A	       N/A	        N/A	       N/A	       N/A	       N/A	        N/A	
         R10	    874	   79.6875	      10.2	         0	        N/A	   79.1563	      10.2	         0	        N/A	    78.625	      10.2	         0	        N/A	       N/A	       N/A	       N/A	        N/A	       N/A	       N/A	       N/A	        N/A	       N/A	       N/A	       N/A	        N/A	       N/A	       N/A	       N/A	        N/A	       N/A	       N/A	       N/A	        N/A	
         R10	    875	     80.75	      13.6	         0	        N/A	   80.4467	      13.6	         0	        N/A	   80.1433	      13.6	         0	        N/A	       N/A	       N/A	       N/A	        N/A	       N/A	       N/A	       N/A	        N/A	       N/A	       N/A	       N/A	        N/A	       N/A	       N/A	       N/A	        N/A	       N/A	       N/A	       N/A	        N/A	
         R10	    876	   80.1433	      13.6	         0	        N/A	   79.8651	      13.6	         0	        N/A	   79.5869	      13.6	         0	        N/A	       N/A	       N/A	       N/A	        N/A	       N/A	       N/A	       N/A	        N/A	       N/A	       N/A	       N/A	        N/A	       N/A	       N/A	       N/A	        N/A	       N/A	       N/A	       N/A	        N/A	
         R10	    877	   79.5869	      13.6	         0	        N/A	   79.3339	      13.6	         0	        N/A	   79.0808	      13.6	         0	        N/A	       N/A	       N/A	       N/A	        N/A	       N/A	       N/A	       N/A	        N/A	       N/A	       N/A	       N/A	        N/A	       N/A	       N/A	       N/A	        N/A	       N/A	       N/A	       N/A	        N/A	
         R10	    878	   79.0808	      13.6	         0	        N/A	   78.8529	      13.6	         0	        N/A	    78.625	      13.6	         0	        N/A	       N/A	       N/A	       N/A	        N/A	       N/A	       N/A	       N/A	        N/A	       N/A	       N/A	       N/A	        N/A	       N/A	       N/A	       N/A	        N/A	       N/A	       N/A	       N/A	        N/A	
         R10	    879	     80.75	     11.05	         0	        N/A	   80.3809	     11.05	         0	        N/A	   80.0118	     11.05	         0	        N/A	       N/A	       N/A	       N/A	        N/A	       N/A	       N/A	       N/A	        N/A	       N/A	       N/A	       N/A	        N/A	       N/A	       N/A	       N/A	        N/A	       N/A	       N/A	       N/A	        N/A	
         R10	    880	   80.0118	     11.05	         0	        N/A	   79.6576	     11.05	         0	        N/A	   79.3034	     11.05	         0	        N/A	       N/A	       N/A	       N/A	        N/A	       N/A	       N/A	       N/A	        N/A	       N/A	       N/A	       N/A	        N/A	       N/A	       N/A	       N/A	        N/A	       N/A	       N/A	       N/A	        N/A	
         R10	    881	   79.3034	     11.05	         0	        N/A	   78.9642	     11.05	         0	        N/A	    78.625	     11.05	         0	        N/A	       N/A	       N/A	       N/A	        N/A	       N/A	       N/A	       N/A	        N/A	       N/A	       N/A	       N/A	        N/A	       N/A	       N/A	       N/A	        N/A	       N/A	       N/A	       N/A	        N/A	
         R10	    882	     80.75	      11.9	         0	        N/A	   80.3641	      11.9	         0	        N/A	   79.9782	      11.9	         0	        N/A	       N/A	       N/A	       N/A	        N/A	       N/A	       N/A	       N/A	        N/A	       N/A	       N/A	       N/A	        N/A	       N/A	       N/A	       N/A	        N/A	       N/A	       N/A	       N/A	        N/A	
         R10	    883	   79.9782	      11.9	         0	        N/A	    79.624	      11.9	         0	        N/A	   79.2698	      11.9	         0	        N/A	       N/A	       N/A	       N/A	        N/A	       N/A	       N/A	       N/A	        N/A	       N/A	       N/A	       N/A	        N/A	       N/A	       N/A	       N/A	        N/A	       N/A	       N/A	       N/A	        N/A	
         R10	    884	   79.2698	      11.9	         0	        N/A	   78.9474	      11.9	         0	        N/A	    78.625	      11.9	         0	        N/A	       N/A	       N/A	       N/A	        N/A	       N/A	       N/A	       N/A	        N/A	       N/A	       N/A	       N/A	        N/A	       N/A	       N/A	       N/A	        N/A	       N/A	       N/A	       N/A	        N/A	
         R10	    885	     80.75	      16.1	         0	        N/A	   80.5073	      16.1	         0	        N/A	   80.2646	      16.1	         0	        N/A	       N/A	       N/A	       N/A	        N/A	       N/A	       N/A	       N/A	        N/A	       N/A	       N/A	       N/A	        N/A	       N/A	       N/A	       N/A	        N/A	       N/A	       N/A	       N/A	        N/A	
         R10	    886	   80.2646	      16.1	         0	        N/A	   80.0371	      16.1	         0	        N/A	   79.8095	      16.1	         0	        N/A	       N/A	       N/A	       N/A	        N/A	       N/A	       N/A	       N/A	        N/A	       N/A	       N/A	       N/A	        N/A	       N/A	       N/A	       N/A	        N/A	       N/A	       N/A	       N/A	        N/A	
         R10	    887	   79.8095	      16.1	         0	        N/A	    79.597	      16.1	         0	        N/A	   79.3845	      16.1	         0	        N/A	       N/A	       N/A	       N/A	        N/A	       N/A	       N/A	       N/A	        N/A	       N/A	       N/A	       N/A	        N/A	       N/A	       N/A	       N/A	        N/A	       N/A	       N/A	       N/A	        N/A	
         R10	    888	   79.3845	      16.1	         0	        N/A	   79.1871	      16.1	         0	        N/A	   78.9896	      16.1	         0	        N/A	       N/A	       N/A	       N/A	        N/A	       N/A	       N/A	       N/A	        N/A	       N/A	       N/A	       N/A	        N/A	       N/A	       N/A	       N/A	        N/A	       N/A	       N/A	       N/A	        N/A	
         R10	    889	   78.9896	      16.1	         0	        N/A	   78.8073	      16.1	         0	        N/A	    78.625	      16.1	         0	        N/A	       N/A	       N/A	       N/A	        N/A	       N/A	       N/A	       N/A	        N/A	       N/A	       N/A	       N/A	        N/A	       N/A	       N/A	       N/A	        N/A	       N/A	       N/A	       N/A	        N/A	
         R10	    890	     80.75	     12.75	         0	        N/A	   80.3455	     12.75	         0	        N/A	   79.9411	     12.75	         0	        N/A	       N/A	       N/A	       N/A	        N/A	       N/A	       N/A	       N/A	        N/A	       N/A	       N/A	       N/A	        N/A	       N/A	       N/A	       N/A	        N/A	       N/A	       N/A	       N/A	        N/A	
         R10	    891	   79.9411	     12.75	         0	        N/A	   79.5869	     12.75	         0	        N/A	   79.2327	     12.75	         0	        N/A	       N/A	       N/A	       N/A	        N/A	       N/A	       N/A	       N/A	        N/A	       N/A	       N/A	       N/A	        N/A	       N/A	       N/A	       N/A	        N/A	       N/A	       N/A	       N/A	        N/A	
         R10	    892	   79.2327	     12.75	         0	        N/A	   78.9289	     12.75	         0	        N/A	    78.625	     12.75	         0	        N/A	       N/A	       N/A	       N/A	        N/A	       N/A	       N/A	       N/A	        N/A	       N/A	       N/A	       N/A	        N/A	       N/A	       N/A	       N/A	        N/A	       N/A	       N/A	       N/A	        N/A	
         R10	    893	     80.75	      17.7	         0	        N/A	   80.4591	      17.7	         0	        N/A	   80.1683	      17.7	         0	        N/A	       N/A	       N/A	       N/A	        N/A	       N/A	       N/A	       N/A	        N/A	       N/A	       N/A	       N/A	        N/A	       N/A	       N/A	       N/A	        N/A	       N/A	       N/A	       N/A	        N/A	
         R10	    894	   80.1683	      17.7	         0	        N/A	   79.8942	      17.7	         0	        N/A	   79.6202	      17.7	         0	        N/A	       N/A	       N/A	       N/A	        N/A	       N/A	       N/A	       N/A	        N/A	       N/A	       N/A	       N/A	        N/A	       N/A	       N/A	       N/A	        N/A	       N/A	       N/A	       N/A	        N/A	
         R10	    895	   79.6202	      17.7	         0	        N/A	    79.363	      17.7	         0	        N/A	   79.1058	      17.7	         0	        N/A	       N/A	       N/A	       N/A	        N/A	       N/A	       N/A	       N/A	        N/A	       N/A	       N/A	       N/A	        N/A	       N/A	       N/A	       N/A	        N/A	       N/A	       N/A	       N/A	        N/A	
         R10	    896	   79.1058	      17.7	         0	        N/A	   78.8654	      17.7	         0	        N/A	    78.625	      17.7	         0	        N/A	       N/A	       N/A	       N/A	        N/A	       N/A	       N/A	       N/A	        N/A	       N/A	       N/A	       N/A	        N/A	       N/A	       N/A	       N/A	        N/A	       N/A	       N/A	       N/A	        N/A	
         R10	    897	     80.75	     14.45	         0	        N/A	   80.4467	     14.45	         0	        N/A	   80.1433	     14.45	         0	        N/A	       N/A	       N/A	       N/A	        N/A	       N/A	       N/A	       N/A	        N/A	       N/A	       N/A	       N/A	        N/A	       N/A	       N/A	       N/A	        N/A	       N/A	       N/A	       N/A	        N/A	
         R10	    898	   80.1433	     14.45	         0	        N/A	   79.8651	     14.45	         0	        N/A	   79.5869	     14.45	         0	        N/A	       N/A	       N/A	       N/A	        N/A	       N/A	       N/A	       N/A	        N/A	       N/A	       N/A	       N/A	        N/A	       N/A	       N/A	       N/A	        N/A	       N/A	       N/A	       N/A	        N/A	
         R10	    899	   79.5869	     14.45	         0	        N/A	   79.3339	     14.45	         0	        N/A	   79.0808	     14.45	         0	        N/A	       N/A	       N/A	       N/A	        N/A	       N/A	       N/A	       N/A	        N/A	       N/A	       N/A	       N/A	        N/A	       N/A	       N/A	       N/A	        N/A	       N/A	       N/A	       N/A	        N/A	
         R10	    900	   79.0808	     14.45	         0	        N/A	   78.8529	     14.45	         0	        N/A	    78.625	     14.45	         0	        N/A	       N/A	       N/A	       N/A	        N/A	       N/A	       N/A	       N/A	        N/A	       N/A	       N/A	       N/A	        N/A	       N/A	       N/A	       N/A	        N/A	       N/A	       N/A	       N/A	        N/A	
         R10	    901	     80.75	      16.9	         0	        N/A	   80.4591	      16.9	         0	        N/A	   80.1683	      16.9	         0	        N/A	       N/A	       N/A	       N/A	        N/A	       N/A	       N/A	       N/A	        N/A	       N/A	       N/A	       N/A	        N/A	       N/A	       N/A	       N/A	        N/A	       N/A	       N/A	       N/A	        N/A	
         R10	    902	   80.1683	      16.9	         0	        N/A	   79.8942	      16.9	         0	        N/A	   79.6202	      16.9	         0	        N/A	       N/A	       N/A	       N/A	        N/A	       N/A	       N/A	       N/A	        N/A	       N/A	       N/A	       N/A	        N/A	       N/A	       N/A	       N/A	        N/A	       N/A	       N/A	       N/A	        N/A	
         R10	    903	   79.6202	      16.9	         0	        N/A	    79.363	      16.9	         0	        N/A	   79.1058	      16.9	         0	        N/A	       N/A	       N/A	       N/A	        N/A	       N/A	       N/A	       N/A	        N/A	       N/A	       N/A	       N/A	        N/A	       N/A	       N/A	       N/A	        N/A	       N/A	       N/A	       N/A	        N/A	
         R10	    904	   79.1058	      16.9	         0	        N/A	   78.8654	      16.9	         0	        N/A	    78.625	      16.9	         0	        N/A	       N/A	       N/A	       N/A	        N/A	       N/A	       N/A	       N/A	        N/A	       N/A	       N/A	       N/A	        N/A	       N/A	       N/A	       N/A	        N/A	       N/A	       N/A	       N/A	        N/A	
         R10	    905	     80.75	      18.5	         0	        N/A	   80.4844	      18.5	         0	        N/A	   80.2188	      18.5	         0	        N/A	       N/A	       N/A	       N/A	        N/A	       N/A	       N/A	       N/A	        N/A	       N/A	       N/A	       N/A	        N/A	       N/A	       N/A	       N/A	        N/A	       N/A	       N/A	       N/A	        N/A	
         R10	    906	   80.2188	      18.5	         0	        N/A	   79.9531	      18.5	         0	        N/A	   79.6875	      18.5	         0	        N/A	       N/A	       N/A	       N/A	        N/A	       N/A	       N/A	       N/A	        N/A	       N/A	       N/A	       N/A	        N/A	       N/A	       N/A	       N/A	        N/A	       N/A	       N/A	       N/A	        N/A	
         R10	    907	   79.6875	      18.5	         0	        N/A	   79.4219	      18.5	         0	        N/A	   79.1563	      18.5	         0	        N/A	       N/A	       N/A	       N/A	        N/A	       N/A	       N/A	       N/A	        N/A	       N/A	       N/A	       N/A	        N/A	       N/A	       N/A	       N/A	        N/A	       N/A	       N/A	       N/A	        N/A	
         R10	    908	   79.1563	      18.5	         0	        N/A	   78.8906	      18.5	         0	        N/A	    78.625	      18.5	         0	        N/A	       N/A	       N/A	       N/A	        N/A	       N/A	       N/A	       N/A	        N/A	       N/A	       N/A	       N/A	        N/A	       N/A	       N/A	       N/A	        N/A	       N/A	       N/A	       N/A	        N/A	
         R10	    909	     80.75	      19.3	         0	        N/A	   80.5375	      19.3	         0	        N/A	    80.325	      19.3	         0	        N/A	       N/A	       N/A	       N/A	        N/A	       N/A	       N/A	       N/A	        N/A	       N/A	       N/A	       N/A	        N/A	       N/A	       N/A	       N/A	        N/A	       N/A	       N/A	       N/A	        N/A	
         R10	    910	    80.325	      19.3	         0	        N/A	   80.1125	      19.3	         0	        N/A	      79.9	      19.3	         0	        N/A	       N/A	       N/A	       N/A	        N/A	       N/A	       N/A	       N/A	        N/A	       N/A	       N/A	       N/A	        N/A	       N/A	       N/A	       N/A	        N/A	       N/A	       N/A	       N/A	        N/A	
         R10	    911	      79.9	      19.3	         0	        N/A	   79.6875	      19.3	         0	        N/A	    79.475	      19.3	         0	        N/A	       N/A	       N/A	       N/A	        N/A	       N/A	       N/A	       N/A	        N/A	       N/A	       N/A	       N/A	        N/A	       N/A	       N/A	       N/A	        N/A	       N/A	       N/A	       N/A	        N/A	
         R10	    912	    79.475	      19.3	         0	        N/A	   79.2625	      19.3	         0	        N/A	     79.05	      19.3	         0	        N/A	       N/A	       N/A	       N/A	        N/A	       N/A	       N/A	       N/A	        N/A	       N/A	       N/A	       N/A	        N/A	       N/A	       N/A	       N/A	        N/A	       N/A	       N/A	       N/A	        N/A	
         R10	    913	     79.05	      19.3	         0	        N/A	   78.8375	      19.3	         0	        N/A	    78.625	      19.3	         0	        N/A	       N/A	       N/A	       N/A	        N/A	       N/A	       N/A	       N/A	        N/A	       N/A	       N/A	       N/A	        N/A	       N/A	       N/A	       N/A	        N/A	       N/A	       N/A	       N/A	        N/A	
         R10	    914	     80.75	      21.5	      2.25	        N/A	   80.4844	      21.5	      2.25	        N/A	   80.2188	      21.5	      2.25	        N/A	       N/A	       N/A	       N/A	        N/A	       N/A	       N/A	       N/A	        N/A	       N/A	       N/A	       N/A	        N/A	       N/A	       N/A	       N/A	        N/A	       N/A	       N/A	       N/A	        N/A	
         R10	    915	   80.2188	      21.5	      2.25	        N/A	   79.9531	      21.5	      2.25	        N/A	   79.6875	      21.5	      2.25	        N/A	       N/A	       N/A	       N/A	        N/A	       N/A	       N/A	       N/A	        N/A	       N/A	       N/A	       N/A	        N/A	       N/A	       N/A	       N/A	        N/A	       N/A	       N/A	       N/A	        N/A	
         R10	    916	   79.6875	      21.5	      2.25	        N/A	   79.4219	      21.5	      2.25	        N/A	   79.1563	      21.5	      2.25	        N/A	       N/A	       N/A	       N/A	        N/A	       N/A	       N/A	       N/A	        N/A	       N/A	       N/A	       N/A	        N/A	       N/A	       N/A	       N/A	        N/A	       N/A	       N/A	       N/A	        N/A	
         R10	    917	   79.1563	      21.5	      2.25	        N/A	   78.8906	      21.5	      2.25	        N/A	    78.625	      21.5	      2.25	        N/A	       N/A	       N/A	       N/A	        N/A	       N/A	       N/A	       N/A	        N/A	       N/A	       N/A	       N/A	        N/A	       N/A	       N/A	       N/A	        N/A	       N/A	       N/A	       N/A	        N/A	
         R10	    918	     80.75	      21.5	         3	        N/A	   80.4844	      21.5	         3	        N/A	   80.2188	      21.5	         3	        N/A	       N/A	       N/A	       N/A	        N/A	       N/A	       N/A	       N/A	        N/A	       N/A	       N/A	       N/A	        N/A	       N/A	       N/A	       N/A	        N/A	       N/A	       N/A	       N/A	        N/A	
         R10	    919	   80.2188	      21.5	         3	        N/A	   79.9531	      21.5	         3	        N/A	   79.6875	      21.5	         3	        N/A	       N/A	       N/A	       N/A	        N/A	       N/A	       N/A	       N/A	        N/A	       N/A	       N/A	       N/A	        N/A	       N/A	       N/A	       N/A	        N/A	       N/A	       N/A	       N/A	        N/A	
         R10	    920	   79.6875	      21.5	         3	        N/A	   79.4219	      21.5	         3	        N/A	   79.1563	      21.5	         3	        N/A	       N/A	       N/A	       N/A	        N/A	       N/A	       N/A	       N/A	        N/A	       N/A	       N/A	       N/A	        N/A	       N/A	       N/A	       N/A	        N/A	       N/A	       N/A	       N/A	        N/A	
         R10	    921	   79.1563	      21.5	         3	        N/A	   78.8906	      21.5	         3	        N/A	    78.625	      21.5	         3	        N/A	       N/A	       N/A	       N/A	        N/A	       N/A	       N/A	       N/A	        N/A	       N/A	       N/A	       N/A	        N/A	       N/A	       N/A	       N/A	        N/A	       N/A	       N/A	       N/A	        N/A	
         R10	    922	     80.75	      21.5	      3.75	        N/A	   80.4844	      21.5	      3.75	        N/A	   80.2188	      21.5	      3.75	        N/A	       N/A	       N/A	       N/A	        N/A	       N/A	       N/A	       N/A	        N/A	       N/A	       N/A	       N/A	        N/A	       N/A	       N/A	       N/A	        N/A	       N/A	       N/A	       N/A	        N/A	
         R10	    923	   80.2188	      21.5	      3.75	        N/A	   79.9531	      21.5	      3.75	        N/A	   79.6875	      21.5	      3.75	        N/A	       N/A	       N/A	       N/A	        N/A	       N/A	       N/A	       N/A	        N/A	       N/A	       N/A	       N/A	        N/A	       N/A	       N/A	       N/A	        N/A	       N/A	       N/A	       N/A	        N/A	
         R10	    924	   79.6875	      21.5	      3.75	        N/A	   79.4219	      21.5	      3.75	        N/A	   79.1563	      21.5	      3.75	        N/A	       N/A	       N/A	       N/A	        N/A	       N/A	       N/A	       N/A	        N/A	       N/A	       N/A	       N/A	        N/A	       N/A	       N/A	       N/A	        N/A	       N/A	       N/A	       N/A	        N/A	
         R10	    925	   79.1563	      21.5	      3.75	        N/A	   78.8906	      21.5	      3.75	        N/A	    78.625	      21.5	      3.75	        N/A	       N/A	       N/A	       N/A	        N/A	       N/A	       N/A	       N/A	        N/A	       N/A	       N/A	       N/A	        N/A	       N/A	       N/A	       N/A	        N/A	       N/A	       N/A	       N/A	        N/A	
         R10	    926	     80.75	      21.5	       4.5	        N/A	   80.3958	      21.5	       4.5	        N/A	   80.0417	      21.5	       4.5	        N/A	       N/A	       N/A	       N/A	        N/A	       N/A	       N/A	       N/A	        N/A	       N/A	       N/A	       N/A	        N/A	       N/A	       N/A	       N/A	        N/A	       N/A	       N/A	       N/A	        N/A	
         R10	    927	   80.0417	      21.5	       4.5	        N/A	   79.6875	      21.5	       4.5	        N/A	   79.3333	      21.5	       4.5	        N/A	       N/A	       N/A	       N/A	        N/A	       N/A	       N/A	       N/A	        N/A	       N/A	       N/A	       N/A	        N/A	       N/A	       N/A	       N/A	        N/A	       N/A	       N/A	       N/A	        N/A	
         R10	    928	   79.3333	      21.5	       4.5	        N/A	   78.9792	      21.5	       4.5	        N/A	    78.625	      21.5	       4.5	        N/A	       N/A	       N/A	       N/A	        N/A	       N/A	       N/A	       N/A	        N/A	       N/A	       N/A	       N/A	        N/A	       N/A	       N/A	       N/A	        N/A	       N/A	       N/A	       N/A	        N/A	
         R10	    929	     80.75	      21.5	      5.25	        N/A	   80.3911	      21.5	      5.25	        N/A	   80.0323	      21.5	      5.25	        N/A	       N/A	       N/A	       N/A	        N/A	       N/A	       N/A	       N/A	        N/A	       N/A	       N/A	       N/A	        N/A	       N/A	       N/A	       N/A	        N/A	       N/A	       N/A	       N/A	        N/A	
         R10	    930	   80.0323	      21.5	      5.25	        N/A	   79.6781	      21.5	      5.25	        N/A	    79.324	      21.5	      5.25	        N/A	       N/A	       N/A	       N/A	        N/A	       N/A	       N/A	       N/A	        N/A	       N/A	       N/A	       N/A	        N/A	       N/A	       N/A	       N/A	        N/A	       N/A	       N/A	       N/A	        N/A	
         R10	    931	    79.324	      21.5	      5.25	        N/A	   78.9745	      21.5	      5.25	        N/A	    78.625	      21.5	      5.25	        N/A	       N/A	       N/A	       N/A	        N/A	       N/A	       N/A	       N/A	        N/A	       N/A	       N/A	       N/A	        N/A	       N/A	       N/A	       N/A	        N/A	       N/A	       N/A	       N/A	        N/A	
         R10	    932	     80.75	      21.5	      6.85	        N/A	   80.3629	      21.5	      6.85	        N/A	   79.9759	      21.5	      6.85	        N/A	       N/A	       N/A	       N/A	        N/A	       N/A	       N/A	       N/A	        N/A	       N/A	       N/A	       N/A	        N/A	       N/A	       N/A	       N/A	        N/A	       N/A	       N/A	       N/A	        N/A	
         R10	    933	   79.9759	      21.5	      6.85	        N/A	   79.6217	      21.5	      6.85	        N/A	   79.2675	      21.5	      6.85	        N/A	       N/A	       N/A	       N/A	        N/A	       N/A	       N/A	       N/A	        N/A	       N/A	       N/A	       N/A	        N/A	       N/A	       N/A	       N/A	        N/A	       N/A	       N/A	       N/A	        N/A	
         R10	    934	   79.2675	      21.5	      6.85	        N/A	   78.9463	      21.5	      6.85	        N/A	    78.625	      21.5	      6.85	        N/A	       N/A	       N/A	       N/A	        N/A	       N/A	       N/A	       N/A	        N/A	       N/A	       N/A	       N/A	        N/A	       N/A	       N/A	       N/A	        N/A	       N/A	       N/A	       N/A	        N/A	
         R10	    935	     80.75	      21.5	       7.7	        N/A	   80.3745	      21.5	       7.7	        N/A	   79.9989	      21.5	       7.7	        N/A	       N/A	       N/A	       N/A	        N/A	       N/A	       N/A	       N/A	        N/A	       N/A	       N/A	       N/A	        N/A	       N/A	       N/A	       N/A	        N/A	       N/A	       N/A	       N/A	        N/A	
         R10	    936	   79.9989	      21.5	       7.7	        N/A	   79.6447	      21.5	       7.7	        N/A	   79.2906	      21.5	       7.7	        N/A	       N/A	       N/A	       N/A	        N/A	       N/A	       N/A	       N/A	        N/A	       N/A	       N/A	       N/A	        N/A	       N/A	       N/A	       N/A	        N/A	       N/A	       N/A	       N/A	        N/A	
         R10	    937	   79.2906	      21.5	       7.7	        N/A	   78.9578	      21.5	       7.7	        N/A	    78.625	      21.5	       7.7	        N/A	       N/A	       N/A	       N/A	        N/A	       N/A	       N/A	       N/A	        N/A	       N/A	       N/A	       N/A	        N/A	       N/A	       N/A	       N/A	        N/A	       N/A	       N/A	       N/A	        N/A	
         R10	    938	     80.75	      21.5	      8.55	        N/A	   80.3913	      21.5	      8.55	        N/A	   80.0326	      21.5	      8.55	        N/A	       N/A	       N/A	       N/A	        N/A	       N/A	       N/A	       N/A	        N/A	       N/A	       N/A	       N/A	        N/A	       N/A	       N/A	       N/A	        N/A	       N/A	       N/A	       N/A	        N/A	
         R10	    939	   80.0326	      21.5	      8.55	        N/A	   79.6784	      21.5	      8.55	        N/A	   79.3243	      21.5	      8.55	        N/A	       N/A	       N/A	       N/A	        N/A	       N/A	       N/A	       N/A	        N/A	       N/A	       N/A	       N/A	        N/A	       N/A	       N/A	       N/A	        N/A	       N/A	       N/A	       N/A	        N/A	
         R10	    940	   79.3243	      21.5	      8.55	        N/A	   78.9746	      21.5	      8.55	        N/A	    78.625	      21.5	      8.55	        N/A	       N/A	       N/A	       N/A	        N/A	       N/A	       N/A	       N/A	        N/A	       N/A	       N/A	       N/A	        N/A	       N/A	       N/A	       N/A	        N/A	       N/A	       N/A	       N/A	        N/A	
         R10	    941	     80.75	      21.5	       9.4	        N/A	   80.2188	      21.5	       9.4	        N/A	   79.6875	      21.5	       9.4	        N/A	       N/A	       N/A	       N/A	        N/A	       N/A	       N/A	       N/A	        N/A	       N/A	       N/A	       N/A	        N/A	       N/A	       N/A	       N/A	        N/A	       N/A	       N/A	       N/A	        N/A	
         R10	    942	   79.6875	      21.5	       9.4	        N/A	   79.1563	      21.5	       9.4	        N/A	    78.625	      21.5	       9.4	        N/A	       N/A	       N/A	       N/A	        N/A	       N/A	       N/A	       N/A	        N/A	       N/A	       N/A	       N/A	        N/A	       N/A	       N/A	       N/A	        N/A	       N/A	       N/A	       N/A	        N/A	
         R10	    943	   75.7579	      15.3	       1.6	8.40632e+06	     75.65	      15.3	       1.6	8.43556e+06	     75.65	      15.3	   1.70151	8.23386e+06	   75.7547	      15.3	    1.6984	 8.2222e+06	   75.7039	      15.3	       1.6	 8.4199e+06	     75.65	      15.3	   1.65076	8.33314e+06	   75.7024	      15.3	   1.69995	8.22708e+06	   75.7563	      15.3	    1.6492	8.31284e+06	
         R10	    944	   75.7547	      15.3	    1.6984	8.21868e+06	     75.65	      15.3	   1.70151	 8.2403e+06	     75.65	      15.3	   1.79987	8.08833e+06	   75.7513	      15.3	   1.79466	8.04477e+06	   75.7024	      15.3	   1.69995	8.22871e+06	     75.65	      15.3	   1.75069	8.16298e+06	   75.7006	      15.3	   1.79726	8.06592e+06	    75.753	      15.3	   1.74653	8.13035e+06	
         R10	    945	   75.7513	      15.3	   1.79466	8.04064e+06	     75.65	      15.3	   1.79987	8.09107e+06	     75.65	      15.3	   1.89507	7.92619e+06	   75.7421	      15.3	   1.88895	7.91502e+06	   75.7006	      15.3	   1.79726	8.06527e+06	     75.65	      15.3	   1.84747	8.00724e+06	   75.6961	      15.3	   1.89201	7.92013e+06	   75.7467	      15.3	    1.8418	7.97677e+06	
         R10	    946	   75.7421	      15.3	   1.88895	7.91273e+06	     75.65	      15.3	   1.89507	7.92882e+06	     75.65	      15.3	   1.98711	7.81959e+06	   75.7343	      15.3	   1.98324	7.78769e+06	   75.6961	      15.3	   1.89201	7.92039e+06	     75.65	      15.3	   1.94109	7.87311e+06	   75.6922	      15.3	   1.98518	7.80329e+06	   75.7382	      15.3	   1.93609	7.84904e+06	
         R10	    947	   75.7343	      15.3	   1.98324	7.78709e+06	     75.65	      15.3	   1.98711	7.82039e+06	     75.65	      15.3	     2.076	7.71688e+06	   75.7313	      15.3	   2.07237	 7.6759e+06	   75.6922	      15.3	   1.98518	7.80343e+06	     75.65	      15.3	   2.03156	7.76761e+06	   75.6907	      15.3	   2.07418	7.69613e+06	   75.7328	      15.3	    2.0278	7.73043e+06	
         R10	    948	   75.7313	      15.3	   2.07237	7.67593e+06	     75.65	      15.3	     2.076	 7.7178e+06	     75.65	      15.3	   2.16173	7.60703e+06	   75.7289	      15.3	   2.15793	7.58413e+06	   75.6907	      15.3	   2.07418	7.69662e+06	     75.65	      15.3	   2.11887	7.66149e+06	   75.6895	      15.3	   2.15983	7.59528e+06	   75.7301	      15.3	   2.11515	7.62907e+06	
         R10	    949	   75.7289	      15.3	   2.15793	 7.5776e+06	     75.65	      15.3	   2.16173	 7.5943e+06	     75.65	      15.3	   2.24431	7.54414e+06	   75.7271	      15.3	   2.24092	7.48258e+06	   75.6895	      15.3	   2.15983	7.58564e+06	     75.65	      15.3	   2.20302	7.56822e+06	   75.6885	      15.3	   2.24262	7.51321e+06	    75.728	      15.3	   2.19942	 7.5292e+06	
         R10	    950	   75.7271	      15.3	   2.24092	7.49366e+06	     75.65	      15.3	   2.24431	7.53935e+06	     75.65	      15.3	   2.32373	7.46248e+06	   75.7265	      15.3	   2.32138	7.41556e+06	   75.6885	      15.3	   2.24262	7.51628e+06	     75.65	      15.3	   2.28402	7.50028e+06	   75.6882	      15.3	   2.32255	7.43869e+06	   75.7268	      15.3	   2.28115	7.45386e+06	
         R10	    951	   75.7265	      15.3	   2.32138	 7.4122e+06	     75.65	      15.3	   2.32373	7.45853e+06	     75.65	      15.3	       2.4	7.39738e+06	   75.7298	      15.3	       2.4	7.34705e+06	   75.6882	      15.3	   2.32255	7.43516e+06	     75.65	      15.3	   2.36187	7.42748e+06	   75.6899	      15.3	       2.4	7.37203e+06	   75.7281	      15.3	   2.36069	  7.379e+06	
         R10	    952	      75.8	      15.3	   2.32138	7.36052e+06	   75.7265	      15.3	   2.32138	7.40919e+06	   75.7298	      15.3	       2.4	7.33748e+06	   75.8048	      15.3	       2.4	7.27567e+06	   75.7632	      15.3	   2.32138	7.38452e+06	   75.7281	      15.3	   2.36069	7.37274e+06	   75.7673	      15.3	       2.4	 7.3063e+06	   75.8024	      15.3	   2.36069	7.31748e+06	
         R10	    953	      75.8	      15.3	   2.32138	7.35818e+06	   75.8048	      15.3	       2.4	7.27552e+06	   75.8749	      15.3	       2.4	7.21392e+06	   75.8686	      15.3	   2.32625	 7.3027e+06	   75.8024	      15.3	   2.36069	7.31627e+06	   75.8399	      15.3	       2.4	7.24433e+06	   75.8718	      15.3	   2.36313	7.25773e+06	   75.8343	      15.3	   2.32381	7.32997e+06	
         R10	    954	   75.8686	      15.3	   2.32625	7.29336e+06	   75.8749	      15.3	       2.4	7.21393e+06	   75.9403	      15.3	       2.4	7.15008e+06	   75.9333	      15.3	    2.3367	7.25054e+06	   75.8718	      15.3	   2.36313	 7.2531e+06	   75.9076	      15.3	       2.4	7.18136e+06	   75.9368	      15.3	   2.36835	 7.1996e+06	    75.901	      15.3	   2.33148	7.27131e+06	
         R10	    955	   75.9333	      15.3	    2.3367	7.24612e+06	   75.9403	      15.3	       2.4	7.15137e+06	   76.0009	      15.3	       2.4	7.09957e+06	   75.9963	      15.3	   2.34425	7.19117e+06	   75.9368	      15.3	   2.36835	7.19806e+06	   75.9706	      15.3	       2.4	7.12464e+06	   75.9986	      15.3	   2.37213	7.14462e+06	   75.9648	      15.3	   2.34048	7.21771e+06	
         R10	    956	   75.9963	      15.3	   2.34425	 7.1937e+06	   76.0009	      15.3	       2.4	7.09749e+06	   76.0567	      15.3	       2.4	7.06223e+06	   76.0517	      15.3	   2.34693	7.16633e+06	   75.9986	      15.3	   2.37213	7.14483e+06	   76.0288	      15.3	       2.4	7.07868e+06	   76.0542	      15.3	   2.37346	7.11313e+06	    76.024	      15.3	   2.34559	7.17905e+06	
         R10	    957	   76.0517	      15.3	   2.34693	7.16689e+06	   76.0567	      15.3	       2.4	7.05983e+06	   76.1076	      15.3	       2.4	7.04725e+06	   76.1022	      15.3	   2.35097	7.15497e+06	   76.0542	      15.3	   2.37346	7.11219e+06	   76.0821	      15.3	       2.4	7.05201e+06	   76.1049	      15.3	   2.37548	7.09944e+06	   76.0769	      15.3	   2.34895	7.15969e+06	
         R10	    958	   76.1022	      15.3	   2.35097	7.15549e+06	   76.1076	      15.3	       2.4	7.04424e+06	   76.1538	      15.3	       2.4	7.06142e+06	    76.148	      15.3	   2.35576	7.16601e+06	   76.1049	      15.3	   2.37548	7.09814e+06	   76.1307	      15.3	       2.4	7.05087e+06	   76.1509	      15.3	   2.37788	7.11134e+06	   76.1251	      15.3	   2.35336	7.15921e+06	
         R10	    959	    76.148	      15.3	   2.35576	7.16647e+06	   76.1538	      15.3	       2.4	7.05874e+06	   76.1952	      15.3	       2.4	 7.1121e+06	   76.1889	      15.3	   2.36104	7.20484e+06	   76.1509	      15.3	   2.37788	7.11015e+06	   76.1745	      15.3	       2.4	7.08301e+06	    76.192	      15.3	   2.38052	7.15524e+06	   76.1684	      15.3	    2.3584	7.18379e+06	
         R10	    960	   76.1889	      15.3	   2.36104	7.20536e+06	   76.1952	      15.3	       2.4	7.11025e+06	   76.2317	      15.3	       2.4	7.20851e+06	   76.2256	      15.3	   2.36616	7.27987e+06	    76.192	      15.3	   2.38052	7.15447e+06	   76.2135	      15.3	       2.4	7.15656e+06	   76.2287	      15.3	   2.38308	7.23999e+06	   76.2073	      15.3	    2.3636	7.24037e+06	
         R10	    961	   76.2256	      15.3	   2.36616	7.28153e+06	   76.2317	      15.3	       2.4	7.20744e+06	   76.2635	      15.3	       2.4	7.35559e+06	   76.2571	      15.3	   2.37103	 7.3917e+06	   76.2287	      15.3	   2.38308	7.24018e+06	   76.2476	      15.3	       2.4	7.27843e+06	   76.2603	      15.3	   2.38551	7.36838e+06	   76.2414	      15.3	   2.36859	7.33417e+06	
         R10	    962	   76.2571	      15.3	   2.37103	7.39142e+06	   76.2635	      15.3	       2.4	7.35415e+06	   76.2905	      15.3	       2.4	7.55187e+06	   76.2851	      15.3	   2.37563	7.55647e+06	   76.2603	      15.3	   2.38551	7.36745e+06	    76.277	      15.3	       2.4	7.44983e+06	   76.2878	      15.3	   2.38782	7.54796e+06	   76.2711	      15.3	   2.37333	7.47119e+06	
         R10	    963	   76.2851	      15.3	   2.37563	7.55484e+06	   76.2905	      15.3	       2.4	7.55382e+06	   76.3126	      15.3	       2.4	7.79354e+06	   76.3094	      15.3	   2.37632	7.76927e+06	   76.2878	      15.3	   2.38782	7.54811e+06	   76.3016	      15.3	       2.4	7.67075e+06	    76.311	      15.3	   2.38816	7.77312e+06	   76.2972	      15.3	   2.37597	7.65984e+06	
         R10	    964	   76.3094	      15.3	   2.37632	 7.7728e+06	   76.3126	      15.3	       2.4	7.79276e+06	     76.33	      15.3	       2.4	8.05165e+06	     76.33	      15.3	     2.383	8.03391e+06	    76.311	      15.3	   2.38816	7.77425e+06	   76.3213	      15.3	       2.4	7.92005e+06	     76.33	      15.3	    2.3915	 8.0366e+06	   76.3197	      15.3	   2.37966	7.89921e+06	
         R10	    965	    76.309	      15.3	   2.35459	7.73437e+06	     76.33	      15.3	     2.349	7.87908e+06	     76.33	      15.3	     2.332	7.75965e+06	   76.3096	      15.3	    2.3341	  7.668e+06	   76.3195	      15.3	   2.35179	7.80629e+06	     76.33	      15.3	    2.3405	 7.8163e+06	   76.3198	      15.3	   2.33305	7.71361e+06	   76.3093	      15.3	   2.34435	7.69773e+06	
         R10	    966	   76.3096	      15.3	    2.3341	 7.6642e+06	     76.33	      15.3	     2.332	7.75522e+06	     76.33	      15.3	     2.315	7.61917e+06	   76.3096	      15.3	   2.31668	7.58508e+06	   76.3198	      15.3	   2.33305	7.70948e+06	     76.33	      15.3	    2.3235	7.68503e+06	   76.3198	      15.3	   2.31584	7.60204e+06	   76.3096	      15.3	   2.32539	7.62279e+06	
         R10	    967	   76.3096	      15.3	   2.31668	 7.5832e+06	     76.33	      15.3	     2.315	7.61732e+06	     76.33	      15.3	     2.298	7.47572e+06	    76.312	      15.3	   2.29994	7.49498e+06	   76.3198	      15.3	   2.31584	7.60017e+06	     76.33	      15.3	    2.3065	7.54511e+06	    76.321	      15.3	   2.29897	7.48533e+06	   76.3108	      15.3	   2.30831	7.53792e+06	
         R10	    968	    76.312	      15.3	   2.29994	7.49191e+06	     76.33	      15.3	     2.298	7.47436e+06	     76.33	      15.3	     2.281	7.33621e+06	   76.3051	      15.3	   2.28063	7.39013e+06	    76.321	      15.3	   2.29897	7.48311e+06	     76.33	      15.3	    2.2895	 7.4044e+06	   76.3176	      15.3	   2.28082	7.36308e+06	   76.3086	      15.3	   2.29028	7.43979e+06	
         R10	    969	   76.3051	      15.3	   2.28063	7.38896e+06	     76.33	      15.3	     2.281	7.33781e+06	     76.33	      15.3	     2.264	7.21072e+06	   76.3113	      15.3	   2.26421	7.28964e+06	   76.3176	      15.3	   2.28082	 7.3633e+06	     76.33	      15.3	    2.2725	7.27377e+06	   76.3207	      15.3	   2.26411	7.25013e+06	   76.3082	      15.3	   2.27242	 7.3389e+06	
         R10	    970	   76.3113	      15.3	   2.26421	7.28702e+06	     76.33	      15.3	     2.264	7.21044e+06	     76.33	      15.3	     2.247	7.10428e+06	   76.3101	      15.3	   2.24502	7.19588e+06	   76.3207	      15.3	   2.26411	7.24867e+06	     76.33	      15.3	    2.2555	7.15708e+06	   76.3201	      15.3	   2.24601	7.14996e+06	   76.3107	      15.3	   2.25462	7.24104e+06	
         R10	    971	   76.3101	      15.3	   2.24502	7.19573e+06	     76.33	      15.3	     2.247	7.10199e+06	     76.33	      15.3	      2.23	7.01638e+06	   76.3076	      15.3	    2.2286	7.13667e+06	   76.3201	      15.3	   2.24601	7.14874e+06	     76.33	      15.3	    2.2385	7.05904e+06	   76.3188	      15.3	    2.2293	7.07636e+06	   76.3089	      15.3	   2.23681	  7.166e+06	
         R10	    972	   76.3298	      15.3	   2.20952	6.93399e+06	     76.33	      15.3	      2.23	7.01664e+06	    76.347	      15.3	      2.23	 6.8858e+06	   76.3442	      15.3	    2.2096	6.83381e+06	   76.3299	      15.3	   2.21976	 6.9752e+06	   76.3385	      15.3	      2.23	6.95107e+06	   76.3456	      15.3	    2.2198	6.85966e+06	    76.337	      15.3	   2.20956	6.88378e+06	
         R10	    973	   76.3442	      15.3	    2.2096	6.82855e+06	    76.347	      15.3	      2.23	 6.8859e+06	    76.364	      15.3	      2.23	6.71561e+06	   76.3622	      15.3	   2.20348	6.65574e+06	   76.3456	      15.3	    2.2198	6.85709e+06	   76.3555	      15.3	      2.23	 6.8005e+06	   76.3631	      15.3	   2.21674	 6.6855e+06	   76.3532	      15.3	   2.20654	6.74182e+06	
         R10	    974	   76.3622	      15.3	   2.20348	 6.6583e+06	    76.364	      15.3	      2.23	6.71863e+06	    76.381	      15.3	      2.23	6.52004e+06	   76.3815	      15.3	   2.21183	6.47228e+06	   76.3631	      15.3	   2.21674	6.68829e+06	   76.3725	      15.3	      2.23	6.61884e+06	   76.3813	      15.3	   2.22091	6.49606e+06	   76.3719	      15.3	   2.20766	6.56446e+06	
         R10	    975	   76.3815	      15.3	   2.21183	6.47202e+06	    76.381	      15.3	      2.23	6.51815e+06	    76.398	      15.3	      2.23	6.28842e+06	   76.3969	      15.3	    2.2093	6.29459e+06	   76.3813	      15.3	   2.22091	6.49498e+06	   76.3895	      15.3	      2.23	 6.4023e+06	   76.3974	      15.3	   2.21965	6.29128e+06	   76.3892	      15.3	   2.21057	6.38248e+06	
         R10	    976	   76.3969	      15.3	    2.2093	6.29547e+06	    76.398	      15.3	      2.23	6.28644e+06	    76.415	      15.3	      2.23	6.04128e+06	   76.4152	      15.3	   2.20851	6.09054e+06	   76.3974	      15.3	   2.21965	6.29072e+06	   76.4065	      15.3	      2.23	6.16198e+06	   76.4151	      15.3	   2.21925	6.06551e+06	    76.406	      15.3	    2.2089	6.19097e+06	
         R10	    977	   76.4152	      15.3	   2.20851	6.09215e+06	    76.415	      15.3	      2.23	6.03879e+06	    76.432	      15.3	      2.23	5.80989e+06	   76.4324	      15.3	   2.20804	5.93158e+06	   76.4151	      15.3	   2.21925	6.06504e+06	   76.4235	      15.3	      2.23	5.92086e+06	   76.4322	      15.3	   2.21902	5.87009e+06	   76.4238	      15.3	   2.20827	6.00887e+06	
         R10	    978	   76.4324	      15.3	   2.20804	5.92888e+06	    76.432	      15.3	      2.23	5.80765e+06	    76.449	      15.3	      2.23	5.64144e+06	   76.4492	      15.3	   2.20937	5.82233e+06	   76.4322	      15.3	   2.21902	5.86764e+06	   76.4405	      15.3	      2.23	5.71882e+06	   76.4491	      15.3	   2.21968	5.73091e+06	   76.4408	      15.3	    2.2087	5.87131e+06	
         R10	    979	   76.4492	      15.3	   2.20937	5.82513e+06	    76.449	      15.3	      2.23	5.64004e+06	    76.466	      15.3	      2.23	5.59401e+06	    76.466	      15.3	   2.21083	5.80079e+06	   76.4491	      15.3	   2.21968	5.73159e+06	   76.4575	      15.3	      2.23	5.60886e+06	    76.466	      15.3	   2.22042	 5.6959e+06	   76.4576	      15.3	    2.2101	5.80744e+06	
         R10	    980	    76.466	      15.3	   2.21083	5.79709e+06	    76.466	      15.3	      2.23	5.59313e+06	    76.483	      15.3	      2.23	5.71401e+06	   76.4832	      15.3	   2.20993	5.92032e+06	    76.466	      15.3	   2.22042	5.69364e+06	   76.4745	      15.3	      2.23	  5.644e+06	   76.4831	      15.3	   2.21997	5.81418e+06	   76.4746	      15.3	   2.21038	5.85281e+06	
         R10	    981	   76.4832	      15.3	   2.20993	5.91806e+06	    76.483	      15.3	      2.23	5.71385e+06	      76.5	      15.3	      2.23	5.99701e+06	      76.5	      15.3	   2.21268	6.12449e+06	   76.4831	      15.3	   2.21997	5.81298e+06	   76.4915	      15.3	      2.23	5.84691e+06	      76.5	      15.3	   2.22134	6.05732e+06	   76.4916	      15.3	    2.2113	6.01478e+06	
         R10	    982	   76.4832	      15.3	   2.20993	5.91653e+06	      76.5	      15.3	   2.21268	6.12496e+06	      76.5	      15.3	   2.19016	6.28618e+06	   76.4805	      15.3	   2.18652	6.11385e+06	   76.4916	      15.3	    2.2113	6.01417e+06	      76.5	      15.3	   2.20142	6.20176e+06	   76.4903	      15.3	   2.18834	6.19441e+06	   76.4819	      15.3	   2.19823	6.01179e+06	
         R10	    983	   76.4805	      15.3	   2.18652	6.10492e+06	      76.5	      15.3	   2.19016	6.28364e+06	      76.5	      15.3	   2.16246	6.46881e+06	   76.4668	      15.3	   2.15823	6.25837e+06	   76.4903	      15.3	   2.18834	6.18822e+06	      76.5	      15.3	   2.17631	6.37274e+06	   76.4834	      15.3	   2.16035	6.35312e+06	   76.4737	      15.3	   2.17238	6.17525e+06	
         R10	    984	   76.4668	      15.3	   2.15823	6.26875e+06	      76.5	      15.3	   2.16246	6.47134e+06	      76.5	      15.3	   2.12957	6.67906e+06	   76.4633	      15.3	   2.12376	6.51183e+06	   76.4834	      15.3	   2.16035	6.36001e+06	      76.5	      15.3	   2.14601	6.57197e+06	   76.4817	      15.3	   2.12667	6.58765e+06	   76.4651	      15.3	     2.141	6.38791e+06	
         R10	    985	   76.4633	      15.3	   2.12376	6.51226e+06	      76.5	      15.3	   2.12957	6.68011e+06	      76.5	      15.3	   2.09149	6.90376e+06	    76.458	      15.3	   2.08527	6.74604e+06	   76.4817	      15.3	   2.12667	6.58839e+06	      76.5	      15.3	   2.11053	6.78924e+06	    76.479	      15.3	   2.08838	6.81861e+06	   76.4606	      15.3	   2.10452	6.62712e+06	
         R10	    986	    76.458	      15.3	   2.08527	6.74603e+06	      76.5	      15.3	   2.09149	6.90418e+06	      76.5	      15.3	   2.04821	7.13737e+06	   76.4531	      15.3	   2.04261	6.97776e+06	    76.479	      15.3	   2.08838	6.81881e+06	      76.5	      15.3	   2.06985	7.01857e+06	   76.4765	      15.3	   2.04541	7.05271e+06	   76.4555	      15.3	   2.06394	6.86032e+06	
         R10	    987	   76.4531	      15.3	   2.04261	6.97773e+06	      76.5	      15.3	   2.04821	7.13727e+06	      76.5	      15.3	   1.99975	7.37723e+06	   76.4488	      15.3	   1.99397	7.21655e+06	   76.4765	      15.3	   2.04541	7.05264e+06	      76.5	      15.3	   2.02398	7.25545e+06	   76.4744	      15.3	   1.99686	7.29321e+06	    76.451	      15.3	   2.01829	 7.0958e+06	
         R10	    988	   76.4488	      15.3	   1.99397	7.21597e+06	      76.5	      15.3	   1.99975	7.37723e+06	      76.5	      15.3	    1.9461	7.62407e+06	   76.4447	      15.3	   1.94026	7.45422e+06	   76.4744	      15.3	   1.99686	7.29291e+06	      76.5	      15.3	   1.97293	7.49915e+06	   76.4723	      15.3	   1.94318	7.53635e+06	   76.4467	      15.3	   1.96711	7.33396e+06	
         R10	    989	   76.4447	      15.3	   1.94026	7.45355e+06	      76.5	      15.3	    1.9461	7.62412e+06	      76.5	      15.3	   1.88726	7.87789e+06	   76.4389	      15.3	   1.87999	7.69217e+06	   76.4723	      15.3	   1.94318	7.53603e+06	      76.5	      15.3	   1.91668	7.74971e+06	   76.4694	      15.3	   1.88363	 7.7829e+06	   76.4418	      15.3	   1.91013	 7.5718e+06	
         R10	    990	   76.4389	      15.3	   1.87999	7.68956e+06	      76.5	      15.3	   1.88726	7.87832e+06	      76.5	      15.3	   1.82323	8.15246e+06	   76.4316	      15.3	   1.81558	7.90978e+06	   76.4694	      15.3	   1.88363	7.78178e+06	      76.5	      15.3	   1.85525	8.01427e+06	   76.4658	      15.3	   1.81941	8.02921e+06	   76.4352	      15.3	   1.84779	7.79871e+06	
         R10	    991	   76.4316	      15.3	   1.81558	7.90142e+06	      76.5	      15.3	   1.82323	8.15539e+06	      76.5	      15.3	   1.75401	8.41206e+06	   76.4243	      15.3	   1.74668	 8.1377e+06	   76.4658	      15.3	   1.81941	8.02638e+06	      76.5	      15.3	   1.78862	8.28183e+06	   76.4622	      15.3	   1.75034	8.27435e+06	   76.4279	      15.3	   1.78113	8.01907e+06	
         R10	    992	   76.4243	      15.3	   1.74668	8.11888e+06	      76.5	      15.3	   1.75401	 8.5285e+06	      76.5	      15.3	    1.6796	 8.8408e+06	   76.4196	      15.3	   1.67445	7.92196e+06	   76.4622	      15.3	   1.75034	8.32017e+06	      76.5	      15.3	    1.7168	8.66758e+06	   76.4598	      15.3	   1.67702	8.37558e+06	    76.422	      15.3	   1.71056	8.01929e+06	
         R10	    993	   76.4196	      15.3	   1.67445	8.07782e+06	      76.5	      15.3	    1.6796	9.63981e+06	      76.5	      15.3	       1.6	8.12905e+06	    76.419	      15.3	       1.6	8.48131e+06	   76.4598	      15.3	   1.67702	8.83462e+06	      76.5	      15.3	    1.6398	8.67069e+06	   76.4595	      15.3	       1.6	8.26792e+06	   76.4193	      15.3	   1.63722	8.26546e+06	
         R10	    994	   76.3351	      15.3	   1.67584	8.29545e+06	   76.4196	      15.3	   1.67445	8.31389e+06	    76.419	      15.3	       1.6	8.27889e+06	   76.3346	      15.3	       1.6	8.29574e+06	   76.3774	      15.3	   1.67514	 8.3022e+06	   76.4193	      15.3	   1.63722	8.28548e+06	   76.3768	      15.3	       1.6	8.28408e+06	   76.3348	      15.3	   1.63792	8.29424e+06	
         R10	    995	   76.3351	      15.3	   1.67584	8.26727e+06	   76.3346	      15.3	       1.6	8.30784e+06	   76.2468	      15.3	       1.6	8.33918e+06	   76.2462	      15.3	   1.68107	8.18665e+06	   76.3348	      15.3	   1.63792	8.28563e+06	   76.2907	      15.3	       1.6	8.32289e+06	   76.2465	      15.3	   1.64053	8.26234e+06	   76.2907	      15.3	   1.67845	8.22438e+06	
         R10	    996	   76.2462	      15.3	   1.68107	8.18906e+06	   76.2468	      15.3	       1.6	8.32761e+06	   76.1557	      15.3	       1.6	8.33053e+06	   76.1556	      15.3	   1.68481	8.14126e+06	   76.2465	      15.3	   1.64053	8.25779e+06	   76.2013	      15.3	       1.6	8.32773e+06	   76.1557	      15.3	    1.6424	8.23538e+06	   76.2009	      15.3	   1.68294	8.16328e+06	
         R10	    997	   76.1556	      15.3	   1.68481	8.14617e+06	   76.1557	      15.3	       1.6	8.32626e+06	   76.0613	      15.3	       1.6	8.33289e+06	   76.0584	      15.3	    1.6859	8.15212e+06	   76.1557	      15.3	    1.6424	8.23572e+06	   76.1085	      15.3	       1.6	8.32775e+06	   76.0599	      15.3	   1.64295	8.24174e+06	    76.107	      15.3	   1.68536	8.14732e+06	
         R10	    998	   76.0584	      15.3	    1.6859	8.15154e+06	   76.0613	      15.3	       1.6	8.33138e+06	   75.9635	      15.3	       1.6	8.35031e+06	   75.9588	      15.3	   1.69008	  8.166e+06	   76.0599	      15.3	   1.64295	8.24071e+06	   76.0124	      15.3	       1.6	8.33908e+06	   75.9611	      15.3	   1.64504	8.25712e+06	   76.0086	      15.3	   1.68799	8.15721e+06	
         R10	    999	   75.9588	      15.3	   1.69008	8.16756e+06	   75.9635	      15.3	       1.6	8.34961e+06	   75.8624	      15.3	       1.6	8.37663e+06	    75.856	      15.3	   1.69633	8.18265e+06	   75.9611	      15.3	   1.64504	 8.2576e+06	   75.9129	      15.3	       1.6	 8.3616e+06	   75.8592	      15.3	   1.64817	8.27835e+06	   75.9074	      15.3	   1.69321	8.17378e+06	
         R10	   1000	    75.856	      15.3	   1.69633	8.18816e+06	   75.8624	      15.3	       1.6	8.37553e+06	   75.7579	      15.3	       1.6	8.40401e+06	   75.7547	      15.3	    1.6984	8.21449e+06	   75.8592	      15.3	   1.64817	 8.2806e+06	   75.8101	      15.3	       1.6	8.38846e+06	   75.7563	      15.3	    1.6492	8.30778e+06	   75.8054	      15.3	   1.69736	8.20029e+06	
         R10	   1001	   75.8564	      15.3	   1.79802	7.99804e+06	    75.856	      15.3	   1.69633	 8.1816e+06	   75.7547	      15.3	    1.6984	8.20926e+06	   75.7513	      15.3	   1.79466	8.06267e+06	   75.8562	      15.3	   1.74718	8.08847e+06	   75.8054	      15.3	   1.69736	8.19436e+06	    75.753	      15.3	   1.74653	8.13471e+06	   75.8038	      15.3	   1.79634	8.02948e+06	
         R10	   1002	   75.8564	      15.3	   1.79802	7.99667e+06	   75.7513	      15.3	   1.79466	 8.0593e+06	   75.7421	      15.3	   1.88895	7.91233e+06	   75.8231	      15.3	   1.89834	 7.8675e+06	   75.8038	      15.3	   1.79634	8.02692e+06	   75.7467	      15.3	    1.8418	7.98464e+06	   75.7826	      15.3	   1.89365	7.88936e+06	   75.8398	      15.3	   1.84818	7.93136e+06	
         R10	   1003	   75.8231	      15.3	   1.89834	7.86998e+06	   75.7421	      15.3	   1.88895	7.90905e+06	   75.7343	      15.3	   1.98324	7.78646e+06	   75.8157	      15.3	   1.98842	7.74583e+06	   75.7826	      15.3	   1.89365	 7.8889e+06	   75.7382	      15.3	   1.93609	 7.8466e+06	    75.775	      15.3	   1.98583	7.76567e+06	   75.8194	      15.3	   1.94338	7.80689e+06	
         R10	   1004	   75.8157	      15.3	   1.98842	 7.7469e+06	   75.7343	      15.3	   1.98324	7.78636e+06	   75.7313	      15.3	   2.07237	7.68328e+06	   75.8101	      15.3	   2.07463	7.63939e+06	    75.775	      15.3	   1.98583	7.76615e+06	   75.7328	      15.3	    2.0278	 7.7338e+06	   75.7707	      15.3	    2.0735	7.66096e+06	   75.8129	      15.3	   2.03152	7.69218e+06	
         R10	   1005	   75.8101	      15.3	   2.07463	7.63891e+06	   75.7313	      15.3	   2.07237	7.68402e+06	   75.7289	      15.3	   2.15793	7.58066e+06	   75.8054	      15.3	   2.15919	7.54542e+06	   75.7707	      15.3	    2.0735	7.66108e+06	   75.7301	      15.3	   2.11515	7.63132e+06	   75.7672	      15.3	   2.15856	7.56267e+06	   75.8077	      15.3	   2.11691	7.59125e+06	
         R10	   1006	   75.8054	      15.3	   2.15919	7.54295e+06	   75.7289	      15.3	   2.15793	7.58336e+06	   75.7271	      15.3	   2.24092	7.48837e+06	    75.802	      15.3	   2.24171	7.44676e+06	   75.7672	      15.3	   2.15856	7.56279e+06	    75.728	      15.3	   2.19942	7.53499e+06	   75.7645	      15.3	   2.24132	7.46721e+06	   75.8037	      15.3	   2.20045	7.49398e+06	
         R10	   1007	    75.802	      15.3	   2.24171	7.44314e+06	   75.7271	      15.3	   2.24092	7.49239e+06	   75.7265	      15.3	   2.32138	7.40921e+06	      75.8	      15.3	   2.32138	7.36228e+06	   75.7645	      15.3	   2.24132	7.46742e+06	   75.7268	      15.3	   2.28115	7.45001e+06	   75.7632	      15.3	   2.32138	7.38546e+06	    75.801	      15.3	   2.28154	7.40202e+06	
         R10	   1008	   75.8759	      15.3	   2.24453	7.40039e+06	    75.802	      15.3	   2.24171	7.44674e+06	      75.8	      15.3	   2.32138	7.35658e+06	   75.8686	      15.3	   2.32625	7.30244e+06	   75.8389	      15.3	   2.24312	7.42308e+06	    75.801	      15.3	   2.28154	7.40093e+06	   75.8343	      15.3	   2.32381	7.32904e+06	   75.8723	      15.3	   2.28539	7.35058e+06	
         R10	   1009	   75.8759	      15.3	   2.24453	 7.4209e+06	   75.8686	      15.3	   2.32625	7.30224e+06	   75.9333	      15.3	    2.3367	7.24955e+06	    75.943	      15.3	   2.28502	 7.3098e+06	   75.8723	      15.3	   2.28539	7.36063e+06	    75.901	      15.3	   2.33148	7.27528e+06	   75.9381	      15.3	   2.31086	7.27934e+06	   75.9095	      15.3	   2.26478	7.36379e+06	
         R10	   1010	    75.943	      15.3	   2.28502	7.30994e+06	   75.9333	      15.3	    2.3367	7.24183e+06	   75.9963	      15.3	   2.34425	 7.1935e+06	   76.0002	      15.3	   2.28705	7.28642e+06	   75.9381	      15.3	   2.31086	7.27558e+06	   75.9648	      15.3	   2.34048	7.21665e+06	   75.9983	      15.3	   2.31565	7.23922e+06	   75.9716	      15.3	   2.28604	7.29765e+06	
         R10	   1011	   76.0002	      15.3	   2.28705	7.28463e+06	   75.9963	      15.3	   2.34425	7.19478e+06	   76.0517	      15.3	   2.34693	7.16686e+06	   76.0546	      15.3	   2.29374	7.26265e+06	   75.9983	      15.3	   2.31565	7.23901e+06	    76.024	      15.3	   2.34559	7.17986e+06	   76.0531	      15.3	   2.32033	7.21381e+06	   76.0274	      15.3	   2.29039	7.27281e+06	
         R10	   1012	   76.0546	      15.3	   2.29374	7.26191e+06	   76.0517	      15.3	   2.34693	7.16738e+06	   76.1022	      15.3	   2.35097	7.15544e+06	   76.1055	      15.3	   2.30178	7.25293e+06	   76.0531	      15.3	   2.32033	7.21372e+06	   76.0769	      15.3	   2.34895	7.16016e+06	   76.1038	      15.3	   2.32637	7.20291e+06	   76.0801	      15.3	   2.29776	7.25639e+06	
         R10	   1013	   76.1055	      15.3	   2.30178	7.25274e+06	   76.1022	      15.3	   2.35097	7.15607e+06	    76.148	      15.3	   2.35576	7.16679e+06	   76.1508	      15.3	   2.31171	7.25832e+06	   76.1038	      15.3	   2.32637	7.20313e+06	   76.1251	      15.3	   2.35336	7.15989e+06	   76.1494	      15.3	   2.33373	 7.2109e+06	   76.1282	      15.3	   2.30674	7.25425e+06	
         R10	   1014	   76.1508	      15.3	   2.31171	7.26024e+06	    76.148	      15.3	   2.35576	7.16653e+06	   76.1889	      15.3	   2.36104	7.20503e+06	   76.1918	      15.3	   2.32254	7.28611e+06	   76.1494	      15.3	   2.33373	7.21174e+06	   76.1684	      15.3	    2.3584	7.18389e+06	   76.1904	      15.3	   2.34179	7.24344e+06	   76.1713	      15.3	   2.31712	7.27158e+06	
         R10	   1015	   76.1918	      15.3	   2.32254	  7.286e+06	   76.1889	      15.3	   2.36104	7.20477e+06	   76.2256	      15.3	   2.36616	7.27849e+06	   76.2279	      15.3	   2.33262	7.34816e+06	   76.1904	      15.3	   2.34179	7.24329e+06	   76.2073	      15.3	    2.3636	 7.2394e+06	   76.2268	      15.3	   2.34939	7.31058e+06	   76.2098	      15.3	   2.32758	7.31528e+06	
         R10	   1016	   76.2279	      15.3	   2.33262	7.34662e+06	   76.2256	      15.3	   2.36616	7.27947e+06	   76.2571	      15.3	   2.37103	7.39323e+06	   76.2595	      15.3	   2.34161	7.43996e+06	   76.2268	      15.3	   2.34939	7.31035e+06	   76.2414	      15.3	   2.36859	7.33387e+06	   76.2583	      15.3	   2.35632	7.41312e+06	   76.2437	      15.3	   2.33712	7.39132e+06	
         R10	   1017	   76.2595	      15.3	   2.34161	7.44177e+06	   76.2571	      15.3	   2.37103	7.39403e+06	   76.2851	      15.3	   2.37563	7.54688e+06	   76.2876	      15.3	   2.35683	7.58137e+06	   76.2583	      15.3	   2.35632	7.41435e+06	   76.2711	      15.3	   2.37333	7.46776e+06	   76.2863	      15.3	   2.36623	7.56171e+06	   76.2736	      15.3	   2.34922	7.50741e+06	
         R10	   1018	   76.3094	      15.3	   2.37632	7.76665e+06	     76.33	      15.3	     2.366	7.98085e+06	     76.33	      15.3	     2.349	 7.8837e+06	    76.309	      15.3	   2.35459	 7.7402e+06	   76.3197	      15.3	   2.37116	7.87261e+06	     76.33	      15.3	    2.3575	7.92829e+06	   76.3195	      15.3	   2.35179	7.81154e+06	   76.3092	      15.3	   2.36545	7.74823e+06	
         R10	   1019	   76.2875	      15.3	   2.31637	7.51973e+06	   76.3096	      15.3	   2.31668	7.57973e+06	    76.312	      15.3	   2.29994	7.49393e+06	     76.29	      15.3	   2.29741	7.46049e+06	   76.2985	      15.3	   2.31653	7.54943e+06	   76.3108	      15.3	   2.30831	7.53563e+06	    76.301	      15.3	   2.29868	7.47701e+06	   76.2887	      15.3	   2.30689	7.48911e+06	
         R10	   1020	   76.2865	      15.3	   2.27358	7.36509e+06	   76.3051	      15.3	   2.28063	7.38996e+06	   76.3113	      15.3	   2.26421	7.28331e+06	    76.286	      15.3	   2.25303	 7.3063e+06	   76.2958	      15.3	    2.2771	7.37721e+06	   76.3082	      15.3	   2.27242	7.33624e+06	   76.2987	      15.3	   2.25862	7.29431e+06	   76.2862	      15.3	    2.2633	 7.3351e+06	
         R10	   1021	    76.286	      15.3	   2.25303	7.30042e+06	   76.3101	      15.3	   2.24502	7.19993e+06	   76.3076	      15.3	    2.2286	7.13688e+06	   76.2846	      15.3	   2.22953	7.22704e+06	   76.2981	      15.3	   2.24902	7.25017e+06	   76.3089	      15.3	   2.23681	 7.1682e+06	   76.2961	      15.3	   2.22906	7.18187e+06	   76.2853	      15.3	   2.24128	7.26326e+06	
         R10	   1022	   76.3079	      15.3	   2.20551	 7.0582e+06	   76.3076	      15.3	    2.2286	7.13717e+06	     76.33	      15.3	      2.23	7.01608e+06	   76.3298	      15.3	   2.20952	6.94303e+06	   76.3077	      15.3	   2.21705	7.09751e+06	   76.3188	      15.3	    2.2293	7.07645e+06	   76.3299	      15.3	   2.21976	6.97943e+06	   76.3188	      15.3	   2.20752	7.00037e+06	
         R10	   1023	   76.3209	      15.3	   2.18062	6.94007e+06	   76.3298	      15.3	   2.20952	6.93999e+06	   76.3442	      15.3	    2.2096	6.83032e+06	   76.3474	      15.3	   2.18439	6.75413e+06	   76.3253	      15.3	   2.19507	 6.9397e+06	    76.337	      15.3	   2.20956	  6.885e+06	   76.3458	      15.3	     2.197	6.79216e+06	   76.3341	      15.3	    2.1825	6.84654e+06	
         R10	   1024	   76.3928	      15.3	     2.189	6.36469e+06	   76.3969	      15.3	    2.2093	  6.297e+06	   76.4152	      15.3	   2.20851	6.09378e+06	    76.415	      15.3	   2.18695	  6.185e+06	   76.3948	      15.3	   2.19915	6.33057e+06	    76.406	      15.3	    2.2089	6.19333e+06	   76.4151	      15.3	   2.19773	  6.139e+06	   76.4039	      15.3	   2.18798	6.27224e+06	
         R10	   1025	    76.415	      15.3	   2.18695	6.17724e+06	   76.4152	      15.3	   2.20851	6.09335e+06	   76.4324	      15.3	   2.20804	5.93041e+06	   76.4348	      15.3	   2.18385	6.07785e+06	   76.4151	      15.3	   2.19773	6.13494e+06	   76.4238	      15.3	   2.20827	6.00895e+06	   76.4336	      15.3	   2.19594	6.00339e+06	   76.4249	      15.3	    2.1854	6.12428e+06	
         R10	   1026	   76.4348	      15.3	   2.18385	6.08549e+06	   76.4324	      15.3	   2.20804	 5.9307e+06	   76.4492	      15.3	   2.20937	5.82993e+06	   76.4532	      15.3	   2.18585	6.01162e+06	   76.4336	      15.3	   2.19594	6.00727e+06	   76.4408	      15.3	    2.2087	5.87598e+06	   76.4512	      15.3	   2.19761	5.91995e+06	    76.444	      15.3	   2.18485	6.04507e+06	
         R10	   1027	   76.4275	      15.3	   2.12562	6.47087e+06	   76.4633	      15.3	   2.12376	6.51286e+06	    76.458	      15.3	   2.08527	6.74598e+06	   76.4169	      15.3	   2.08852	6.69179e+06	   76.4454	      15.3	   2.12469	6.48585e+06	   76.4606	      15.3	   2.10452	6.62741e+06	   76.4374	      15.3	    2.0869	6.71393e+06	   76.4222	      15.3	   2.10707	 6.5798e+06	
         R10	   1028	   76.4169	      15.3	   2.08852	6.69138e+06	    76.458	      15.3	   2.08527	6.74545e+06	   76.4531	      15.3	   2.04261	6.97716e+06	   76.4069	      15.3	   2.04635	6.90744e+06	   76.4374	      15.3	    2.0869	6.71346e+06	   76.4555	      15.3	   2.06394	6.85972e+06	     76.43	      15.3	   2.04448	6.93835e+06	   76.4119	      15.3	   2.06744	6.79822e+06	
         R10	   1029	   76.4069	      15.3	   2.04635	6.90826e+06	   76.4531	      15.3	   2.04261	6.97689e+06	   76.4488	      15.3	   1.99397	7.21539e+06	   76.3974	      15.3	   1.99705	7.13014e+06	     76.43	      15.3	   2.04448	6.93865e+06	    76.451	      15.3	   2.01829	7.09481e+06	   76.4231	      15.3	   1.99551	7.16959e+06	   76.4022	      15.3	    2.0217	7.01812e+06	
         R10	   1030	   76.3974	      15.3	   1.99705	7.13162e+06	   76.4488	      15.3	   1.99397	7.21479e+06	   76.4447	      15.3	   1.94026	7.45337e+06	   76.3881	      15.3	   1.94382	7.34279e+06	   76.4231	      15.3	   1.99551	7.17008e+06	   76.4467	      15.3	   1.96711	7.33296e+06	   76.4164	      15.3	   1.94204	7.39557e+06	   76.3928	      15.3	   1.97044	7.23629e+06	
         R10	   1031	   76.3881	      15.3	   1.94382	7.34677e+06	   76.4447	      15.3	   1.94026	7.45284e+06	   76.4389	      15.3	   1.87999	7.68973e+06	   76.3774	      15.3	   1.88358	7.56052e+06	   76.4164	      15.3	   1.94204	7.39738e+06	   76.4418	      15.3	   1.91013	7.57021e+06	   76.4082	      15.3	   1.88179	7.62322e+06	   76.3828	      15.3	    1.9137	7.45273e+06	
         R10	   1032	   76.3774	      15.3	   1.88358	7.56961e+06	   76.4389	      15.3	   1.87999	7.68827e+06	   76.4316	      15.3	   1.81558	7.91795e+06	   76.3622	      15.3	   1.81819	7.75082e+06	   76.4082	      15.3	   1.88179	7.62721e+06	   76.4352	      15.3	   1.84779	 7.8022e+06	   76.3969	      15.3	   1.81689	7.83284e+06	   76.3698	      15.3	   1.85089	7.65922e+06	
         R10	   1033	   76.3622	      15.3	   1.81819	7.77174e+06	   76.4316	      15.3	   1.81558	7.90637e+06	   76.4243	      15.3	   1.74668	8.09539e+06	   76.3455	      15.3	   1.74867	7.97745e+06	   76.3969	      15.3	   1.81689	7.83788e+06	   76.4279	      15.3	   1.78113	8.00045e+06	   76.3849	      15.3	   1.74767	8.03419e+06	   76.3539	      15.3	   1.78343	7.87294e+06	
         R10	   1034	   76.3455	      15.3	   1.74867	8.00972e+06	   76.4243	      15.3	   1.74668	 8.0811e+06	   76.4196	      15.3	   1.67445	 8.3628e+06	   76.3351	      15.3	   1.67584	8.21676e+06	   76.3849	      15.3	   1.74767	8.04439e+06	    76.422	      15.3	   1.71056	 8.2213e+06	   76.3774	      15.3	   1.67514	8.28483e+06	   76.3403	      15.3	   1.71225	8.11054e+06	
         R10	   1035	   76.2616	      15.3	   1.75572	7.94405e+06	   76.3455	      15.3	   1.74867	8.01947e+06	   76.3351	      15.3	   1.67584	8.19179e+06	   76.2462	      15.3	   1.68107	8.14767e+06	   76.3035	      15.3	   1.75219	7.97886e+06	   76.3403	      15.3	   1.71225	8.10322e+06	   76.2907	      15.3	   1.67845	8.16752e+06	   76.2539	      15.3	   1.71839	8.04441e+06	
         R10	   1036	   76.2616	      15.3	   1.75572	7.94111e+06	   76.2462	      15.3	   1.68107	8.15357e+06	   76.1556	      15.3	   1.68481	8.11145e+06	   76.1556	      15.3	   1.76767	7.92648e+06	   76.2539	      15.3	   1.71839	 8.0459e+06	   76.2009	      15.3	   1.68294	8.13077e+06	   76.1556	      15.3	   1.72624	8.01834e+06	   76.2086	      15.3	   1.76169	7.93074e+06	
         R10	   1037	   76.1556	      15.3	   1.76767	 7.9278e+06	   76.1556	      15.3	   1.68481	8.11825e+06	   76.0584	      15.3	    1.6859	8.13093e+06	   76.0619	      15.3	   1.77045	7.96604e+06	   76.1556	      15.3	   1.72624	8.02235e+06	    76.107	      15.3	   1.68536	8.12268e+06	   76.0601	      15.3	   1.72818	 8.0476e+06	   76.1087	      15.3	   1.76906	7.94543e+06	
         R10	   1038	   76.0619	      15.3	   1.77045	7.96385e+06	   76.0584	      15.3	    1.6859	 8.1337e+06	   75.9588	      15.3	   1.69008	8.15362e+06	   75.9674	      15.3	   1.77235	8.00136e+06	   76.0601	      15.3	   1.72818	8.04783e+06	   76.0086	      15.3	   1.68799	8.14216e+06	   75.9631	      15.3	   1.73121	 8.0765e+06	   76.0146	      15.3	    1.7714	7.98143e+06	
         R10	   1039	   75.9674	      15.3	   1.77235	8.00026e+06	   75.9588	      15.3	   1.69008	8.15661e+06	    75.856	      15.3	   1.69633	8.17756e+06	   75.8564	      15.3	   1.79802	7.99989e+06	   75.9631	      15.3	   1.73121	8.07737e+06	   75.9074	      15.3	   1.69321	8.16586e+06	   75.8562	      15.3	   1.74718	8.08747e+06	   75.9119	      15.3	   1.78518	7.99917e+06	
         R10	   1040	    75.904	      15.3	   1.92102	7.79584e+06	   75.8231	      15.3	   1.89834	7.87252e+06	   75.8157	      15.3	   1.98842	7.74922e+06	   75.8958	      15.3	   1.99812	7.70003e+06	   75.8635	      15.3	   1.90968	7.83323e+06	   75.8194	      15.3	   1.94338	7.80981e+06	   75.8557	      15.3	   1.99327	7.72403e+06	   75.8999	      15.3	   1.95957	 7.7473e+06	
         R10	   1041	   75.8958	      15.3	   1.99812	7.70265e+06	   75.8157	      15.3	   1.98842	7.74811e+06	   75.8101	      15.3	   2.07463	7.64743e+06	   75.8866	      15.3	   2.07888	7.60188e+06	   75.8557	      15.3	   1.99327	7.72477e+06	   75.8129	      15.3	   2.03152	7.69686e+06	   75.8483	      15.3	   2.07675	7.62419e+06	   75.8912	      15.3	    2.0385	7.65145e+06	
         R10	   1042	   75.8866	      15.3	   2.07888	7.60317e+06	   75.8101	      15.3	   2.07463	7.64572e+06	   75.8054	      15.3	   2.15919	7.54338e+06	   75.8784	      15.3	   2.15946	7.51247e+06	   75.8483	      15.3	   2.07675	7.62398e+06	   75.8077	      15.3	   2.11691	7.59359e+06	   75.8419	      15.3	   2.15933	7.52752e+06	   75.8825	      15.3	   2.11917	7.55696e+06	
         R10	   1043	   75.8784	      15.3	   2.15946	7.51191e+06	   75.8054	      15.3	   2.15919	 7.5384e+06	    75.802	      15.3	   2.24171	7.44981e+06	   75.8759	      15.3	   2.24453	7.39861e+06	   75.8419	      15.3	   2.15933	7.52475e+06	   75.8037	      15.3	   2.20045	7.49325e+06	   75.8389	      15.3	   2.24312	 7.4237e+06	   75.8771	      15.3	     2.202	 7.4541e+06	
         R10	   1044	   75.9482	      15.3	   2.21722	7.41235e+06	    75.943	      15.3	   2.28502	7.30719e+06	   76.0002	      15.3	   2.28705	7.28986e+06	   76.0057	      15.3	   2.22834	7.37254e+06	   75.9456	      15.3	   2.25112	7.35885e+06	   75.9716	      15.3	   2.28604	7.29799e+06	    76.003	      15.3	    2.2577	7.33051e+06	   75.9769	      15.3	   2.22278	7.39172e+06	
         R10	   1045	   76.0057	      15.3	   2.22834	7.37265e+06	   76.0002	      15.3	   2.28705	7.28767e+06	   76.0546	      15.3	   2.29374	7.26592e+06	   76.0613	      15.3	   2.23993	7.34074e+06	    76.003	      15.3	    2.2577	7.32946e+06	   76.0274	      15.3	   2.29039	7.27595e+06	   76.0579	      15.3	   2.26683	7.30252e+06	   76.0335	      15.3	   2.23413	7.35596e+06	
         R10	   1046	   76.0613	      15.3	   2.23993	7.34136e+06	   76.0546	      15.3	   2.29374	7.26405e+06	   76.1055	      15.3	   2.30178	7.25252e+06	   76.1141	      15.3	   2.25393	7.32729e+06	   76.0579	      15.3	   2.26683	7.30187e+06	   76.0801	      15.3	   2.29776	7.25724e+06	   76.1098	      15.3	   2.27785	7.28894e+06	   76.0877	      15.3	   2.24693	7.33334e+06	
         R10	   1047	   76.1141	      15.3	   2.25393	7.32618e+06	   76.1055	      15.3	   2.30178	7.25318e+06	   76.1508	      15.3	   2.31171	7.25946e+06	   76.1604	      15.3	   2.26898	7.32237e+06	   76.1098	      15.3	   2.27785	7.28872e+06	   76.1282	      15.3	   2.30674	7.25509e+06	   76.1556	      15.3	   2.29034	7.28984e+06	   76.1373	      15.3	   2.26145	7.32314e+06	
         R10	   1048	   76.1604	      15.3	   2.26898	7.31699e+06	   76.1508	      15.3	   2.31171	7.25961e+06	   76.1918	      15.3	   2.32254	7.28475e+06	   76.1962	      15.3	   2.28713	7.33648e+06	   76.1556	      15.3	   2.29034	7.28723e+06	   76.1713	      15.3	   2.31712	7.27053e+06	    76.194	      15.3	   2.30483	7.30913e+06	   76.1783	      15.3	   2.27805	7.32559e+06	
         R10	   1049	   76.1962	      15.3	   2.28713	 7.3326e+06	   76.1918	      15.3	   2.32254	7.28749e+06	   76.2279	      15.3	   2.33262	7.34651e+06	   76.2362	      15.3	   2.29981	7.38212e+06	    76.194	      15.3	   2.30483	7.30851e+06	   76.2098	      15.3	   2.32758	7.31523e+06	    76.232	      15.3	   2.31622	7.36254e+06	   76.2162	      15.3	   2.29347	7.35573e+06	
         R10	   1050	   76.2362	      15.3	   2.29981	7.39185e+06	   76.2279	      15.3	   2.33262	7.34278e+06	   76.2595	      15.3	   2.34161	7.43998e+06	   76.2635	      15.3	   2.31677	7.44373e+06	    76.232	      15.3	   2.31622	7.36547e+06	   76.2437	      15.3	   2.33712	 7.3893e+06	   76.2615	      15.3	   2.32919	7.43979e+06	   76.2498	      15.3	   2.30829	7.41586e+06	
         R10	   1051	   76.2876	      15.3	   2.35683	7.57906e+06	   76.2851	      15.3	   2.37563	7.55283e+06	   76.3094	      15.3	   2.37632	7.76976e+06	    76.309	      15.3	   2.35459	   7.73e+06	   76.2863	      15.3	   2.36623	7.56372e+06	   76.2972	      15.3	   2.37597	7.65903e+06	   76.3092	      15.3	   2.36545	7.74469e+06	   76.2983	      15.3	   2.35571	7.65385e+06	
         R10	   1052	   76.3096	      15.3	    2.3341	7.66203e+06	   76.3096	      15.3	   2.31668	7.58065e+06	   76.2875	      15.3	   2.31637	7.51275e+06	   76.2895	      15.3	   2.33342	7.56635e+06	   76.3096	      15.3	   2.32539	 7.6195e+06	   76.2985	      15.3	   2.31653	7.54639e+06	   76.2885	      15.3	    2.3249	7.53808e+06	   76.2995	      15.3	   2.33376	7.61373e+06	
         R10	   1053	    76.265	      15.3	   2.28305	7.39705e+06	     76.29	      15.3	   2.29741	7.46054e+06	   76.3051	      15.3	   2.28063	7.38765e+06	   76.2865	      15.3	   2.27358	7.37814e+06	   76.2775	      15.3	   2.29023	7.42756e+06	   76.2975	      15.3	   2.28902	7.42364e+06	   76.2958	      15.3	    2.2771	7.38259e+06	   76.2758	      15.3	   2.27832	7.38754e+06	
         R10	   1054	   76.2555	      15.3	   2.25767	7.35001e+06	    76.286	      15.3	   2.25303	7.30237e+06	   76.2846	      15.3	   2.22953	7.22663e+06	   76.2559	      15.3	     2.229	7.29416e+06	   76.2708	      15.3	   2.25535	7.32613e+06	   76.2853	      15.3	   2.24128	7.26404e+06	   76.2703	      15.3	   2.22927	7.26026e+06	   76.2557	      15.3	   2.24333	7.32136e+06	
         R10	   1055	   76.2886	      15.3	   2.20102	7.13665e+06	   76.2846	      15.3	   2.22953	 7.2275e+06	   76.3076	      15.3	    2.2286	 7.1379e+06	   76.3079	      15.3	   2.20551	7.05706e+06	   76.2866	      15.3	   2.21528	7.18178e+06	   76.2961	      15.3	   2.22906	7.18262e+06	   76.3077	      15.3	   2.21705	7.09731e+06	   76.2982	      15.3	   2.20327	7.09669e+06	
         R10	   1056	    76.325	      15.3	    2.1517	6.88349e+06	   76.3209	      15.3	   2.18062	6.93141e+06	   76.3474	      15.3	   2.18439	6.74596e+06	   76.3653	      15.3	   2.15364	6.64374e+06	    76.323	      15.3	   2.16616	6.90739e+06	   76.3341	      15.3	    2.1825	6.83807e+06	   76.3564	      15.3	   2.16901	6.69428e+06	   76.3452	      15.3	   2.15267	6.76166e+06	
         R10	   1057	   76.3653	      15.3	   2.15364	6.64555e+06	   76.3474	      15.3	   2.18439	6.74362e+06	   76.3622	      15.3	   2.20348	 6.6565e+06	   76.3746	      15.3	    2.1884	6.52972e+06	   76.3564	      15.3	   2.16901	6.69402e+06	   76.3548	      15.3	   2.19393	6.69959e+06	   76.3684	      15.3	   2.19594	6.59278e+06	     76.37	      15.3	   2.17102	6.58706e+06	
         R10	   1058	   76.3746	      15.3	    2.1884	6.52906e+06	   76.3815	      15.3	   2.21183	6.47395e+06	   76.3969	      15.3	    2.2093	6.29567e+06	   76.3928	      15.3	     2.189	6.37279e+06	   76.3781	      15.3	   2.20011	6.50116e+06	   76.3892	      15.3	   2.21057	6.38398e+06	   76.3948	      15.3	   2.19915	6.33392e+06	   76.3837	      15.3	    2.1887	6.44986e+06	
         R10	   1059	   76.4668	      15.3	   2.15823	6.27255e+06	   76.4633	      15.3	   2.12376	6.51195e+06	   76.4275	      15.3	   2.12562	6.47161e+06	   76.4344	      15.3	   2.15584	6.26782e+06	   76.4651	      15.3	     2.141	6.38988e+06	   76.4454	      15.3	   2.12469	6.48583e+06	    76.431	      15.3	   2.14073	6.36851e+06	   76.4506	      15.3	   2.15703	6.26166e+06	
         R10	   1060	   76.3918	      15.3	   2.13312	6.54684e+06	   76.4275	      15.3	   2.12562	6.47076e+06	   76.4169	      15.3	   2.08852	6.69222e+06	   76.3762	      15.3	   2.09877	6.73591e+06	   76.4097	      15.3	   2.12937	6.50444e+06	   76.4222	      15.3	   2.10707	6.58001e+06	   76.3965	      15.3	   2.09364	6.71033e+06	    76.384	      15.3	   2.11594	6.64029e+06	
         R10	   1061	   76.3762	      15.3	   2.09877	6.73719e+06	   76.4169	      15.3	   2.08852	6.69251e+06	   76.4069	      15.3	   2.04635	6.90836e+06	   76.3614	      15.3	   2.05497	6.93324e+06	   76.3965	      15.3	   2.09364	6.71117e+06	   76.4119	      15.3	   2.06744	6.79923e+06	   76.3842	      15.3	   2.05066	6.91786e+06	   76.3688	      15.3	   2.07687	6.83424e+06	
         R10	   1062	   76.3614	      15.3	   2.05497	6.93315e+06	   76.4069	      15.3	   2.04635	6.90949e+06	   76.3974	      15.3	   1.99705	7.13009e+06	    76.346	      15.3	   2.00475	7.13107e+06	   76.3842	      15.3	   2.05066	6.91834e+06	   76.4022	      15.3	    2.0217	7.01872e+06	   76.3717	      15.3	    2.0009	7.12808e+06	   76.3537	      15.3	   2.02986	7.03117e+06	
         R10	   1063	    76.346	      15.3	   2.00475	7.13071e+06	   76.3974	      15.3	   1.99705	7.13211e+06	   76.3881	      15.3	   1.94382	7.34371e+06	   76.3305	      15.3	   1.95242	7.31498e+06	   76.3717	      15.3	    2.0009	7.12886e+06	   76.3928	      15.3	   1.97044	  7.237e+06	   76.3593	      15.3	   1.94812	7.32724e+06	   76.3383	      15.3	   1.97859	7.22205e+06	
         R10	   1064	   76.3305	      15.3	   1.95242	7.31599e+06	   76.3881	      15.3	   1.94382	 7.3484e+06	   76.3774	      15.3	   1.88358	7.55548e+06	   76.3143	      15.3	    1.8946	7.50618e+06	   76.3593	      15.3	   1.94812	7.33001e+06	   76.3828	      15.3	    1.9137	7.45104e+06	   76.3459	      15.3	   1.88909	7.52917e+06	   76.3224	      15.3	   1.92351	7.41025e+06	
         R10	   1065	   76.3143	      15.3	    1.8946	7.50785e+06	   76.3774	      15.3	   1.88358	7.56236e+06	   76.3622	      15.3	   1.81819	7.77004e+06	   76.2992	      15.3	   1.83329	7.68579e+06	   76.3459	      15.3	   1.88909	7.53331e+06	   76.3698	      15.3	   1.85089	7.66521e+06	   76.3307	      15.3	   1.82574	 7.7265e+06	   76.3068	      15.3	   1.86394	7.59598e+06	
         R10	   1066	   76.2992	      15.3	   1.83329	7.68827e+06	   76.3622	      15.3	   1.81819	7.78308e+06	   76.3455	      15.3	   1.74867	7.97727e+06	   76.2616	      15.3	   1.75572	7.93166e+06	   76.3307	      15.3	   1.82574	7.73391e+06	   76.3539	      15.3	   1.78343	7.87842e+06	   76.3035	      15.3	   1.75219	7.95228e+06	   76.2804	      15.3	    1.7945	7.80779e+06	
         R10	   1067	   76.1463	      15.3	   1.85665	7.73486e+06	   76.1556	      15.3	   1.76767	7.91609e+06	   76.0619	      15.3	   1.77045	7.95759e+06	   76.0664	      15.3	   1.85148	 7.8037e+06	   76.1509	      15.3	   1.81216	 7.8248e+06	   76.1087	      15.3	   1.76906	7.93514e+06	   76.0641	      15.3	   1.81096	7.87973e+06	   76.1064	      15.3	   1.85406	7.76804e+06	
         R10	   1068	   76.0664	      15.3	   1.85148	7.79506e+06	   76.0619	      15.3	   1.77045	7.95353e+06	   75.9674	      15.3	   1.77235	7.99051e+06	   75.9847	      15.3	    1.8507	7.86021e+06	   76.0641	      15.3	   1.81096	7.87341e+06	   76.0146	      15.3	    1.7714	7.97078e+06	    75.976	      15.3	   1.81152	7.92429e+06	   76.0255	      15.3	   1.85109	7.82669e+06	
         R10	   1069	   75.9855	      15.3	   1.93129	7.73489e+06	    75.904	      15.3	   1.92102	7.79261e+06	   75.8958	      15.3	   1.99812	7.69487e+06	   75.9743	      15.3	   2.00678	7.64211e+06	   75.9447	      15.3	   1.92615	  7.763e+06	   75.8999	      15.3	   1.95957	7.74313e+06	    75.935	      15.3	   2.00245	7.66782e+06	   75.9799	      15.3	   1.96903	7.68789e+06	
         R10	   1070	   75.9743	      15.3	   2.00678	7.64283e+06	   75.8958	      15.3	   1.99812	7.69893e+06	   75.8866	      15.3	   2.07888	7.60461e+06	    75.962	      15.3	   2.08317	 7.5609e+06	    75.935	      15.3	   2.00245	7.67023e+06	   75.8912	      15.3	    2.0385	7.65098e+06	   75.9243	      15.3	   2.08103	7.58223e+06	   75.9682	      15.3	   2.04498	 7.6012e+06	
         R10	   1071	    75.962	      15.3	   2.08317	7.56218e+06	   75.8866	      15.3	   2.07888	7.60449e+06	   75.8784	      15.3	   2.15946	 7.5133e+06	   75.9488	      15.3	   2.15673	7.47709e+06	   75.9243	      15.3	   2.08103	7.58278e+06	   75.8825	      15.3	   2.11917	7.55801e+06	   75.9136	      15.3	   2.15809	 7.4948e+06	   75.9554	      15.3	   2.11995	7.51896e+06	
         R10	   1072	   76.0144	      15.3	   2.16395	7.44483e+06	   76.0057	      15.3	   2.22834	7.37027e+06	   76.0613	      15.3	   2.23993	7.34384e+06	   76.0714	      15.3	   2.18485	7.41015e+06	     76.01	      15.3	   2.19614	7.40678e+06	   76.0335	      15.3	   2.23413	7.35627e+06	   76.0663	      15.3	   2.21239	7.37627e+06	   76.0429	      15.3	    2.1744	7.42667e+06	
         R10	   1073	   76.0714	      15.3	   2.18485	7.40748e+06	   76.0613	      15.3	   2.23993	 7.3466e+06	   76.1141	      15.3	   2.25393	7.32507e+06	   76.1269	      15.3	   2.20697	7.36694e+06	   76.0663	      15.3	   2.21239	7.37635e+06	   76.0877	      15.3	   2.24693	7.33486e+06	   76.1205	      15.3	   2.23045	7.34532e+06	   76.0991	      15.3	   2.19591	7.38618e+06	
         R10	   1074	   76.1269	      15.3	   2.20697	 7.3715e+06	   76.1141	      15.3	   2.25393	7.32367e+06	   76.1604	      15.3	   2.26898	7.32356e+06	   76.1751	      15.3	   2.22512	7.34761e+06	   76.1205	      15.3	   2.23045	7.34689e+06	   76.1373	      15.3	   2.26145	 7.3225e+06	   76.1678	      15.3	   2.24705	7.33474e+06	    76.151	      15.3	   2.21605	7.35862e+06	
         R10	   1075	   76.1751	      15.3	   2.22512	7.35681e+06	   76.1604	      15.3	   2.26898	7.32577e+06	   76.1962	      15.3	   2.28713	7.33081e+06	   76.2206	      15.3	   2.25943	7.35008e+06	   76.1678	      15.3	   2.24705	7.34037e+06	   76.1783	      15.3	   2.27805	7.32702e+06	   76.2084	      15.3	   2.27328	7.34006e+06	   76.1978	      15.3	   2.24227	7.35096e+06	
         R10	   1076	   76.2876	      15.3	   2.35683	7.57464e+06	    76.309	      15.3	   2.35459	7.73313e+06	   76.3096	      15.3	    2.3341	7.66821e+06	   76.2895	      15.3	   2.33342	7.56807e+06	   76.2983	      15.3	   2.35571	7.65315e+06	   76.3093	      15.3	   2.34435	7.69722e+06	   76.2995	      15.3	   2.33376	7.61769e+06	   76.2885	      15.3	   2.34513	7.56823e+06	
         R10	   1077	   76.2593	      15.3	   2.19876	7.23366e+06	   76.2559	      15.3	     2.229	7.28978e+06	   76.2846	      15.3	   2.22953	7.22626e+06	   76.2886	      15.3	   2.20102	7.14047e+06	   76.2576	      15.3	   2.21388	7.26127e+06	   76.2703	      15.3	   2.22927	7.25789e+06	   76.2866	      15.3	   2.21528	7.18306e+06	    76.274	      15.3	   2.19989	7.18686e+06	
         R10	   1078	   76.2932	      15.3	   2.17339	7.06489e+06	   76.2886	      15.3	   2.20102	7.13595e+06	   76.3079	      15.3	   2.20551	7.05724e+06	   76.3209	      15.3	   2.18062	6.93746e+06	   76.2909	      15.3	   2.18721	7.10033e+06	   76.2982	      15.3	   2.20327	7.09642e+06	   76.3144	      15.3	   2.19307	6.99731e+06	   76.3071	      15.3	   2.17701	7.00082e+06	
         R10	   1079	    76.408	      15.3	   2.16093	6.34786e+06	   76.4344	      15.3	   2.15584	6.27136e+06	   76.4275	      15.3	   2.12562	6.47196e+06	   76.3918	      15.3	   2.13312	6.54838e+06	   76.4212	      15.3	   2.15838	6.30561e+06	    76.431	      15.3	   2.14073	6.37042e+06	   76.4097	      15.3	   2.12937	6.50572e+06	   76.3999	      15.3	   2.14703	6.44675e+06	
         R10	   1080	   76.3378	      15.3	   2.11067	6.86344e+06	   76.3762	      15.3	   2.09877	6.74005e+06	   76.3614	      15.3	   2.05497	6.93625e+06	   76.3164	      15.3	   2.06516	7.03096e+06	    76.357	      15.3	   2.10472	6.79971e+06	   76.3688	      15.3	   2.07687	6.83716e+06	   76.3389	      15.3	   2.06007	6.98173e+06	   76.3271	      15.3	   2.08792	6.94628e+06	
         R10	   1081	   76.3164	      15.3	   2.06516	  7.032e+06	   76.3614	      15.3	   2.05497	6.93569e+06	    76.346	      15.3	   2.00475	7.13203e+06	   76.2951	      15.3	   2.01761	 7.1848e+06	   76.3389	      15.3	   2.06007	6.98203e+06	   76.3537	      15.3	   2.02986	7.03294e+06	   76.3206	      15.3	   2.01118	7.15665e+06	   76.3058	      15.3	   2.04139	7.10757e+06	
         R10	   1082	   76.2951	      15.3	   2.01761	7.18675e+06	    76.346	      15.3	   2.00475	7.13332e+06	   76.3305	      15.3	   1.95242	7.31559e+06	   76.2674	      15.3	   1.96478	7.35765e+06	   76.3206	      15.3	   2.01118	7.15827e+06	   76.3383	      15.3	   1.97859	7.22365e+06	    76.299	      15.3	    1.9586	7.33477e+06	   76.2813	      15.3	   1.99119	7.27123e+06	
         R10	   1083	   76.2674	      15.3	   1.96478	7.35586e+06	   76.3305	      15.3	   1.95242	7.31414e+06	   76.3143	      15.3	    1.8946	7.50258e+06	   76.2402	      15.3	   1.91033	 7.5108e+06	    76.299	      15.3	    1.9586	7.33316e+06	   76.3224	      15.3	   1.92351	7.40752e+06	   76.2772	      15.3	   1.90246	7.50471e+06	   76.2538	      15.3	   1.93755	7.43239e+06	
         R10	   1084	   76.2402	      15.3	   1.91033	7.50828e+06	   76.3143	      15.3	    1.8946	 7.5047e+06	   76.2992	      15.3	   1.83329	7.70795e+06	   76.2249	      15.3	   1.85516	7.65523e+06	   76.2772	      15.3	   1.90246	 7.5043e+06	   76.3068	      15.3	   1.86394	7.60549e+06	   76.2621	      15.3	   1.84422	7.67968e+06	   76.2326	      15.3	   1.88274	7.58109e+06	
         R10	   1085	   76.1546	      15.3	   1.93476	7.57396e+06	   76.1463	      15.3	   1.85665	7.72406e+06	   76.0664	      15.3	   1.85148	7.79794e+06	   76.0639	      15.3	   1.93161	7.67179e+06	   76.1504	      15.3	    1.8957	7.64814e+06	   76.1064	      15.3	   1.85406	7.75968e+06	   76.0651	      15.3	   1.89154	7.73412e+06	   76.1092	      15.3	   1.93318	 7.6214e+06	
         R10	   1086	   76.0504	      15.3	   2.00967	7.58588e+06	   75.9743	      15.3	   2.00678	 7.6456e+06	    75.962	      15.3	   2.08317	 7.5651e+06	   76.0356	      15.3	   2.08941	7.51098e+06	   76.0123	      15.3	   2.00823	7.61512e+06	   75.9682	      15.3	   2.04498	7.60471e+06	   75.9988	      15.3	   2.08629	7.53741e+06	    76.043	      15.3	   2.04954	 7.5477e+06	
         R10	   1087	   75.9488	      15.3	   2.15673	7.48249e+06	   75.8784	      15.3	   2.15946	7.51803e+06	   75.8759	      15.3	   2.24453	7.39659e+06	   75.9482	      15.3	   2.21722	7.41539e+06	   75.9136	      15.3	   2.15809	7.49985e+06	   75.8771	      15.3	     2.202	7.45611e+06	    75.912	      15.3	   2.23088	7.40571e+06	   75.9485	      15.3	   2.18697	 7.4483e+06	
         R10	   1088	   75.9488	      15.3	   2.15673	7.47261e+06	   75.9482	      15.3	   2.21722	7.41723e+06	   76.0057	      15.3	   2.22834	7.36681e+06	   76.0144	      15.3	   2.16395	7.44857e+06	   75.9485	      15.3	   2.18697	7.44433e+06	   75.9769	      15.3	   2.22278	 7.3914e+06	     76.01	      15.3	   2.19614	7.40691e+06	   75.9816	      15.3	   2.16034	7.46003e+06	
         R10	   1089	   76.0919	      15.3	   2.14197	  7.432e+06	   76.0714	      15.3	   2.18485	7.40019e+06	   76.1269	      15.3	   2.20697	7.36918e+06	   76.1428	      15.3	   2.15992	7.38737e+06	   76.0816	      15.3	   2.16341	7.41585e+06	   76.0991	      15.3	   2.19591	 7.3836e+06	   76.1348	      15.3	   2.18345	7.37783e+06	   76.1173	      15.3	   2.15094	7.40907e+06	
         R10	   1090	   76.1428	      15.3	   2.15992	 7.3832e+06	   76.1269	      15.3	   2.20697	7.37181e+06	   76.1751	      15.3	   2.22512	7.34622e+06	   76.1849	      15.3	   2.17906	7.33918e+06	   76.1348	      15.3	   2.18345	 7.3771e+06	    76.151	      15.3	   2.21605	7.35806e+06	     76.18	      15.3	   2.20209	7.34197e+06	   76.1638	      15.3	   2.16949	7.36062e+06	
         R10	   1091	   76.2635	      15.3	   2.31677	7.44517e+06	   76.2595	      15.3	   2.34161	7.43879e+06	   76.2895	      15.3	   2.33342	7.56538e+06	   76.2875	      15.3	   2.31637	7.51508e+06	   76.2615	      15.3	   2.32919	7.43998e+06	   76.2745	      15.3	   2.33752	7.50156e+06	   76.2885	      15.3	    2.3249	7.53879e+06	   76.2755	      15.3	   2.31657	7.47984e+06	
         R10	   1092	   76.2635	      15.3	   2.31677	7.44016e+06	   76.2875	      15.3	   2.31637	7.51765e+06	     76.29	      15.3	   2.29741	7.46189e+06	    76.265	      15.3	   2.28305	7.40961e+06	   76.2755	      15.3	   2.31657	7.47855e+06	   76.2887	      15.3	   2.30689	7.48858e+06	   76.2775	      15.3	   2.29023	7.43448e+06	   76.2642	      15.3	   2.29991	7.42201e+06	
         R10	   1093	   76.2255	      15.3	   2.22186	7.32577e+06	   76.2559	      15.3	     2.229	7.28326e+06	   76.2593	      15.3	   2.19876	7.23027e+06	   76.2256	      15.3	   2.19286	7.28581e+06	   76.2407	      15.3	   2.22543	7.30416e+06	   76.2576	      15.3	   2.21388	 7.2563e+06	   76.2424	      15.3	   2.19581	7.25782e+06	   76.2255	      15.3	   2.20736	7.30551e+06	
         R10	   1094	   76.2602	      15.3	   2.16702	7.18812e+06	   76.2593	      15.3	   2.19876	7.22919e+06	   76.2886	      15.3	   2.20102	7.13669e+06	   76.2932	      15.3	   2.17339	7.06922e+06	   76.2598	      15.3	   2.18289	 7.2084e+06	    76.274	      15.3	   2.19989	7.18274e+06	   76.2909	      15.3	   2.18721	7.10286e+06	   76.2767	      15.3	   2.17021	7.12827e+06	
         R10	   1095	   76.2689	      15.3	   2.08473	7.15931e+06	   76.3164	      15.3	   2.06516	7.02806e+06	   76.2951	      15.3	   2.01761	7.19352e+06	   76.2473	      15.3	   2.03544	7.26327e+06	   76.2927	      15.3	   2.07494	7.09253e+06	   76.3058	      15.3	   2.04139	7.10995e+06	   76.2712	      15.3	   2.02653	7.22759e+06	   76.2581	      15.3	   2.06008	7.21062e+06	
         R10	   1096	   76.2473	      15.3	   2.03544	7.26164e+06	   76.2951	      15.3	   2.01761	7.19084e+06	   76.2674	      15.3	   1.96478	 7.3565e+06	   76.2127	      15.3	   1.98594	 7.4077e+06	   76.2712	      15.3	   2.02653	7.22544e+06	   76.2813	      15.3	   1.99119	7.27272e+06	   76.2401	      15.3	   1.97536	7.38106e+06	     76.23	      15.3	   2.01069	7.33356e+06	
         R10	   1097	   76.2188	      15.3	   1.81365	7.82533e+06	   76.2249	      15.3	   1.85516	7.66571e+06	   76.2992	      15.3	   1.83329	7.69926e+06	   76.2616	      15.3	   1.75572	7.91494e+06	   76.2219	      15.3	    1.8344	7.74484e+06	   76.2621	      15.3	   1.84422	7.68014e+06	   76.2804	      15.3	    1.7945	 7.8047e+06	   76.2402	      15.3	   1.78468	7.86954e+06	
         R10	   1098	   76.0356	      15.3	   2.08941	 7.5131e+06	    75.962	      15.3	   2.08317	7.56928e+06	   75.9488	      15.3	   2.15673	 7.4797e+06	   76.0144	      15.3	   2.16395	7.45242e+06	   75.9988	      15.3	   2.08629	 7.5406e+06	   75.9554	      15.3	   2.11995	7.52378e+06	   75.9816	      15.3	   2.16034	7.46546e+06	    76.025	      15.3	   2.12668	7.48207e+06	
         R10	   1099	   76.0356	      15.3	   2.08941	 7.5257e+06	   76.0144	      15.3	   2.16395	7.44849e+06	   76.0714	      15.3	   2.18485	7.40312e+06	   76.0919	      15.3	   2.14197	7.43452e+06	    76.025	      15.3	   2.12668	7.48635e+06	   76.0429	      15.3	    2.1744	7.42501e+06	   76.0816	      15.3	   2.16341	7.41857e+06	   76.0637	      15.3	   2.11569	7.47845e+06	
         R10	   1100	   76.1157	      15.3	   2.07221	7.48002e+06	   76.0919	      15.3	   2.14197	7.42347e+06	   76.1428	      15.3	   2.15992	7.38814e+06	   76.1656	      15.3	   2.11948	7.37078e+06	   76.1038	      15.3	   2.10709	7.45118e+06	   76.1173	      15.3	   2.15094	7.40524e+06	   76.1542	      15.3	    2.1397	7.37932e+06	   76.1407	      15.3	   2.09585	7.42395e+06	
         R10	   1101	   76.2206	      15.3	   2.25943	7.36023e+06	   76.2362	      15.3	   2.29981	7.37443e+06	    76.265	      15.3	   2.28305	7.41745e+06	   76.2555	      15.3	   2.25767	7.34619e+06	   76.2284	      15.3	   2.27962	7.36429e+06	   76.2506	      15.3	   2.29143	 7.3957e+06	   76.2603	      15.3	   2.27036	7.38044e+06	    76.238	      15.3	   2.25855	7.35306e+06	
         R10	   1102	   76.2206	      15.3	   2.25943	7.34962e+06	   76.2555	      15.3	   2.25767	7.34487e+06	   76.2559	      15.3	     2.229	7.29519e+06	   76.2255	      15.3	   2.22186	7.32325e+06	    76.238	      15.3	   2.25855	7.34708e+06	   76.2557	      15.3	   2.24333	7.31928e+06	   76.2407	      15.3	   2.22543	7.30894e+06	   76.2231	      15.3	   2.24064	7.33546e+06	
         R10	   1103	   76.2354	      15.3	   2.16716	7.25464e+06	   76.2256	      15.3	   2.19286	7.29485e+06	   76.2593	      15.3	   2.19876	 7.2293e+06	   76.2602	      15.3	   2.16702	7.18725e+06	   76.2305	      15.3	   2.18001	7.27463e+06	   76.2424	      15.3	   2.19581	7.26181e+06	   76.2598	      15.3	   2.18289	7.20802e+06	   76.2478	      15.3	   2.16709	7.22083e+06	
         R10	   1104	   76.2601	      15.3	   2.13184	7.16457e+06	   76.2602	      15.3	   2.16702	7.18462e+06	   76.2932	      15.3	   2.17339	7.06542e+06	   76.2978	      15.3	   2.14104	7.02442e+06	   76.2601	      15.3	   2.14943	 7.1744e+06	   76.2767	      15.3	   2.17021	7.12463e+06	   76.2955	      15.3	   2.15721	7.04479e+06	   76.2789	      15.3	   2.13644	7.09388e+06	
         R10	   1105	   76.2253	      15.3	   2.09422	7.26618e+06	   76.2689	      15.3	   2.08473	7.15009e+06	   76.2473	      15.3	   2.03544	7.26886e+06	   76.1903	      15.3	   2.06079	7.35563e+06	   76.2471	      15.3	   2.08947	7.20776e+06	   76.2581	      15.3	   2.06008	 7.2088e+06	   76.2188	      15.3	   2.04812	7.31152e+06	   76.2078	      15.3	    2.0775	7.31014e+06	
         R10	   1106	   76.2124	      15.3	   2.13332	7.29263e+06	   76.1656	      15.3	   2.11948	7.37633e+06	   76.1428	      15.3	   2.15992	7.38238e+06	   76.1849	      15.3	   2.17906	7.34513e+06	    76.189	      15.3	    2.1264	7.33403e+06	   76.1542	      15.3	    2.1397	7.37924e+06	   76.1638	      15.3	   2.16949	7.36309e+06	   76.1987	      15.3	   2.15619	7.31871e+06	
         R10	   1107	   76.1849	      15.3	   2.17906	7.34821e+06	   76.1751	      15.3	   2.22512	7.34731e+06	   76.2255	      15.3	   2.22186	7.33073e+06	   76.2256	      15.3	   2.19286	7.29064e+06	     76.18	      15.3	   2.20209	7.34699e+06	   76.2003	      15.3	   2.22349	7.33875e+06	   76.2255	      15.3	   2.20736	7.31038e+06	   76.2052	      15.3	   2.18596	7.31882e+06	
         R10	   1108	   76.1727	      15.3	    2.0166	 7.4247e+06	   76.1903	      15.3	   2.06079	7.36264e+06	   76.2473	      15.3	   2.03544	7.26782e+06	   76.2127	      15.3	   1.98594	7.41729e+06	   76.1815	      15.3	    2.0387	7.39325e+06	   76.2188	      15.3	   2.04812	7.31463e+06	     76.23	      15.3	   2.01069	7.34155e+06	   76.1927	      15.3	   2.00127	7.42065e+06	
         R10	   1109	   76.1186	      15.3	   2.01081	7.50813e+06	   76.0504	      15.3	   2.00967	7.59512e+06	   76.0356	      15.3	   2.08941	7.51002e+06	   76.1157	      15.3	   2.07221	7.47437e+06	   76.0845	      15.3	   2.01024	7.55097e+06	    76.043	      15.3	   2.04954	7.55184e+06	   76.0757	      15.3	   2.08081	7.49176e+06	   76.1172	      15.3	   2.04151	7.49084e+06	
         R10	   1110	   76.2124	      15.3	   2.13332	7.29479e+06	   76.2354	      15.3	   2.16716	7.25549e+06	   76.2602	      15.3	   2.16702	7.18131e+06	   76.2601	      15.3	   2.13184	7.16498e+06	   76.2239	      15.3	   2.15024	 7.2746e+06	   76.2478	      15.3	   2.16709	7.21828e+06	   76.2601	      15.3	   2.14943	7.17293e+06	   76.2363	      15.3	   2.13258	7.22948e+06	
         R10	   1111	   76.2865	      15.3	   2.27358	7.37586e+06	    76.286	      15.3	   2.25303	7.29737e+06	   76.2555	      15.3	   2.25767	7.34501e+06	    76.265	      15.3	   2.28305	7.39311e+06	   76.2862	      15.3	    2.2633	7.33605e+06	   76.2708	      15.3	   2.25535	 7.3211e+06	   76.2603	      15.3	   2.27036	7.36776e+06	   76.2758	      15.3	   2.27832	7.38446e+06	
         R10	   1112	   76.4662	      15.3	   2.19301	5.98205e+06	   76.4532	      15.3	   2.18585	6.01092e+06	   76.4492	      15.3	   2.20937	5.82527e+06	    76.466	      15.3	   2.21083	5.79171e+06	   76.4597	      15.3	   2.18943	5.99352e+06	   76.4512	      15.3	   2.19761	 5.9172e+06	   76.4576	      15.3	    2.2101	5.80304e+06	   76.4661	      15.3	   2.20192	5.88575e+06	
         R10	   1113	   76.4662	      15.3	   2.19301	5.97276e+06	    76.466	      15.3	   2.21083	5.79893e+06	   76.4832	      15.3	   2.20993	5.91682e+06	   76.4805	      15.3	   2.18652	6.11685e+06	   76.4661	      15.3	   2.20192	5.88474e+06	   76.4746	      15.3	   2.21038	5.85178e+06	   76.4819	      15.3	   2.19823	 6.0135e+06	   76.4734	      15.3	   2.18977	6.04228e+06	
         R10	   1114	   76.4662	      15.3	   2.19301	5.97145e+06	   76.4805	      15.3	   2.18652	 6.1127e+06	   76.4668	      15.3	   2.15823	6.28822e+06	   76.4532	      15.3	   2.18585	6.01635e+06	   76.4734	      15.3	   2.18977	6.03975e+06	   76.4737	      15.3	   2.17238	6.19382e+06	     76.46	      15.3	   2.17204	6.15042e+06	   76.4597	      15.3	   2.18943	5.99107e+06	
         R10	   1115	   76.4348	      15.3	   2.18385	6.08154e+06	   76.4532	      15.3	   2.18585	 6.0019e+06	   76.4668	      15.3	   2.15823	6.27406e+06	   76.4344	      15.3	   2.15584	6.25703e+06	    76.444	      15.3	   2.18485	6.03791e+06	     76.46	      15.3	   2.17204	6.13614e+06	   76.4506	      15.3	   2.15703	6.25643e+06	   76.4346	      15.3	   2.16984	6.16858e+06	
         R10	   1116	    76.415	      15.3	   2.18695	6.18233e+06	   76.4348	      15.3	   2.18385	6.08731e+06	   76.4344	      15.3	   2.15584	6.26794e+06	    76.408	      15.3	   2.16093	6.34973e+06	   76.4249	      15.3	    2.1854	6.13143e+06	   76.4346	      15.3	   2.16984	6.17677e+06	   76.4212	      15.3	   2.15838	6.30499e+06	   76.4115	      15.3	   2.17394	6.26527e+06	
         R10	   1117	   76.3897	      15.3	   2.16894	6.43961e+06	   76.3928	      15.3	     2.189	 6.3666e+06	    76.415	      15.3	   2.18695	6.18566e+06	    76.408	      15.3	   2.16093	6.35021e+06	   76.3913	      15.3	   2.17897	6.40291e+06	   76.4039	      15.3	   2.18798	6.27346e+06	   76.4115	      15.3	   2.17394	6.26714e+06	   76.3989	      15.3	   2.16493	6.39367e+06	
         R10	   1118	   76.3897	      15.3	   2.16894	6.43705e+06	    76.408	      15.3	   2.16093	6.35441e+06	   76.3918	      15.3	   2.13312	6.54968e+06	   76.3653	      15.3	   2.15364	6.63444e+06	   76.3989	      15.3	   2.16493	6.39439e+06	   76.3999	      15.3	   2.14703	6.45075e+06	   76.3786	      15.3	   2.14338	6.59006e+06	   76.3775	      15.3	   2.16129	6.53399e+06	
         R10	   1119	   76.3897	      15.3	   2.16894	6.44308e+06	   76.3653	      15.3	   2.15364	6.65195e+06	   76.3746	      15.3	    2.1884	6.54102e+06	   76.3928	      15.3	     2.189	6.36814e+06	   76.3775	      15.3	   2.16129	6.54596e+06	     76.37	      15.3	   2.17102	6.59587e+06	   76.3837	      15.3	    2.1887	6.45361e+06	   76.3913	      15.3	   2.17897	6.40542e+06	
         R10	   1120	   76.3378	      15.3	   2.11067	6.86577e+06	   76.3653	      15.3	   2.15364	6.64251e+06	   76.3918	      15.3	   2.13312	6.54939e+06	   76.3762	      15.3	   2.09877	6.73916e+06	   76.3516	      15.3	   2.13215	6.75235e+06	   76.3786	      15.3	   2.14338	 6.5941e+06	    76.384	      15.3	   2.11594	6.64309e+06	    76.357	      15.3	   2.10472	6.80042e+06	
         R10	   1121	   76.2249	      15.3	   1.85516	7.64315e+06	   76.2188	      15.3	   1.81365	7.75578e+06	   76.1556	      15.3	   1.76767	7.91632e+06	   76.1463	      15.3	   1.85665	 7.7318e+06	   76.2219	      15.3	    1.8344	7.69894e+06	   76.1872	      15.3	   1.79066	7.83425e+06	   76.1509	      15.3	   1.81216	7.82343e+06	   76.1856	      15.3	    1.8559	 7.6861e+06	
         R10	   1122	   76.2402	      15.3	   1.91033	7.51882e+06	   76.2249	      15.3	   1.85516	7.67437e+06	   76.1463	      15.3	   1.85665	7.72364e+06	   76.1546	      15.3	   1.93476	7.56913e+06	   76.2326	      15.3	   1.88274	7.59593e+06	   76.1856	      15.3	    1.8559	7.69732e+06	   76.1504	      15.3	    1.8957	 7.6455e+06	   76.1974	      15.3	   1.92255	7.54246e+06	
         R10	   1123	   76.1546	      15.3	   1.93476	 7.5735e+06	   76.2127	      15.3	   1.98594	7.41071e+06	   76.2674	      15.3	   1.96478	7.35809e+06	   76.2402	      15.3	   1.91033	7.52763e+06	   76.1836	      15.3	   1.96035	7.49059e+06	   76.2401	      15.3	   1.97536	 7.3834e+06	   76.2538	      15.3	   1.93755	7.44185e+06	   76.1974	      15.3	   1.92255	7.54885e+06	
         R10	   1124	   75.9168	      15.3	   1.85761	7.89286e+06	   75.9847	      15.3	    1.8507	7.84428e+06	   75.9674	      15.3	   1.77235	7.99831e+06	   75.8564	      15.3	   1.79802	7.99495e+06	   75.9507	      15.3	   1.85416	7.86815e+06	    75.976	      15.3	   1.81152	7.92024e+06	   75.9119	      15.3	   1.78518	7.99591e+06	   75.8866	      15.3	   1.82782	7.94281e+06	
         R10	   1125	   75.9168	      15.3	   1.85761	7.87655e+06	   75.8564	      15.3	   1.79802	8.00572e+06	   75.8231	      15.3	   1.89834	7.86531e+06	    75.904	      15.3	   1.92102	7.77643e+06	   75.8866	      15.3	   1.82782	7.93992e+06	   75.8398	      15.3	   1.84818	7.93482e+06	   75.8635	      15.3	   1.90968	 7.8199e+06	   75.9104	      15.3	   1.88932	7.82593e+06	
         R10	   1126	   75.9168	      15.3	   1.85761	7.90093e+06	    75.904	      15.3	   1.92102	7.78663e+06	   75.9855	      15.3	   1.93129	7.74327e+06	   75.9847	      15.3	    1.8507	7.83948e+06	   75.9104	      15.3	   1.88932	7.84319e+06	   75.9447	      15.3	   1.92615	7.76412e+06	   75.9851	      15.3	   1.89099	7.79063e+06	   75.9507	      15.3	   1.85416	7.86975e+06	
         R10	   1127	   76.0639	      15.3	   1.93161	7.66879e+06	   76.0664	      15.3	   1.85148	7.79018e+06	   75.9847	      15.3	    1.8507	7.85042e+06	   75.9855	      15.3	   1.93129	7.73396e+06	   76.0651	      15.3	   1.89154	7.72874e+06	   76.0255	      15.3	   1.85109	7.81934e+06	   75.9851	      15.3	   1.89099	7.79143e+06	   76.0247	      15.3	   1.93145	7.70065e+06	
         R10	   1128	   76.0639	      15.3	   1.93161	 7.6704e+06	   75.9855	      15.3	   1.93129	7.73381e+06	   75.9743	      15.3	   2.00678	 7.6451e+06	   76.0504	      15.3	   2.00967	7.58649e+06	   76.0247	      15.3	   1.93145	7.70136e+06	   75.9799	      15.3	   1.96903	7.68884e+06	   76.0123	      15.3	   2.00823	7.61515e+06	   76.0571	      15.3	   1.97064	7.62789e+06	
         R10	   1129	   76.1546	      15.3	   1.93476	7.56813e+06	   76.0639	      15.3	   1.93161	7.66965e+06	   76.0504	      15.3	   2.00967	7.59238e+06	   76.1186	      15.3	   2.01081	7.50045e+06	   76.1092	      15.3	   1.93318	7.61736e+06	   76.0571	      15.3	   1.97064	7.63046e+06	   76.0845	      15.3	   2.01024	7.54582e+06	   76.1366	      15.3	   1.97279	7.53391e+06	
         R10	   1130	   76.1186	      15.3	   2.01081	7.51431e+06	   76.1727	      15.3	    2.0166	7.42369e+06	   76.2127	      15.3	   1.98594	 7.4128e+06	   76.1546	      15.3	   1.93476	7.57259e+06	   76.1457	      15.3	   2.01371	7.46844e+06	   76.1927	      15.3	   2.00127	7.41794e+06	   76.1836	      15.3	   1.96035	7.49097e+06	   76.1366	      15.3	   1.97279	7.54306e+06	
         R10	   1131	   76.1903	      15.3	   2.06079	7.36651e+06	   76.1727	      15.3	    2.0166	7.43025e+06	   76.1186	      15.3	   2.01081	7.50897e+06	   76.1157	      15.3	   2.07221	7.46448e+06	   76.1815	      15.3	    2.0387	7.39804e+06	   76.1457	      15.3	   2.01371	7.46895e+06	   76.1172	      15.3	   2.04151	7.48633e+06	    76.153	      15.3	    2.0665	7.41492e+06	
         R10	   1132	   76.2253	      15.3	   2.09422	7.25881e+06	   76.1903	      15.3	   2.06079	7.37713e+06	   76.1656	      15.3	   2.11948	7.36648e+06	   76.2124	      15.3	   2.13332	7.29959e+06	   76.2078	      15.3	    2.0775	7.31713e+06	   76.1779	      15.3	   2.09013	7.37156e+06	    76.189	      15.3	    2.1264	7.33254e+06	   76.2188	      15.3	   2.11377	 7.2791e+06	
         R10	   1133	   76.2689	      15.3	   2.08473	7.15171e+06	   76.2253	      15.3	   2.09422	 7.2684e+06	   76.2124	      15.3	   2.13332	7.28818e+06	   76.2601	      15.3	   2.13184	7.16798e+06	   76.2471	      15.3	   2.08947	7.20963e+06	   76.2188	      15.3	   2.11377	7.27822e+06	   76.2363	      15.3	   2.13258	7.22761e+06	   76.2645	      15.3	   2.10828	7.15966e+06	
         R10	   1134	   76.3034	      15.3	   2.11429	6.99581e+06	   76.2978	      15.3	   2.14104	7.02539e+06	    76.325	      15.3	    2.1517	6.87141e+06	   76.3378	      15.3	   2.11067	 6.8669e+06	   76.3006	      15.3	   2.12766	7.01058e+06	   76.3114	      15.3	   2.14637	6.94776e+06	   76.3314	      15.3	   2.13119	6.86872e+06	   76.3206	      15.3	   2.11248	6.93046e+06	
         R10	   1135	   76.3034	      15.3	   2.11429	7.00395e+06	   76.3378	      15.3	   2.11067	6.87647e+06	   76.3164	      15.3	   2.06516	7.02867e+06	   76.2689	      15.3	   2.08473	7.15692e+06	   76.3206	      15.3	   2.11248	6.93924e+06	   76.3271	      15.3	   2.08792	6.95165e+06	   76.2927	      15.3	   2.07494	7.09165e+06	   76.2861	      15.3	   2.09951	7.07946e+06	
         R10	   1136	   76.3034	      15.3	   2.11429	7.00208e+06	   76.2689	      15.3	   2.08473	7.15327e+06	   76.2601	      15.3	   2.13184	7.16693e+06	   76.2978	      15.3	   2.14104	7.03589e+06	   76.2861	      15.3	   2.09951	7.07666e+06	   76.2645	      15.3	   2.10828	7.15985e+06	   76.2789	      15.3	   2.13644	7.10079e+06	   76.3006	      15.3	   2.12766	7.01895e+06	
         R10	   1137	   76.3209	      15.3	   2.18062	6.94657e+06	    76.325	      15.3	    2.1517	6.87886e+06	   76.2978	      15.3	   2.14104	7.03352e+06	   76.2932	      15.3	   2.17339	7.06475e+06	    76.323	      15.3	   2.16616	6.91266e+06	   76.3114	      15.3	   2.14637	 6.9556e+06	   76.2955	      15.3	   2.15721	7.04897e+06	   76.3071	      15.3	   2.17701	7.00528e+06	
         R10	   1138	   76.2256	      15.3	   2.19286	7.28601e+06	   76.2354	      15.3	   2.16716	7.25717e+06	   76.2124	      15.3	   2.13332	7.28529e+06	   76.1849	      15.3	   2.17906	7.34576e+06	   76.2305	      15.3	   2.18001	7.27147e+06	   76.2239	      15.3	   2.15024	7.27067e+06	   76.1987	      15.3	   2.15619	7.31539e+06	   76.2052	      15.3	   2.18596	7.31533e+06	
         R10	   1139	   76.3094	      15.3	   2.37632	7.75703e+06	     76.33	      15.3	     2.383	8.03455e+06	     76.33	      15.3	     2.366	7.97499e+06	   76.3197	      15.3	   2.37966	7.89183e+06	     76.33	      15.3	    2.3745	8.00003e+06	   76.3197	      15.3	   2.37116	7.86474e+06	       N/A	       N/A	       N/A	        N/A	       N/A	       N/A	       N/A	        N/A	
         R10	   1140	     76.29	      15.3	   2.29741	7.45823e+06	    76.312	      15.3	   2.29994	7.48609e+06	   76.3051	      15.3	   2.28063	7.39329e+06	    76.301	      15.3	   2.29868	7.47198e+06	   76.3086	      15.3	   2.29028	7.43844e+06	   76.2975	      15.3	   2.28902	7.42524e+06	       N/A	       N/A	       N/A	        N/A	       N/A	       N/A	       N/A	        N/A	
         R10	   1141	    76.286	      15.3	   2.25303	    7.3e+06	   76.3113	      15.3	   2.26421	7.27965e+06	   76.3101	      15.3	   2.24502	7.19798e+06	   76.2987	      15.3	   2.25862	7.28934e+06	   76.3107	      15.3	   2.25462	7.23839e+06	   76.2981	      15.3	   2.24902	7.24899e+06	       N/A	       N/A	       N/A	        N/A	       N/A	       N/A	       N/A	        N/A	
         R10	   1142	   76.3474	      15.3	   2.18439	6.75639e+06	   76.3442	      15.3	    2.2096	6.83311e+06	   76.3622	      15.3	   2.20348	6.66116e+06	   76.3458	      15.3	     2.197	6.79464e+06	   76.3532	      15.3	   2.20654	6.74678e+06	   76.3548	      15.3	   2.19393	6.70828e+06	       N/A	       N/A	       N/A	        N/A	       N/A	       N/A	       N/A	        N/A	
         R10	   1143	   76.3079	      15.3	   2.20551	7.05874e+06	   76.3298	      15.3	   2.20952	6.94024e+06	   76.3209	      15.3	   2.18062	6.92741e+06	   76.3188	      15.3	   2.20752	6.99925e+06	   76.3253	      15.3	   2.19507	6.93351e+06	   76.3144	      15.3	   2.19307	6.99305e+06	       N/A	       N/A	       N/A	        N/A	       N/A	       N/A	       N/A	        N/A	
         R10	   1144	   76.3746	      15.3	    2.1884	6.52981e+06	   76.3622	      15.3	   2.20348	6.65981e+06	   76.3815	      15.3	   2.21183	6.48296e+06	   76.3684	      15.3	   2.19594	 6.5945e+06	   76.3719	      15.3	   2.20766	6.57055e+06	   76.3781	      15.3	   2.20011	6.50606e+06	       N/A	       N/A	       N/A	        N/A	       N/A	       N/A	       N/A	        N/A	
         R10	   1145	   75.8759	      15.3	   2.24453	7.39094e+06	    75.943	      15.3	   2.28502	7.30249e+06	   75.9482	      15.3	   2.21722	7.40941e+06	   75.9095	      15.3	   2.26478	7.34506e+06	   75.9456	      15.3	   2.25112	7.35507e+06	    75.912	      15.3	   2.23088	7.39983e+06	       N/A	       N/A	       N/A	        N/A	       N/A	       N/A	       N/A	        N/A	
         R10	   1146	   76.2595	      15.3	   2.34161	7.42906e+06	   76.2876	      15.3	   2.35683	7.58396e+06	   76.2895	      15.3	   2.33342	7.56258e+06	   76.2736	      15.3	   2.34922	 7.5025e+06	   76.2885	      15.3	   2.34513	7.57033e+06	   76.2745	      15.3	   2.33752	 7.4952e+06	       N/A	       N/A	       N/A	        N/A	       N/A	       N/A	       N/A	        N/A	
         R10	   1147	   76.2362	      15.3	   2.29981	7.36623e+06	   76.2635	      15.3	   2.31677	 7.4371e+06	    76.265	      15.3	   2.28305	7.40624e+06	   76.2498	      15.3	   2.30829	7.39968e+06	   76.2642	      15.3	   2.29991	7.41888e+06	   76.2506	      15.3	   2.29143	7.38594e+06	       N/A	       N/A	       N/A	        N/A	       N/A	       N/A	       N/A	        N/A	
         R10	   1148	   76.2206	      15.3	   2.25943	7.35614e+06	   76.1962	      15.3	   2.28713	7.32524e+06	   76.2362	      15.3	   2.29981	7.35899e+06	   76.2084	      15.3	   2.27328	7.34029e+06	   76.2162	      15.3	   2.29347	7.34067e+06	   76.2284	      15.3	   2.27962	7.35466e+06	       N/A	       N/A	       N/A	        N/A	       N/A	       N/A	       N/A	        N/A	
         R10	   1149	   76.1751	      15.3	   2.22512	7.33363e+06	   76.2206	      15.3	   2.25943	7.34251e+06	   76.2255	      15.3	   2.22186	7.32166e+06	   76.1978	      15.3	   2.24227	7.33565e+06	   76.2231	      15.3	   2.24064	7.33107e+06	   76.2003	      15.3	   2.22349	7.32728e+06	       N/A	       N/A	       N/A	        N/A	       N/A	       N/A	       N/A	        N/A	
         R10	   1150	   76.0356	      15.3	   2.08941	7.50698e+06	   76.0919	      15.3	   2.14197	7.41771e+06	   76.1157	      15.3	   2.07221	7.46723e+06	   76.0637	      15.3	   2.11569	 7.4608e+06	   76.1038	      15.3	   2.10709	7.44194e+06	   76.0757	      15.3	   2.08081	7.48671e+06	       N/A	       N/A	       N/A	        N/A	       N/A	       N/A	       N/A	        N/A	
         R10	   1151	   76.1656	      15.3	   2.11948	7.35303e+06	   76.1903	      15.3	   2.06079	 7.3663e+06	   76.1157	      15.3	   2.07221	7.45977e+06	   76.1779	      15.3	   2.09013	7.35947e+06	    76.153	      15.3	    2.0665	7.41244e+06	   76.1407	      15.3	   2.09585	7.40519e+06	       N/A	       N/A	       N/A	        N/A	       N/A	       N/A	       N/A	        N/A	
         R10	   1152	   76.3653	      15.3	   2.15364	6.66056e+06	   76.3378	      15.3	   2.11067	 6.8669e+06	    76.325	      15.3	    2.1517	6.88685e+06	   76.3516	      15.3	   2.13215	 6.7621e+06	   76.3314	      15.3	   2.13119	6.87642e+06	   76.3452	      15.3	   2.15267	6.77172e+06	       N/A	       N/A	       N/A	        N/A	       N/A	       N/A	       N/A	        N/A	
         R10	   1153	   76.2616	      15.3	   1.75572	7.93021e+06	   76.1556	      15.3	   1.76767	7.91595e+06	   76.2188	      15.3	   1.81365	7.78358e+06	   76.2086	      15.3	   1.76169	7.92013e+06	   76.1872	      15.3	   1.79066	7.84797e+06	   76.2402	      15.3	   1.78468	7.85655e+06	       N/A	       N/A	       N/A	        N/A	       N/A	       N/A	       N/A	        N/A	
         R10	   1154	    76.581	      15.3	       1.6	7.56919e+06	      76.5	      15.3	       1.6	7.43971e+06	      76.5	      15.3	    1.6796	 8.4189e+06	   76.5799	      15.3	   1.67879	7.18312e+06	   76.5405	      15.3	       1.6	7.45915e+06	      76.5	      15.3	    1.6398	7.68313e+06	     76.54	      15.3	   1.67919	7.77285e+06	   76.5805	      15.3	   1.63939	7.36377e+06	
         R10	   1155	   76.5799	      15.3	   1.67879	7.10926e+06	      76.5	      15.3	    1.6796	7.79141e+06	      76.5	      15.3	   1.75401	7.64932e+06	   76.5753	      15.3	   1.75283	7.23466e+06	     76.54	      15.3	   1.67919	7.44751e+06	      76.5	      15.3	    1.7168	7.70397e+06	   76.5376	      15.3	   1.75342	 7.4387e+06	   76.5776	      15.3	   1.71581	7.17161e+06	
         R10	   1156	   76.5753	      15.3	   1.75283	7.25217e+06	      76.5	      15.3	   1.75401	7.52207e+06	      76.5	      15.3	   1.82323	7.30934e+06	   76.5683	      15.3	   1.82146	7.06924e+06	   76.5376	      15.3	   1.75342	7.38676e+06	      76.5	      15.3	   1.78862	7.41371e+06	   76.5342	      15.3	   1.82235	7.18697e+06	   76.5718	      15.3	   1.78715	7.16005e+06	
         R10	   1157	   76.5683	      15.3	   1.82146	7.06596e+06	      76.5	      15.3	   1.82323	7.28731e+06	      76.5	      15.3	   1.88726	7.01391e+06	   76.5611	      15.3	   1.88567	6.85672e+06	   76.5342	      15.3	   1.82235	7.17454e+06	      76.5	      15.3	   1.85525	7.14936e+06	   76.5305	      15.3	   1.88647	6.93259e+06	   76.5647	      15.3	   1.85357	6.96035e+06	
         R10	   1158	   76.5611	      15.3	   1.88567	6.85653e+06	      76.5	      15.3	   1.88726	7.00976e+06	      76.5	      15.3	    1.9461	6.74551e+06	   76.5557	      15.3	     1.945	6.61844e+06	   76.5305	      15.3	   1.88647	6.93045e+06	      76.5	      15.3	   1.91668	6.87625e+06	   76.5279	      15.3	   1.94555	6.67844e+06	   76.5584	      15.3	   1.91533	 6.7363e+06	
         R10	   1159	   76.5557	      15.3	     1.945	6.61826e+06	      76.5	      15.3	    1.9461	6.74467e+06	      76.5	      15.3	   1.99975	6.48031e+06	   76.5513	      15.3	   1.99859	6.37823e+06	   76.5279	      15.3	   1.94555	6.67794e+06	      76.5	      15.3	   1.97293	6.61083e+06	   76.5256	      15.3	   1.99917	6.42463e+06	   76.5535	      15.3	   1.97179	6.49692e+06	
         R10	   1160	   76.5513	      15.3	   1.99859	6.37822e+06	      76.5	      15.3	   1.99975	6.48013e+06	      76.5	      15.3	   2.04821	6.22041e+06	   76.5464	      15.3	     2.047	6.13615e+06	   76.5256	      15.3	   1.99917	6.42453e+06	      76.5	      15.3	   2.02398	6.34826e+06	   76.5232	      15.3	   2.04761	6.17234e+06	   76.5488	      15.3	    2.0228	6.25558e+06	
         R10	   1161	   76.5464	      15.3	     2.047	6.13621e+06	      76.5	      15.3	   2.04821	6.22076e+06	      76.5	      15.3	   2.09149	5.96734e+06	    76.541	      15.3	   2.09001	5.89562e+06	   76.5232	      15.3	   2.04761	6.17253e+06	      76.5	      15.3	   2.06985	6.09157e+06	   76.5205	      15.3	   2.09075	5.92413e+06	   76.5437	      15.3	   2.06851	6.01394e+06	
         R10	   1162	    76.541	      15.3	   2.09001	5.89533e+06	      76.5	      15.3	   2.09149	5.96725e+06	      76.5	      15.3	   2.12957	5.72452e+06	   76.5351	      15.3	   2.12799	5.65465e+06	   76.5205	      15.3	   2.09075	5.92392e+06	      76.5	      15.3	   2.11053	5.84285e+06	   76.5175	      15.3	   2.12878	 5.6808e+06	    76.538	      15.3	     2.109	5.77248e+06	
         R10	   1163	   76.5351	      15.3	   2.12799	5.65523e+06	      76.5	      15.3	   2.12957	5.72362e+06	      76.5	      15.3	   2.16246	5.49517e+06	   76.5296	      15.3	   2.16111	5.41954e+06	   76.5175	      15.3	   2.12878	5.68062e+06	      76.5	      15.3	   2.14601	5.60571e+06	   76.5148	      15.3	   2.16178	5.44737e+06	   76.5323	      15.3	   2.14455	5.53428e+06	
         R10	   1164	   76.5296	      15.3	   2.16111	5.42048e+06	      76.5	      15.3	   2.16246	5.49237e+06	      76.5	      15.3	   2.19016	5.28842e+06	   76.5252	      15.3	   2.18892	5.19482e+06	   76.5148	      15.3	   2.16178	5.44642e+06	      76.5	      15.3	   2.17631	5.38617e+06	   76.5126	      15.3	   2.18954	5.22959e+06	   76.5274	      15.3	   2.17502	5.30416e+06	
         R10	   1165	   76.5252	      15.3	   2.18892	5.19586e+06	      76.5	      15.3	   2.19016	5.28996e+06	      76.5	      15.3	   2.21268	5.11514e+06	   76.5223	      15.3	   2.21175	4.99752e+06	   76.5126	      15.3	   2.18954	5.23095e+06	      76.5	      15.3	   2.20142	5.19813e+06	   76.5112	      15.3	   2.21221	5.04165e+06	   76.5237	      15.3	   2.20034	5.09299e+06	
         R10	   1166	   76.5223	      15.3	   2.21175	4.98878e+06	      76.5	      15.3	   2.21268	5.11436e+06	      76.5	      15.3	      2.23	4.98622e+06	    76.517	      15.3	      2.23	4.83929e+06	   76.5112	      15.3	   2.21221	5.03686e+06	      76.5	      15.3	   2.22134	5.04632e+06	   76.5085	      15.3	      2.23	4.90031e+06	   76.5197	      15.3	   2.22088	4.90862e+06	
         R10	   1167	   76.5484	      15.3	   2.21209	5.09127e+06	    76.551	      15.3	      2.23	5.00825e+06	    76.568	      15.3	      2.23	5.23368e+06	   76.5678	      15.3	   2.21248	 5.2936e+06	   76.5497	      15.3	   2.22104	5.04862e+06	   76.5595	      15.3	      2.23	5.11475e+06	   76.5679	      15.3	   2.22124	5.26302e+06	   76.5581	      15.3	   2.21228	5.18632e+06	
         R10	   1168	   76.5678	      15.3	   2.21248	5.29324e+06	    76.568	      15.3	      2.23	  5.236e+06	    76.585	      15.3	      2.23	5.50392e+06	   76.5851	      15.3	   2.21232	5.51043e+06	   76.5679	      15.3	   2.22124	5.26397e+06	   76.5765	      15.3	      2.23	5.36646e+06	   76.5851	      15.3	   2.22116	5.50684e+06	   76.5764	      15.3	    2.2124	5.39864e+06	
         R10	   1169	   76.5851	      15.3	   2.21232	5.51705e+06	    76.585	      15.3	      2.23	5.50428e+06	    76.602	      15.3	      2.23	5.76709e+06	    76.601	      15.3	   2.21312	5.71934e+06	   76.5851	      15.3	   2.22116	5.51031e+06	   76.5935	      15.3	      2.23	5.63372e+06	   76.6015	      15.3	   2.22156	5.74305e+06	    76.593	      15.3	   2.21272	5.61662e+06	
         R10	   1170	    76.601	      15.3	   2.21312	5.72319e+06	    76.602	      15.3	      2.23	5.76456e+06	    76.619	      15.3	      2.23	6.00126e+06	   76.6193	      15.3	   2.21207	5.94138e+06	   76.6015	      15.3	   2.22156	5.74371e+06	   76.6105	      15.3	      2.23	5.88181e+06	   76.6192	      15.3	   2.22103	5.97126e+06	   76.6101	      15.3	   2.21259	5.83103e+06	
         R10	   1171	   76.6193	      15.3	   2.21207	5.94859e+06	    76.619	      15.3	      2.23	6.00235e+06	    76.636	      15.3	      2.23	6.20037e+06	   76.6346	      15.3	   2.21138	6.11014e+06	   76.6192	      15.3	   2.22103	5.97542e+06	   76.6275	      15.3	      2.23	6.10077e+06	   76.6353	      15.3	   2.22069	 6.1552e+06	   76.6269	      15.3	   2.21172	6.02884e+06	
         R10	   1172	   76.6346	      15.3	   2.21138	6.11037e+06	    76.636	      15.3	      2.23	 6.1965e+06	    76.653	      15.3	      2.23	6.35878e+06	   76.6519	      15.3	   2.21336	6.27831e+06	   76.6353	      15.3	   2.22069	6.15339e+06	   76.6445	      15.3	      2.23	6.27731e+06	   76.6525	      15.3	   2.22168	 6.3185e+06	   76.6432	      15.3	   2.21237	6.19394e+06	
         R10	   1173	   76.6519	      15.3	   2.21336	6.27838e+06	    76.653	      15.3	      2.23	6.35873e+06	     76.67	      15.3	      2.23	6.48345e+06	   76.6698	      15.3	   2.21049	6.40072e+06	   76.6525	      15.3	   2.22168	 6.3185e+06	   76.6615	      15.3	      2.23	6.42087e+06	   76.6699	      15.3	   2.22024	6.44199e+06	   76.6608	      15.3	   2.21192	6.33929e+06	
         R10	   1174	   76.6886	      15.3	   2.22785	6.57974e+06	     76.67	      15.3	      2.23	6.48212e+06	     76.67	      15.3	     2.247	6.57134e+06	   76.6865	      15.3	   2.24602	6.64977e+06	   76.6793	      15.3	   2.22892	6.53076e+06	     76.67	      15.3	    2.2385	6.52657e+06	   76.6782	      15.3	   2.24651	6.61044e+06	   76.6875	      15.3	   2.23693	6.61451e+06	
         R10	   1175	   76.6865	      15.3	   2.24602	 6.6512e+06	     76.67	      15.3	     2.247	6.57285e+06	     76.67	      15.3	     2.264	6.68142e+06	   76.6899	      15.3	   2.26385	6.75483e+06	   76.6782	      15.3	   2.24651	6.61192e+06	     76.67	      15.3	    2.2555	6.62683e+06	   76.6799	      15.3	   2.26392	6.71804e+06	   76.6882	      15.3	   2.25493	6.70268e+06	
         R10	   1176	   76.6899	      15.3	   2.26385	6.75577e+06	     76.67	      15.3	     2.264	6.67997e+06	     76.67	      15.3	     2.281	6.80515e+06	   76.6872	      15.3	   2.28149	6.84991e+06	   76.6799	      15.3	   2.26392	6.71778e+06	     76.67	      15.3	    2.2725	  6.742e+06	   76.6786	      15.3	   2.28124	6.82749e+06	   76.6885	      15.3	   2.27267	 6.8022e+06	
         R10	   1177	   76.6872	      15.3	   2.28149	6.85143e+06	     76.67	      15.3	     2.281	6.80529e+06	     76.67	      15.3	     2.298	6.94605e+06	   76.6876	      15.3	    2.2981	6.95739e+06	   76.6786	      15.3	   2.28124	6.82832e+06	     76.67	      15.3	    2.2895	6.87475e+06	   76.6788	      15.3	   2.29805	6.95167e+06	   76.6874	      15.3	   2.28979	6.90355e+06	
         R10	   1178	   76.6876	      15.3	    2.2981	6.95715e+06	     76.67	      15.3	     2.298	6.94686e+06	     76.67	      15.3	     2.315	7.10213e+06	   76.6868	      15.3	     2.314	7.06566e+06	   76.6788	      15.3	   2.29805	6.95195e+06	     76.67	      15.3	    2.3065	7.02303e+06	   76.6784	      15.3	    2.3145	7.08374e+06	   76.6872	      15.3	   2.30605	7.01023e+06	
         R10	   1179	   76.6868	      15.3	     2.314	7.06555e+06	     76.67	      15.3	     2.315	7.10333e+06	     76.67	      15.3	     2.332	7.26128e+06	   76.6889	      15.3	   2.33208	7.18824e+06	   76.6784	      15.3	    2.3145	7.08429e+06	     76.67	      15.3	    2.3235	7.18002e+06	   76.6794	      15.3	   2.33204	7.22444e+06	   76.6878	      15.3	   2.32304	7.12494e+06	
         R10	   1180	   76.6889	      15.3	   2.33208	7.19365e+06	     76.67	      15.3	     2.332	7.26362e+06	     76.67	      15.3	     2.349	7.43708e+06	   76.6847	      15.3	   2.34923	7.31947e+06	   76.6794	      15.3	   2.33204	7.22834e+06	     76.67	      15.3	    2.3405	7.34743e+06	   76.6773	      15.3	   2.34911	 7.3778e+06	   76.6868	      15.3	   2.34065	7.25382e+06	
         R10	   1181	   76.6847	      15.3	   2.34923	 7.3256e+06	     76.67	      15.3	     2.349	 7.4332e+06	     76.67	      15.3	     2.366	7.59714e+06	   76.6869	      15.3	   2.36619	7.41957e+06	   76.6773	      15.3	   2.34911	7.37898e+06	     76.67	      15.3	    2.3575	7.51114e+06	   76.6784	      15.3	   2.36609	7.50742e+06	   76.6858	      15.3	   2.35771	7.36975e+06	
         R10	   1182	   76.6869	      15.3	   2.36619	7.42112e+06	     76.67	      15.3	     2.366	7.59948e+06	     76.67	      15.3	     2.383	7.75259e+06	   76.6885	      15.3	   2.38219	7.50432e+06	   76.6784	      15.3	   2.36609	7.50936e+06	     76.67	      15.3	    2.3745	7.67118e+06	   76.6793	      15.3	   2.38259	7.62652e+06	   76.6877	      15.3	   2.37419	 7.4598e+06	
         R10	   1183	   76.6885	      15.3	   2.38219	7.50248e+06	     76.67	      15.3	     2.383	7.75537e+06	     76.67	      15.3	       2.4	7.89925e+06	   76.6874	      15.3	       2.4	7.60634e+06	   76.6793	      15.3	   2.38259	7.62693e+06	     76.67	      15.3	    2.3915	7.82147e+06	   76.6787	      15.3	       2.4	7.75082e+06	   76.6879	      15.3	   2.39109	7.54973e+06	
         R10	   1184	   76.6885	      15.3	   2.38219	7.49934e+06	   76.6874	      15.3	       2.4	7.61549e+06	   76.7095	      15.3	       2.4	7.34343e+06	   76.7111	      15.3	   2.37601	7.25648e+06	   76.6879	      15.3	   2.39109	7.55269e+06	   76.6984	      15.3	       2.4	7.47683e+06	   76.7103	      15.3	   2.38801	7.29423e+06	   76.6998	      15.3	    2.3791	7.37463e+06	
         R10	   1185	   76.7111	      15.3	   2.37601	7.25529e+06	   76.7095	      15.3	       2.4	7.34265e+06	   76.7365	      15.3	       2.4	7.12049e+06	   76.7377	      15.3	   2.37128	7.06739e+06	   76.7103	      15.3	   2.38801	7.29347e+06	    76.723	      15.3	       2.4	7.22851e+06	   76.7371	      15.3	   2.38564	 7.0888e+06	   76.7244	      15.3	   2.37364	7.15859e+06	
         R10	   1186	   76.7377	      15.3	   2.37128	 7.0664e+06	   76.7365	      15.3	       2.4	7.11828e+06	   76.7683	      15.3	       2.4	6.94047e+06	   76.7695	      15.3	   2.36678	6.92281e+06	   76.7371	      15.3	   2.38564	7.08734e+06	   76.7524	      15.3	       2.4	7.02627e+06	   76.7689	      15.3	   2.38339	6.92742e+06	   76.7536	      15.3	   2.36903	6.99193e+06	
         R10	   1187	   76.7695	      15.3	   2.36678	 6.9221e+06	   76.7683	      15.3	       2.4	6.94112e+06	   76.8048	      15.3	       2.4	 6.8143e+06	   76.8063	      15.3	   2.36165	6.82282e+06	   76.7689	      15.3	   2.38339	6.92755e+06	   76.7865	      15.3	       2.4	6.87486e+06	   76.8056	      15.3	   2.38082	6.81518e+06	   76.7879	      15.3	   2.36421	6.86998e+06	
         R10	   1188	   76.8063	      15.3	   2.36165	6.82277e+06	   76.8048	      15.3	       2.4	6.81546e+06	   76.8462	      15.3	       2.4	6.73498e+06	   76.8476	      15.3	    2.3561	6.76376e+06	   76.8056	      15.3	   2.38082	6.81582e+06	   76.8255	      15.3	       2.4	6.77271e+06	   76.8469	      15.3	   2.37805	6.74674e+06	    76.827	      15.3	   2.35888	6.79113e+06	
         R10	   1189	   76.8476	      15.3	    2.3561	6.76344e+06	   76.8462	      15.3	       2.4	6.73731e+06	   76.8924	      15.3	       2.4	6.69515e+06	   76.8935	      15.3	    2.3511	6.73863e+06	   76.8469	      15.3	   2.37805	6.74784e+06	   76.8693	      15.3	       2.4	6.71416e+06	   76.8929	      15.3	   2.37555	6.71492e+06	   76.8705	      15.3	    2.3536	6.74927e+06	
         R10	   1190	   76.8935	      15.3	    2.3511	6.73796e+06	   76.8924	      15.3	       2.4	6.69784e+06	   76.9433	      15.3	       2.4	6.68903e+06	   76.9446	      15.3	   2.34606	6.73872e+06	   76.8929	      15.3	   2.37555	  6.716e+06	   76.9179	      15.3	       2.4	6.69176e+06	    76.944	      15.3	   2.37303	6.71247e+06	   76.9191	      15.3	   2.34858	6.73687e+06	
         R10	   1191	   76.9446	      15.3	   2.34606	6.73843e+06	   76.9433	      15.3	       2.4	6.68983e+06	   76.9991	      15.3	       2.4	6.70798e+06	   77.0004	      15.3	   2.34071	6.75918e+06	    76.944	      15.3	   2.37303	6.71272e+06	   76.9712	      15.3	       2.4	6.69757e+06	   76.9997	      15.3	   2.37036	 6.7326e+06	   76.9725	      15.3	   2.34339	6.74763e+06	
         R10	   1192	   77.0004	      15.3	   2.34071	6.76014e+06	   76.9991	      15.3	       2.4	6.70656e+06	   77.0597	      15.3	       2.4	6.74245e+06	   77.0606	      15.3	   2.33606	6.79597e+06	   76.9997	      15.3	   2.37036	6.73237e+06	   77.0294	      15.3	       2.4	6.72355e+06	   77.0602	      15.3	   2.36803	6.76839e+06	   77.0305	      15.3	   2.33839	 6.7771e+06	
         R10	   1193	   77.0606	      15.3	   2.33606	  6.796e+06	   77.0597	      15.3	       2.4	6.74444e+06	   77.1251	      15.3	       2.4	  6.787e+06	   77.1261	      15.3	   2.33184	6.84433e+06	   77.0602	      15.3	   2.36803	6.76947e+06	   77.0924	      15.3	       2.4	6.76502e+06	   77.1256	      15.3	   2.36592	6.81496e+06	   77.0934	      15.3	   2.33395	6.81944e+06	
         R10	   1194	   77.1261	      15.3	   2.33184	6.84218e+06	   77.1251	      15.3	       2.4	6.79251e+06	   77.1952	      15.3	       2.4	6.84275e+06	   77.1966	      15.3	   2.32712	6.89559e+06	   77.1256	      15.3	   2.36592	6.81672e+06	   77.1601	      15.3	       2.4	6.81714e+06	   77.1959	      15.3	   2.36356	6.86857e+06	   77.1614	      15.3	   2.32948	6.86831e+06	
         R10	   1195	   77.1966	      15.3	   2.32712	6.89577e+06	   77.1952	      15.3	       2.4	6.84841e+06	   77.2702	      15.3	       2.4	6.89908e+06	   77.2714	      15.3	   2.32284	6.95291e+06	   77.1959	      15.3	   2.36356	6.87154e+06	   77.2327	      15.3	       2.4	6.87341e+06	   77.2708	      15.3	   2.36142	6.92536e+06	    77.234	      15.3	   2.32498	 6.9239e+06	
         R10	   1196	   77.2714	      15.3	   2.32284	6.95188e+06	   77.2702	      15.3	       2.4	6.90641e+06	     77.35	      15.3	       2.4	6.95518e+06	     77.35	      15.3	   2.32373	7.00868e+06	   77.2708	      15.3	   2.36142	6.92857e+06	   77.3101	      15.3	       2.4	6.93058e+06	     77.35	      15.3	   2.36187	6.98126e+06	   77.3107	      15.3	   2.32329	6.97999e+06	
         R10	   1197	   77.2694	      15.3	   2.24444	7.01301e+06	   77.2714	      15.3	   2.32284	 6.9526e+06	     77.35	      15.3	   2.32373	7.01012e+06	     77.35	      15.3	   2.24431	7.06336e+06	   77.2704	      15.3	   2.28364	6.98204e+06	   77.3107	      15.3	   2.32329	6.98107e+06	     77.35	      15.3	   2.28402	7.03593e+06	   77.3097	      15.3	   2.24437	7.03787e+06	
         R10	   1198	   77.2694	      15.3	   2.24444	7.01423e+06	     77.35	      15.3	   2.24431	7.06378e+06	     77.35	      15.3	   2.16173	7.13463e+06	   77.2656	      15.3	   2.16145	7.08412e+06	   77.3097	      15.3	   2.24437	7.03868e+06	     77.35	      15.3	   2.20302	7.09826e+06	   77.3078	      15.3	   2.16159	7.10903e+06	   77.2675	      15.3	   2.20294	7.04819e+06	
         R10	   1199	   77.2656	      15.3	   2.16145	7.08368e+06	     77.35	      15.3	   2.16173	  7.134e+06	     77.35	      15.3	     2.076	7.21534e+06	   77.2626	      15.3	   2.07663	7.16239e+06	   77.3078	      15.3	   2.16159	 7.1085e+06	     77.35	      15.3	   2.11887	7.17352e+06	   77.3063	      15.3	   2.07631	7.18845e+06	   77.2641	      15.3	   2.11904	7.12202e+06	
         R10	   1200	   77.2626	      15.3	   2.07663	7.16298e+06	     77.35	      15.3	     2.076	7.21591e+06	     77.35	      15.3	   1.98711	7.31036e+06	   77.2601	      15.3	   1.98623	7.25469e+06	   77.3063	      15.3	   2.07631	7.18905e+06	     77.35	      15.3	   2.03156	 7.2619e+06	   77.3051	      15.3	   1.98667	 7.2821e+06	   77.2613	      15.3	   2.03143	7.20762e+06	
         R10	   1201	   77.2601	      15.3	   1.98623	7.25466e+06	     77.35	      15.3	   1.98711	7.31157e+06	     77.35	      15.3	   1.89507	7.41081e+06	   77.2565	      15.3	   1.89413	7.35521e+06	   77.3051	      15.3	   1.98667	7.28271e+06	     77.35	      15.3	   1.94109	 7.3599e+06	   77.3033	      15.3	    1.8946	7.38254e+06	   77.2583	      15.3	   1.94018	7.30371e+06	
         R10	   1202	   77.2565	      15.3	   1.89413	7.35945e+06	     77.35	      15.3	   1.89507	7.41432e+06	     77.35	      15.3	   1.79987	7.53856e+06	    77.253	      15.3	   1.79915	7.47039e+06	   77.3033	      15.3	    1.8946	7.38634e+06	     77.35	      15.3	   1.84747	7.47519e+06	   77.3015	      15.3	   1.79951	7.50393e+06	   77.2548	      15.3	   1.84664	7.41357e+06	
         R10	   1203	    77.253	      15.3	   1.79915	7.47591e+06	     77.35	      15.3	   1.79987	7.54132e+06	     77.35	      15.3	   1.70151	7.68551e+06	   77.2491	      15.3	   1.70037	7.60981e+06	   77.3015	      15.3	   1.79951	7.50798e+06	     77.35	      15.3	   1.75069	7.61165e+06	   77.2996	      15.3	   1.70094	7.64696e+06	   77.2511	      15.3	   1.74976	7.54145e+06	
         R10	   1204	   77.2491	      15.3	   1.70037	7.61748e+06	     77.35	      15.3	   1.70151	7.69127e+06	     77.35	      15.3	       1.6	7.84518e+06	   77.2421	      15.3	       1.6	 7.7847e+06	   77.2996	      15.3	   1.70094	7.65379e+06	     77.35	      15.3	   1.65076	7.76648e+06	   77.2961	      15.3	       1.6	7.81383e+06	   77.2456	      15.3	   1.65018	7.69933e+06	
         R10	   1205	   77.1464	      15.3	   1.70423	7.55171e+06	   77.2491	      15.3	   1.70037	7.63497e+06	   77.2421	      15.3	       1.6	 7.7846e+06	   77.1376	      15.3	       1.6	7.72296e+06	   77.1978	      15.3	    1.7023	7.59226e+06	   77.2456	      15.3	   1.65018	7.70829e+06	   77.1899	      15.3	       1.6	7.75245e+06	    77.142	      15.3	   1.65212	7.63558e+06	
         R10	   1206	   77.1464	      15.3	   1.70423	7.56408e+06	   77.1376	      15.3	       1.6	7.72261e+06	   77.0365	      15.3	       1.6	7.66624e+06	   77.0405	      15.3	   1.70043	7.49249e+06	    77.142	      15.3	   1.65212	7.64176e+06	   77.0871	      15.3	       1.6	7.69276e+06	   77.0385	      15.3	   1.65021	7.57782e+06	   77.0934	      15.3	   1.70233	7.52697e+06	
         R10	   1207	   77.0405	      15.3	   1.70043	7.49963e+06	   77.0365	      15.3	       1.6	7.66833e+06	   76.9387	      15.3	       1.6	 7.6209e+06	   76.9418	      15.3	   1.69568	 7.4475e+06	   77.0385	      15.3	   1.65021	7.58252e+06	   76.9876	      15.3	       1.6	7.64272e+06	   76.9402	      15.3	   1.64784	7.53305e+06	   76.9911	      15.3	   1.69806	  7.472e+06	
         R10	   1208	   76.9418	      15.3	   1.69568	7.45157e+06	   76.9387	      15.3	       1.6	7.62229e+06	   76.8443	      15.3	       1.6	 7.5883e+06	   76.8451	      15.3	   1.69056	7.41393e+06	   76.9402	      15.3	   1.64784	7.53581e+06	   76.8915	      15.3	       1.6	 7.6033e+06	   76.8447	      15.3	   1.64528	7.50036e+06	   76.8934	      15.3	   1.69312	7.43086e+06	
         R10	   1209	   76.8451	      15.3	   1.69056	7.41467e+06	   76.8443	      15.3	       1.6	7.59164e+06	   76.7532	      15.3	       1.6	 7.5661e+06	   76.7541	      15.3	   1.68718	7.40799e+06	   76.8447	      15.3	   1.64528	 7.5024e+06	   76.7987	      15.3	       1.6	7.57727e+06	   76.7536	      15.3	   1.64359	7.48632e+06	   76.7996	      15.3	   1.68887	7.40915e+06	
         R10	   1210	   76.7541	      15.3	   1.68718	7.40689e+06	   76.7532	      15.3	       1.6	7.57834e+06	   76.6654	      15.3	       1.6	7.53877e+06	   76.6655	      15.3	   1.68368	7.41661e+06	   76.7536	      15.3	   1.64359	7.49187e+06	   76.7093	      15.3	       1.6	7.55777e+06	   76.6654	      15.3	   1.64184	7.47563e+06	   76.7098	      15.3	   1.68543	7.40875e+06	
         R10	   1211	   76.6655	      15.3	   1.68368	7.43555e+06	   76.6654	      15.3	       1.6	 7.5205e+06	    76.581	      15.3	       1.6	 7.4747e+06	   76.5799	      15.3	   1.67879	 7.4002e+06	   76.6654	      15.3	   1.64184	7.47633e+06	   76.6232	      15.3	       1.6	7.49493e+06	   76.5805	      15.3	   1.63939	7.42587e+06	   76.6227	      15.3	   1.68123	7.41432e+06	
         R10	   1212	   76.6589	      15.3	   1.75971	7.16281e+06	   76.6655	      15.3	   1.68368	7.39895e+06	   76.5799	      15.3	   1.67879	7.40571e+06	   76.5753	      15.3	   1.75283	7.23466e+06	   76.6622	      15.3	    1.7217	7.27813e+06	   76.6227	      15.3	   1.68123	7.39712e+06	   76.5776	      15.3	   1.71581	7.31925e+06	   76.6171	      15.3	   1.75627	7.19713e+06	
         R10	   1213	   76.6589	      15.3	   1.75971	7.13347e+06	   76.5753	      15.3	   1.75283	7.24996e+06	   76.5683	      15.3	   1.82146	7.06733e+06	   76.6384	      15.3	   1.82622	6.97373e+06	   76.6171	      15.3	   1.75627	7.18889e+06	   76.5718	      15.3	   1.78715	  7.158e+06	   76.6034	      15.3	   1.82384	7.01896e+06	   76.6487	      15.3	   1.79297	7.05167e+06	
         R10	   1214	   76.6384	      15.3	   1.82622	6.95644e+06	   76.5683	      15.3	   1.82146	7.07604e+06	   76.5611	      15.3	   1.88567	6.85442e+06	   76.6173	      15.3	   1.89072	6.78343e+06	   76.6034	      15.3	   1.82384	7.01409e+06	   76.5647	      15.3	   1.85357	6.96423e+06	   76.5892	      15.3	   1.88819	6.81706e+06	   76.6279	      15.3	   1.85847	6.86852e+06	
         R10	   1215	   76.6173	      15.3	   1.89072	6.77734e+06	   76.5611	      15.3	   1.88567	6.85335e+06	   76.5557	      15.3	     1.945	 6.6192e+06	   76.6095	      15.3	   1.95018	6.57064e+06	   76.5892	      15.3	   1.88819	6.81328e+06	   76.5584	      15.3	   1.91533	 6.7351e+06	   76.5826	      15.3	   1.94759	 6.5922e+06	   76.6134	      15.3	   1.92045	6.67295e+06	
         R10	   1216	   76.6095	      15.3	   1.95018	 6.5682e+06	   76.5557	      15.3	     1.945	6.61954e+06	   76.5513	      15.3	   1.99859	6.37693e+06	   76.6026	      15.3	   2.00372	6.36337e+06	   76.5826	      15.3	   1.94759	6.59103e+06	   76.5535	      15.3	   1.97179	 6.4969e+06	   76.5769	      15.3	   2.00115	6.36631e+06	    76.606	      15.3	   1.97695	 6.4647e+06	
         R10	   1217	   76.6026	      15.3	   2.00372	 6.3626e+06	   76.5513	      15.3	   1.99859	 6.3778e+06	   76.5464	      15.3	     2.047	6.13567e+06	    76.593	      15.3	   2.05248	6.14898e+06	   76.5769	      15.3	   2.00115	6.36631e+06	   76.5488	      15.3	    2.0228	6.25513e+06	   76.5697	      15.3	   2.04974	6.13737e+06	   76.5978	      15.3	    2.0281	6.25446e+06	
         R10	   1218	    76.593	      15.3	   2.05248	6.14832e+06	   76.5464	      15.3	     2.047	6.13574e+06	    76.541	      15.3	   2.09001	5.89299e+06	   76.5829	      15.3	   2.09566	5.93241e+06	   76.5697	      15.3	   2.04974	6.13705e+06	   76.5437	      15.3	   2.06851	 6.0124e+06	   76.5619	      15.3	   2.09283	5.90646e+06	   76.5879	      15.3	   2.07407	 6.0388e+06	
         R10	   1219	   76.5829	      15.3	   2.09566	5.93221e+06	    76.541	      15.3	   2.09001	5.89364e+06	   76.5351	      15.3	   2.12799	5.65602e+06	    76.568	      15.3	   2.13292	5.69531e+06	   76.5619	      15.3	   2.09283	 5.9066e+06	    76.538	      15.3	     2.109	5.77231e+06	   76.5516	      15.3	   2.13046	5.66909e+06	   76.5755	      15.3	   2.11429	5.81129e+06	
         R10	   1220	    76.568	      15.3	   2.13292	5.69338e+06	   76.5351	      15.3	   2.12799	5.65566e+06	   76.5296	      15.3	   2.16111	5.41586e+06	    76.558	      15.3	   2.16552	5.46277e+06	   76.5516	      15.3	   2.13046	5.66792e+06	   76.5323	      15.3	   2.14455	5.53265e+06	   76.5438	      15.3	   2.16332	 5.4314e+06	    76.563	      15.3	   2.14922	5.57551e+06	
         R10	   1221	    76.558	      15.3	   2.16552	5.46161e+06	   76.5296	      15.3	   2.16111	5.41681e+06	   76.5252	      15.3	   2.18892	5.20747e+06	   76.5457	      15.3	   2.19313	5.21358e+06	   76.5438	      15.3	   2.16332	5.43123e+06	   76.5274	      15.3	   2.17502	5.30879e+06	   76.5354	      15.3	   2.19102	 5.2036e+06	   76.5518	      15.3	   2.17933	5.33307e+06	
         R10	   1222	   76.5223	      15.3	   2.21175	5.00332e+06	    76.534	      15.3	      2.23	4.83746e+06	    76.551	      15.3	      2.23	4.99625e+06	   76.5484	      15.3	   2.21209	5.07827e+06	   76.5282	      15.3	   2.22088	4.91599e+06	   76.5425	      15.3	      2.23	4.90768e+06	   76.5497	      15.3	   2.22104	5.03636e+06	   76.5354	      15.3	   2.21192	5.02319e+06	
         R10	   1223	    76.568	      15.3	   2.19384	5.37378e+06	   76.5678	      15.3	   2.21248	5.29717e+06	   76.5851	      15.3	   2.21232	5.51266e+06	   76.5832	      15.3	   2.19385	5.53866e+06	   76.5679	      15.3	   2.20316	5.33493e+06	   76.5764	      15.3	    2.2124	5.40161e+06	   76.5841	      15.3	   2.20308	5.52506e+06	   76.5756	      15.3	   2.19384	 5.4544e+06	
         R10	   1224	   76.5832	      15.3	   2.19385	5.53007e+06	   76.5851	      15.3	   2.21232	5.50897e+06	    76.601	      15.3	   2.21312	5.72573e+06	   76.6064	      15.3	   2.18945	5.78352e+06	   76.5841	      15.3	   2.20308	5.51909e+06	    76.593	      15.3	   2.21272	5.61581e+06	   76.6037	      15.3	   2.20128	5.75407e+06	   76.5948	      15.3	   2.19165	5.65366e+06	
         R10	   1225	   76.6344	      15.3	   2.18997	6.06363e+06	   76.6346	      15.3	   2.21138	6.11163e+06	   76.6519	      15.3	   2.21336	6.27981e+06	   76.6549	      15.3	   2.19396	6.24743e+06	   76.6345	      15.3	   2.20068	6.08754e+06	   76.6432	      15.3	   2.21237	6.19531e+06	   76.6534	      15.3	   2.20366	 6.2635e+06	   76.6446	      15.3	   2.19196	6.15502e+06	
         R10	   1226	   76.6874	      15.3	   2.20362	6.48095e+06	   76.6698	      15.3	   2.21049	6.40078e+06	     76.67	      15.3	      2.23	6.48496e+06	   76.6886	      15.3	   2.22785	6.57918e+06	   76.6786	      15.3	   2.20705	6.44061e+06	   76.6699	      15.3	   2.22024	6.44278e+06	   76.6793	      15.3	   2.22892	6.53188e+06	    76.688	      15.3	   2.21573	6.52992e+06	
         R10	   1227	   76.7098	      15.3	   2.22772	6.66322e+06	   76.6886	      15.3	   2.22785	6.57819e+06	   76.6865	      15.3	   2.24602	6.65102e+06	   76.7062	      15.3	   2.24804	6.72514e+06	   76.6992	      15.3	   2.22778	6.62059e+06	   76.6875	      15.3	   2.23693	6.61437e+06	   76.6963	      15.3	   2.24703	6.68803e+06	    76.708	      15.3	   2.23788	 6.6938e+06	
         R10	   1228	   76.7055	      15.3	    2.2691	 6.8171e+06	   76.6899	      15.3	   2.26385	6.75313e+06	   76.6872	      15.3	   2.28149	6.85129e+06	   76.7102	      15.3	   2.28181	6.87492e+06	   76.6977	      15.3	   2.26647	6.78512e+06	   76.6885	      15.3	   2.27267	6.80155e+06	   76.6987	      15.3	   2.28165	6.86302e+06	   76.7079	      15.3	   2.27545	6.84574e+06	
         R10	   1229	   76.7102	      15.3	   2.28181	6.87432e+06	   76.6872	      15.3	   2.28149	6.85142e+06	   76.6876	      15.3	    2.2981	6.95652e+06	   76.7041	      15.3	   2.29777	6.94607e+06	   76.6987	      15.3	   2.28165	6.86279e+06	   76.6874	      15.3	   2.28979	 6.9031e+06	   76.6959	      15.3	   2.29794	 6.9512e+06	   76.7071	      15.3	   2.28979	6.90933e+06	
         R10	   1230	   76.7041	      15.3	   2.29777	6.95265e+06	   76.6876	      15.3	    2.2981	6.95752e+06	   76.6868	      15.3	     2.314	7.06158e+06	   76.7081	      15.3	   2.31463	 7.0178e+06	   76.6959	      15.3	   2.29794	6.95502e+06	   76.6872	      15.3	   2.30605	7.00837e+06	   76.6975	      15.3	   2.31432	7.03945e+06	   76.7061	      15.3	    2.3062	6.98437e+06	
         R10	   1231	   76.6869	      15.3	   2.36619	7.42018e+06	   76.6885	      15.3	   2.38219	7.49614e+06	   76.7111	      15.3	   2.37601	 7.2558e+06	   76.7068	      15.3	   2.35232	7.19911e+06	   76.6877	      15.3	   2.37419	7.45507e+06	   76.6998	      15.3	    2.3791	7.37276e+06	   76.7089	      15.3	   2.36417	7.22331e+06	   76.6968	      15.3	   2.35926	 7.3053e+06	
         R10	   1232	   76.7068	      15.3	   2.35232	7.19762e+06	   76.7111	      15.3	   2.37601	7.25544e+06	   76.7377	      15.3	   2.37128	7.06608e+06	   76.7346	      15.3	   2.34477	7.02976e+06	   76.7089	      15.3	   2.36417	 7.2225e+06	   76.7244	      15.3	   2.37364	7.15798e+06	   76.7361	      15.3	   2.35802	7.04467e+06	   76.7207	      15.3	   2.34855	7.11118e+06	
         R10	   1233	   76.7346	      15.3	   2.34477	7.03131e+06	   76.7377	      15.3	   2.37128	7.06571e+06	   76.7695	      15.3	   2.36678	6.92182e+06	   76.7652	      15.3	   2.33521	6.91458e+06	   76.7361	      15.3	   2.35802	7.04521e+06	   76.7536	      15.3	   2.36903	6.99106e+06	   76.7674	      15.3	     2.351	6.91551e+06	   76.7499	      15.3	   2.33999	6.97068e+06	
         R10	   1234	   76.7652	      15.3	   2.33521	6.91396e+06	   76.7695	      15.3	   2.36678	 6.9225e+06	   76.8063	      15.3	   2.36165	6.82238e+06	   76.8017	      15.3	   2.32526	6.83937e+06	   76.7674	      15.3	     2.351	 6.9155e+06	   76.7879	      15.3	   2.36421	6.86994e+06	    76.804	      15.3	   2.34345	6.82866e+06	   76.7835	      15.3	   2.33024	6.87452e+06	
         R10	   1235	   76.8017	      15.3	   2.32526	6.83852e+06	   76.8063	      15.3	   2.36165	6.82258e+06	   76.8476	      15.3	    2.3561	6.76489e+06	   76.8424	      15.3	   2.31147	6.79886e+06	    76.804	      15.3	   2.34345	6.82834e+06	    76.827	      15.3	   2.35888	6.79162e+06	    76.845	      15.3	   2.33378	6.77976e+06	    76.822	      15.3	   2.31836	 6.8166e+06	
         R10	   1236	   76.8424	      15.3	   2.31147	6.79849e+06	   76.8476	      15.3	    2.3561	6.76392e+06	   76.8935	      15.3	    2.3511	6.73824e+06	   76.8882	      15.3	   2.30242	 6.7832e+06	    76.845	      15.3	   2.33378	6.77912e+06	   76.8705	      15.3	    2.3536	 6.7493e+06	   76.8909	      15.3	   2.32676	6.75921e+06	   76.8653	      15.3	   2.30694	6.78944e+06	
         R10	   1237	   76.8882	      15.3	   2.30242	6.78325e+06	   76.8935	      15.3	    2.3511	6.73839e+06	   76.9446	      15.3	   2.34606	6.73943e+06	     76.94	      15.3	   2.29241	6.79114e+06	   76.8909	      15.3	   2.32676	6.75929e+06	   76.9191	      15.3	   2.34858	6.73743e+06	   76.9423	      15.3	   2.31923	6.76411e+06	   76.9141	      15.3	   2.29741	 6.7859e+06	
         R10	   1238	     76.94	      15.3	   2.29241	6.79284e+06	   76.9446	      15.3	   2.34606	6.73924e+06	   77.0004	      15.3	   2.34071	6.76121e+06	   76.9953	      15.3	   2.27784	6.81976e+06	   76.9423	      15.3	   2.31923	6.76484e+06	   76.9725	      15.3	   2.34339	6.74904e+06	   76.9978	      15.3	   2.30928	6.78942e+06	   76.9677	      15.3	   2.28512	6.80512e+06	
         R10	   1239	   76.9953	      15.3	   2.27784	6.81969e+06	   77.0004	      15.3	   2.34071	6.76067e+06	   77.0606	      15.3	   2.33606	6.79681e+06	   77.0552	      15.3	   2.26902	6.85695e+06	   76.9978	      15.3	   2.30928	6.78912e+06	   77.0305	      15.3	   2.33839	6.77782e+06	   77.0579	      15.3	   2.30254	6.82602e+06	   77.0253	      15.3	   2.27343	6.83748e+06	
         R10	   1240	   77.0552	      15.3	   2.26902	6.85743e+06	   77.0606	      15.3	   2.33606	6.79706e+06	   77.1261	      15.3	   2.33184	6.84372e+06	   77.1211	      15.3	   2.26304	6.89968e+06	   77.0579	      15.3	   2.30254	6.82638e+06	   77.0934	      15.3	   2.33395	6.81965e+06	   77.1236	      15.3	   2.29744	6.87098e+06	   77.0881	      15.3	   2.26603	6.87787e+06	
         R10	   1241	   77.1211	      15.3	   2.26304	6.89987e+06	   77.1261	      15.3	   2.33184	6.84284e+06	   77.1966	      15.3	   2.32712	6.89767e+06	   77.1927	      15.3	    2.2538	6.95544e+06	   77.1236	      15.3	   2.29744	6.87063e+06	   77.1614	      15.3	   2.32948	6.86968e+06	   77.1947	      15.3	   2.29046	6.92586e+06	   77.1569	      15.3	   2.25842	6.92702e+06	
         R10	   1242	   77.1927	      15.3	    2.2538	6.95584e+06	   77.1966	      15.3	   2.32712	6.89647e+06	   77.2714	      15.3	   2.32284	6.95418e+06	   77.2694	      15.3	   2.24444	7.01233e+06	   77.1947	      15.3	   2.29046	6.92546e+06	    77.234	      15.3	   2.32498	 6.9249e+06	   77.2704	      15.3	   2.28364	6.98245e+06	    77.231	      15.3	   2.24912	6.98352e+06	
         R10	   1243	   77.1851	      15.3	   2.17706	7.02057e+06	   77.1927	      15.3	    2.2538	6.95437e+06	   77.2694	      15.3	   2.24444	7.01341e+06	   77.2656	      15.3	   2.16145	 7.0862e+06	   77.1889	      15.3	   2.21543	6.98662e+06	    77.231	      15.3	   2.24912	6.98337e+06	   77.2675	      15.3	   2.20294	7.04883e+06	   77.2254	      15.3	   2.16925	7.05269e+06	
         R10	   1244	   77.1851	      15.3	   2.17706	7.02122e+06	   77.2656	      15.3	   2.16145	7.08593e+06	   77.2626	      15.3	   2.07663	7.16513e+06	   77.1792	      15.3	   2.08167	7.11197e+06	   77.2254	      15.3	   2.16925	7.05285e+06	   77.2641	      15.3	   2.11904	7.12447e+06	   77.2209	      15.3	   2.07915	7.13806e+06	   77.1822	      15.3	   2.12936	7.06517e+06	
         R10	   1245	   77.1792	      15.3	   2.08167	7.11124e+06	   77.2626	      15.3	   2.07663	7.16564e+06	   77.2601	      15.3	   1.98623	7.25838e+06	   77.1727	      15.3	   1.99116	7.19674e+06	   77.2209	      15.3	   2.07915	7.13794e+06	   77.2613	      15.3	   2.03143	7.21079e+06	   77.2164	      15.3	   1.98869	7.22695e+06	    77.176	      15.3	   2.03641	7.15287e+06	
         R10	   1246	   77.1727	      15.3	   1.99116	7.19854e+06	   77.2601	      15.3	   1.98623	7.26098e+06	   77.2565	      15.3	   1.89413	7.36001e+06	   77.1645	      15.3	   1.89718	7.29559e+06	   77.2164	      15.3	   1.98869	7.22919e+06	   77.2583	      15.3	   1.94018	7.30925e+06	   77.2105	      15.3	   1.89566	7.32714e+06	   77.1686	      15.3	   1.94417	 7.2459e+06	
         R10	   1247	   77.1645	      15.3	   1.89718	 7.2995e+06	   77.2565	      15.3	   1.89413	7.36315e+06	    77.253	      15.3	   1.79915	7.47959e+06	   77.1552	      15.3	   1.80128	7.40817e+06	   77.2105	      15.3	   1.89566	7.33066e+06	   77.2548	      15.3	   1.84664	7.42002e+06	   77.2041	      15.3	   1.80022	7.44302e+06	   77.1598	      15.3	   1.84923	7.35262e+06	
         R10	   1248	   77.1552	      15.3	   1.80128	7.41459e+06	    77.253	      15.3	   1.79915	7.48561e+06	   77.2491	      15.3	   1.70037	7.62391e+06	   77.1464	      15.3	   1.70423	7.53765e+06	   77.2041	      15.3	   1.80022	7.44925e+06	   77.2511	      15.3	   1.74976	7.55321e+06	   77.1978	      15.3	    1.7023	7.57968e+06	   77.1508	      15.3	   1.75276	7.47489e+06	
         R10	   1249	   77.0546	      15.3	   1.80551	7.33961e+06	   77.1552	      15.3	   1.80128	7.42179e+06	   77.1464	      15.3	   1.70423	7.55362e+06	   77.0405	      15.3	   1.70043	7.48155e+06	   77.1049	      15.3	   1.80339	7.37951e+06	   77.1508	      15.3	   1.75276	7.48639e+06	   77.0934	      15.3	   1.70233	7.51621e+06	   77.0476	      15.3	   1.75297	7.40927e+06	
         R10	   1250	   77.0546	      15.3	   1.80551	7.33831e+06	   77.0405	      15.3	   1.70043	7.48684e+06	   76.9418	      15.3	   1.69568	7.43161e+06	    76.938	      15.3	   1.77633	7.28977e+06	   77.0476	      15.3	   1.75297	7.41124e+06	   76.9911	      15.3	   1.69806	7.45769e+06	   76.9399	      15.3	   1.73601	7.35969e+06	   76.9963	      15.3	   1.79092	7.31251e+06	
         R10	   1251	    76.938	      15.3	   1.77633	7.29738e+06	   76.9418	      15.3	   1.69568	7.43463e+06	   76.8451	      15.3	   1.69056	7.39199e+06	    76.844	      15.3	   1.77482	7.22736e+06	   76.9399	      15.3	   1.73601	7.36505e+06	   76.8934	      15.3	   1.69312	7.41145e+06	   76.8446	      15.3	   1.73269	7.30864e+06	    76.891	      15.3	   1.77558	7.26053e+06	
         R10	   1252	    76.844	      15.3	   1.77482	7.23055e+06	   76.8451	      15.3	   1.69056	7.38549e+06	   76.7541	      15.3	   1.68718	7.37518e+06	   76.7487	      15.3	   1.76977	7.15509e+06	   76.8446	      15.3	   1.73269	7.30703e+06	   76.7996	      15.3	   1.68887	7.37818e+06	   76.7514	      15.3	   1.72848	7.26364e+06	   76.7964	      15.3	    1.7723	7.19005e+06	
         R10	   1253	   76.7487	      15.3	   1.76977	 7.1578e+06	   76.7541	      15.3	   1.68718	7.36635e+06	   76.6655	      15.3	   1.68368	7.36261e+06	   76.6589	      15.3	   1.75971	7.18072e+06	   76.7514	      15.3	   1.72848	7.26059e+06	   76.7098	      15.3	   1.68543	7.36175e+06	   76.6622	      15.3	    1.7217	7.26904e+06	   76.7038	      15.3	   1.76474	7.16555e+06	
         R10	   1254	   76.7487	      15.3	   1.76977	7.15761e+06	   76.6589	      15.3	   1.75971	7.14981e+06	   76.6384	      15.3	   1.82622	6.97461e+06	   76.6954	      15.3	   1.84329	6.93574e+06	   76.7038	      15.3	   1.76474	7.15088e+06	   76.6487	      15.3	   1.79297	7.06012e+06	   76.6669	      15.3	   1.83476	6.95338e+06	    76.722	      15.3	   1.80653	7.04358e+06	
         R10	   1255	   76.6954	      15.3	   1.84329	6.92922e+06	   76.6384	      15.3	   1.82622	 6.9684e+06	   76.6173	      15.3	   1.89072	6.77784e+06	   76.6712	      15.3	   1.90299	6.75531e+06	   76.6669	      15.3	   1.83476	6.94732e+06	   76.6279	      15.3	   1.85847	6.87169e+06	   76.6442	      15.3	   1.89685	6.76494e+06	   76.6833	      15.3	   1.87314	6.84086e+06	
         R10	   1256	   76.6712	      15.3	   1.90299	6.75395e+06	   76.6173	      15.3	   1.89072	6.77547e+06	   76.6095	      15.3	   1.95018	 6.5741e+06	   76.6616	      15.3	   1.95794	6.59322e+06	   76.6442	      15.3	   1.89685	6.76319e+06	   76.6134	      15.3	   1.92045	6.67376e+06	   76.6356	      15.3	   1.95406	6.58148e+06	   76.6664	      15.3	   1.93046	6.67271e+06	
         R10	   1257	   76.6616	      15.3	   1.95794	  6.592e+06	   76.6095	      15.3	   1.95018	 6.5706e+06	   76.6026	      15.3	   2.00372	6.36407e+06	   76.6521	      15.3	   2.01192	 6.4256e+06	   76.6356	      15.3	   1.95406	6.57923e+06	    76.606	      15.3	   1.97695	6.46625e+06	   76.6273	      15.3	   2.00782	6.39209e+06	   76.6568	      15.3	   1.98493	6.50788e+06	
         R10	   1258	   76.6521	      15.3	   2.01192	6.42656e+06	   76.6026	      15.3	   2.00372	6.36322e+06	    76.593	      15.3	   2.05248	6.15092e+06	   76.6384	      15.3	   2.06268	  6.247e+06	   76.6273	      15.3	   2.00782	6.39221e+06	   76.5978	      15.3	    2.0281	6.25575e+06	   76.6157	      15.3	   2.05758	 6.1956e+06	   76.6452	      15.3	    2.0373	6.33563e+06	
         R10	   1259	   76.6384	      15.3	   2.06268	6.24692e+06	    76.593	      15.3	   2.05248	 6.1508e+06	   76.5829	      15.3	   2.09566	5.93061e+06	   76.6233	      15.3	   2.11152	6.05094e+06	   76.6157	      15.3	   2.05758	6.19551e+06	   76.5879	      15.3	   2.07407	6.03912e+06	   76.6031	      15.3	   2.10359	5.98657e+06	   76.6308	      15.3	    2.0871	6.14741e+06	
         R10	   1260	   76.6233	      15.3	   2.11152	6.05431e+06	   76.5829	      15.3	   2.09566	5.93246e+06	    76.568	      15.3	   2.13292	5.69762e+06	   76.5981	      15.3	   2.14505	5.80858e+06	   76.6031	      15.3	   2.10359	5.98917e+06	   76.5755	      15.3	   2.11429	5.81253e+06	   76.5831	      15.3	   2.13899	5.74878e+06	   76.6107	      15.3	   2.12828	5.92894e+06	
         R10	   1261	   76.5981	      15.3	   2.14505	5.80745e+06	    76.568	      15.3	   2.13292	5.69572e+06	    76.558	      15.3	   2.16552	5.46736e+06	   76.5842	      15.3	   2.17158	5.61429e+06	   76.5831	      15.3	   2.13899	 5.7475e+06	    76.563	      15.3	   2.14922	  5.579e+06	   76.5711	      15.3	   2.16855	5.53544e+06	   76.5912	      15.3	   2.15832	5.70922e+06	
         R10	   1262	   76.5457	      15.3	   2.19313	5.21186e+06	   76.5252	      15.3	   2.18892	5.19685e+06	   76.5223	      15.3	   2.21175	4.99309e+06	   76.5484	      15.3	   2.21209	5.09187e+06	   76.5354	      15.3	   2.19102	5.19761e+06	   76.5237	      15.3	   2.20034	5.09125e+06	   76.5354	      15.3	   2.21192	5.02525e+06	   76.5471	      15.3	   2.20261	5.15069e+06	
         R10	   1263	   76.5457	      15.3	   2.19313	5.21946e+06	   76.5484	      15.3	   2.21209	5.09058e+06	   76.5678	      15.3	   2.21248	5.29073e+06	    76.568	      15.3	   2.19384	5.36716e+06	   76.5471	      15.3	   2.20261	5.15388e+06	   76.5581	      15.3	   2.21228	5.18457e+06	   76.5679	      15.3	   2.20316	5.32826e+06	   76.5569	      15.3	   2.19348	5.28679e+06	
         R10	   1264	   76.6064	      15.3	   2.18945	5.78564e+06	   76.6193	      15.3	   2.21207	5.93078e+06	   76.6346	      15.3	   2.21138	6.11141e+06	   76.6344	      15.3	   2.18997	6.06012e+06	   76.6129	      15.3	   2.20076	5.85758e+06	   76.6269	      15.3	   2.21172	6.02051e+06	   76.6345	      15.3	   2.20068	 6.0857e+06	   76.6204	      15.3	   2.18971	5.92065e+06	
         R10	   1265	    76.636	      15.3	   2.16039	6.05799e+06	   76.6344	      15.3	   2.18997	6.05843e+06	   76.6549	      15.3	   2.19396	6.24563e+06	   76.6665	      15.3	   2.16903	6.29014e+06	   76.6352	      15.3	   2.17518	6.05786e+06	   76.6446	      15.3	   2.19196	6.15151e+06	   76.6607	      15.3	   2.18149	6.26746e+06	   76.6513	      15.3	   2.16471	6.17295e+06	
         R10	   1266	   76.6665	      15.3	   2.16903	6.29037e+06	   76.6549	      15.3	   2.19396	 6.2453e+06	   76.6698	      15.3	   2.21049	6.40376e+06	   76.6874	      15.3	   2.20362	6.48113e+06	   76.6607	      15.3	   2.18149	6.26736e+06	   76.6623	      15.3	   2.20222	6.32444e+06	   76.6786	      15.3	   2.20705	 6.4422e+06	    76.677	      15.3	   2.18632	6.38573e+06	
         R10	   1267	   76.7105	      15.3	   2.19971	6.58867e+06	   76.6874	      15.3	   2.20362	6.49054e+06	   76.6886	      15.3	   2.22785	6.57912e+06	   76.7098	      15.3	   2.22772	6.66358e+06	   76.6989	      15.3	   2.20166	 6.5393e+06	    76.688	      15.3	   2.21573	6.53467e+06	   76.6992	      15.3	   2.22778	6.62125e+06	   76.7102	      15.3	   2.21372	6.62575e+06	
         R10	   1268	   76.7346	      15.3	   2.23091	6.74123e+06	   76.7098	      15.3	   2.22772	6.66455e+06	   76.7062	      15.3	   2.24804	6.72972e+06	   76.7269	      15.3	   2.25886	6.80244e+06	   76.7222	      15.3	   2.22932	6.70282e+06	    76.708	      15.3	   2.23788	6.69673e+06	   76.7166	      15.3	   2.25345	6.76607e+06	   76.7308	      15.3	   2.24488	6.77085e+06	
         R10	   1269	   76.7269	      15.3	   2.25886	6.79943e+06	   76.7062	      15.3	   2.24804	6.73152e+06	   76.6899	      15.3	   2.26385	6.75352e+06	   76.7055	      15.3	    2.2691	6.81697e+06	   76.7166	      15.3	   2.25345	6.76546e+06	    76.698	      15.3	   2.25594	6.74194e+06	   76.6977	      15.3	   2.26647	6.78524e+06	   76.7162	      15.3	   2.26398	6.80772e+06	
         R10	   1270	   76.7304	      15.3	   2.32001	6.98581e+06	   76.7346	      15.3	   2.34477	7.02903e+06	   76.7652	      15.3	   2.33521	6.91798e+06	   76.7575	      15.3	    2.3031	6.89451e+06	   76.7325	      15.3	   2.33239	7.00519e+06	   76.7499	      15.3	   2.33999	6.97123e+06	   76.7614	      15.3	   2.31916	6.90408e+06	    76.744	      15.3	   2.31155	6.93789e+06	
         R10	   1271	   76.7575	      15.3	    2.3031	6.89626e+06	   76.7652	      15.3	   2.33521	6.91671e+06	   76.8017	      15.3	   2.32526	6.83816e+06	   76.7904	      15.3	   2.28614	6.84452e+06	   76.7614	      15.3	   2.31916	6.90434e+06	   76.7835	      15.3	   2.33024	6.87529e+06	   76.7961	      15.3	    2.3057	6.83949e+06	    76.774	      15.3	   2.29462	6.86862e+06	
         R10	   1272	   76.7904	      15.3	   2.28614	6.84375e+06	   76.8017	      15.3	   2.32526	6.83693e+06	   76.8424	      15.3	   2.31147	6.79737e+06	   76.8293	      15.3	   2.26838	6.81919e+06	   76.7961	      15.3	    2.3057	6.83843e+06	    76.822	      15.3	   2.31836	6.81511e+06	   76.8358	      15.3	   2.28992	6.80698e+06	   76.8099	      15.3	   2.27726	6.82992e+06	
         R10	   1273	   76.8293	      15.3	   2.26838	6.82135e+06	   76.8424	      15.3	   2.31147	6.79993e+06	   76.8882	      15.3	   2.30242	6.78361e+06	   76.8782	      15.3	    2.2558	6.81961e+06	   76.8358	      15.3	   2.28992	6.80929e+06	   76.8653	      15.3	   2.30694	6.79033e+06	   76.8832	      15.3	   2.27911	 6.8005e+06	   76.8538	      15.3	   2.26209	6.81923e+06	
         R10	   1274	   76.8782	      15.3	    2.2558	6.81764e+06	   76.8882	      15.3	   2.30242	6.78407e+06	     76.94	      15.3	   2.29241	6.79066e+06	   76.9296	      15.3	   2.24197	6.83766e+06	   76.8832	      15.3	   2.27911	6.79978e+06	   76.9141	      15.3	   2.29741	6.78606e+06	   76.9348	      15.3	   2.26719	6.81328e+06	   76.9039	      15.3	   2.24888	6.82656e+06	
         R10	   1275	   76.9296	      15.3	   2.24197	6.83672e+06	     76.94	      15.3	   2.29241	6.79107e+06	   76.9953	      15.3	   2.27784	 6.8231e+06	   76.9837	      15.3	    2.2141	6.87883e+06	   76.9348	      15.3	   2.26719	6.81304e+06	   76.9677	      15.3	   2.28512	6.80592e+06	   76.9895	      15.3	   2.24597	6.84999e+06	   76.9566	      15.3	   2.22803	 6.8564e+06	
         R10	   1276	   76.9837	      15.3	    2.2141	6.88032e+06	   76.9953	      15.3	   2.27784	 6.8208e+06	   77.0552	      15.3	   2.26902	6.85846e+06	   77.0469	      15.3	       2.2	6.91701e+06	   76.9895	      15.3	   2.24597	6.84959e+06	   77.0253	      15.3	   2.27343	6.83876e+06	    77.051	      15.3	   2.23451	6.88691e+06	   77.0153	      15.3	   2.20705	6.89784e+06	
         R10	   1277	   77.0469	      15.3	       2.2	6.91603e+06	   77.0552	      15.3	   2.26902	6.86034e+06	   77.1211	      15.3	   2.26304	6.90191e+06	   77.1139	      15.3	   2.18767	6.97033e+06	    77.051	      15.3	   2.23451	6.88736e+06	   77.0881	      15.3	   2.26603	6.88048e+06	   77.1175	      15.3	   2.22535	6.93519e+06	   77.0804	      15.3	   2.19384	6.94243e+06	
         R10	   1278	   77.1139	      15.3	   2.18767	6.97076e+06	   77.1211	      15.3	   2.26304	6.90177e+06	   77.1927	      15.3	    2.2538	6.95541e+06	   77.1851	      15.3	   2.17706	7.01987e+06	   77.1175	      15.3	   2.22535	6.93534e+06	   77.1569	      15.3	   2.25842	6.92793e+06	   77.1889	      15.3	   2.21543	6.98678e+06	   77.1495	      15.3	   2.18236	6.99469e+06	
         R10	   1279	   77.1044	      15.3	    2.1056	7.04247e+06	   77.1139	      15.3	   2.18767	6.96825e+06	   77.1851	      15.3	   2.17706	7.01933e+06	   77.1792	      15.3	   2.08167	7.11499e+06	   77.1091	      15.3	   2.14663	7.00429e+06	   77.1495	      15.3	   2.18236	6.99322e+06	   77.1822	      15.3	   2.12936	7.06571e+06	   77.1418	      15.3	   2.09363	7.07783e+06	
         R10	   1280	   77.1044	      15.3	    2.1056	7.04089e+06	   77.1792	      15.3	   2.08167	7.11427e+06	   77.1727	      15.3	   1.99116	7.20086e+06	    77.089	      15.3	   2.00186	7.13547e+06	   77.1418	      15.3	   2.09363	7.07665e+06	    77.176	      15.3	   2.03641	7.15641e+06	   77.1309	      15.3	   1.99651	7.16752e+06	   77.0967	      15.3	   2.05373	7.08665e+06	
         R10	   1281	    77.089	      15.3	   2.00186	7.13336e+06	   77.1727	      15.3	   1.99116	7.20106e+06	   77.1645	      15.3	   1.89718	 7.2969e+06	   77.0787	      15.3	   1.90995	7.22171e+06	   77.1309	      15.3	   1.99651	7.16645e+06	   77.1686	      15.3	   1.94417	7.24782e+06	   77.1216	      15.3	   1.90356	7.25838e+06	   77.0838	      15.3	    1.9559	7.17638e+06	
         R10	   1282	   77.0787	      15.3	   1.90995	7.22613e+06	   77.1645	      15.3	   1.89718	7.30491e+06	   77.1552	      15.3	   1.80128	7.41562e+06	   77.0546	      15.3	   1.80551	7.33119e+06	   77.1216	      15.3	   1.90356	7.26467e+06	   77.1598	      15.3	   1.84923	7.35904e+06	   77.1049	      15.3	   1.80339	7.37223e+06	   77.0667	      15.3	   1.85773	7.27757e+06	
         R10	   1283	   76.9264	      15.3	   1.84909	7.17627e+06	    76.938	      15.3	   1.77633	7.28409e+06	    76.844	      15.3	   1.77482	7.21216e+06	   76.8419	      15.3	   1.85286	 7.0679e+06	   76.9322	      15.3	   1.81271	7.22909e+06	    76.891	      15.3	   1.77558	7.24623e+06	    76.843	      15.3	   1.81384	7.13901e+06	   76.8841	      15.3	   1.85098	7.12058e+06	
         R10	   1284	   76.7471	      15.3	   1.87155	6.90345e+06	   76.6954	      15.3	   1.84329	6.94438e+06	   76.6712	      15.3	   1.90299	6.76093e+06	   76.7214	      15.3	   1.91583	6.78859e+06	   76.7213	      15.3	   1.85742	6.92292e+06	   76.6833	      15.3	   1.87314	6.85125e+06	   76.6963	      15.3	   1.90941	 6.7734e+06	   76.7343	      15.3	   1.89369	6.84513e+06	
         R10	   1285	   76.7214	      15.3	   1.91583	6.78294e+06	   76.6712	      15.3	   1.90299	6.75315e+06	   76.6616	      15.3	   1.95794	6.59395e+06	   76.7165	      15.3	   1.97016	6.66183e+06	   76.6963	      15.3	   1.90941	6.76681e+06	   76.6664	      15.3	   1.93046	6.67268e+06	    76.689	      15.3	   1.96405	6.62624e+06	    76.719	      15.3	     1.943	6.72179e+06	
         R10	   1286	   76.7165	      15.3	   1.97016	6.66041e+06	   76.6616	      15.3	   1.95794	6.59598e+06	   76.6521	      15.3	   2.01192	6.42644e+06	   76.6953	      15.3	   2.02525	6.51491e+06	    76.689	      15.3	   1.96405	6.62642e+06	   76.6568	      15.3	   1.98493	6.51029e+06	   76.6737	      15.3	   2.01859	6.46932e+06	   76.7059	      15.3	   1.99771	6.58639e+06	
         R10	   1287	   76.6953	      15.3	   2.02525	6.51239e+06	   76.6521	      15.3	   2.01192	6.42752e+06	   76.6384	      15.3	   2.06268	 6.2493e+06	   76.6805	      15.3	   2.07493	 6.3848e+06	   76.6737	      15.3	   2.01859	6.46854e+06	   76.6452	      15.3	    2.0373	6.33727e+06	   76.6594	      15.3	   2.06881	6.31533e+06	   76.6879	      15.3	   2.05009	6.44772e+06	
         R10	   1288	   76.6805	      15.3	   2.07493	6.38574e+06	   76.6384	      15.3	   2.06268	6.25095e+06	   76.6233	      15.3	   2.11152	6.05368e+06	   76.6623	      15.3	   2.12384	6.25332e+06	   76.6594	      15.3	   2.06881	6.31664e+06	   76.6308	      15.3	    2.0871	 6.1508e+06	   76.6428	      15.3	   2.11768	6.15122e+06	   76.6714	      15.3	   2.09939	6.31841e+06	
         R10	   1289	   76.5842	      15.3	   2.17158	 5.6014e+06	    76.558	      15.3	   2.16552	5.46187e+06	    76.568	      15.3	   2.19384	5.36348e+06	   76.5832	      15.3	   2.19385	5.52489e+06	   76.5711	      15.3	   2.16855	5.52589e+06	    76.563	      15.3	   2.17968	5.41036e+06	   76.5756	      15.3	   2.19384	5.44228e+06	   76.5837	      15.3	   2.18271	 5.5627e+06	
         R10	   1290	   76.6124	      15.3	   2.16641	5.86956e+06	   76.6064	      15.3	   2.18945	5.79603e+06	   76.6344	      15.3	   2.18997	6.06155e+06	    76.636	      15.3	   2.16039	 6.0652e+06	   76.6094	      15.3	   2.17793	 5.8323e+06	   76.6204	      15.3	   2.18971	5.92667e+06	   76.6352	      15.3	   2.17518	6.06298e+06	   76.6242	      15.3	    2.1634	5.96603e+06	
         R10	   1291	   76.6665	      15.3	   2.16903	6.28685e+06	   76.6874	      15.3	   2.20362	6.48004e+06	   76.7105	      15.3	   2.19971	6.58672e+06	   76.6987	      15.3	   2.17014	6.47569e+06	    76.677	      15.3	   2.18632	6.38342e+06	   76.6989	      15.3	   2.20166	6.53313e+06	   76.7046	      15.3	   2.18492	6.53117e+06	   76.6826	      15.3	   2.16958	6.38066e+06	
         R10	   1292	   76.7381	      15.3	   2.19731	6.66875e+06	   76.7105	      15.3	   2.19971	 6.5872e+06	   76.7098	      15.3	   2.22772	6.66112e+06	   76.7346	      15.3	   2.23091	6.73667e+06	   76.7243	      15.3	   2.19851	6.62779e+06	   76.7102	      15.3	   2.21372	6.62379e+06	   76.7222	      15.3	   2.22932	6.69881e+06	   76.7364	      15.3	   2.21411	6.70208e+06	
         R10	   1293	    76.768	      15.3	   2.24052	6.79653e+06	   76.7346	      15.3	   2.23091	6.74015e+06	   76.7269	      15.3	   2.25886	6.79963e+06	   76.7498	      15.3	   2.27359	6.84986e+06	   76.7513	      15.3	   2.23571	6.76832e+06	   76.7308	      15.3	   2.24488	6.76892e+06	   76.7384	      15.3	   2.26623	6.82467e+06	   76.7589	      15.3	   2.25706	6.82121e+06	
         R10	   1294	   76.7498	      15.3	   2.27359	 6.8509e+06	   76.7269	      15.3	   2.25886	6.80087e+06	   76.7102	      15.3	   2.28181	6.87592e+06	   76.7291	      15.3	    2.2919	6.89569e+06	   76.7384	      15.3	   2.26623	 6.8258e+06	   76.7186	      15.3	   2.27033	6.83702e+06	   76.7196	      15.3	   2.28685	6.88573e+06	   76.7394	      15.3	   2.28275	6.87209e+06	
         R10	   1295	   76.8158	      15.3	   2.22865	6.81695e+06	   76.8293	      15.3	   2.26838	6.81561e+06	   76.8782	      15.3	    2.2558	6.81925e+06	   76.8648	      15.3	   2.21188	6.83299e+06	   76.8226	      15.3	   2.24852	6.81541e+06	   76.8538	      15.3	   2.26209	6.81619e+06	   76.8715	      15.3	   2.23384	6.82546e+06	   76.8403	      15.3	   2.22027	6.82397e+06	
         R10	   1296	   76.8648	      15.3	   2.21188	6.83678e+06	   76.8782	      15.3	    2.2558	6.81797e+06	   76.9296	      15.3	   2.24197	6.83604e+06	   76.9124	      15.3	   2.19496	6.86074e+06	   76.8715	      15.3	   2.23384	6.82665e+06	   76.9039	      15.3	   2.24888	6.82595e+06	    76.921	      15.3	   2.21846	6.84785e+06	   76.8886	      15.3	   2.20342	6.84796e+06	
         R10	   1297	   76.9124	      15.3	   2.19496	6.86883e+06	   76.9296	      15.3	   2.24197	6.83337e+06	   76.9837	      15.3	    2.2141	6.87772e+06	   76.9672	      15.3	   2.15994	6.91612e+06	    76.921	      15.3	   2.21846	6.85049e+06	   76.9566	      15.3	   2.22803	 6.8541e+06	   76.9755	      15.3	   2.18702	6.89648e+06	   76.9398	      15.3	   2.17745	6.89123e+06	
         R10	   1298	   76.9672	      15.3	   2.15994	 6.9152e+06	   76.9837	      15.3	    2.2141	6.88172e+06	   77.0469	      15.3	       2.2	6.92488e+06	   77.0348	      15.3	   2.12457	6.98449e+06	   76.9755	      15.3	   2.18702	6.89797e+06	   77.0153	      15.3	   2.20705	6.90245e+06	   77.0409	      15.3	   2.16229	 6.9537e+06	    77.001	      15.3	   2.14225	6.94836e+06	
         R10	   1299	   77.0348	      15.3	   2.12457	6.98577e+06	   77.0469	      15.3	       2.2	6.92092e+06	   77.1139	      15.3	   2.18767	6.96919e+06	   77.1044	      15.3	    2.1056	7.04221e+06	   77.0409	      15.3	   2.16229	 6.9524e+06	   77.0804	      15.3	   2.19384	6.94431e+06	   77.1091	      15.3	   2.14663	7.00462e+06	   77.0696	      15.3	   2.11509	7.01317e+06	
         R10	   1300	   77.0091	      15.3	   2.04094	7.04101e+06	   77.0348	      15.3	   2.12457	6.98089e+06	   77.1044	      15.3	    2.1056	7.04078e+06	    77.089	      15.3	   2.00186	7.14235e+06	    77.022	      15.3	   2.08275	7.01018e+06	   77.0696	      15.3	   2.11509	7.01013e+06	   77.0967	      15.3	   2.05373	7.08994e+06	    77.049	      15.3	    2.0214	7.09008e+06	
         R10	   1301	   77.0091	      15.3	   2.04094	7.02526e+06	    77.089	      15.3	   2.00186	7.13953e+06	   77.0787	      15.3	   1.90995	7.22313e+06	   77.0019	      15.3	   1.92475	7.15797e+06	    77.049	      15.3	    2.0214	7.08101e+06	   77.0838	      15.3	    1.9559	7.18021e+06	   77.0403	      15.3	   1.91735	7.18962e+06	   77.0055	      15.3	   1.98284	7.08988e+06	
         R10	   1302	   76.9329	      15.3	   1.92023	7.07553e+06	   76.9264	      15.3	   1.84909	7.16671e+06	   76.8419	      15.3	   1.85286	7.05936e+06	   76.8649	      15.3	   1.91869	6.99775e+06	   76.9296	      15.3	   1.88466	7.12042e+06	   76.8841	      15.3	   1.85098	7.11134e+06	   76.8534	      15.3	   1.88577	7.02808e+06	   76.8989	      15.3	   1.91946	7.03587e+06	
         R10	   1303	   76.7487	      15.3	   1.76977	7.15519e+06	   76.6954	      15.3	   1.84329	6.92225e+06	   76.7471	      15.3	   1.87155	6.90675e+06	   76.7757	      15.3	   1.82919	7.05033e+06	    76.722	      15.3	   1.80653	7.03563e+06	   76.7213	      15.3	   1.85742	6.91342e+06	   76.7614	      15.3	   1.85037	6.97743e+06	   76.7622	      15.3	   1.79948	7.10205e+06	
         R10	   1304	   76.7968	      15.3	   1.90292	6.92326e+06	   76.7471	      15.3	   1.87155	6.91204e+06	   76.7214	      15.3	   1.91583	6.78498e+06	   76.7822	      15.3	   1.94904	6.81788e+06	   76.7719	      15.3	   1.88723	6.91654e+06	   76.7343	      15.3	   1.89369	6.84767e+06	   76.7518	      15.3	   1.93243	6.80034e+06	   76.7895	      15.3	   1.92598	6.86998e+06	
         R10	   1305	   76.7481	      15.3	   2.03618	6.64193e+06	   76.6953	      15.3	   2.02525	6.52217e+06	   76.6805	      15.3	   2.07493	6.38712e+06	   76.7213	      15.3	   2.09007	6.53328e+06	   76.7217	      15.3	   2.03072	6.58086e+06	   76.6879	      15.3	   2.05009	6.45375e+06	   76.7009	      15.3	    2.0825	6.45937e+06	   76.7347	      15.3	   2.06312	6.58649e+06	
         R10	   1306	   76.7213	      15.3	   2.09007	6.53018e+06	   76.6805	      15.3	   2.07493	6.38655e+06	   76.6623	      15.3	   2.12384	6.25054e+06	   76.6972	      15.3	   2.13056	6.43146e+06	   76.7009	      15.3	    2.0825	6.45746e+06	   76.6714	      15.3	   2.09939	6.31741e+06	   76.6797	      15.3	    2.1272	6.34015e+06	   76.7092	      15.3	   2.11031	6.47991e+06	
         R10	   1307	   76.5981	      15.3	   2.14505	5.80822e+06	   76.5842	      15.3	   2.17158	5.60739e+06	   76.6064	      15.3	   2.18945	5.77604e+06	   76.6124	      15.3	   2.16641	5.85933e+06	   76.5912	      15.3	   2.15832	5.70617e+06	   76.5953	      15.3	   2.18052	5.68931e+06	   76.6094	      15.3	   2.17793	5.81716e+06	   76.6053	      15.3	   2.15573	5.83268e+06	
         R10	   1308	   76.6233	      15.3	   2.11152	6.04958e+06	   76.5981	      15.3	   2.14505	5.81319e+06	   76.6124	      15.3	   2.16641	5.86196e+06	    76.636	      15.3	   2.16039	6.05258e+06	   76.6107	      15.3	   2.12828	5.92887e+06	   76.6053	      15.3	   2.15573	5.83655e+06	   76.6242	      15.3	    2.1634	5.95588e+06	   76.6296	      15.3	   2.13596	6.04988e+06	
         R10	   1309	   76.6623	      15.3	   2.12384	6.24214e+06	   76.6233	      15.3	   2.11152	 6.0444e+06	    76.636	      15.3	   2.16039	6.05164e+06	   76.6665	      15.3	   2.16903	6.27751e+06	   76.6428	      15.3	   2.11768	6.14084e+06	   76.6296	      15.3	   2.13596	6.04669e+06	   76.6513	      15.3	   2.16471	6.16352e+06	   76.6644	      15.3	   2.14644	6.25952e+06	
         R10	   1310	   76.6972	      15.3	   2.13056	6.42937e+06	   76.6623	      15.3	   2.12384	6.24701e+06	   76.6665	      15.3	   2.16903	6.28969e+06	   76.6987	      15.3	   2.17014	6.47015e+06	   76.6797	      15.3	    2.1272	6.33731e+06	   76.6644	      15.3	   2.14644	6.26798e+06	   76.6826	      15.3	   2.16958	6.37927e+06	   76.6979	      15.3	   2.15035	6.44956e+06	
         R10	   1311	   76.7279	      15.3	   2.13813	6.56294e+06	   76.6972	      15.3	   2.13056	6.42553e+06	   76.6987	      15.3	   2.17014	6.46927e+06	   76.7292	      15.3	    2.1648	6.59378e+06	   76.7125	      15.3	   2.13435	6.49391e+06	   76.6979	      15.3	   2.15035	6.44716e+06	   76.7139	      15.3	   2.16747	6.53106e+06	   76.7285	      15.3	   2.15147	6.57827e+06	
         R10	   1312	   76.7292	      15.3	    2.1648	6.59931e+06	   76.6987	      15.3	   2.17014	6.47182e+06	   76.7105	      15.3	   2.19971	6.59101e+06	   76.7381	      15.3	   2.19731	 6.6744e+06	   76.7139	      15.3	   2.16747	 6.5351e+06	   76.7046	      15.3	   2.18492	6.53138e+06	   76.7243	      15.3	   2.19851	6.63251e+06	   76.7337	      15.3	   2.18106	6.63667e+06	
         R10	   1313	   76.7622	      15.3	   2.15683	6.68286e+06	   76.7292	      15.3	    2.1648	6.59563e+06	   76.7381	      15.3	   2.19731	6.66844e+06	   76.7697	      15.3	   2.19393	6.73991e+06	   76.7457	      15.3	   2.16082	6.63892e+06	   76.7337	      15.3	   2.18106	6.63186e+06	   76.7539	      15.3	   2.19562	 6.7039e+06	   76.7659	      15.3	   2.17538	6.71116e+06	
         R10	   1314	   76.7697	      15.3	   2.19393	6.74587e+06	   76.7381	      15.3	   2.19731	6.67578e+06	   76.7346	      15.3	   2.23091	6.74561e+06	    76.768	      15.3	   2.24052	6.80006e+06	   76.7539	      15.3	   2.19562	6.71055e+06	   76.7364	      15.3	   2.21411	6.71004e+06	   76.7513	      15.3	   2.23571	6.77281e+06	   76.7688	      15.3	   2.21722	6.77155e+06	
         R10	   1315	    76.805	      15.3	   2.18842	6.78559e+06	   76.8158	      15.3	   2.22865	 6.8181e+06	   76.8648	      15.3	   2.21188	6.83352e+06	     76.85	      15.3	   2.16971	6.83581e+06	   76.8104	      15.3	   2.20853	6.80132e+06	   76.8403	      15.3	   2.22027	6.82484e+06	   76.8574	      15.3	    2.1908	6.83421e+06	   76.8275	      15.3	   2.17907	6.80989e+06	
         R10	   1316	     76.85	      15.3	   2.16971	6.83178e+06	   76.8648	      15.3	   2.21188	6.83491e+06	   76.9124	      15.3	   2.19496	6.85824e+06	   76.8929	      15.3	   2.15152	6.87534e+06	   76.8574	      15.3	    2.1908	6.83295e+06	   76.8886	      15.3	   2.20342	 6.8458e+06	   76.9027	      15.3	   2.17324	6.86644e+06	   76.8714	      15.3	   2.16061	6.85289e+06	
         R10	   1317	   76.8929	      15.3	   2.15152	6.85656e+06	   76.9124	      15.3	   2.19496	6.87179e+06	   76.9672	      15.3	   2.15994	6.91557e+06	   76.9429	      15.3	   2.11734	6.95753e+06	   76.9027	      15.3	   2.17324	6.86395e+06	   76.9398	      15.3	   2.17745	6.89241e+06	   76.9551	      15.3	   2.13864	6.93624e+06	   76.9179	      15.3	   2.13443	 6.9057e+06	
         R10	   1318	   76.9429	      15.3	   2.11734	6.93813e+06	   76.9672	      15.3	   2.15994	6.90627e+06	   77.0348	      15.3	   2.12457	6.97918e+06	   77.0091	      15.3	   2.04094	7.03867e+06	   76.9551	      15.3	   2.13864	6.92191e+06	    77.001	      15.3	   2.14225	6.94113e+06	    77.022	      15.3	   2.08275	7.00816e+06	    76.976	      15.3	   2.07914	6.98593e+06	
         R10	   1319	   77.0546	      15.3	   1.80551	7.34099e+06	    76.938	      15.3	   1.77633	7.28999e+06	   76.9264	      15.3	   1.84909	 7.1616e+06	   76.9941	      15.3	   1.85397	7.22166e+06	   76.9963	      15.3	   1.79092	7.31405e+06	   76.9322	      15.3	   1.81271	7.22477e+06	   76.9603	      15.3	   1.85153	7.19098e+06	   77.0244	      15.3	   1.82974	7.28014e+06	
         R10	   1320	   76.9347	      15.3	   1.97923	 7.0267e+06	   76.9329	      15.3	   1.92023	 7.0698e+06	   76.8649	      15.3	   1.91869	 6.9978e+06	   76.8601	      15.3	   1.97305	6.93004e+06	   76.9338	      15.3	   1.94973	7.04792e+06	   76.8989	      15.3	   1.91946	7.03301e+06	   76.8625	      15.3	   1.94587	6.96331e+06	   76.8974	      15.3	   1.97614	6.97761e+06	
         R10	   1321	   76.8419	      15.3	   1.85286	7.06163e+06	    76.844	      15.3	   1.77482	7.22028e+06	   76.7487	      15.3	   1.76977	7.14437e+06	   76.7757	      15.3	   1.82919	7.03261e+06	    76.843	      15.3	   1.81384	 7.1399e+06	   76.7964	      15.3	    1.7723	7.17909e+06	   76.7622	      15.3	   1.79948	7.08779e+06	   76.8088	      15.3	   1.84102	7.04621e+06	
         R10	   1322	   76.8419	      15.3	   1.85286	7.06648e+06	   76.7757	      15.3	   1.82919	7.04226e+06	   76.7471	      15.3	   1.87155	6.91671e+06	   76.7968	      15.3	   1.90292	6.91927e+06	   76.8088	      15.3	   1.84102	7.05331e+06	   76.7614	      15.3	   1.85037	 6.9784e+06	   76.7719	      15.3	   1.88723	6.91709e+06	   76.8193	      15.3	   1.87789	6.99144e+06	
         R10	   1323	   76.7555	      15.3	   2.11295	6.64149e+06	   76.7213	      15.3	   2.09007	6.53455e+06	   76.6972	      15.3	   2.13056	6.43384e+06	   76.7279	      15.3	   2.13813	6.56571e+06	   76.7384	      15.3	   2.10151	6.58782e+06	   76.7092	      15.3	   2.11031	 6.4832e+06	   76.7125	      15.3	   2.13435	6.49937e+06	   76.7417	      15.3	   2.12554	6.60304e+06	
         R10	   1324	   76.7555	      15.3	   2.11295	6.63769e+06	   76.7279	      15.3	   2.13813	6.56306e+06	   76.7292	      15.3	    2.1648	6.59748e+06	   76.7622	      15.3	   2.15683	6.68489e+06	   76.7417	      15.3	   2.12554	 6.5998e+06	   76.7285	      15.3	   2.15147	6.58018e+06	   76.7457	      15.3	   2.16082	6.64079e+06	   76.7588	      15.3	   2.13489	6.66109e+06	
         R10	   1325	   76.8345	      15.3	   2.12526	6.81518e+06	     76.85	      15.3	   2.16971	6.82452e+06	   76.8929	      15.3	   2.15152	6.88086e+06	   76.8695	      15.3	    2.1087	6.86207e+06	   76.8422	      15.3	   2.14749	6.81952e+06	   76.8714	      15.3	   2.16061	6.85208e+06	   76.8812	      15.3	   2.13011	6.87126e+06	    76.852	      15.3	   2.11698	6.83818e+06	
         R10	   1326	   76.8695	      15.3	    2.1087	6.86245e+06	   76.8929	      15.3	   2.15152	6.85495e+06	   76.9429	      15.3	   2.11734	6.92499e+06	   76.9077	      15.3	    2.0802	6.91576e+06	   76.8812	      15.3	   2.13011	6.85843e+06	   76.9179	      15.3	   2.13443	 6.8883e+06	   76.9253	      15.3	   2.09877	6.92023e+06	   76.8886	      15.3	   2.09445	6.88858e+06	
         R10	   1327	   77.0019	      15.3	   1.92475	7.14301e+06	   77.0787	      15.3	   1.90995	7.22384e+06	   77.0546	      15.3	   1.80551	7.34902e+06	   76.9941	      15.3	   1.85397	7.21031e+06	   77.0403	      15.3	   1.91735	7.18256e+06	   77.0667	      15.3	   1.85773	7.28539e+06	   77.0244	      15.3	   1.82974	7.27831e+06	    76.998	      15.3	   1.88936	7.17586e+06	
         R10	   1328	   77.0019	      15.3	   1.92475	7.15021e+06	   76.9941	      15.3	   1.85397	7.22965e+06	   76.9264	      15.3	   1.84909	7.16042e+06	   76.9329	      15.3	   1.92023	7.08043e+06	    76.998	      15.3	   1.88936	7.18912e+06	   76.9603	      15.3	   1.85153	7.19446e+06	   76.9296	      15.3	   1.88466	7.11984e+06	   76.9674	      15.3	   1.92249	7.11465e+06	
         R10	   1329	   77.0091	      15.3	   2.04094	7.03393e+06	   77.0019	      15.3	   1.92475	7.15394e+06	   76.9329	      15.3	   1.92023	7.08184e+06	   76.9347	      15.3	   1.97923	7.02458e+06	   77.0055	      15.3	   1.98284	 7.0921e+06	   76.9674	      15.3	   1.92249	7.11736e+06	   76.9338	      15.3	   1.94973	7.05272e+06	   76.9719	      15.3	   2.01008	7.02892e+06	
         R10	   1330	   76.9171	      15.3	   2.02684	6.97506e+06	   76.9347	      15.3	   1.97923	7.02975e+06	   76.8601	      15.3	   1.97305	6.93251e+06	   76.8605	      15.3	   2.02682	6.88819e+06	   76.9259	      15.3	   2.00303	7.00195e+06	   76.8974	      15.3	   1.97614	6.98048e+06	   76.8603	      15.3	   1.99993	6.90997e+06	   76.8888	      15.3	   2.02683	 6.9311e+06	
         R10	   1331	   76.8601	      15.3	   1.97305	6.93442e+06	   76.8649	      15.3	   1.91869	6.99577e+06	   76.7968	      15.3	   1.90292	6.92358e+06	   76.7822	      15.3	   1.94904	6.82522e+06	   76.8625	      15.3	   1.94587	6.96457e+06	   76.8308	      15.3	    1.9108	6.95868e+06	   76.7895	      15.3	   1.92598	6.87383e+06	   76.8211	      15.3	   1.96104	6.87861e+06	
         R10	   1332	   76.7481	      15.3	   2.03618	6.64354e+06	   76.7213	      15.3	   2.09007	6.53076e+06	   76.7555	      15.3	   2.11295	6.63847e+06	   76.7874	      15.3	   2.08995	6.72325e+06	   76.7347	      15.3	   2.06312	6.58604e+06	   76.7384	      15.3	   2.10151	6.58438e+06	   76.7715	      15.3	   2.10145	6.68024e+06	   76.7677	      15.3	   2.06306	6.68307e+06	
         R10	   1333	    76.805	      15.3	   2.18842	6.78755e+06	     76.85	      15.3	   2.16971	6.83056e+06	   76.8345	      15.3	   2.12526	6.81654e+06	   76.7989	      15.3	   2.14046	6.75493e+06	   76.8275	      15.3	   2.17907	 6.8083e+06	   76.8422	      15.3	   2.14749	6.82326e+06	   76.8167	      15.3	   2.13286	 6.7853e+06	   76.8019	      15.3	   2.16444	6.77072e+06	
         R10	   1334	   76.7822	      15.3	   1.94904	6.81737e+06	   76.7165	      15.3	   1.97016	6.66671e+06	   76.7481	      15.3	   2.03618	6.62907e+06	   76.7925	      15.3	   2.00892	6.77875e+06	   76.7493	      15.3	    1.9596	6.74006e+06	   76.7323	      15.3	   2.00317	6.64688e+06	   76.7703	      15.3	   2.02255	6.70271e+06	   76.7874	      15.3	   1.97898	6.79772e+06	
         R10	   1335	   76.7925	      15.3	   2.00892	6.79269e+06	   76.7481	      15.3	   2.03618	6.64608e+06	   76.7874	      15.3	   2.08995	6.72521e+06	   76.8154	      15.3	    2.0637	6.78733e+06	   76.7703	      15.3	   2.02255	6.71805e+06	   76.7677	      15.3	   2.06306	6.68537e+06	   76.8014	      15.3	   2.07683	6.75591e+06	    76.804	      15.3	   2.03631	6.78963e+06	
         R10	   1336	   76.8605	      15.3	   2.02682	6.88596e+06	   76.8601	      15.3	   1.97305	6.92997e+06	   76.7822	      15.3	   1.94904	6.82715e+06	   76.7925	      15.3	   2.00892	6.78256e+06	   76.8603	      15.3	   1.99993	6.90755e+06	   76.8211	      15.3	   1.96104	6.87737e+06	   76.7874	      15.3	   1.97898	6.80448e+06	   76.8265	      15.3	   2.01787	6.83356e+06	
         R10	   1337	   76.9417	      15.3	   2.05242	 6.9788e+06	   76.9077	      15.3	    2.0802	6.91241e+06	   76.9429	      15.3	   2.11734	6.93937e+06	   77.0091	      15.3	   2.04094	7.05021e+06	   76.9247	      15.3	   2.06631	6.94495e+06	   76.9253	      15.3	   2.09877	 6.9258e+06	    76.976	      15.3	   2.07914	6.99267e+06	   76.9754	      15.3	   2.04668	7.01408e+06	
         R10	   1338	   76.9417	      15.3	   2.05242	6.96539e+06	   77.0091	      15.3	   2.04094	7.01371e+06	   76.9347	      15.3	   1.97923	7.03552e+06	   76.9171	      15.3	   2.02684	6.96624e+06	   76.9754	      15.3	   2.04668	6.98863e+06	   76.9719	      15.3	   2.01008	7.02439e+06	   76.9259	      15.3	   2.00303	7.00047e+06	   76.9294	      15.3	   2.03963	6.96569e+06	
         R10	   1339	   76.9417	      15.3	   2.05242	6.96903e+06	   76.9171	      15.3	   2.02684	6.97395e+06	   76.8605	      15.3	   2.02682	6.88916e+06	   76.9077	      15.3	    2.0802	6.90216e+06	   76.9294	      15.3	   2.03963	6.97132e+06	   76.8888	      15.3	   2.02683	6.93098e+06	   76.8841	      15.3	   2.05351	6.89558e+06	   76.9247	      15.3	   2.06631	6.93519e+06	
         R10	   1340	   76.8486	      15.3	   2.06779	6.84611e+06	   76.8605	      15.3	   2.02682	6.88531e+06	   76.7925	      15.3	   2.00892	6.77747e+06	   76.8154	      15.3	    2.0637	6.78123e+06	   76.8546	      15.3	    2.0473	6.86534e+06	   76.8265	      15.3	   2.01787	6.83057e+06	    76.804	      15.3	   2.03631	  6.779e+06	    76.832	      15.3	   2.06574	6.81348e+06	
         R10	   1341	   76.8486	      15.3	   2.06779	6.85711e+06	   76.8154	      15.3	    2.0637	6.79109e+06	   76.8345	      15.3	   2.12526	6.81277e+06	   76.8695	      15.3	    2.1087	6.86011e+06	    76.832	      15.3	   2.06574	6.82399e+06	   76.8249	      15.3	   2.09448	6.80159e+06	    76.852	      15.3	   2.11698	6.83598e+06	    76.859	      15.3	   2.08824	6.85851e+06	
         R10	   1342	   76.8486	      15.3	   2.06779	6.84807e+06	   76.8695	      15.3	    2.1087	 6.8666e+06	   76.9077	      15.3	    2.0802	6.91009e+06	   76.8605	      15.3	   2.02682	6.90812e+06	    76.859	      15.3	   2.08824	 6.8572e+06	   76.8886	      15.3	   2.09445	6.88778e+06	   76.8841	      15.3	   2.05351	6.90903e+06	   76.8546	      15.3	    2.0473	6.87763e+06	
         R10	   1343	   76.7989	      15.3	   2.14046	6.75525e+06	   76.8345	      15.3	   2.12526	6.80991e+06	   76.8154	      15.3	    2.0637	6.78812e+06	   76.7874	      15.3	   2.08995	6.72533e+06	   76.8167	      15.3	   2.13286	6.78218e+06	   76.8249	      15.3	   2.09448	6.79867e+06	   76.8014	      15.3	   2.07683	6.75624e+06	   76.7931	      15.3	   2.11521	6.74003e+06	
         R10	   1344	   76.7622	      15.3	   2.15683	6.68406e+06	   76.7989	      15.3	   2.14046	6.75647e+06	   76.7874	      15.3	   2.08995	6.72823e+06	   76.7555	      15.3	   2.11295	 6.6389e+06	   76.7805	      15.3	   2.14865	6.71972e+06	   76.7931	      15.3	   2.11521	6.74211e+06	   76.7715	      15.3	   2.10145	6.68298e+06	   76.7588	      15.3	   2.13489	6.66128e+06	
         R10	   1345	    76.805	      15.3	   2.18842	6.78934e+06	   76.7989	      15.3	   2.14046	6.75765e+06	   76.7622	      15.3	   2.15683	6.68363e+06	   76.7697	      15.3	   2.19393	 6.7445e+06	   76.8019	      15.3	   2.16444	6.77296e+06	   76.7805	      15.3	   2.14865	6.72007e+06	   76.7659	      15.3	   2.17538	6.71382e+06	   76.7873	      15.3	   2.19117	6.76665e+06	
         R10	   1346	   76.8158	      15.3	   2.22865	6.81752e+06	    76.805	      15.3	   2.18842	6.78517e+06	   76.7697	      15.3	   2.19393	6.73962e+06	    76.768	      15.3	   2.24052	6.79182e+06	   76.8104	      15.3	   2.20853	6.80081e+06	   76.7873	      15.3	   2.19117	6.76214e+06	   76.7688	      15.3	   2.21722	6.76428e+06	   76.7919	      15.3	   2.23458	6.80373e+06	
         R10	   1347	    76.768	      15.3	   2.24052	6.80242e+06	   76.7904	      15.3	   2.28614	6.85131e+06	   76.8293	      15.3	   2.26838	6.81952e+06	   76.8158	      15.3	   2.22865	6.82069e+06	   76.7792	      15.3	   2.26333	6.82552e+06	   76.8099	      15.3	   2.27726	6.83391e+06	   76.8226	      15.3	   2.24852	 6.8192e+06	   76.7919	      15.3	   2.23458	6.81059e+06	
         R10	   1348	   76.7575	      15.3	    2.3031	6.88977e+06	   76.7904	      15.3	   2.28614	 6.8449e+06	    76.768	      15.3	   2.24052	6.80539e+06	   76.7498	      15.3	   2.27359	6.85188e+06	    76.774	      15.3	   2.29462	6.86551e+06	   76.7792	      15.3	   2.26333	6.82365e+06	   76.7589	      15.3	   2.25706	6.82679e+06	   76.7536	      15.3	   2.28834	6.86936e+06	
         R10	   1349	   76.7304	      15.3	   2.32001	6.97907e+06	   76.7575	      15.3	    2.3031	6.89329e+06	   76.7498	      15.3	   2.27359	6.85187e+06	   76.7291	      15.3	    2.2919	6.90921e+06	    76.744	      15.3	   2.31155	6.93403e+06	   76.7536	      15.3	   2.28834	6.87113e+06	   76.7394	      15.3	   2.28275	6.87917e+06	   76.7298	      15.3	   2.30595	6.94186e+06	
         R10	   1350	   76.7081	      15.3	   2.31463	7.02728e+06	   76.7291	      15.3	    2.2919	6.90454e+06	   76.7102	      15.3	   2.28181	6.87514e+06	   76.7041	      15.3	   2.29777	 6.9502e+06	   76.7186	      15.3	   2.30326	6.96324e+06	   76.7196	      15.3	   2.28685	6.88976e+06	   76.7071	      15.3	   2.28979	6.91175e+06	   76.7061	      15.3	    2.3062	6.98789e+06	
         R10	   1351	   76.7131	      15.3	    2.3299	7.06794e+06	   76.7068	      15.3	   2.35232	7.18852e+06	   76.7346	      15.3	   2.34477	7.02897e+06	   76.7304	      15.3	   2.32001	6.98625e+06	   76.7099	      15.3	   2.34111	7.12442e+06	   76.7207	      15.3	   2.34855	7.10623e+06	   76.7325	      15.3	   2.33239	7.00545e+06	   76.7217	      15.3	   2.32496	7.02595e+06	
         R10	   1352	   76.7131	      15.3	    2.3299	7.08088e+06	   76.7304	      15.3	   2.32001	6.98328e+06	   76.7291	      15.3	    2.2919	6.90336e+06	   76.7081	      15.3	   2.31463	7.00818e+06	   76.7217	      15.3	   2.32496	7.03076e+06	   76.7298	      15.3	   2.30595	6.94103e+06	   76.7186	      15.3	   2.30326	6.95321e+06	   76.7106	      15.3	   2.32227	7.04343e+06	
         R10	   1353	   76.7131	      15.3	    2.3299	7.07539e+06	   76.7081	      15.3	   2.31463	7.02652e+06	   76.6889	      15.3	   2.33208	7.19046e+06	   76.7068	      15.3	   2.35232	7.20246e+06	   76.7106	      15.3	   2.32227	7.04996e+06	   76.6985	      15.3	   2.32336	 7.1053e+06	   76.6978	      15.3	    2.3422	7.19453e+06	   76.7099	      15.3	   2.34111	7.13534e+06	
         R10	   1354	   76.5223	      15.3	   2.21175	5.00594e+06	    76.517	      15.3	      2.23	4.84141e+06	    76.534	      15.3	      2.23	4.85145e+06	   76.5197	      15.3	   2.22088	4.91845e+06	   76.5255	      15.3	      2.23	4.83514e+06	   76.5282	      15.3	   2.22088	4.92388e+06	       N/A	       N/A	       N/A	        N/A	       N/A	       N/A	       N/A	        N/A	
         R10	   1355	   76.6064	      15.3	   2.18945	5.78807e+06	    76.601	      15.3	   2.21312	5.73172e+06	   76.6193	      15.3	   2.21207	 5.9405e+06	   76.6037	      15.3	   2.20128	5.75934e+06	   76.6101	      15.3	   2.21259	5.83477e+06	   76.6129	      15.3	   2.20076	5.86357e+06	       N/A	       N/A	       N/A	        N/A	       N/A	       N/A	       N/A	        N/A	
         R10	   1356	   76.6549	      15.3	   2.19396	6.24674e+06	   76.6519	      15.3	   2.21336	6.28213e+06	   76.6698	      15.3	   2.21049	6.40008e+06	   76.6534	      15.3	   2.20366	6.26433e+06	   76.6608	      15.3	   2.21192	6.34078e+06	   76.6623	      15.3	   2.20222	6.32334e+06	       N/A	       N/A	       N/A	        N/A	       N/A	       N/A	       N/A	        N/A	
         R10	   1357	   76.7062	      15.3	   2.24804	 6.7262e+06	   76.6865	      15.3	   2.24602	6.65068e+06	   76.6899	      15.3	   2.26385	 6.7505e+06	   76.6963	      15.3	   2.24703	 6.6884e+06	   76.6882	      15.3	   2.25493	6.70025e+06	    76.698	      15.3	   2.25594	6.73777e+06	       N/A	       N/A	       N/A	        N/A	       N/A	       N/A	       N/A	        N/A	
         R10	   1358	   76.7081	      15.3	   2.31463	7.01177e+06	   76.6868	      15.3	     2.314	7.06012e+06	   76.6889	      15.3	   2.33208	7.18066e+06	   76.6975	      15.3	   2.31432	7.03567e+06	   76.6878	      15.3	   2.32304	 7.1184e+06	   76.6985	      15.3	   2.32336	7.09293e+06	       N/A	       N/A	       N/A	        N/A	       N/A	       N/A	       N/A	        N/A	
         R10	   1359	    76.558	      15.3	   2.16552	5.47171e+06	   76.5457	      15.3	   2.19313	5.21638e+06	    76.568	      15.3	   2.19384	5.37352e+06	   76.5518	      15.3	   2.17933	5.33989e+06	   76.5569	      15.3	   2.19348	5.28869e+06	    76.563	      15.3	   2.17968	5.42022e+06	       N/A	       N/A	       N/A	        N/A	       N/A	       N/A	       N/A	        N/A	
         R10	   1360	   76.7269	      15.3	   2.25886	6.80001e+06	   76.7055	      15.3	    2.2691	6.81334e+06	   76.7102	      15.3	   2.28181	6.87351e+06	   76.7162	      15.3	   2.26398	6.80623e+06	   76.7079	      15.3	   2.27545	 6.8432e+06	   76.7186	      15.3	   2.27033	6.83548e+06	       N/A	       N/A	       N/A	        N/A	       N/A	       N/A	       N/A	        N/A	
         R10	   1361	   76.5842	      15.3	   2.17158	5.60793e+06	   76.5832	      15.3	   2.19385	 5.5468e+06	   76.6064	      15.3	   2.18945	5.78212e+06	   76.5837	      15.3	   2.18271	5.57677e+06	   76.5948	      15.3	   2.19165	5.66127e+06	   76.5953	      15.3	   2.18052	 5.6923e+06	       N/A	       N/A	       N/A	        N/A	       N/A	       N/A	       N/A	        N/A	
         R10	   1362	   76.7822	      15.3	   1.94904	6.82648e+06	   76.7214	      15.3	   1.91583	6.78916e+06	   76.7165	      15.3	   1.97016	6.67729e+06	   76.7518	      15.3	   1.93243	6.80655e+06	    76.719	      15.3	     1.943	6.73265e+06	   76.7493	      15.3	    1.9596	6.74995e+06	       N/A	       N/A	       N/A	        N/A	       N/A	       N/A	       N/A	        N/A	
         R10	   1363	   76.8649	      15.3	   1.91869	6.99387e+06	   76.8419	      15.3	   1.85286	7.07142e+06	   76.7968	      15.3	   1.90292	6.92436e+06	   76.8534	      15.3	   1.88577	7.03205e+06	   76.8193	      15.3	   1.87789	6.99637e+06	   76.8308	      15.3	    1.9108	6.95794e+06	       N/A	       N/A	       N/A	        N/A	       N/A	       N/A	       N/A	        N/A	
         R10	   1364	   76.7165	      15.3	   1.97016	6.67106e+06	   76.6953	      15.3	   2.02525	 6.5257e+06	   76.7481	      15.3	   2.03618	6.64163e+06	   76.7059	      15.3	   1.99771	6.59713e+06	   76.7217	      15.3	   2.03072	6.58234e+06	   76.7323	      15.3	   2.00317	6.65534e+06	       N/A	       N/A	       N/A	        N/A	       N/A	       N/A	       N/A	        N/A	
         R10	   1365	   76.6847	      15.3	   2.34923	7.32419e+06	   76.6869	      15.3	   2.36619	 7.4228e+06	   76.7068	      15.3	   2.35232	7.19088e+06	   76.6858	      15.3	   2.35771	 7.3709e+06	   76.6968	      15.3	   2.35926	 7.3026e+06	   76.6957	      15.3	   2.35077	 7.2568e+06	       N/A	       N/A	       N/A	        N/A	       N/A	       N/A	       N/A	        N/A	
         R10	   1366	   76.6847	      15.3	   2.34923	 7.3091e+06	   76.7068	      15.3	   2.35232	7.20271e+06	   76.6889	      15.3	   2.33208	7.18206e+06	   76.6957	      15.3	   2.35077	7.25538e+06	   76.6978	      15.3	    2.3422	7.19036e+06	   76.6868	      15.3	   2.34065	7.24286e+06	       N/A	       N/A	       N/A	        N/A	       N/A	       N/A	       N/A	        N/A	
         R10	   1367	      76.5	    15.147	      2.23	1.94889e+07	      76.5	     15.13	      2.23	1.93371e+07	      76.5	     15.13	     2.247	1.93822e+07	      76.5	    15.147	     2.247	1.95564e+07	      76.5	   15.1385	      2.23	1.94128e+07	      76.5	     15.13	    2.2385	1.93595e+07	      76.5	   15.1385	     2.247	1.94692e+07	      76.5	    15.147	    2.2385	1.95225e+07	
         R10	   1368	      76.5	    15.147	     2.247	1.95567e+07	      76.5	     15.13	     2.247	1.93832e+07	      76.5	     15.13	     2.264	1.94151e+07	      76.5	    15.147	     2.264	1.96147e+07	      76.5	   15.1385	     2.247	1.94698e+07	      76.5	     15.13	    2.2555	 1.9399e+07	      76.5	   15.1385	     2.264	1.95148e+07	      76.5	    15.147	    2.2555	1.95856e+07	
         R10	   1369	      76.5	    15.147	     2.264	 1.9615e+07	      76.5	     15.13	     2.264	1.94159e+07	      76.5	     15.13	     2.281	1.94323e+07	      76.5	    15.147	     2.281	1.96565e+07	      76.5	   15.1385	     2.264	1.95154e+07	      76.5	     15.13	    2.2725	 1.9424e+07	      76.5	   15.1385	     2.281	1.95443e+07	      76.5	    15.147	    2.2725	1.96356e+07	
         R10	   1370	      76.5	    15.147	     2.281	 1.9657e+07	      76.5	     15.13	     2.281	 1.9433e+07	      76.5	     15.13	     2.298	1.94295e+07	      76.5	    15.147	     2.298	1.96765e+07	      76.5	   15.1385	     2.281	1.95449e+07	      76.5	     15.13	    2.2895	 1.9431e+07	      76.5	   15.1385	     2.298	1.95529e+07	      76.5	    15.147	    2.2895	1.96665e+07	
         R10	   1371	      76.5	    15.147	     2.298	1.96769e+07	      76.5	     15.13	     2.298	1.94296e+07	      76.5	     15.13	     2.315	1.94037e+07	      76.5	    15.147	     2.315	1.96686e+07	      76.5	   15.1385	     2.298	1.95532e+07	      76.5	     15.13	    2.3065	1.94165e+07	      76.5	   15.1385	     2.315	1.95361e+07	      76.5	    15.147	    2.3065	1.96725e+07	
         R10	   1372	      76.5	    15.147	     2.315	1.96687e+07	      76.5	     15.13	     2.315	1.94035e+07	      76.5	     15.13	     2.332	1.93542e+07	      76.5	    15.147	     2.332	1.96304e+07	      76.5	   15.1385	     2.315	 1.9536e+07	      76.5	     15.13	    2.3235	1.93786e+07	      76.5	   15.1385	     2.332	1.94923e+07	      76.5	    15.147	    2.3235	1.96493e+07	
         R10	   1373	      76.5	    15.147	     2.332	1.96299e+07	      76.5	     15.13	     2.332	 1.9354e+07	      76.5	     15.13	     2.349	1.92847e+07	      76.5	    15.147	     2.349	1.95631e+07	      76.5	   15.1385	     2.332	1.94919e+07	      76.5	     15.13	    2.3405	1.93192e+07	      76.5	   15.1385	     2.349	1.94238e+07	      76.5	    15.147	    2.3405	1.95962e+07	
         R10	   1374	      76.5	    15.147	     2.349	1.95618e+07	      76.5	     15.13	     2.349	1.92848e+07	      76.5	     15.13	     2.366	1.92025e+07	      76.5	    15.147	     2.366	1.94762e+07	      76.5	   15.1385	     2.349	1.94233e+07	      76.5	     15.13	    2.3575	1.92435e+07	      76.5	   15.1385	     2.366	1.93393e+07	      76.5	    15.147	    2.3575	1.95188e+07	
         R10	   1375	      76.5	    15.147	     2.366	1.94746e+07	      76.5	     15.13	     2.366	1.92001e+07	      76.5	     15.13	     2.383	1.91213e+07	      76.5	    15.147	     2.383	1.93863e+07	      76.5	   15.1385	     2.366	1.93373e+07	      76.5	     15.13	    2.3745	1.91606e+07	      76.5	   15.1385	     2.383	1.92538e+07	      76.5	    15.147	    2.3745	1.94303e+07	
         R10	   1376	      76.5	    15.147	     2.383	1.93837e+07	      76.5	     15.13	     2.383	1.91181e+07	      76.5	     15.13	       2.4	1.90549e+07	      76.5	    15.147	       2.4	1.93151e+07	      76.5	   15.1385	     2.383	1.92509e+07	      76.5	     15.13	    2.3915	1.90864e+07	      76.5	   15.1385	       2.4	 1.9185e+07	      76.5	    15.147	    2.3915	1.93493e+07	
         R10	   1377	      76.5	    15.164	     2.383	1.96875e+07	      76.5	    15.147	     2.383	1.93824e+07	      76.5	    15.147	       2.4	 1.9317e+07	      76.5	    15.164	       2.4	1.96144e+07	      76.5	   15.1555	     2.383	1.95349e+07	      76.5	    15.147	    2.3915	1.93496e+07	      76.5	   15.1555	       2.4	1.94657e+07	      76.5	    15.164	    2.3915	1.96508e+07	
         R10	   1378	      76.5	    15.164	     2.383	1.96856e+07	      76.5	    15.164	       2.4	1.96168e+07	      76.5	    15.181	       2.4	1.99591e+07	      76.5	    15.181	     2.383	2.00441e+07	      76.5	    15.164	    2.3915	 1.9651e+07	      76.5	   15.1725	       2.4	1.97879e+07	      76.5	    15.181	    2.3915	2.00014e+07	      76.5	   15.1725	     2.383	1.98648e+07	
         R10	   1379	      76.5	    15.181	     2.383	2.00416e+07	      76.5	    15.181	       2.4	1.99618e+07	      76.5	    15.198	       2.4	2.03622e+07	      76.5	    15.198	     2.383	2.04708e+07	      76.5	    15.181	    2.3915	2.00015e+07	      76.5	   15.1895	       2.4	 2.0162e+07	      76.5	    15.198	    2.3915	2.04162e+07	      76.5	   15.1895	     2.383	2.02561e+07	
         R10	   1380	      76.5	    15.198	     2.383	2.04678e+07	      76.5	    15.198	       2.4	2.03646e+07	      76.5	    15.215	       2.4	2.08395e+07	      76.5	    15.215	     2.383	2.09955e+07	      76.5	    15.198	    2.3915	2.04159e+07	      76.5	   15.2065	       2.4	 2.0602e+07	      76.5	    15.215	    2.3915	2.09171e+07	      76.5	   15.2065	     2.383	2.07315e+07	
         R10	   1381	      76.5	    15.215	     2.383	2.09931e+07	      76.5	    15.215	       2.4	2.08398e+07	      76.5	    15.232	       2.4	2.14188e+07	      76.5	    15.232	     2.383	2.16464e+07	      76.5	    15.215	    2.3915	2.09161e+07	      76.5	   15.2235	       2.4	 2.1129e+07	      76.5	    15.232	    2.3915	2.15321e+07	      76.5	   15.2235	     2.383	2.13193e+07	
         R10	   1382	      76.5	    15.232	     2.383	2.16504e+07	      76.5	    15.232	       2.4	 2.1408e+07	      76.5	    15.249	       2.4	2.21024e+07	      76.5	    15.249	     2.383	2.24858e+07	      76.5	    15.232	    2.3915	2.15288e+07	      76.5	   15.2405	       2.4	2.17542e+07	      76.5	    15.249	    2.3915	2.22934e+07	      76.5	   15.2405	     2.383	2.20667e+07	
         R10	   1383	      76.5	    15.249	     2.383	2.25053e+07	      76.5	    15.249	       2.4	2.20695e+07	      76.5	    15.266	       2.4	2.29974e+07	      76.5	    15.266	     2.383	2.34286e+07	      76.5	    15.249	    2.3915	2.22867e+07	      76.5	   15.2575	       2.4	2.25282e+07	      76.5	    15.266	    2.3915	2.32128e+07	      76.5	   15.2575	     2.383	2.29634e+07	
         R10	   1384	      76.5	    15.266	     2.383	2.35125e+07	      76.5	    15.266	       2.4	2.28363e+07	      76.5	    15.283	       2.4	2.37078e+07	      76.5	    15.283	     2.383	2.46145e+07	      76.5	    15.266	    2.3915	2.31741e+07	      76.5	   15.2745	       2.4	2.32636e+07	      76.5	    15.283	    2.3915	2.41586e+07	      76.5	   15.2745	     2.383	2.40486e+07	
         R10	   1385	      76.5	    15.283	     2.383	2.49663e+07	      76.5	    15.283	       2.4	2.32636e+07	      76.5	      15.3	       2.4	2.57443e+07	      76.5	      15.3	     2.383	2.48736e+07	      76.5	    15.283	    2.3915	2.41139e+07	      76.5	   15.2915	       2.4	2.43964e+07	      76.5	      15.3	    2.3915	2.52769e+07	      76.5	   15.2915	     2.383	2.48825e+07	
         R10	   1386	      76.5	    15.283	     2.366	 2.4435e+07	      76.5	    15.283	     2.383	2.50746e+07	      76.5	      15.3	     2.383	 2.4985e+07	      76.5	      15.3	     2.366	2.39441e+07	      76.5	    15.283	    2.3745	2.47426e+07	      76.5	   15.2915	     2.383	2.49826e+07	      76.5	      15.3	    2.3745	2.44553e+07	      76.5	   15.2915	     2.366	2.41721e+07	
         R10	   1387	      76.5	    15.283	     2.366	2.43014e+07	      76.5	      15.3	     2.366	2.40735e+07	      76.5	      15.3	     2.349	2.29723e+07	      76.5	    15.283	     2.349	2.34585e+07	      76.5	   15.2915	     2.366	2.41697e+07	      76.5	      15.3	    2.3575	2.35203e+07	      76.5	   15.2915	     2.349	2.32066e+07	      76.5	    15.283	    2.3575	2.38764e+07	
         R10	   1388	      76.5	    15.283	     2.349	2.34154e+07	      76.5	      15.3	     2.349	2.29988e+07	      76.5	      15.3	     2.332	2.22063e+07	      76.5	    15.283	     2.332	2.25509e+07	      76.5	   15.2915	     2.349	2.31981e+07	      76.5	      15.3	    2.3405	2.26021e+07	      76.5	   15.2915	     2.332	2.23739e+07	      76.5	    15.283	    2.3405	2.29823e+07	
         R10	   1389	      76.5	    15.283	     2.332	2.25459e+07	      76.5	      15.3	     2.332	 2.2201e+07	      76.5	      15.3	     2.315	2.15787e+07	      76.5	    15.283	     2.315	2.18472e+07	      76.5	   15.2915	     2.332	2.23687e+07	      76.5	      15.3	    2.3235	2.18897e+07	      76.5	   15.2915	     2.315	2.17101e+07	      76.5	    15.283	    2.3235	2.21964e+07	
         R10	   1390	      76.5	    15.283	     2.315	2.18518e+07	      76.5	      15.3	     2.315	2.15671e+07	      76.5	      15.3	     2.298	2.10774e+07	      76.5	    15.283	     2.298	2.12923e+07	      76.5	   15.2915	     2.315	2.17065e+07	      76.5	      15.3	    2.3065	2.13221e+07	      76.5	   15.2915	     2.298	2.11829e+07	      76.5	    15.283	    2.3065	 2.1572e+07	
         R10	   1391	      76.5	    15.283	     2.298	2.12978e+07	      76.5	      15.3	     2.298	2.10672e+07	      76.5	      15.3	     2.281	2.06696e+07	      76.5	    15.283	     2.281	2.08496e+07	      76.5	   15.2915	     2.298	2.11805e+07	      76.5	      15.3	    2.2895	2.08683e+07	      76.5	   15.2915	     2.281	2.07582e+07	      76.5	    15.283	    2.2895	2.10737e+07	
         R10	   1392	      76.5	    15.283	     2.281	 2.0854e+07	      76.5	      15.3	     2.281	2.06623e+07	      76.5	      15.3	     2.264	2.03328e+07	      76.5	    15.283	     2.264	2.04886e+07	      76.5	   15.2915	     2.281	2.07567e+07	      76.5	      15.3	    2.2725	2.04974e+07	      76.5	   15.2915	     2.264	2.04097e+07	      76.5	    15.283	    2.2725	2.06713e+07	
         R10	   1393	      76.5	    15.283	     2.264	2.04919e+07	      76.5	      15.3	     2.264	2.03273e+07	      76.5	      15.3	     2.247	2.00507e+07	      76.5	    15.283	     2.247	 2.0188e+07	      76.5	   15.2915	     2.264	2.04086e+07	      76.5	      15.3	    2.2555	2.01889e+07	      76.5	   15.2915	     2.247	2.01185e+07	      76.5	    15.283	    2.2555	2.03399e+07	
         R10	   1394	      76.5	    15.283	     2.247	2.01903e+07	      76.5	      15.3	     2.247	 2.0046e+07	      76.5	      15.3	      2.23	1.98112e+07	      76.5	    15.283	      2.23	1.99339e+07	      76.5	   15.2915	     2.247	2.01174e+07	      76.5	      15.3	    2.2385	1.99285e+07	      76.5	   15.2915	      2.23	1.98719e+07	      76.5	    15.283	    2.2385	2.00621e+07	
         R10	   1395	      76.5	    15.266	     2.247	2.02785e+07	      76.5	    15.283	     2.247	2.01916e+07	      76.5	    15.283	      2.23	1.99347e+07	      76.5	    15.266	      2.23	2.00197e+07	      76.5	   15.2745	     2.247	2.02342e+07	      76.5	    15.283	    2.2385	2.00631e+07	      76.5	   15.2745	      2.23	1.99765e+07	      76.5	    15.266	    2.2385	2.01491e+07	
         R10	   1396	      76.5	    15.266	     2.247	2.02788e+07	      76.5	    15.266	      2.23	2.00202e+07	      76.5	    15.249	      2.23	2.00555e+07	      76.5	    15.249	     2.247	2.03056e+07	      76.5	    15.266	    2.2385	2.01495e+07	      76.5	   15.2575	      2.23	2.00372e+07	      76.5	    15.249	    2.2385	2.01806e+07	      76.5	   15.2575	     2.247	2.02913e+07	
         R10	   1397	      76.5	    15.249	     2.247	2.03051e+07	      76.5	    15.249	      2.23	2.00559e+07	      76.5	    15.232	      2.23	2.00433e+07	      76.5	    15.232	     2.247	2.02709e+07	      76.5	    15.249	    2.2385	2.01805e+07	      76.5	   15.2405	      2.23	2.00489e+07	      76.5	    15.232	    2.2385	2.01571e+07	      76.5	   15.2405	     2.247	2.02871e+07	
         R10	   1398	      76.5	    15.232	     2.247	2.02698e+07	      76.5	    15.232	      2.23	2.00428e+07	      76.5	    15.215	      2.23	1.99864e+07	      76.5	    15.215	     2.247	2.01835e+07	      76.5	    15.232	    2.2385	2.01563e+07	      76.5	   15.2235	      2.23	 2.0014e+07	      76.5	    15.215	    2.2385	2.00849e+07	      76.5	   15.2235	     2.247	2.02259e+07	
         R10	   1399	      76.5	    15.215	     2.247	2.01822e+07	      76.5	    15.215	      2.23	1.99857e+07	      76.5	    15.198	      2.23	1.98935e+07	      76.5	    15.198	     2.247	2.00559e+07	      76.5	    15.215	    2.2385	2.00839e+07	      76.5	   15.2065	      2.23	1.99391e+07	      76.5	    15.198	    2.2385	1.99746e+07	      76.5	   15.2065	     2.247	2.01185e+07	
         R10	   1400	      76.5	    15.198	     2.247	2.00547e+07	      76.5	    15.198	      2.23	1.98923e+07	      76.5	    15.181	      2.23	1.97737e+07	      76.5	    15.181	     2.247	1.99018e+07	      76.5	    15.198	    2.2385	1.99734e+07	      76.5	   15.1895	      2.23	1.98326e+07	      76.5	    15.181	    2.2385	1.98376e+07	      76.5	   15.1895	     2.247	1.99778e+07	
         R10	   1401	      76.5	    15.181	     2.247	1.99008e+07	      76.5	    15.181	      2.23	1.97728e+07	      76.5	    15.164	      2.23	1.96359e+07	      76.5	    15.164	     2.247	1.97323e+07	      76.5	    15.181	    2.2385	1.98367e+07	      76.5	   15.1725	      2.23	1.97041e+07	      76.5	    15.164	    2.2385	 1.9684e+07	      76.5	   15.1725	     2.247	1.98163e+07	
         R10	   1402	      76.5	    15.164	     2.247	1.97314e+07	      76.5	    15.164	      2.23	1.96357e+07	      76.5	    15.147	      2.23	1.94885e+07	      76.5	    15.147	     2.247	1.95571e+07	      76.5	    15.164	    2.2385	1.96834e+07	      76.5	   15.1555	      2.23	1.95619e+07	      76.5	    15.147	    2.2385	1.95227e+07	      76.5	   15.1555	     2.247	 1.9644e+07	
         R10	   1403	      76.5	    15.164	     2.264	1.98205e+07	      76.5	    15.164	     2.247	1.97321e+07	      76.5	    15.147	     2.247	1.95576e+07	      76.5	    15.147	     2.264	1.96151e+07	      76.5	    15.164	    2.2555	1.97761e+07	      76.5	   15.1555	     2.247	1.96446e+07	      76.5	    15.147	    2.2555	1.95862e+07	      76.5	   15.1555	     2.264	1.97176e+07	
         R10	   1404	      76.5	    15.164	     2.264	1.98212e+07	      76.5	    15.147	     2.264	1.96155e+07	      76.5	    15.147	     2.281	 1.9657e+07	      76.5	    15.164	     2.281	1.98949e+07	      76.5	   15.1555	     2.264	1.97181e+07	      76.5	    15.147	    2.2725	1.96361e+07	      76.5	   15.1555	     2.281	1.97758e+07	      76.5	    15.164	    2.2725	1.98578e+07	
         R10	   1405	      76.5	    15.164	     2.281	1.98957e+07	      76.5	    15.147	     2.281	1.96573e+07	      76.5	    15.147	     2.298	1.96766e+07	      76.5	    15.164	     2.298	1.99465e+07	      76.5	   15.1555	     2.281	1.97763e+07	      76.5	    15.147	    2.2895	1.96667e+07	      76.5	   15.1555	     2.298	1.98114e+07	      76.5	    15.164	    2.2895	1.99208e+07	
         R10	   1406	      76.5	    15.164	     2.298	1.99473e+07	      76.5	    15.147	     2.298	1.96769e+07	      76.5	    15.147	     2.315	1.96685e+07	      76.5	    15.164	     2.315	1.99663e+07	      76.5	   15.1555	     2.298	1.98119e+07	      76.5	    15.147	    2.3065	1.96725e+07	      76.5	   15.1555	     2.315	1.98173e+07	      76.5	    15.164	    2.3065	1.99564e+07	
         R10	   1407	      76.5	    15.164	     2.315	1.99667e+07	      76.5	    15.147	     2.315	1.96686e+07	      76.5	    15.147	     2.332	1.96298e+07	      76.5	    15.164	     2.332	1.99468e+07	      76.5	   15.1555	     2.315	1.98176e+07	      76.5	    15.147	    2.3235	1.96489e+07	      76.5	   15.1555	     2.332	1.97882e+07	      76.5	    15.164	    2.3235	1.99564e+07	
         R10	   1408	      76.5	    15.164	     2.332	1.99465e+07	      76.5	    15.147	     2.332	1.96293e+07	      76.5	    15.147	     2.349	1.95623e+07	      76.5	    15.164	     2.349	1.98864e+07	      76.5	   15.1555	     2.332	1.97878e+07	      76.5	    15.147	    2.3405	1.95956e+07	      76.5	   15.1555	     2.349	1.97243e+07	      76.5	    15.164	    2.3405	1.99161e+07	
         R10	   1409	      76.5	    15.164	     2.349	 1.9885e+07	      76.5	    15.147	     2.349	1.95611e+07	      76.5	    15.147	     2.366	1.94752e+07	      76.5	    15.164	     2.366	1.97937e+07	      76.5	   15.1555	     2.349	 1.9723e+07	      76.5	    15.147	    2.3575	1.95179e+07	      76.5	   15.1555	     2.366	1.96344e+07	      76.5	    15.164	    2.3575	 1.9839e+07	
         R10	   1410	      76.5	    15.164	     2.366	1.97909e+07	      76.5	    15.147	     2.366	1.94736e+07	      76.5	    15.147	     2.383	1.93845e+07	      76.5	    15.164	     2.383	 1.9692e+07	      76.5	   15.1555	     2.366	1.96322e+07	      76.5	    15.147	    2.3745	1.94289e+07	      76.5	   15.1555	     2.383	1.95382e+07	      76.5	    15.164	    2.3745	1.97413e+07	
         R10	   1411	      76.5	    15.181	     2.366	2.01669e+07	      76.5	    15.164	     2.366	  1.979e+07	      76.5	    15.164	     2.383	1.96896e+07	      76.5	    15.181	     2.383	2.00508e+07	      76.5	   15.1725	     2.366	1.99784e+07	      76.5	    15.164	    2.3745	1.97396e+07	      76.5	   15.1725	     2.383	1.98702e+07	      76.5	    15.181	    2.3745	2.01086e+07	
         R10	   1412	      76.5	    15.181	     2.366	2.01656e+07	      76.5	    15.181	     2.383	2.00474e+07	      76.5	    15.198	     2.383	2.04821e+07	      76.5	    15.198	     2.366	 2.0621e+07	      76.5	    15.181	    2.3745	2.01062e+07	      76.5	   15.1895	     2.383	2.02647e+07	      76.5	    15.198	    2.3745	2.05511e+07	      76.5	   15.1895	     2.366	2.03932e+07	
         R10	   1413	      76.5	    15.198	     2.366	2.06198e+07	      76.5	    15.198	     2.383	2.04776e+07	      76.5	    15.215	     2.383	2.10106e+07	      76.5	    15.215	     2.366	2.11798e+07	      76.5	    15.198	    2.3745	2.05482e+07	      76.5	   15.2065	     2.383	2.07439e+07	      76.5	    15.215	    2.3745	2.10945e+07	      76.5	   15.2065	     2.366	2.08995e+07	
         R10	   1414	      76.5	    15.215	     2.366	2.11791e+07	      76.5	    15.215	     2.383	2.10063e+07	      76.5	    15.232	     2.383	2.16782e+07	      76.5	    15.232	     2.366	2.18615e+07	      76.5	    15.215	    2.3745	 2.1092e+07	      76.5	   15.2235	     2.383	2.13418e+07	      76.5	    15.232	    2.3745	2.17687e+07	      76.5	   15.2235	     2.366	2.15196e+07	
         R10	   1415	      76.5	    15.232	     2.366	2.18638e+07	      76.5	    15.232	     2.383	2.16774e+07	      76.5	    15.249	     2.383	2.24952e+07	      76.5	    15.249	     2.366	2.26944e+07	      76.5	    15.232	    2.3745	2.17695e+07	      76.5	   15.2405	     2.383	2.20851e+07	      76.5	    15.249	    2.3745	2.25926e+07	      76.5	   15.2405	     2.366	2.22772e+07	
         R10	   1416	      76.5	    15.249	     2.366	2.27001e+07	      76.5	    15.249	     2.383	2.25239e+07	      76.5	    15.266	     2.383	2.35278e+07	      76.5	    15.266	     2.366	 2.3559e+07	      76.5	    15.249	    2.3745	2.26098e+07	      76.5	   15.2575	     2.383	2.30216e+07	      76.5	    15.266	    2.3745	2.35394e+07	      76.5	   15.2575	     2.366	2.31249e+07	
         R10	   1417	      76.5	    15.266	     2.366	2.35816e+07	      76.5	    15.266	     2.383	2.35821e+07	      76.5	    15.283	     2.383	2.44341e+07	      76.5	    15.283	     2.366	2.44176e+07	      76.5	    15.266	    2.3745	2.35784e+07	      76.5	   15.2745	     2.383	2.39991e+07	      76.5	    15.283	    2.3745	2.44173e+07	      76.5	   15.2745	     2.366	2.39875e+07	
         R10	   1418	      76.5	    15.266	     2.349	2.31633e+07	      76.5	    15.266	     2.366	2.35879e+07	      76.5	    15.283	     2.366	2.42672e+07	      76.5	    15.283	     2.349	 2.3424e+07	      76.5	    15.266	    2.3575	2.33718e+07	      76.5	   15.2745	     2.366	2.39157e+07	      76.5	    15.283	    2.3575	2.38422e+07	      76.5	   15.2745	     2.349	2.32845e+07	
         R10	   1419	      76.5	    15.266	     2.349	2.31468e+07	      76.5	    15.283	     2.349	2.33805e+07	      76.5	    15.283	     2.332	2.25526e+07	      76.5	    15.266	     2.332	2.25178e+07	      76.5	   15.2745	     2.349	2.32545e+07	      76.5	    15.283	    2.3405	2.29657e+07	      76.5	   15.2745	     2.332	2.25295e+07	      76.5	    15.266	    2.3405	2.28305e+07	
         R10	   1420	      76.5	    15.266	     2.332	2.25064e+07	      76.5	    15.283	     2.332	2.25534e+07	      76.5	    15.283	     2.315	2.18489e+07	      76.5	    15.266	     2.315	2.19079e+07	      76.5	   15.2745	     2.332	 2.2524e+07	      76.5	    15.283	    2.3235	 2.2201e+07	      76.5	   15.2745	     2.315	2.18747e+07	      76.5	    15.266	    2.3235	2.22066e+07	
         R10	   1421	      76.5	    15.266	     2.315	2.19036e+07	      76.5	    15.283	     2.315	2.18569e+07	      76.5	    15.283	     2.298	2.12953e+07	      76.5	    15.266	     2.298	2.13827e+07	      76.5	   15.2745	     2.315	2.18765e+07	      76.5	    15.283	    2.3065	 2.1576e+07	      76.5	   15.2745	     2.298	2.13366e+07	      76.5	    15.266	    2.3065	 2.1643e+07	
         R10	   1422	      76.5	    15.266	     2.298	2.13816e+07	      76.5	    15.283	     2.298	2.13024e+07	      76.5	    15.283	     2.281	2.08518e+07	      76.5	    15.266	     2.281	2.09459e+07	      76.5	   15.2745	     2.298	2.13396e+07	      76.5	    15.283	    2.2895	2.10771e+07	      76.5	   15.2745	     2.281	2.08972e+07	      76.5	    15.266	    2.2895	2.11637e+07	
         R10	   1423	      76.5	    15.266	     2.281	 2.0946e+07	      76.5	    15.283	     2.281	2.08569e+07	      76.5	    15.283	     2.264	  2.049e+07	      76.5	    15.266	     2.264	2.05827e+07	      76.5	   15.2745	     2.281	2.08998e+07	      76.5	    15.283	    2.2725	2.06734e+07	      76.5	   15.2745	     2.264	2.05351e+07	      76.5	    15.266	    2.2725	2.07643e+07	
         R10	   1424	      76.5	    15.266	     2.264	 2.0583e+07	      76.5	    15.283	     2.264	2.04936e+07	      76.5	    15.283	     2.247	2.01887e+07	      76.5	    15.266	     2.247	2.02782e+07	      76.5	   15.2745	     2.264	2.05371e+07	      76.5	    15.283	    2.2555	2.03411e+07	      76.5	   15.2745	     2.247	2.02326e+07	      76.5	    15.266	    2.2555	2.04306e+07	
         R10	   1425	      76.5	    15.249	     2.264	2.05938e+07	      76.5	    15.266	     2.264	2.05835e+07	      76.5	    15.266	     2.247	2.02783e+07	      76.5	    15.249	     2.247	2.03051e+07	      76.5	   15.2575	     2.264	2.05874e+07	      76.5	    15.266	    2.2555	2.04309e+07	      76.5	   15.2575	     2.247	2.02908e+07	      76.5	    15.249	    2.2555	2.04494e+07	
         R10	   1426	      76.5	    15.249	     2.264	2.05929e+07	      76.5	    15.249	     2.247	2.03043e+07	      76.5	    15.232	     2.247	2.02709e+07	      76.5	    15.232	     2.264	2.05262e+07	      76.5	    15.249	    2.2555	2.04486e+07	      76.5	   15.2405	     2.247	2.02868e+07	      76.5	    15.232	    2.2555	2.03985e+07	      76.5	   15.2405	     2.264	2.05584e+07	
         R10	   1427	      76.5	    15.232	     2.264	2.05245e+07	      76.5	    15.232	     2.247	2.02698e+07	      76.5	    15.215	     2.247	2.01838e+07	      76.5	    15.215	     2.264	2.03965e+07	      76.5	    15.232	    2.2555	2.03971e+07	      76.5	   15.2235	     2.247	2.02261e+07	      76.5	    15.215	    2.2555	  2.029e+07	      76.5	   15.2235	     2.264	2.04596e+07	
         R10	   1428	      76.5	    15.215	     2.264	2.03947e+07	      76.5	    15.215	     2.247	2.01825e+07	      76.5	    15.198	     2.247	2.00564e+07	      76.5	    15.198	     2.264	2.02242e+07	      76.5	    15.215	    2.2555	2.02885e+07	      76.5	   15.2065	     2.247	2.01189e+07	      76.5	    15.198	    2.2555	2.01402e+07	      76.5	   15.2065	     2.264	2.03088e+07	
         R10	   1429	      76.5	    15.198	     2.264	2.02226e+07	      76.5	    15.198	     2.247	2.00553e+07	      76.5	    15.181	     2.247	1.99023e+07	      76.5	    15.181	     2.264	2.00277e+07	      76.5	    15.198	    2.2555	2.01388e+07	      76.5	   15.1895	     2.247	1.99783e+07	      76.5	    15.181	    2.2555	1.99648e+07	      76.5	   15.1895	     2.264	2.01247e+07	
         R10	   1430	      76.5	    15.181	     2.264	2.00265e+07	      76.5	    15.181	     2.247	1.99013e+07	      76.5	    15.164	     2.247	1.97328e+07	      76.5	    15.164	     2.264	1.98213e+07	      76.5	    15.181	    2.2555	1.99637e+07	      76.5	   15.1725	     2.247	1.98167e+07	      76.5	    15.164	    2.2555	1.97769e+07	      76.5	   15.1725	     2.264	1.99235e+07	
         R10	   1431	      76.5	    15.181	     2.281	2.01422e+07	      76.5	    15.181	     2.264	2.00273e+07	      76.5	    15.164	     2.264	 1.9822e+07	      76.5	    15.164	     2.281	1.98956e+07	      76.5	    15.181	    2.2725	2.00846e+07	      76.5	   15.1725	     2.264	1.99243e+07	      76.5	    15.164	    2.2725	1.98586e+07	      76.5	   15.1725	     2.281	2.00186e+07	
         R10	   1432	      76.5	    15.181	     2.281	2.01434e+07	      76.5	    15.164	     2.281	1.98964e+07	      76.5	    15.164	     2.298	 1.9947e+07	      76.5	    15.181	     2.298	2.02374e+07	      76.5	   15.1725	     2.281	2.00196e+07	      76.5	    15.164	    2.2895	1.99215e+07	      76.5	   15.1725	     2.298	2.00919e+07	      76.5	    15.181	    2.2895	  2.019e+07	
         R10	   1433	      76.5	    15.181	     2.298	2.02387e+07	      76.5	    15.164	     2.298	1.99478e+07	      76.5	    15.164	     2.315	1.99664e+07	      76.5	    15.181	     2.315	2.02983e+07	      76.5	   15.1725	     2.298	 2.0093e+07	      76.5	    15.164	    2.3065	1.99568e+07	      76.5	   15.1725	     2.315	2.01321e+07	      76.5	    15.181	    2.3065	2.02681e+07	
         R10	   1434	      76.5	    15.181	     2.315	2.02994e+07	      76.5	    15.164	     2.315	1.99668e+07	      76.5	    15.164	     2.332	1.99464e+07	      76.5	    15.181	     2.332	2.03112e+07	      76.5	   15.1725	     2.315	2.01329e+07	      76.5	    15.164	    2.3235	1.99563e+07	      76.5	   15.1725	     2.332	2.01286e+07	      76.5	    15.181	    2.3235	2.03048e+07	
         R10	   1435	      76.5	    15.181	     2.332	2.03114e+07	      76.5	    15.164	     2.332	1.99461e+07	      76.5	    15.164	     2.349	1.98852e+07	      76.5	    15.181	     2.349	 2.0267e+07	      76.5	   15.1725	     2.332	2.01286e+07	      76.5	    15.164	    2.3405	1.99153e+07	      76.5	   15.1725	     2.349	 2.0076e+07	      76.5	    15.181	    2.3405	2.02887e+07	
         R10	   1436	      76.5	    15.181	     2.349	2.02656e+07	      76.5	    15.164	     2.349	 1.9884e+07	      76.5	    15.164	     2.366	1.97924e+07	      76.5	    15.181	     2.366	2.01706e+07	      76.5	   15.1725	     2.349	2.00747e+07	      76.5	    15.164	    2.3575	1.98379e+07	      76.5	   15.1725	     2.366	1.99814e+07	      76.5	    15.181	    2.3575	2.02177e+07	
         R10	   1437	      76.5	    15.198	     2.349	2.07174e+07	      76.5	    15.181	     2.349	2.02646e+07	      76.5	    15.181	     2.366	 2.0169e+07	      76.5	    15.198	     2.366	2.06264e+07	      76.5	   15.1895	     2.349	2.04908e+07	      76.5	    15.181	    2.3575	2.02164e+07	      76.5	   15.1895	     2.366	2.03976e+07	      76.5	    15.198	    2.3575	2.06713e+07	
         R10	   1438	      76.5	    15.198	     2.349	2.07171e+07	      76.5	    15.198	     2.366	2.06248e+07	      76.5	    15.215	     2.366	2.11839e+07	      76.5	    15.215	     2.349	2.12528e+07	      76.5	    15.198	    2.3575	2.06703e+07	      76.5	   15.2065	     2.366	2.09041e+07	      76.5	    15.215	    2.3575	2.12173e+07	      76.5	   15.2065	     2.349	2.09845e+07	
         R10	   1439	      76.5	    15.215	     2.349	2.12544e+07	      76.5	    15.215	     2.366	2.11836e+07	      76.5	    15.232	     2.366	2.18697e+07	      76.5	    15.232	     2.349	2.18681e+07	      76.5	    15.215	    2.3575	 2.1218e+07	      76.5	   15.2235	     2.366	 2.1526e+07	      76.5	    15.232	    2.3575	2.18672e+07	      76.5	   15.2235	     2.349	2.15602e+07	
         R10	   1440	      76.5	    15.232	     2.349	2.18748e+07	      76.5	    15.232	     2.366	2.18722e+07	      76.5	    15.249	     2.366	2.26764e+07	      76.5	    15.249	     2.349	2.25358e+07	      76.5	    15.232	    2.3575	2.18718e+07	      76.5	   15.2405	     2.366	2.22724e+07	      76.5	    15.249	    2.3575	2.26034e+07	      76.5	   15.2405	     2.349	2.22028e+07	
         R10	   1441	      76.5	    15.249	     2.349	2.25525e+07	      76.5	    15.249	     2.366	2.26914e+07	      76.5	    15.266	     2.366	2.35652e+07	      76.5	    15.266	     2.349	2.31294e+07	      76.5	    15.249	    2.3575	2.26192e+07	      76.5	   15.2575	     2.366	2.31234e+07	      76.5	    15.266	    2.3575	2.33436e+07	      76.5	   15.2575	     2.349	2.28355e+07	
         R10	   1442	      76.5	    15.249	   2.33201	2.21794e+07	      76.5	    15.249	     2.349	2.25393e+07	      76.5	    15.266	     2.349	2.31062e+07	      76.5	    15.266	     2.332	2.25068e+07	      76.5	    15.249	    2.3405	2.23575e+07	      76.5	   15.2575	     2.349	2.28175e+07	      76.5	    15.266	    2.3405	2.28048e+07	      76.5	   15.2575	     2.332	2.23387e+07	
         R10	   1443	      76.5	    15.249	   2.33201	2.21698e+07	      76.5	    15.266	     2.332	 2.2495e+07	      76.5	    15.266	     2.315	2.19021e+07	      76.5	    15.249	     2.315	2.17393e+07	      76.5	   15.2575	     2.332	 2.2328e+07	      76.5	    15.266	    2.3235	 2.2198e+07	      76.5	   15.2575	     2.315	2.18174e+07	      76.5	    15.249	    2.3235	2.19536e+07	
         R10	   1444	      76.5	    15.249	     2.315	2.17349e+07	      76.5	    15.266	     2.315	2.18979e+07	      76.5	    15.266	     2.298	2.13812e+07	      76.5	    15.249	     2.298	2.13113e+07	      76.5	   15.2575	     2.315	2.18131e+07	      76.5	    15.266	    2.3065	2.16394e+07	      76.5	   15.2575	     2.298	2.13439e+07	      76.5	    15.249	    2.3065	2.15227e+07	
         R10	   1445	      76.5	    15.249	     2.298	2.13098e+07	      76.5	    15.266	     2.298	2.13806e+07	      76.5	    15.266	     2.281	2.09456e+07	      76.5	    15.249	     2.281	2.09276e+07	      76.5	   15.2575	     2.298	2.13429e+07	      76.5	    15.266	    2.2895	2.11631e+07	      76.5	   15.2575	     2.281	2.09349e+07	      76.5	    15.249	    2.2895	2.11185e+07	
         R10	   1446	      76.5	    15.249	     2.281	2.09275e+07	      76.5	    15.266	     2.281	2.09461e+07	      76.5	    15.266	     2.264	2.05829e+07	      76.5	    15.249	     2.264	2.05933e+07	      76.5	   15.2575	     2.281	2.09351e+07	      76.5	    15.266	    2.2725	2.07645e+07	      76.5	   15.2575	     2.264	2.05869e+07	      76.5	    15.249	    2.2725	2.07603e+07	
         R10	   1447	      76.5	    15.232	     2.281	2.08094e+07	      76.5	    15.249	     2.281	2.09254e+07	      76.5	    15.249	     2.264	2.05923e+07	      76.5	    15.232	     2.264	2.05265e+07	      76.5	   15.2405	     2.281	2.08659e+07	      76.5	    15.249	    2.2725	2.07588e+07	      76.5	   15.2405	     2.264	2.05583e+07	      76.5	    15.232	    2.2725	2.06678e+07	
         R10	   1448	      76.5	    15.232	     2.281	2.08065e+07	      76.5	    15.232	     2.264	2.05248e+07	      76.5	    15.215	     2.264	2.03972e+07	      76.5	    15.215	     2.281	2.06207e+07	      76.5	    15.232	    2.2725	2.06656e+07	      76.5	   15.2235	     2.264	2.04601e+07	      76.5	    15.215	    2.2725	2.05088e+07	      76.5	   15.2235	     2.281	2.07125e+07	
         R10	   1449	      76.5	    15.215	     2.281	2.06181e+07	      76.5	    15.215	     2.264	2.03954e+07	      76.5	    15.198	     2.264	2.02251e+07	      76.5	    15.198	     2.281	2.03908e+07	      76.5	    15.215	    2.2725	2.05066e+07	      76.5	   15.2065	     2.264	2.03096e+07	      76.5	    15.198	    2.2725	2.03077e+07	      76.5	   15.2065	     2.281	2.05036e+07	
         R10	   1450	      76.5	    15.198	     2.281	2.03888e+07	      76.5	    15.198	     2.264	2.02236e+07	      76.5	    15.181	     2.264	2.00285e+07	      76.5	    15.181	     2.281	2.01436e+07	      76.5	    15.198	    2.2725	2.03059e+07	      76.5	   15.1895	     2.264	2.01255e+07	      76.5	    15.181	    2.2725	2.00858e+07	      76.5	   15.1895	     2.281	2.02657e+07	
         R10	   1451	      76.5	    15.198	     2.298	2.05411e+07	      76.5	    15.198	     2.281	2.03902e+07	      76.5	    15.181	     2.281	2.01446e+07	      76.5	    15.181	     2.298	2.02386e+07	      76.5	    15.198	    2.2895	2.04653e+07	      76.5	   15.1895	     2.281	2.02669e+07	      76.5	    15.181	    2.2895	2.01913e+07	      76.5	   15.1895	     2.298	2.03894e+07	
         R10	   1452	      76.5	    15.198	     2.298	 2.0543e+07	      76.5	    15.181	     2.298	2.02398e+07	      76.5	    15.181	     2.315	2.02992e+07	      76.5	    15.198	     2.315	2.06617e+07	      76.5	   15.1895	     2.298	2.03909e+07	      76.5	    15.181	    2.3065	2.02691e+07	      76.5	   15.1895	     2.315	  2.048e+07	      76.5	    15.198	    2.3065	2.06019e+07	
         R10	   1453	      76.5	    15.198	     2.315	2.06639e+07	      76.5	    15.181	     2.315	2.03001e+07	      76.5	    15.181	     2.332	2.03113e+07	      76.5	    15.198	     2.332	 2.0728e+07	      76.5	   15.1895	     2.315	2.04816e+07	      76.5	    15.181	    2.3235	2.03052e+07	      76.5	   15.1895	     2.332	2.05193e+07	      76.5	    15.198	    2.3235	2.06953e+07	
         R10	   1454	      76.5	    15.198	     2.332	2.07294e+07	      76.5	    15.181	     2.332	2.03115e+07	      76.5	    15.181	     2.349	 2.0266e+07	      76.5	    15.198	     2.349	2.07185e+07	      76.5	   15.1895	     2.332	2.05201e+07	      76.5	    15.181	    2.3405	2.02882e+07	      76.5	   15.1895	     2.349	2.04921e+07	      76.5	    15.198	    2.3405	2.07232e+07	
         R10	   1455	      76.5	    15.215	     2.332	2.11977e+07	      76.5	    15.198	     2.332	2.07305e+07	      76.5	    15.198	     2.349	2.07183e+07	      76.5	    15.215	     2.349	2.12511e+07	      76.5	   15.2065	     2.332	2.09635e+07	      76.5	    15.198	    2.3405	2.07237e+07	      76.5	   15.2065	     2.349	2.09843e+07	      76.5	    15.215	    2.3405	2.12233e+07	
         R10	   1456	      76.5	    15.215	     2.332	2.12011e+07	      76.5	    15.215	     2.349	2.12535e+07	      76.5	    15.232	     2.349	2.18637e+07	      76.5	    15.232	   2.33201	2.16953e+07	      76.5	    15.215	    2.3405	2.12262e+07	      76.5	   15.2235	     2.349	2.15576e+07	      76.5	    15.232	   2.34051	 2.1778e+07	      76.5	   15.2235	     2.332	2.14469e+07	
         R10	   1457	      76.5	    15.232	   2.33201	2.17023e+07	      76.5	    15.232	     2.349	2.18721e+07	      76.5	    15.249	     2.349	2.25185e+07	      76.5	    15.249	   2.33201	 2.2168e+07	      76.5	    15.232	   2.34051	2.17857e+07	      76.5	   15.2405	     2.349	2.21928e+07	      76.5	    15.249	    2.3405	2.23414e+07	      76.5	   15.2405	   2.33201	2.19326e+07	
         R10	   1458	      76.5	    15.232	   2.31501	2.14274e+07	      76.5	    15.232	   2.33201	2.16966e+07	      76.5	    15.249	   2.33201	2.21573e+07	      76.5	    15.249	     2.315	2.17316e+07	      76.5	    15.232	   2.32351	 2.1561e+07	      76.5	   15.2405	   2.33201	2.19244e+07	      76.5	    15.249	    2.3235	2.19436e+07	      76.5	   15.2405	     2.315	2.15772e+07	
         R10	   1459	      76.5	    15.232	   2.31501	 2.1423e+07	      76.5	    15.249	     2.315	2.17267e+07	      76.5	    15.249	     2.298	2.13072e+07	      76.5	    15.232	     2.298	2.11168e+07	      76.5	   15.2405	     2.315	2.15725e+07	      76.5	    15.249	    2.3065	2.15166e+07	      76.5	   15.2405	     2.298	2.12102e+07	      76.5	    15.232	    2.3065	2.12693e+07	
         R10	   1460	      76.5	    15.232	     2.298	2.11142e+07	      76.5	    15.249	     2.298	2.13058e+07	      76.5	    15.249	     2.281	2.09254e+07	      76.5	    15.232	     2.281	2.08105e+07	      76.5	   15.2405	     2.298	2.12082e+07	      76.5	    15.249	    2.2895	2.11154e+07	      76.5	   15.2405	     2.281	2.08665e+07	      76.5	    15.232	    2.2895	2.09621e+07	
         R10	   1461	      76.5	    15.215	     2.298	2.08448e+07	      76.5	    15.232	     2.298	2.11098e+07	      76.5	    15.232	     2.281	2.08078e+07	      76.5	    15.215	     2.281	 2.0622e+07	      76.5	   15.2235	     2.298	 2.0976e+07	      76.5	    15.232	    2.2895	2.09585e+07	      76.5	   15.2235	     2.281	2.07138e+07	      76.5	    15.215	    2.2895	2.07331e+07	
         R10	   1462	      76.5	    15.215	     2.298	2.08413e+07	      76.5	    15.215	     2.281	2.06196e+07	      76.5	    15.198	     2.281	2.03921e+07	      76.5	    15.198	     2.298	2.05433e+07	      76.5	    15.215	    2.2895	2.07301e+07	      76.5	   15.2065	     2.281	2.05051e+07	      76.5	    15.198	    2.2895	2.04673e+07	      76.5	   15.2065	     2.298	2.06915e+07	
         R10	   1463	      76.5	    15.215	     2.315	2.10439e+07	      76.5	    15.215	     2.298	2.08439e+07	      76.5	    15.198	     2.298	2.05451e+07	      76.5	    15.198	     2.315	2.06639e+07	      76.5	    15.215	    2.3065	2.09433e+07	      76.5	   15.2065	     2.298	2.06937e+07	      76.5	    15.198	    2.3065	 2.0604e+07	      76.5	   15.2065	     2.315	2.08531e+07	
         R10	   1464	      76.5	    15.215	     2.315	2.10475e+07	      76.5	    15.198	     2.315	2.06658e+07	      76.5	    15.198	     2.332	2.07294e+07	      76.5	    15.215	     2.332	 2.1194e+07	      76.5	   15.2065	     2.315	2.08559e+07	      76.5	    15.198	    2.3235	2.06969e+07	      76.5	   15.2065	     2.332	 2.0961e+07	      76.5	    15.215	    2.3235	2.11199e+07	
         R10	   1465	      76.5	    15.215	     2.315	2.10513e+07	      76.5	    15.215	     2.332	 2.1198e+07	      76.5	    15.232	   2.33201	2.16884e+07	      76.5	    15.232	   2.31501	2.14214e+07	      76.5	    15.215	    2.3235	2.11238e+07	      76.5	   15.2235	     2.332	2.14419e+07	      76.5	    15.232	   2.32351	2.15539e+07	      76.5	   15.2235	     2.315	2.12349e+07	
         R10	   1466	      76.5	    15.215	     2.298	2.08471e+07	      76.5	    15.215	     2.315	2.10482e+07	      76.5	    15.232	   2.31501	2.14163e+07	      76.5	    15.232	     2.298	2.11126e+07	      76.5	    15.215	    2.3065	 2.0947e+07	      76.5	   15.2235	     2.315	2.12308e+07	      76.5	    15.232	    2.3065	2.12639e+07	      76.5	   15.2235	     2.298	2.09786e+07	
         R10	   1467	   75.7994	   15.3563	   2.45475	8.83235e+06	   75.8048	      15.3	       2.4	9.06204e+06	   75.7298	      15.3	       2.4	9.01911e+06	   75.7264	   15.3594	   2.45783	8.75133e+06	   75.8021	   15.3281	   2.42738	8.94413e+06	   75.7673	      15.3	       2.4	9.04019e+06	   75.7281	   15.3297	   2.42891	8.88169e+06	   75.7629	   15.3579	   2.45629	8.79124e+06	
         R10	   1468	   75.8692	   15.3507	   2.44936	8.90769e+06	   75.8749	      15.3	       2.4	9.11987e+06	   75.8048	      15.3	       2.4	9.06605e+06	   75.7994	   15.3563	   2.45475	8.83153e+06	   75.8721	   15.3254	   2.42468	 9.0111e+06	   75.8399	      15.3	       2.4	 9.0925e+06	   75.8021	   15.3281	   2.42738	8.94575e+06	   75.8343	   15.3535	   2.45206	8.86903e+06	
         R10	   1469	   75.9352	   15.3452	   2.44397	8.97995e+06	   75.9403	      15.3	       2.4	9.17825e+06	   75.8749	      15.3	       2.4	9.12347e+06	   75.8692	   15.3507	   2.44936	8.90644e+06	   75.9377	   15.3226	   2.42199	9.07705e+06	   75.9076	      15.3	       2.4	9.15038e+06	   75.8721	   15.3254	   2.42468	9.01231e+06	   75.9022	    15.348	   2.44667	8.94257e+06	
         R10	   1470	   75.9966	   15.3412	   2.44008	9.04725e+06	   76.0009	      15.3	       2.4	9.23526e+06	   75.9403	      15.3	       2.4	9.17982e+06	   75.9352	   15.3452	   2.44397	8.97852e+06	   75.9988	   15.3206	   2.42004	9.13957e+06	   75.9706	      15.3	       2.4	9.20705e+06	   75.9377	   15.3226	   2.42199	9.07715e+06	   75.9659	   15.3432	   2.44202	9.01226e+06	
         R10	   1471	   76.0529	   15.3384	   2.43732	9.11142e+06	   76.0567	      15.3	       2.4	9.28979e+06	   76.0009	      15.3	       2.4	 9.2342e+06	   75.9966	   15.3412	   2.44008	9.04717e+06	   76.0548	   15.3192	   2.41866	9.19919e+06	   76.0288	      15.3	       2.4	9.26148e+06	   75.9988	   15.3206	   2.42004	  9.139e+06	   76.0248	   15.3398	    2.4387	9.07869e+06	
         R10	   1472	   76.1036	   15.3355	   2.43453	9.17907e+06	   76.1076	      15.3	       2.4	9.34924e+06	   76.0567	      15.3	       2.4	9.29005e+06	   76.0529	   15.3384	   2.43732	9.11028e+06	   76.1056	   15.3177	   2.41726	9.26299e+06	   76.0821	      15.3	       2.4	 9.3191e+06	   76.0548	   15.3192	   2.41866	9.19876e+06	   76.0783	   15.3369	   2.43592	9.14405e+06	
         R10	   1473	   76.1495	    15.332	   2.43116	9.25354e+06	   76.1538	      15.3	       2.4	9.41733e+06	   76.1076	      15.3	       2.4	9.34936e+06	   76.1036	   15.3355	   2.43453	9.17798e+06	   76.1516	    15.316	   2.41558	9.33451e+06	   76.1307	      15.3	       2.4	9.38277e+06	   76.1056	   15.3177	   2.41726	9.26249e+06	   76.1266	   15.3338	   2.43284	 9.2151e+06	
         R10	   1474	   76.1915	   15.3285	   2.42777	9.33631e+06	   76.1952	      15.3	       2.4	9.49742e+06	   76.1538	      15.3	       2.4	9.41876e+06	   76.1495	    15.332	   2.43116	9.24819e+06	   76.1933	   15.3143	   2.41389	9.41612e+06	   76.1745	      15.3	       2.4	9.45746e+06	   76.1516	    15.316	   2.41558	9.33254e+06	   76.1705	   15.3303	   2.42947	9.29156e+06	
         R10	   1475	   76.2276	    15.325	   2.42436	9.43239e+06	   76.2317	      15.3	       2.4	9.58937e+06	   76.1952	      15.3	       2.4	9.49746e+06	   76.1915	   15.3285	   2.42777	9.32963e+06	   76.2297	   15.3125	   2.41218	9.51028e+06	   76.2135	      15.3	       2.4	9.54275e+06	   76.1933	   15.3143	   2.41389	9.41281e+06	   76.2095	   15.3268	   2.42607	9.38032e+06	
         R10	   1476	   76.2592	   15.3207	   2.42015	9.53732e+06	   76.2635	      15.3	       2.4	9.70297e+06	   76.2317	      15.3	       2.4	 9.5925e+06	   76.2276	    15.325	   2.42436	 9.4185e+06	   76.2614	   15.3104	   2.41007	9.61959e+06	   76.2476	      15.3	       2.4	9.64703e+06	   76.2297	   15.3125	   2.41218	9.50488e+06	   76.2434	   15.3229	   2.42225	9.47721e+06	
         R10	   1477	   76.2868	   15.3174	    2.4169	9.64665e+06	   76.2905	      15.3	       2.4	9.83252e+06	   76.2635	      15.3	       2.4	9.70616e+06	   76.2592	   15.3207	   2.42015	9.52761e+06	   76.2886	   15.3087	   2.40845	9.73914e+06	    76.277	      15.3	       2.4	9.76865e+06	   76.2614	   15.3104	   2.41007	9.61638e+06	    76.273	    15.319	   2.41852	9.58638e+06	
         R10	   1478	   76.3098	   15.3169	   2.41643	9.74936e+06	   76.3126	      15.3	       2.4	9.96707e+06	   76.2905	      15.3	       2.4	9.83387e+06	   76.2868	   15.3174	    2.4169	  9.647e+06	   76.3112	   15.3084	   2.40821	9.85767e+06	   76.3016	      15.3	       2.4	9.89981e+06	   76.2886	   15.3087	   2.40845	9.73998e+06	   76.2983	   15.3171	   2.41667	9.69761e+06	
         R10	   1479	     76.33	   15.3122	   2.41185	9.92486e+06	     76.33	      15.3	       2.4	1.01097e+07	   76.3126	      15.3	       2.4	9.97072e+06	   76.3098	   15.3169	   2.41643	9.74819e+06	     76.33	   15.3061	   2.40593	 1.0017e+07	   76.3213	      15.3	       2.4	1.00397e+07	   76.3112	   15.3084	   2.40821	9.85887e+06	   76.3199	   15.3145	   2.41414	9.83558e+06	
         R10	   1480	   76.3111	   15.3471	    2.4458	9.46064e+06	     76.33	   15.3487	   2.44742	9.57947e+06	     76.33	   15.3366	   2.43556	9.59307e+06	   76.3103	   15.3332	   2.43227	9.60248e+06	   76.3206	   15.3479	   2.44661	9.51947e+06	     76.33	   15.3426	   2.44149	9.58614e+06	   76.3201	   15.3349	   2.43392	9.59776e+06	   76.3107	   15.3401	   2.43903	9.53095e+06	
         R10	   1481	   76.3095	     15.36	   2.45837	9.41807e+06	     76.33	   15.3609	   2.45928	9.48074e+06	     76.33	   15.3487	   2.44742	9.57671e+06	   76.3111	   15.3471	    2.4458	9.46707e+06	   76.3197	   15.3605	   2.45882	9.44916e+06	     76.33	   15.3548	   2.45335	9.52856e+06	   76.3206	   15.3479	   2.44661	9.52168e+06	   76.3103	   15.3535	   2.45208	9.44211e+06	
         R10	   1482	   76.3116	   15.3707	   2.46879	9.35378e+06	     76.33	   15.3731	   2.47113	9.39473e+06	     76.33	   15.3609	   2.45928	9.45055e+06	   76.3095	     15.36	   2.45837	9.43561e+06	   76.3208	   15.3719	   2.46996	9.37408e+06	     76.33	    15.367	    2.4652	 9.4224e+06	   76.3197	   15.3605	   2.45882	9.44275e+06	   76.3106	   15.3653	   2.46358	9.39461e+06	
         R10	   1483	   76.3065	   15.3854	   2.48306	9.28467e+06	     76.33	   15.3853	   2.48299	9.33331e+06	     76.33	   15.3731	   2.47113	9.39835e+06	   76.3116	   15.3707	   2.46879	9.35746e+06	   76.3183	   15.3853	   2.48302	9.30848e+06	     76.33	   15.3792	   2.47706	9.36571e+06	   76.3208	   15.3719	   2.46996	9.37767e+06	   76.3091	    15.378	   2.47593	9.32088e+06	
         R10	   1484	    76.312	    15.397	   2.49437	  9.243e+06	     76.33	   15.3975	   2.49484	9.27696e+06	     76.33	   15.3853	   2.48299	9.34662e+06	   76.3065	   15.3854	   2.48306	9.26578e+06	    76.321	   15.3972	    2.4946	9.25963e+06	     76.33	   15.3914	   2.48891	 9.3117e+06	   76.3183	   15.3853	   2.48302	9.30563e+06	   76.3092	   15.3912	   2.48872	9.25431e+06	
         R10	   1485	   76.3116	   15.4106	   2.50759	9.17305e+06	     76.33	   15.4097	    2.5067	9.18665e+06	     76.33	   15.3975	   2.49484	9.28356e+06	    76.312	    15.397	   2.49437	9.22958e+06	   76.3208	   15.4101	   2.50714	9.17926e+06	     76.33	   15.4036	   2.50077	 9.2351e+06	    76.321	   15.3972	    2.4946	9.25619e+06	   76.3118	   15.4038	   2.50098	9.20127e+06	
         R10	   1486	   76.3092	   15.4229	   2.51959	9.10553e+06	     76.33	   15.4218	   2.51855	9.11982e+06	     76.33	   15.4097	    2.5067	9.18877e+06	   76.3116	   15.4106	   2.50759	9.15093e+06	   76.3196	   15.4224	   2.51907	9.11218e+06	     76.33	   15.4158	   2.51262	9.15426e+06	   76.3208	   15.4101	   2.50714	9.16946e+06	   76.3104	   15.4167	   2.51359	9.12823e+06	
         R10	   1487	   76.3452	   15.4349	   2.53121	9.04496e+06	    76.347	   15.4218	   2.51855	9.14887e+06	     76.33	   15.4218	   2.51855	 9.1021e+06	   76.3311	   15.4347	   2.53106	9.04651e+06	   76.3461	   15.4284	   2.52488	9.09688e+06	   76.3385	   15.4218	   2.51855	9.12485e+06	   76.3305	   15.4283	    2.5248	 9.0741e+06	   76.3382	   15.4348	   2.53113	9.04551e+06	
         R10	   1488	   76.3635	   15.4343	   2.53068	9.04666e+06	    76.364	   15.4218	   2.51855	9.17839e+06	    76.347	   15.4218	   2.51855	9.13698e+06	   76.3452	   15.4349	   2.53121	9.07092e+06	   76.3637	   15.4281	   2.52462	9.11207e+06	   76.3555	   15.4218	   2.51855	9.15704e+06	   76.3461	   15.4284	   2.52488	9.10395e+06	   76.3543	   15.4346	   2.53095	9.05734e+06	
         R10	   1489	     76.38	   15.4368	   2.53309	8.96889e+06	    76.381	   15.4218	   2.51855	9.06668e+06	    76.364	   15.4218	   2.51855	9.20152e+06	   76.3635	   15.4343	   2.53068	9.08072e+06	   76.3805	   15.4293	   2.52582	9.01717e+06	   76.3725	   15.4218	   2.51855	9.13034e+06	   76.3637	   15.4281	   2.52462	 9.1411e+06	   76.3717	   15.4356	   2.53189	9.02373e+06	
         R10	   1490	   76.3948	   15.4356	   2.53193	9.08861e+06	    76.398	   15.4218	   2.51855	9.09933e+06	    76.381	   15.4218	   2.51855	8.97281e+06	     76.38	   15.4368	   2.53309	9.00621e+06	   76.3964	   15.4287	   2.52524	9.09389e+06	   76.3895	   15.4218	   2.51855	9.03462e+06	   76.3805	   15.4293	   2.52582	8.98883e+06	   76.3874	   15.4362	   2.53251	9.04643e+06	
         R10	   1491	   76.4143	   15.4355	    2.5318	8.94336e+06	    76.415	   15.4218	   2.51855	9.12159e+06	    76.398	   15.4218	   2.51855	  9.109e+06	   76.3948	   15.4356	   2.53193	9.02933e+06	   76.4146	   15.4286	   2.52517	9.03212e+06	   76.4065	   15.4218	   2.51855	9.11264e+06	   76.3964	   15.4287	   2.52524	9.06911e+06	   76.4045	   15.4355	   2.53186	8.98446e+06	
         R10	   1492	   76.4288	   15.4365	   2.53282	8.85856e+06	    76.432	   15.4218	   2.51855	9.00655e+06	    76.415	   15.4218	   2.51855	9.07204e+06	   76.4143	   15.4355	    2.5318	9.00312e+06	   76.4304	   15.4292	   2.52569	8.93247e+06	   76.4235	   15.4218	   2.51855	9.03736e+06	   76.4146	   15.4286	   2.52517	9.03697e+06	   76.4215	    15.436	   2.53231	8.92883e+06	
         R10	   1493	   76.4453	   15.4339	   2.53029	8.68266e+06	    76.449	   15.4218	   2.51855	8.95242e+06	    76.432	   15.4218	   2.51855	8.94089e+06	   76.4288	   15.4365	   2.53282	8.95591e+06	   76.4472	   15.4279	   2.52442	8.81752e+06	   76.4405	   15.4218	   2.51855	8.94444e+06	   76.4304	   15.4292	   2.52569	8.94664e+06	   76.4371	   15.4352	   2.53155	8.81469e+06	
         R10	   1494	   76.4641	   15.4373	   2.53358	8.53372e+06	    76.466	   15.4218	   2.51855	8.73433e+06	    76.449	   15.4218	   2.51855	8.85076e+06	   76.4453	   15.4339	   2.53029	  8.805e+06	   76.4651	   15.4296	   2.52607	8.63246e+06	   76.4575	   15.4218	   2.51855	8.78821e+06	   76.4472	   15.4279	   2.52442	8.82656e+06	   76.4547	   15.4356	   2.53193	8.66728e+06	
         R10	   1495	   76.4839	   15.4361	   2.53243	8.33563e+06	    76.483	   15.4218	   2.51855	8.49883e+06	    76.466	   15.4218	   2.51855	 8.6852e+06	   76.4641	   15.4373	   2.53358	8.60278e+06	   76.4835	    15.429	   2.52549	8.41582e+06	   76.4745	   15.4218	   2.51855	8.58783e+06	   76.4651	   15.4296	   2.52607	8.64206e+06	    76.474	   15.4367	     2.533	8.46422e+06	
         R10	   1496	      76.5	   15.4344	   2.53078	8.14373e+06	      76.5	   15.4218	   2.51855	8.22787e+06	    76.483	   15.4218	   2.51855	8.47843e+06	   76.4839	   15.4361	   2.53243	8.35618e+06	      76.5	   15.4281	   2.52466	8.18354e+06	   76.4915	   15.4218	   2.51855	8.34759e+06	   76.4835	    15.429	   2.52549	8.41552e+06	    76.492	   15.4353	    2.5316	8.24664e+06	
         R10	   1497	   76.4742	   15.4563	   2.55203	8.31843e+06	      76.5	   15.4512	   2.54714	8.07662e+06	      76.5	   15.4344	   2.53078	8.15052e+06	   76.4839	   15.4361	   2.53243	8.35929e+06	   76.4871	   15.4537	   2.54958	8.19108e+06	      76.5	   15.4428	   2.53896	8.11111e+06	    76.492	   15.4353	    2.5316	8.25122e+06	    76.479	   15.4462	   2.54223	8.33495e+06	
         R10	   1498	   76.4679	   15.4776	   2.57279	8.21144e+06	      76.5	   15.4723	   2.56762	8.00105e+06	      76.5	   15.4512	   2.54714	8.08031e+06	   76.4742	   15.4563	   2.55203	8.30704e+06	   76.4839	   15.4749	   2.57021	8.09989e+06	      76.5	   15.4618	   2.55738	8.03748e+06	   76.4871	   15.4537	   2.54958	8.18645e+06	    76.471	   15.4669	   2.56241	8.25758e+06	
         R10	   1499	   76.4609	   15.5021	   2.59662	8.11534e+06	      76.5	   15.4976	   2.59224	7.92128e+06	      76.5	   15.4723	   2.56762	7.99735e+06	   76.4679	   15.4776	   2.57279	 8.2111e+06	   76.4805	   15.4998	   2.59443	8.01126e+06	      76.5	   15.4849	   2.57993	7.95625e+06	   76.4839	   15.4749	   2.57021	8.09714e+06	   76.4644	   15.4898	   2.58471	8.16159e+06	
         R10	   1500	   76.4548	   15.5311	   2.62487	7.99415e+06	      76.5	   15.5271	     2.621	7.83902e+06	      76.5	   15.4976	   2.59224	7.92046e+06	   76.4609	   15.5021	   2.59662	8.11434e+06	   76.4774	   15.5291	   2.62293	7.90956e+06	      76.5	   15.5124	   2.60662	7.87707e+06	   76.4805	   15.4998	   2.59443	8.01059e+06	   76.4579	   15.5166	   2.61075	8.05228e+06	
         R10	   1501	   76.4491	   15.5648	   2.65765	7.85106e+06	      76.5	   15.5609	   2.65388	7.75937e+06	      76.5	   15.5271	     2.621	7.83739e+06	   76.4548	   15.5311	   2.62487	7.99573e+06	   76.4746	   15.5629	   2.65576	7.79911e+06	      76.5	    15.544	   2.63744	7.79605e+06	   76.4774	   15.5291	   2.62293	7.90974e+06	    76.452	    15.548	   2.64126	7.92163e+06	
         R10	   1502	   76.4445	   15.6025	   2.69436	 7.6953e+06	      76.5	    15.599	   2.69089	7.66288e+06	      76.5	   15.5609	   2.65388	7.75673e+06	   76.4491	   15.5648	   2.65765	7.85271e+06	   76.4722	   15.6008	   2.69262	7.67414e+06	      76.5	     15.58	   2.67238	7.70799e+06	   76.4746	   15.5629	   2.65576	7.79865e+06	   76.4468	   15.5837	     2.676	7.77247e+06	
         R10	   1503	     76.44	   15.6452	   2.73583	7.52092e+06	      76.5	   15.6413	   2.73204	7.53936e+06	      76.5	    15.599	   2.69089	7.66075e+06	   76.4445	   15.6025	   2.69436	7.69964e+06	     76.47	   15.6432	   2.73394	7.52653e+06	      76.5	   15.6201	   2.71146	7.59881e+06	   76.4722	   15.6008	   2.69262	7.67514e+06	   76.4423	   15.6238	    2.7151	7.60891e+06	
         R10	   1504	   76.4347	    15.692	   2.78144	7.34377e+06	      76.5	   15.6878	   2.77731	7.36408e+06	      76.5	   15.6413	   2.73204	7.53578e+06	     76.44	   15.6452	   2.73583	7.53237e+06	   76.4674	   15.6899	   2.77938	7.35166e+06	      76.5	   15.6645	   2.75467	7.44926e+06	     76.47	   15.6432	   2.73394	7.53013e+06	   76.4374	   15.6686	   2.75864	7.43686e+06	
         R10	   1505	   76.4277	   15.7435	   2.83151	7.16359e+06	      76.5	   15.7386	   2.82672	 7.1485e+06	      76.5	   15.6878	   2.77731	7.35855e+06	   76.4347	    15.692	   2.78144	7.36879e+06	   76.4638	    15.741	   2.82911	7.15495e+06	      76.5	   15.7132	   2.80201	7.25322e+06	   76.4674	   15.6899	   2.77938	7.36084e+06	   76.4312	   15.7178	   2.80648	7.26522e+06	
         R10	   1506	   76.4204	   15.7983	   2.88486	7.16136e+06	      76.5	   15.7936	   2.88026	6.77591e+06	      76.5	   15.7386	   2.82672	7.14128e+06	   76.4277	   15.7435	   2.83151	7.19482e+06	   76.4602	    15.796	   2.88256	6.96597e+06	      76.5	   15.7661	   2.85349	6.95838e+06	   76.4638	    15.741	   2.82911	7.16565e+06	    76.424	   15.7709	   2.85819	7.17606e+06	
         R10	   1507	   76.4156	   15.8564	   2.94138	7.64416e+06	      76.5	   15.8529	   2.93793	6.90039e+06	      76.5	   15.7936	   2.88026	6.61328e+06	   76.4204	   15.7983	   2.88486	7.37492e+06	   76.4578	   15.8546	   2.93965	7.25052e+06	      76.5	   15.8232	   2.90909	6.73763e+06	   76.4602	    15.796	   2.88256	  6.994e+06	    76.418	   15.8274	   2.91312	7.50609e+06	
         R10	   1508	   76.4145	   15.9164	   2.99973	8.55699e+06	      76.5	   15.9164	   2.99973	1.08943e+07	      76.5	   15.8529	   2.93793	5.79078e+06	   76.4156	   15.8564	   2.94138	8.59939e+06	   76.4573	   15.9164	   2.99973	9.68487e+06	      76.5	   15.8846	   2.96883	7.92965e+06	   76.4578	   15.8546	   2.93965	7.12269e+06	   76.4151	   15.8864	   2.97055	8.49693e+06	
         R10	   1509	   76.3268	   15.9164	   2.99973	7.74784e+06	   76.4145	   15.9164	   2.99973	8.28167e+06	   76.4156	   15.8564	   2.94138	8.21388e+06	   76.3286	   15.8559	   2.94083	 8.2492e+06	   76.3707	   15.9164	   2.99973	8.00401e+06	   76.4151	   15.8864	   2.97055	8.17331e+06	   76.3721	   15.8561	   2.94111	8.23096e+06	   76.3277	   15.8861	   2.97028	7.95405e+06	
         R10	   1510	    76.239	   15.8537	   2.93877	 8.1383e+06	   76.2369	   15.9164	   2.99973	7.74882e+06	   76.3268	   15.9164	   2.99973	7.70871e+06	   76.3286	   15.8559	   2.94083	8.22072e+06	   76.2379	   15.8851	   2.96925	7.91473e+06	   76.2818	   15.9164	   2.99973	7.72441e+06	   76.3277	   15.8861	   2.97028	7.92366e+06	   76.2838	   15.8548	    2.9398	8.17781e+06	
         R10	   1511	   76.1457	   15.8522	    2.9373	8.20653e+06	   76.1447	   15.9164	   2.99973	7.85002e+06	   76.2369	   15.9164	   2.99973	7.76629e+06	    76.239	   15.8537	   2.93877	8.12313e+06	   76.1452	   15.8843	   2.96851	8.00502e+06	   76.1908	   15.9164	   2.99973	7.80583e+06	   76.2379	   15.8851	   2.96925	7.91608e+06	   76.1923	    15.853	   2.93803	8.16355e+06	
         R10	   1512	   76.0498	   15.8513	   2.93637	8.27869e+06	   76.0502	   15.9164	   2.99973	7.95582e+06	   76.1447	   15.9164	   2.99973	7.85182e+06	   76.1457	   15.8522	    2.9373	8.20385e+06	     76.05	   15.8838	   2.96805	8.09574e+06	   76.0974	   15.9164	   2.99973	7.90261e+06	   76.1452	   15.8843	   2.96851	8.00412e+06	   76.0977	   15.8517	   2.93684	8.24018e+06	
         R10	   1513	   75.9509	   15.8489	   2.93411	8.33484e+06	   75.9535	   15.9164	   2.99973	8.04622e+06	   76.0502	   15.9164	   2.99973	7.95149e+06	   76.0498	   15.8513	   2.93637	8.28895e+06	   75.9522	   15.8827	   2.96692	8.17076e+06	   76.0019	   15.9164	   2.99973	7.99809e+06	     76.05	   15.8838	   2.96805	8.09868e+06	   76.0004	   15.8501	   2.93524	8.31109e+06	
         R10	   1514	   75.8516	   15.8457	   2.93098	8.35756e+06	   75.8546	   15.9164	   2.99973	8.11448e+06	   75.9535	   15.9164	   2.99973	8.04466e+06	   75.9509	   15.8489	   2.93411	 8.3406e+06	   75.8531	   15.8811	   2.96535	8.21748e+06	   75.9041	   15.9164	   2.99973	8.07913e+06	   75.9522	   15.8827	   2.96692	 8.1728e+06	   75.9012	   15.8473	   2.93255	8.34847e+06	
         R10	   1515	   75.7507	   15.8425	   2.92782	8.35299e+06	   75.7534	   15.9164	   2.99973	8.16065e+06	   75.8546	   15.9164	   2.99973	8.11594e+06	   75.8516	   15.8457	   2.93098	8.35934e+06	   75.7521	   15.8794	   2.96377	8.23854e+06	    75.804	   15.9164	   2.99973	8.13805e+06	   75.8531	   15.8811	   2.96535	8.21899e+06	   75.8011	   15.8441	    2.9294	8.35569e+06	
         R10	   1516	     75.65	   15.8382	   2.92363	8.31097e+06	     75.65	   15.9164	   2.99973	8.19063e+06	   75.7534	   15.9164	   2.99973	 8.1547e+06	   75.7507	   15.8425	   2.92782	8.36078e+06	     75.65	   15.8773	   2.96168	8.23326e+06	   75.7017	   15.9164	   2.99973	8.17252e+06	   75.7521	   15.8794	   2.96377	 8.2394e+06	   75.7004	   15.8403	   2.92572	 8.3354e+06	
         R10	   1517	     75.65	   15.7624	   2.84989	8.15186e+06	     75.65	   15.8382	   2.92363	8.02063e+06	   75.7507	   15.8425	   2.92782	8.02814e+06	   75.7517	   15.7678	   2.85512	8.16931e+06	     75.65	   15.8003	   2.88676	8.07771e+06	   75.7004	   15.8403	   2.92572	8.02394e+06	   75.7512	   15.8051	   2.89147	8.08939e+06	   75.7008	   15.7651	   2.85251	 8.1601e+06	
         R10	   1518	   75.7501	   15.6963	   2.78554	 8.1378e+06	     75.65	    15.689	   2.77853	8.11548e+06	     75.65	   15.7624	   2.84989	7.97998e+06	   75.7517	   15.7678	   2.85512	7.98409e+06	      75.7	   15.6926	   2.78203	 8.1261e+06	     75.65	   15.7257	   2.81421	8.04425e+06	   75.7008	   15.7651	   2.85251	7.98146e+06	   75.7509	    15.732	   2.82033	8.05685e+06	
         R10	   1519	    75.744	   15.6234	   2.71465	8.19655e+06	     75.65	   15.6181	   2.70953	8.13326e+06	     75.65	    15.689	   2.77853	8.02001e+06	   75.7501	   15.6963	   2.78554	8.02991e+06	    75.697	   15.6208	   2.71209	8.16418e+06	     75.65	   15.6536	   2.74403	8.07566e+06	      75.7	   15.6926	   2.78203	 8.0244e+06	    75.747	   15.6598	    2.7501	8.11168e+06	
         R10	   1520	   75.7395	   15.5526	   2.64582	8.27591e+06	     75.65	   15.5496	   2.64289	8.23937e+06	     75.65	   15.6181	   2.70953	8.07737e+06	    75.744	   15.6234	   2.71465	8.14338e+06	   75.6948	   15.5511	   2.64435	8.25713e+06	     75.65	   15.5839	   2.67621	8.15826e+06	    75.697	   15.6208	   2.71209	8.10959e+06	   75.7418	    15.588	   2.68024	8.20952e+06	
         R10	   1521	   75.7359	   15.4855	   2.58052	8.42131e+06	     75.65	   15.4836	   2.57862	 8.3453e+06	     75.65	   15.5496	   2.64289	8.21346e+06	   75.7395	   15.5526	   2.64582	8.24843e+06	    75.693	   15.4846	   2.57957	8.38272e+06	     75.65	   15.5166	   2.61075	8.27926e+06	   75.6948	   15.5511	   2.64435	8.23046e+06	   75.7377	   15.5191	   2.61317	8.33478e+06	
         R10	   1522	   75.7301	   15.4214	    2.5181	8.57246e+06	     75.65	     15.42	   2.51671	8.47806e+06	     75.65	   15.4836	   2.57862	8.34642e+06	   75.7359	   15.4855	   2.58052	8.39404e+06	   75.6901	   15.4207	    2.5174	8.52456e+06	     75.65	   15.4518	   2.54767	8.41118e+06	    75.693	   15.4846	   2.57957	8.36979e+06	    75.733	   15.4535	   2.54931	8.48251e+06	
         R10	   1523	   75.7264	   15.3594	   2.45783	8.74807e+06	   75.7298	      15.3	       2.4	9.01665e+06	     75.65	      15.3	       2.4	8.93284e+06	     75.65	   15.3588	   2.45717	8.69954e+06	   75.7281	   15.3297	   2.42891	8.87882e+06	   75.6899	      15.3	       2.4	 8.9742e+06	     75.65	   15.3294	   2.42859	8.81381e+06	   75.6882	   15.3591	    2.4575	8.72342e+06	
         R10	   1524	    75.872	   15.3999	   2.49721	8.73357e+06	   75.8692	   15.3507	   2.44936	8.89869e+06	   75.7994	   15.3563	   2.45475	 8.8229e+06	   75.8028	   15.4145	   2.51139	8.62323e+06	   75.8706	   15.3753	   2.47328	8.81474e+06	   75.8343	   15.3535	   2.45206	8.86018e+06	   75.8011	   15.3854	   2.48307	8.72129e+06	   75.8374	   15.4072	    2.5043	8.67759e+06	
         R10	   1525	   75.9399	   15.3876	   2.48519	8.81338e+06	   75.9352	   15.3452	   2.44397	8.97691e+06	   75.8692	   15.3507	   2.44936	  8.897e+06	    75.872	   15.3999	   2.49721	8.73093e+06	   75.9375	   15.3664	   2.46458	8.89409e+06	   75.9022	    15.348	   2.44667	8.93631e+06	   75.8706	   15.3753	   2.47328	8.81255e+06	   75.9059	   15.3937	    2.4912	8.77135e+06	
         R10	   1526	   76.0007	   15.3815	   2.47931	8.88966e+06	   75.9966	   15.3412	   2.44008	9.04368e+06	   75.9352	   15.3452	   2.44397	8.97653e+06	   75.9399	   15.3876	   2.48519	8.81845e+06	   75.9986	   15.3614	   2.45969	8.96568e+06	   75.9659	   15.3432	   2.44202	9.00948e+06	   75.9375	   15.3664	   2.46458	8.89645e+06	   75.9703	   15.3845	   2.48225	8.85343e+06	
         R10	   1527	   76.0576	   15.3762	   2.47417	8.95786e+06	   76.0529	   15.3384	   2.43732	 9.1074e+06	   75.9966	   15.3412	   2.44008	9.04339e+06	   76.0007	   15.3815	   2.47931	8.89011e+06	   76.0553	   15.3573	   2.45575	 9.0318e+06	   76.0248	   15.3398	    2.4387	 9.0748e+06	   75.9986	   15.3614	   2.45969	8.96574e+06	   76.0291	   15.3789	   2.47674	8.92331e+06	
         R10	   1528	   76.1083	   15.3706	   2.46867	9.02757e+06	   76.1036	   15.3355	   2.43453	9.17362e+06	   76.0529	   15.3384	   2.43732	9.10668e+06	   76.0576	   15.3762	   2.47417	8.95866e+06	    76.106	    15.353	    2.4516	9.09989e+06	   76.0783	   15.3369	   2.43592	9.13954e+06	   76.0553	   15.3573	   2.45575	9.03182e+06	    76.083	   15.3734	   2.47142	8.99244e+06	
         R10	   1529	    76.154	   15.3633	   2.46155	9.11087e+06	   76.1495	    15.332	   2.43116	9.24528e+06	   76.1036	   15.3355	   2.43453	9.17369e+06	   76.1083	   15.3706	   2.46867	9.02791e+06	   76.1517	   15.3476	   2.44636	9.17752e+06	   76.1266	   15.3338	   2.43284	9.20883e+06	    76.106	    15.353	    2.4516	9.10007e+06	   76.1311	   15.3669	   2.46511	9.06862e+06	
         R10	   1530	   76.1958	   15.3552	   2.45368	9.20192e+06	   76.1915	   15.3285	   2.42777	9.32518e+06	   76.1495	    15.332	   2.43116	9.25113e+06	    76.154	   15.3633	   2.46155	9.10891e+06	   76.1936	   15.3419	   2.44073	9.26312e+06	   76.1705	   15.3303	   2.42947	9.28741e+06	   76.1517	   15.3476	   2.44636	9.17945e+06	   76.1749	   15.3592	   2.45761	 9.1546e+06	
         R10	   1531	    76.235	   15.3497	   2.44833	9.28798e+06	   76.2276	    15.325	   2.42436	9.41852e+06	   76.1915	   15.3285	   2.42777	9.33387e+06	   76.1958	   15.3552	   2.45368	9.20072e+06	   76.2313	   15.3374	   2.43635	9.35289e+06	   76.2095	   15.3268	   2.42607	 9.3754e+06	   76.1936	   15.3419	   2.44073	9.26687e+06	   76.2154	   15.3524	   2.45101	9.24358e+06	
         R10	   1532	   76.2648	   15.3381	   2.43705	9.40488e+06	   76.2592	   15.3207	   2.42015	9.52411e+06	   76.2276	    15.325	   2.42436	9.41895e+06	    76.235	   15.3497	   2.44833	9.29911e+06	    76.262	   15.3294	    2.4286	9.46429e+06	   76.2434	   15.3229	   2.42225	9.47074e+06	   76.2313	   15.3374	   2.43635	9.35862e+06	   76.2499	   15.3439	   2.44269	 9.3509e+06	
         R10	   1533	   76.2895	   15.3333	   2.43243	9.51781e+06	   76.2868	   15.3174	    2.4169	9.64177e+06	   76.2592	   15.3207	   2.42015	9.52948e+06	   76.2648	   15.3381	   2.43705	9.41672e+06	   76.2882	   15.3254	   2.42467	 9.5795e+06	    76.273	    15.319	   2.41852	9.58478e+06	    76.262	   15.3294	    2.4286	9.47295e+06	   76.2772	   15.3357	   2.43474	9.46669e+06	
         R10	   1534	   76.3103	   15.3332	   2.43227	9.57567e+06	     76.33	   15.3366	   2.43556	9.63266e+06	     76.33	   15.3244	   2.42371	9.75523e+06	   76.3098	   15.3169	   2.41643	9.75058e+06	   76.3201	   15.3349	   2.43392	9.60402e+06	     76.33	   15.3305	   2.42964	9.69348e+06	   76.3199	   15.3206	   2.42007	 9.7528e+06	   76.3101	    15.325	   2.42435	9.66258e+06	
         R10	   1535	   76.2907	   15.3712	    2.4693	9.28622e+06	   76.3116	   15.3707	   2.46879	9.36329e+06	   76.3095	     15.36	   2.45837	9.40001e+06	   76.2828	   15.3559	   2.45444	9.37966e+06	   76.3012	    15.371	   2.46904	9.32442e+06	   76.3106	   15.3653	   2.46358	9.38162e+06	   76.2961	    15.358	    2.4564	9.38969e+06	   76.2867	   15.3636	   2.46187	9.33245e+06	
         R10	   1536	   76.2882	   15.4032	   2.50043	9.14843e+06	    76.312	    15.397	   2.49437	9.25741e+06	   76.3065	   15.3854	   2.48306	9.27406e+06	   76.2883	   15.3899	   2.48749	9.21119e+06	   76.3001	   15.4001	    2.4974	9.20237e+06	   76.3092	   15.3912	   2.48872	9.26561e+06	   76.2974	   15.3876	   2.48528	9.24246e+06	   76.2882	   15.3966	   2.49396	 9.1797e+06	
         R10	   1537	   76.2874	   15.4227	   2.51942	9.03636e+06	   76.3092	   15.4229	   2.51959	9.09946e+06	   76.3116	   15.4106	   2.50759	9.16403e+06	   76.2882	   15.4032	   2.50043	9.16408e+06	   76.2983	   15.4228	    2.5195	9.06747e+06	   76.3104	   15.4167	   2.51359	9.13172e+06	   76.2999	   15.4069	   2.50401	9.16339e+06	   76.2878	    15.413	   2.50992	 9.1002e+06	
         R10	   1538	   76.3311	   15.4347	   2.53106	  9.035e+06	     76.33	   15.4218	   2.51855	9.13109e+06	   76.3092	   15.4229	   2.51959	9.07934e+06	     76.31	   15.4362	   2.53254	9.02761e+06	   76.3305	   15.4283	    2.5248	9.08304e+06	   76.3196	   15.4224	   2.51907	9.10452e+06	   76.3096	   15.4296	   2.52606	9.05348e+06	   76.3206	   15.4355	    2.5318	9.03052e+06	
         R10	   1539	   76.3497	   15.4511	   2.54698	  8.937e+06	   76.3452	   15.4349	   2.53121	9.04979e+06	   76.3311	   15.4347	   2.53106	9.03797e+06	   76.3269	   15.4508	   2.54669	8.86518e+06	   76.3475	    15.443	    2.5391	8.99321e+06	   76.3382	   15.4348	   2.53113	9.04294e+06	    76.329	   15.4427	   2.53887	8.95139e+06	   76.3383	   15.4509	   2.54684	8.89985e+06	
         R10	   1540	   76.4028	   15.4556	   2.55143	8.76708e+06	   76.3948	   15.4356	   2.53193	9.04102e+06	     76.38	   15.4368	   2.53309	8.92713e+06	   76.3765	   15.4499	   2.54586	8.93699e+06	   76.3988	   15.4456	   2.54168	8.90354e+06	   76.3874	   15.4362	   2.53251	8.98299e+06	   76.3782	   15.4434	   2.53948	8.93142e+06	   76.3896	   15.4528	   2.54865	 8.8497e+06	
         R10	   1541	   76.4237	   15.4999	   2.59454	8.31617e+06	   76.4609	   15.5021	   2.59662	8.11467e+06	   76.4679	   15.4776	   2.57279	8.22274e+06	   76.4367	   15.4738	    2.5691	8.44551e+06	   76.4423	    15.501	   2.59558	8.21089e+06	   76.4644	   15.4898	   2.58471	8.16632e+06	   76.4523	   15.4757	   2.57095	8.32873e+06	   76.4302	   15.4869	   2.58182	8.37855e+06	
         R10	   1542	   76.4107	   15.5276	    2.6215	8.17602e+06	   76.4548	   15.5311	   2.62487	 7.9934e+06	   76.4609	   15.5021	   2.59662	8.11705e+06	   76.4237	   15.4999	   2.59454	8.30892e+06	   76.4327	   15.5294	   2.62318	8.07972e+06	   76.4579	   15.5166	   2.61075	8.05342e+06	   76.4423	    15.501	   2.59558	8.20795e+06	   76.4172	   15.5138	   2.60802	8.24072e+06	
         R10	   1543	   76.3993	   15.5618	   2.65471	7.99278e+06	   76.4491	   15.5648	   2.65765	7.85167e+06	   76.4548	   15.5311	   2.62487	7.99644e+06	   76.4107	   15.5276	    2.6215	 8.1646e+06	   76.4242	   15.5633	   2.65618	7.91756e+06	    76.452	    15.548	   2.64126	7.92229e+06	   76.4327	   15.5294	   2.62318	8.07533e+06	    76.405	   15.5447	    2.6381	8.07712e+06	
         R10	   1544	   76.3902	   15.5993	   2.69123	7.80384e+06	   76.4445	   15.6025	   2.69436	7.69678e+06	   76.4491	   15.5648	   2.65765	7.85409e+06	   76.3993	   15.5618	   2.65471	 7.9906e+06	   76.4174	   15.6009	    2.6928	7.74622e+06	   76.4468	   15.5837	     2.676	7.77388e+06	   76.4242	   15.5633	   2.65618	7.91763e+06	   76.3948	   15.5806	   2.67297	7.89587e+06	
         R10	   1545	   76.3818	   15.6423	   2.73307	7.61633e+06	     76.44	   15.6452	   2.73583	7.52619e+06	   76.4445	   15.6025	   2.69436	7.70091e+06	   76.3902	   15.5993	   2.69123	7.80967e+06	   76.4109	   15.6437	   2.73445	7.56788e+06	   76.4423	   15.6238	    2.7151	7.61216e+06	   76.4174	   15.6009	    2.6928	7.75113e+06	    76.386	   15.6208	   2.71215	7.71162e+06	
         R10	   1546	   76.3721	   15.6887	   2.77824	7.45942e+06	   76.4347	    15.692	   2.78144	7.34577e+06	     76.44	   15.6452	   2.73583	7.53844e+06	   76.3818	   15.6423	   2.73307	7.63436e+06	   76.4034	   15.6904	   2.77984	7.39988e+06	   76.4374	   15.6686	   2.75864	7.44099e+06	   76.4109	   15.6437	   2.73445	7.58288e+06	   76.3769	   15.6655	   2.75565	7.54552e+06	
         R10	   1547	   76.3555	   15.7423	    2.8303	7.40222e+06	   76.4277	   15.7435	   2.83151	7.19295e+06	   76.4347	    15.692	   2.78144	7.37043e+06	   76.3721	   15.6887	   2.77824	7.50199e+06	   76.3916	   15.7429	   2.83091	7.29505e+06	   76.4312	   15.7178	   2.80648	7.28052e+06	   76.4034	   15.6904	   2.77984	7.43303e+06	   76.3638	   15.7155	   2.80427	7.45083e+06	
         R10	   1548	    76.339	   15.7965	   2.88305	7.54088e+06	   76.4204	   15.7983	   2.88486	7.17713e+06	   76.4277	   15.7435	   2.83151	7.25136e+06	   76.3555	   15.7423	    2.8303	7.49822e+06	   76.3797	   15.7974	   2.88396	7.35817e+06	    76.424	   15.7709	   2.85819	7.21345e+06	   76.3916	   15.7429	   2.83091	7.37121e+06	   76.3473	   15.7694	   2.85668	7.51795e+06	
         R10	   1549	   76.3286	   15.8559	   2.94083	7.72027e+06	   76.4156	   15.8564	   2.94138	7.52844e+06	   76.4204	   15.7983	   2.88486	7.42713e+06	    76.339	   15.7965	   2.88305	7.69733e+06	   76.3721	   15.8561	   2.94111	7.62275e+06	    76.418	   15.8274	   2.91312	7.47582e+06	   76.3797	   15.7974	   2.88396	7.55984e+06	   76.3338	   15.8262	   2.91194	7.70027e+06	
         R10	   1550	    76.239	   15.8537	   2.93877	7.78181e+06	   76.3286	   15.8559	   2.94083	7.73196e+06	    76.339	   15.7965	   2.88305	7.67524e+06	   76.2555	   15.7925	    2.8792	7.87256e+06	   76.2838	   15.8548	    2.9398	7.75556e+06	   76.3338	   15.8262	   2.91194	7.69493e+06	   76.2973	   15.7945	   2.88112	7.77305e+06	   76.2472	   15.8231	   2.90898	7.81997e+06	
         R10	   1551	   76.1457	   15.7899	   2.87667	8.00029e+06	   76.1457	   15.8522	    2.9373	7.82311e+06	    76.239	   15.8537	   2.93877	7.75491e+06	   76.2555	   15.7925	    2.8792	7.88123e+06	   76.1457	   15.8211	   2.90699	 7.9029e+06	   76.1923	    15.853	   2.93803	7.78744e+06	   76.2472	   15.8231	   2.90898	7.81067e+06	   76.2006	   15.7912	   2.87794	7.93883e+06	
         R10	   1552	   76.0511	   15.7892	   2.87598	8.10639e+06	   76.0498	   15.8513	   2.93637	7.89691e+06	   76.1457	   15.8522	    2.9373	7.82713e+06	   76.1457	   15.7899	   2.87667	7.99268e+06	   76.0504	   15.8202	   2.90618	7.99231e+06	   76.0977	   15.8517	   2.93684	7.86101e+06	   76.1457	   15.8211	   2.90699	7.90188e+06	   76.0984	   15.7896	   2.87633	8.04812e+06	
         R10	   1553	   75.9505	    15.782	   2.86899	8.15971e+06	   75.9509	   15.8489	   2.93411	7.96526e+06	   76.0498	   15.8513	   2.93637	7.88855e+06	   76.0511	   15.7892	   2.87598	8.10254e+06	   75.9507	   15.8155	   2.90155	8.05356e+06	   76.0004	   15.8501	   2.93524	7.92596e+06	   76.0504	   15.8202	   2.90618	7.98682e+06	   76.0008	   15.7856	   2.87249	8.12981e+06	
         R10	   1554	   75.8528	   15.7733	   2.86052	8.17751e+06	   75.8516	   15.8457	   2.93098	8.01203e+06	   75.9509	   15.8489	   2.93411	7.96368e+06	   75.9505	    15.782	   2.86899	8.15388e+06	   75.8522	   15.8095	   2.89575	8.08589e+06	   75.9012	   15.8473	   2.93255	7.98716e+06	   75.9507	   15.8155	   2.90155	8.05011e+06	   75.9017	   15.7777	   2.86476	8.16471e+06	
         R10	   1555	   75.7517	   15.7678	   2.85512	8.17885e+06	   75.7507	   15.8425	   2.92782	8.02471e+06	   75.8516	   15.8457	   2.93098	8.01752e+06	   75.8528	   15.7733	   2.86052	8.16532e+06	   75.7512	   15.8051	   2.89147	8.09226e+06	   75.8011	   15.8441	    2.9294	8.02068e+06	   75.8522	   15.8095	   2.89575	 8.0827e+06	   75.8022	   15.7705	   2.85782	8.17136e+06	
         R10	   1556	   75.7501	   15.6963	   2.78554	8.14193e+06	   75.7517	   15.7678	   2.85512	7.99616e+06	   75.8528	   15.7733	   2.86052	7.99649e+06	   75.8566	   15.7001	   2.78933	8.12686e+06	   75.7509	    15.732	   2.82033	8.06487e+06	   75.8022	   15.7705	   2.85782	7.99563e+06	   75.8547	   15.7367	   2.82493	8.05774e+06	   75.8034	   15.6982	   2.78744	8.13368e+06	
         R10	   1557	   75.8276	   15.6194	   2.71076	 8.2053e+06	    75.744	   15.6234	   2.71465	8.16865e+06	   75.7501	   15.6963	   2.78554	8.04487e+06	   75.8566	   15.7001	   2.78933	8.05247e+06	   75.7858	   15.6214	   2.71271	8.18642e+06	    75.747	   15.6598	    2.7501	8.10532e+06	   75.8034	   15.6982	   2.78744	8.04797e+06	   75.8421	   15.6598	   2.75005	8.12698e+06	
         R10	   1558	   75.8226	   15.5517	   2.64494	 8.3153e+06	   75.7395	   15.5526	   2.64582	8.28118e+06	    75.744	   15.6234	   2.71465	8.11961e+06	   75.8276	   15.6194	   2.71076	8.17421e+06	   75.7811	   15.5522	   2.64538	 8.2977e+06	   75.7418	    15.588	   2.68024	8.20024e+06	   75.7858	   15.6214	   2.71271	8.14628e+06	   75.8251	   15.5856	   2.67785	8.24465e+06	
         R10	   1559	   75.8176	   15.4817	   2.57677	8.46972e+06	   75.7359	   15.4855	   2.58052	8.39746e+06	   75.7395	   15.5526	   2.64582	8.25991e+06	   75.8226	   15.5517	   2.64494	8.29404e+06	   75.7768	   15.4836	   2.57864	8.43299e+06	   75.7377	   15.5191	   2.61317	8.32857e+06	   75.7811	   15.5522	   2.64538	8.27645e+06	   75.8201	   15.5167	   2.61086	8.38178e+06	
         R10	   1560	   75.7264	   15.3594	   2.45783	8.76422e+06	     75.65	   15.3588	   2.45717	8.71445e+06	     75.65	     15.42	   2.51671	8.48633e+06	   75.7301	   15.4214	    2.5181	8.57013e+06	   75.6882	   15.3591	    2.4575	8.73894e+06	     75.65	   15.3894	   2.48694	8.59816e+06	   75.6901	   15.4207	    2.5174	8.52758e+06	   75.7283	   15.3904	   2.48796	8.66517e+06	
         R10	   1561	   75.8028	   15.4145	   2.51139	8.63362e+06	   75.7994	   15.3563	   2.45475	8.82023e+06	   75.7264	   15.3594	   2.45783	8.75661e+06	   75.7301	   15.4214	    2.5181	8.55339e+06	   75.8011	   15.3854	   2.48307	8.72512e+06	   75.7629	   15.3579	   2.45629	8.78795e+06	   75.7283	   15.3904	   2.48796	8.65299e+06	   75.7665	   15.4179	   2.51474	8.59291e+06	
         R10	   1562	   75.9502	   15.4321	   2.52849	8.69014e+06	   75.9399	   15.3876	   2.48519	8.81762e+06	    75.872	   15.3999	   2.49721	8.74217e+06	    75.889	    15.441	   2.53717	8.60217e+06	   75.9451	   15.4098	   2.50684	8.75321e+06	   75.9059	   15.3937	    2.4912	8.77914e+06	   75.8805	   15.4204	   2.51719	8.67175e+06	   75.9196	   15.4365	   2.53283	8.64546e+06	
         R10	   1563	   76.0089	   15.4214	   2.51814	8.75608e+06	   76.0007	   15.3815	   2.47931	8.88828e+06	   75.9399	   15.3876	   2.48519	8.81621e+06	   75.9502	   15.4321	   2.52849	8.68523e+06	   76.0048	   15.4015	   2.49872	8.82166e+06	   75.9703	   15.3845	   2.48225	 8.8516e+06	   75.9451	   15.4098	   2.50684	8.75007e+06	   75.9796	   15.4267	   2.52331	8.71996e+06	
         R10	   1564	   76.0671	   15.4132	    2.5101	8.83306e+06	   76.0576	   15.3762	   2.47417	 8.9575e+06	   76.0007	   15.3815	   2.47931	8.89124e+06	   76.0089	   15.4214	   2.51814	8.75605e+06	   76.0623	   15.3947	   2.49214	8.89485e+06	   76.0291	   15.3789	   2.47674	8.92371e+06	   76.0048	   15.4015	   2.49872	8.82313e+06	    76.038	   15.4173	   2.51412	8.79376e+06	
         R10	   1565	   76.1185	   15.4051	   2.50228	 8.9077e+06	   76.1083	   15.3706	   2.46867	9.02945e+06	   76.0576	   15.3762	   2.47417	8.95855e+06	   76.0671	   15.4132	    2.5101	8.83117e+06	   76.1134	   15.3878	   2.48548	 8.9682e+06	    76.083	   15.3734	   2.47142	8.99331e+06	   76.0623	   15.3947	   2.49214	8.89444e+06	   76.0928	   15.4091	   2.50619	8.86869e+06	
         R10	   1566	   76.1641	   15.3947	   2.49216	 8.9962e+06	    76.154	   15.3633	   2.46155	9.10992e+06	   76.1083	   15.3706	   2.46867	 9.0285e+06	   76.1185	   15.4051	   2.50228	8.90852e+06	    76.159	    15.379	   2.47685	9.05274e+06	   76.1311	   15.3669	   2.46511	9.06847e+06	   76.1134	   15.3878	   2.48548	8.96814e+06	   76.1413	   15.3999	   2.49722	8.95157e+06	
         R10	   1567	   76.2027	   15.3823	   2.48004	9.09604e+06	   76.1958	   15.3552	   2.45368	 9.2006e+06	    76.154	   15.3633	   2.46155	9.10983e+06	   76.1641	   15.3947	   2.49216	8.99535e+06	   76.1992	   15.3687	   2.46686	9.14802e+06	   76.1749	   15.3592	   2.45761	9.15441e+06	    76.159	    15.379	   2.47685	9.05227e+06	   76.1834	   15.3885	    2.4861	 9.0449e+06	
         R10	   1568	   76.2358	   15.3748	    2.4728	 9.1728e+06	    76.235	   15.3497	   2.44833	9.29287e+06	   76.1958	   15.3552	   2.45368	9.20013e+06	   76.2027	   15.3823	   2.48004	9.09438e+06	   76.2354	   15.3622	   2.46057	9.23242e+06	   76.2154	   15.3524	   2.45101	9.24573e+06	   76.1992	   15.3687	   2.46686	9.14693e+06	   76.2193	   15.3785	   2.47642	9.13301e+06	
         R10	   1569	   76.3103	   15.3332	   2.43227	9.58439e+06	   76.3098	   15.3169	   2.41643	9.74585e+06	   76.2868	   15.3174	    2.4169	9.64711e+06	   76.2895	   15.3333	   2.43243	9.51532e+06	   76.3101	    15.325	   2.42435	9.66465e+06	   76.2983	   15.3171	   2.41667	9.69592e+06	   76.2882	   15.3254	   2.42467	9.58094e+06	   76.2999	   15.3332	   2.43235	9.54952e+06	
         R10	   1570	   76.2954	   15.3454	    2.4442	9.45353e+06	   76.2828	   15.3559	   2.45444	9.37238e+06	   76.3095	     15.36	   2.45837	9.40846e+06	   76.3111	   15.3471	    2.4458	9.48274e+06	   76.2891	   15.3507	   2.44932	9.41261e+06	   76.2961	    15.358	    2.4564	9.39023e+06	   76.3103	   15.3535	   2.45208	9.44531e+06	   76.3032	   15.3462	     2.445	  9.468e+06	
         R10	   1571	   76.2686	   15.3784	   2.47625	9.21458e+06	   76.2907	   15.3712	    2.4693	9.32744e+06	   76.2828	   15.3559	   2.45444	9.35124e+06	   76.2639	   15.3609	   2.45922	9.30227e+06	   76.2796	   15.3748	   2.47277	9.27033e+06	   76.2867	   15.3636	   2.46187	9.33934e+06	   76.2734	   15.3584	   2.45683	 9.3265e+06	   76.2663	   15.3696	   2.46773	  9.258e+06	
         R10	   1572	   76.2883	   15.3899	   2.48749	9.21653e+06	   76.3065	   15.3854	   2.48306	9.28688e+06	   76.2907	   15.3712	    2.4693	9.27292e+06	   76.2686	   15.3784	   2.47625	9.22621e+06	   76.2974	   15.3876	   2.48528	9.25146e+06	   76.2986	   15.3783	   2.47618	9.27968e+06	   76.2796	   15.3748	   2.47277	9.24916e+06	   76.2784	   15.3841	   2.48187	9.22112e+06	
         R10	   1573	   76.2666	   15.4245	   2.52115	9.02396e+06	   76.2874	   15.4227	   2.51942	 9.0511e+06	   76.2882	   15.4032	   2.50043	9.16264e+06	   76.2613	   15.4006	   2.49785	9.10999e+06	    76.277	   15.4236	   2.52028	9.03717e+06	   76.2878	    15.413	   2.50992	9.10685e+06	   76.2748	   15.4019	   2.49914	9.13589e+06	   76.2639	   15.4125	    2.5095	9.06688e+06	
         R10	   1574	     76.31	   15.4362	   2.53254	9.01429e+06	   76.3092	   15.4229	   2.51959	9.08728e+06	   76.2874	   15.4227	   2.51942	 9.0686e+06	   76.2902	   15.4411	   2.53729	8.93269e+06	   76.3096	   15.4296	   2.52606	9.05068e+06	   76.2983	   15.4228	    2.5195	9.07745e+06	   76.2888	   15.4319	   2.52835	9.00062e+06	   76.3001	   15.4387	   2.53491	8.97274e+06	
         R10	   1575	   76.3501	   15.4702	   2.56563	8.73617e+06	   76.3497	   15.4511	   2.54698	8.93667e+06	   76.3269	   15.4508	   2.54669	  8.912e+06	   76.3209	   15.4683	   2.56379	8.82133e+06	   76.3499	   15.4607	   2.55631	8.83636e+06	   76.3383	   15.4509	   2.54684	8.92363e+06	   76.3239	   15.4596	   2.55524	8.86658e+06	   76.3355	   15.4693	   2.56471	8.77711e+06	
         R10	   1576	   76.3765	   15.4499	   2.54586	8.75487e+06	     76.38	   15.4368	   2.53309	 9.0216e+06	   76.3635	   15.4343	   2.53068	9.02413e+06	   76.3497	   15.4511	   2.54698	8.98856e+06	   76.3782	   15.4434	   2.53948	8.88817e+06	   76.3717	   15.4356	   2.53189	9.02169e+06	   76.3566	   15.4427	   2.53883	 9.0041e+06	   76.3631	   15.4505	   2.54642	 8.8683e+06	
         R10	   1577	   76.3839	    15.492	   2.58685	8.54936e+06	   76.4237	   15.4999	   2.59454	 8.2985e+06	   76.4367	   15.4738	    2.5691	8.46485e+06	    76.411	   15.4723	   2.56765	8.58606e+06	   76.4038	    15.496	    2.5907	8.41906e+06	   76.4302	   15.4869	   2.58182	8.37971e+06	   76.4239	   15.4731	   2.56838	 8.5223e+06	   76.3974	   15.4822	   2.57725	8.56515e+06	
         R10	   1578	   76.3679	   15.5224	   2.61638	8.33262e+06	   76.4107	   15.5276	    2.6215	8.15769e+06	   76.4237	   15.4999	   2.59454	8.32492e+06	   76.3839	    15.492	   2.58685	8.51797e+06	   76.3893	    15.525	   2.61894	8.24137e+06	   76.4172	   15.5138	   2.60802	 8.2398e+06	   76.4038	    15.496	    2.5907	 8.4166e+06	   76.3759	   15.5072	   2.60162	8.42385e+06	
         R10	   1579	   76.3516	   15.5561	    2.6492	  8.136e+06	   76.3993	   15.5618	   2.65471	 7.9892e+06	   76.4107	   15.5276	    2.6215	8.17481e+06	   76.3679	   15.5224	   2.61638	8.32444e+06	   76.3755	    15.559	   2.65196	8.05902e+06	    76.405	   15.5447	    2.6381	8.08051e+06	   76.3893	    15.525	   2.61894	 8.2456e+06	   76.3598	   15.5393	   2.63279	8.22897e+06	
         R10	   1580	   76.3382	    15.593	   2.68505	7.94583e+06	   76.3902	   15.5993	   2.69123	7.80668e+06	   76.3993	   15.5618	   2.65471	7.99402e+06	   76.3516	   15.5561	    2.6492	8.13117e+06	   76.3642	   15.5961	   2.68814	7.87289e+06	   76.3948	   15.5806	   2.67297	7.89902e+06	   76.3755	    15.559	   2.65196	8.05901e+06	   76.3449	   15.5745	   2.66713	8.03745e+06	
         R10	   1581	   76.3263	   15.6356	   2.72655	7.76394e+06	   76.3818	   15.6423	   2.73307	 7.6188e+06	   76.3902	   15.5993	   2.69123	7.81328e+06	   76.3382	    15.593	   2.68505	7.94599e+06	    76.354	    15.639	   2.72981	7.68836e+06	    76.386	   15.6208	   2.71215	7.71467e+06	   76.3642	   15.5961	   2.68814	7.87634e+06	   76.3322	   15.6143	    2.7058	7.85383e+06	
         R10	   1582	   76.3108	   15.6816	   2.77129	7.63407e+06	   76.3721	   15.6887	   2.77824	7.46693e+06	   76.3818	   15.6423	   2.73307	7.63968e+06	   76.3263	   15.6356	   2.72655	7.77518e+06	   76.3414	   15.6852	   2.77476	 7.5477e+06	   76.3769	   15.6655	   2.75565	7.55197e+06	    76.354	    15.639	   2.72981	7.70453e+06	   76.3185	   15.6586	   2.74892	7.70363e+06	
         R10	   1583	   76.2924	   15.7323	   2.82059	7.59601e+06	   76.3555	   15.7423	    2.8303	7.38984e+06	   76.3721	   15.6887	   2.77824	7.51641e+06	   76.3108	   15.6816	   2.77129	7.66291e+06	    76.324	   15.7373	   2.82545	7.49067e+06	   76.3638	   15.7155	   2.80427	7.45198e+06	   76.3414	   15.6852	   2.77476	7.58711e+06	   76.3016	   15.7069	   2.79594	7.62855e+06	
         R10	   1584	   76.2555	   15.7925	    2.8792	7.66505e+06	    76.339	   15.7965	   2.88305	7.50947e+06	   76.3555	   15.7423	    2.8303	7.51808e+06	   76.2924	   15.7323	   2.82059	7.67673e+06	   76.2973	   15.7945	   2.88112	7.58506e+06	   76.3473	   15.7694	   2.85668	7.51244e+06	    76.324	   15.7373	   2.82545	7.59614e+06	    76.274	   15.7624	   2.84989	7.67028e+06	
         R10	   1585	   76.0522	   15.7317	      2.82	 8.0364e+06	   76.0511	   15.7892	   2.87598	7.91099e+06	   76.1457	   15.7899	   2.87667	7.81466e+06	   76.1303	   15.7303	   2.81863	 7.9491e+06	   76.0516	   15.7604	   2.84799	7.97005e+06	   76.0984	   15.7896	   2.87633	7.86191e+06	    76.138	   15.7601	   2.84765	7.87853e+06	   76.0913	    15.731	   2.81931	7.99154e+06	
         R10	   1586	   75.9595	   15.7256	   2.81409	8.11482e+06	   75.9505	    15.782	   2.86899	7.94897e+06	   76.0511	   15.7892	   2.87598	7.88593e+06	   76.0522	   15.7317	      2.82	8.05125e+06	    75.955	   15.7538	   2.84154	 8.0282e+06	   76.0008	   15.7856	   2.87249	7.91609e+06	   76.0516	   15.7604	   2.84799	7.96471e+06	   76.0059	   15.7286	   2.81704	8.08168e+06	
         R10	   1587	   75.8566	   15.7001	   2.78933	8.14055e+06	   75.8528	   15.7733	   2.86052	7.99199e+06	   75.9505	    15.782	   2.86899	7.92836e+06	   75.9595	   15.7256	   2.81409	8.12876e+06	   75.8547	   15.7367	   2.82493	8.06236e+06	   75.9017	   15.7777	   2.86476	7.95897e+06	    75.955	   15.7538	   2.84154	 8.0249e+06	   75.9081	   15.7129	   2.80171	8.13283e+06	
         R10	   1588	   75.9043	   15.5497	   2.64299	8.33732e+06	   75.8226	   15.5517	   2.64494	8.32006e+06	   75.8276	   15.6194	   2.71076	8.16802e+06	   75.9076	   15.6109	   2.70252	8.20678e+06	   75.8634	   15.5507	   2.64396	8.32808e+06	   75.8251	   15.5856	   2.67785	8.24391e+06	   75.8676	   15.6152	   2.70664	 8.1866e+06	   75.9059	   15.5803	   2.67275	8.27198e+06	
         R10	   1589	   75.8028	   15.4145	   2.51139	 8.6341e+06	   75.7301	   15.4214	    2.5181	8.56654e+06	   75.7359	   15.4855	   2.58052	 8.3832e+06	   75.8176	   15.4817	   2.57677	 8.4679e+06	   75.7665	   15.4179	   2.51474	8.59979e+06	    75.733	   15.4535	   2.54931	8.47413e+06	   75.7768	   15.4836	   2.57864	8.42484e+06	   75.8102	   15.4481	   2.54408	8.55016e+06	
         R10	   1590	    75.889	    15.441	   2.53717	8.59615e+06	    75.872	   15.3999	   2.49721	8.73157e+06	   75.8028	   15.4145	   2.51139	8.61449e+06	   75.8176	   15.4817	   2.57677	8.47271e+06	   75.8805	   15.4204	   2.51719	 8.6634e+06	   75.8374	   15.4072	    2.5043	8.67213e+06	   75.8102	   15.4481	   2.54408	8.54272e+06	   75.8533	   15.4613	   2.55697	8.53327e+06	
         R10	   1591	   75.9607	   15.4742	   2.56952	8.56597e+06	   75.9502	   15.4321	   2.52849	8.68204e+06	    75.889	    15.441	   2.53717	8.60679e+06	      75.9	    15.494	   2.58873	8.47307e+06	   75.9554	   15.4531	   2.54901	8.62381e+06	   75.9196	   15.4365	   2.53283	8.64383e+06	   75.8945	   15.4675	   2.56295	8.53962e+06	   75.9303	   15.4841	   2.57913	 8.5188e+06	
         R10	   1592	   76.0211	   15.4606	    2.5563	8.63866e+06	   76.0089	   15.4214	   2.51814	 8.7593e+06	   75.9502	   15.4321	   2.52849	 8.6826e+06	   75.9607	   15.4742	   2.56952	8.56213e+06	    76.015	    15.441	   2.53722	8.69878e+06	   75.9796	   15.4267	   2.52331	 8.7202e+06	   75.9554	   15.4531	   2.54901	8.62217e+06	   75.9909	   15.4674	   2.56291	8.59966e+06	
         R10	   1593	   76.0816	   15.4511	   2.54698	8.71486e+06	   76.0671	   15.4132	    2.5101	  8.834e+06	   76.0089	   15.4214	   2.51814	8.75922e+06	   76.0211	   15.4606	    2.5563	8.63874e+06	   76.0743	   15.4321	   2.52854	8.77425e+06	    76.038	   15.4173	   2.51412	8.79582e+06	    76.015	    15.441	   2.53722	8.69878e+06	   76.0513	   15.4559	   2.55164	8.67593e+06	
         R10	   1594	   76.1309	   15.4399	   2.53614	8.79263e+06	   76.1185	   15.4051	   2.50228	8.90919e+06	   76.0671	   15.4132	    2.5101	8.83264e+06	   76.0816	   15.4511	   2.54698	8.71563e+06	   76.1247	   15.4225	   2.51921	8.85076e+06	   76.0928	   15.4091	   2.50619	8.87017e+06	   76.0743	   15.4321	   2.52854	8.77396e+06	   76.1062	   15.4455	   2.54156	8.75337e+06	
         R10	   1595	   76.1831	   15.4263	   2.52287	8.90202e+06	   76.1641	   15.3947	   2.49216	8.99503e+06	   76.1185	   15.4051	   2.50228	8.91159e+06	   76.1309	   15.4399	   2.53614	 8.7916e+06	   76.1736	   15.4105	   2.50751	8.94838e+06	   76.1413	   15.3999	   2.49722	8.95253e+06	   76.1247	   15.4225	   2.51921	8.85144e+06	    76.157	   15.4331	    2.5295	8.84569e+06	
         R10	   1596	   76.2164	   15.4046	   2.50178	9.02318e+06	   76.2027	   15.3823	   2.48004	9.09339e+06	   76.1641	   15.3947	   2.49216	8.99418e+06	   76.1831	   15.4263	   2.52287	8.89855e+06	   76.2096	   15.3934	   2.49091	9.05818e+06	   76.1834	   15.3885	    2.4861	9.04295e+06	   76.1736	   15.4105	   2.50751	8.94622e+06	   76.1998	   15.4154	   2.51232	8.96017e+06	
         R10	   1597	   76.2954	   15.3454	    2.4442	9.44168e+06	   76.3111	   15.3471	    2.4458	9.49518e+06	   76.3103	   15.3332	   2.43227	9.57754e+06	   76.2895	   15.3333	   2.43243	9.52058e+06	   76.3032	   15.3462	     2.445	9.46835e+06	   76.3107	   15.3401	   2.43903	9.53598e+06	   76.2999	   15.3332	   2.43235	9.54871e+06	   76.2924	   15.3394	   2.43831	9.48101e+06	
         R10	   1598	   76.2902	   15.4411	   2.53729	 8.9386e+06	   76.2874	   15.4227	   2.51942	9.06292e+06	   76.2666	   15.4245	   2.52115	9.01317e+06	   76.2625	   15.4436	   2.53971	8.92895e+06	   76.2888	   15.4319	   2.52835	9.00075e+06	    76.277	   15.4236	   2.52028	9.03762e+06	   76.2645	    15.434	   2.53043	8.97102e+06	   76.2764	   15.4423	    2.5385	8.93324e+06	
         R10	   1599	   76.3269	   15.4508	   2.54669	8.88715e+06	     76.31	   15.4362	   2.53254	9.05298e+06	   76.2902	   15.4411	   2.53729	8.95168e+06	   76.2968	   15.4574	   2.55317	8.86686e+06	   76.3185	   15.4435	   2.53961	 8.9692e+06	   76.3001	   15.4387	   2.53491	9.00181e+06	   76.2935	   15.4493	   2.54523	8.90915e+06	   76.3118	   15.4541	   2.54993	8.87552e+06	
         R10	   1600	   76.3374	   15.4944	   2.58912	8.58667e+06	   76.3501	   15.4702	   2.56563	8.76514e+06	   76.3209	   15.4683	   2.56379	8.80062e+06	   76.3027	   15.4865	    2.5815	8.68202e+06	   76.3438	   15.4823	   2.57738	8.67529e+06	   76.3355	   15.4693	   2.56471	8.78058e+06	   76.3118	   15.4774	   2.57264	8.74104e+06	     76.32	   15.4905	   2.58531	8.63265e+06	
         R10	   1601	   76.2865	   15.5846	    2.6769	8.08564e+06	   76.3382	    15.593	   2.68505	7.94682e+06	   76.3516	   15.5561	    2.6492	8.13685e+06	   76.3047	   15.5494	   2.64265	8.25715e+06	   76.3123	   15.5888	   2.68098	8.01347e+06	   76.3449	   15.5745	   2.66713	8.04075e+06	   76.3282	   15.5528	   2.64593	8.19422e+06	   76.2956	    15.567	   2.65977	8.17063e+06	
         R10	   1602	   76.2709	   15.6246	   2.71587	7.92919e+06	   76.3263	   15.6356	   2.72655	7.76416e+06	   76.3382	    15.593	   2.68505	7.95031e+06	   76.2865	   15.5846	    2.6769	8.08208e+06	   76.2986	   15.6301	   2.72121	  7.844e+06	   76.3322	   15.6143	    2.7058	7.85612e+06	   76.3123	   15.5888	   2.68098	8.01353e+06	   76.2787	   15.6046	   2.69639	8.00491e+06	
         R10	   1603	   76.2561	    15.668	   2.75808	7.80872e+06	   76.3108	   15.6816	   2.77129	7.63588e+06	   76.3263	   15.6356	   2.72655	7.77814e+06	   76.2709	   15.6246	   2.71587	7.91415e+06	   76.2835	   15.6748	   2.76469	7.72002e+06	   76.3185	   15.6586	   2.74892	7.70598e+06	   76.2986	   15.6301	   2.72121	7.84387e+06	   76.2635	   15.6463	   2.73698	7.86083e+06	
         R10	   1604	   76.2172	   15.7163	   2.80509	7.81936e+06	   76.2924	   15.7323	   2.82059	7.57797e+06	   76.3108	   15.6816	   2.77129	7.66692e+06	   76.2561	    15.668	   2.75808	7.78014e+06	   76.2548	   15.7243	   2.81284	 7.6954e+06	   76.3016	   15.7069	   2.79594	7.62183e+06	   76.2835	   15.6748	   2.76469	7.72201e+06	   76.2367	   15.6922	   2.78159	 7.7991e+06	
         R10	   1605	   76.0555	   15.6752	   2.76507	8.07874e+06	   76.0522	   15.7317	      2.82	7.94299e+06	   76.1303	   15.7303	   2.81863	7.87598e+06	   76.1286	   15.6803	   2.77002	8.00224e+06	   76.0538	   15.7034	   2.79253	8.00932e+06	   76.0913	    15.731	   2.81931	 7.9086e+06	   76.1295	   15.7053	   2.79432	7.93804e+06	   76.0921	   15.6778	   2.76754	8.03922e+06	
         R10	   1606	   75.9807	   15.6683	   2.75832	 8.1324e+06	   75.9595	   15.7256	   2.81409	 8.0011e+06	   76.0522	   15.7317	      2.82	7.94306e+06	   76.0555	   15.6752	   2.76507	8.07785e+06	   75.9701	   15.6969	   2.78621	8.06517e+06	   76.0059	   15.7286	   2.81704	7.97101e+06	   76.0538	   15.7034	   2.79253	8.00899e+06	   76.0181	   15.6717	    2.7617	8.10395e+06	
         R10	   1607	   75.9175	   15.6585	   2.74881	8.16154e+06	   75.9076	   15.6109	   2.70252	8.20482e+06	   75.8276	   15.6194	   2.71076	8.19895e+06	   75.8566	   15.7001	   2.78933	8.04106e+06	   75.9125	   15.6347	   2.72567	8.18288e+06	   75.8676	   15.6152	   2.70664	8.20128e+06	   75.8421	   15.6598	   2.75005	8.11786e+06	   75.8871	   15.6793	   2.76907	8.10113e+06	
         R10	   1608	   75.9802	   15.5601	   2.65303	8.34781e+06	   75.9043	   15.5497	   2.64299	8.33698e+06	   75.9076	   15.6109	   2.70252	8.21177e+06	   75.9934	   15.6099	   2.70157	8.20599e+06	   75.9422	   15.5549	   2.64801	8.34151e+06	   75.9059	   15.5803	   2.67275	 8.2743e+06	   75.9505	   15.6104	   2.70204	8.20786e+06	   75.9868	    15.585	    2.6773	8.27675e+06	
         R10	   1609	   76.0356	   15.5017	   2.59622	8.52223e+06	   76.0211	   15.4606	    2.5563	8.64306e+06	   75.9607	   15.4742	   2.56952	8.56937e+06	   75.9775	   15.5109	   2.60517	8.46553e+06	   76.0284	   15.4812	   2.57626	8.58259e+06	   75.9909	   15.4674	   2.56291	8.60554e+06	   75.9691	   15.4926	   2.58735	8.51741e+06	   76.0066	   15.5063	    2.6007	8.49315e+06	
         R10	   1610	   76.0957	   15.4883	   2.58322	8.59281e+06	   76.0816	   15.4511	   2.54698	8.71495e+06	   76.0211	   15.4606	    2.5563	8.63751e+06	   76.0356	   15.5017	   2.59622	8.52061e+06	   76.0887	   15.4697	    2.5651	8.65385e+06	   76.0513	   15.4559	   2.55164	8.67533e+06	   76.0284	   15.4812	   2.57626	  8.579e+06	   76.0657	    15.495	   2.58972	8.55577e+06	
         R10	   1611	   76.1518	   15.4761	   2.57133	8.68088e+06	   76.1309	   15.4399	   2.53614	8.79396e+06	   76.0816	   15.4511	   2.54698	8.72031e+06	   76.0957	   15.4883	   2.58322	8.58754e+06	   76.1413	    15.458	   2.55374	8.73734e+06	   76.1062	   15.4455	   2.54156	 8.7564e+06	   76.0887	   15.4697	    2.5651	 8.6539e+06	   76.1237	   15.4822	   2.57728	8.63307e+06	
         R10	   1612	   76.1882	   15.4527	    2.5486	 8.7944e+06	   76.1831	   15.4263	   2.52287	8.89878e+06	   76.1309	   15.4399	   2.53614	8.79053e+06	   76.1518	   15.4761	   2.57133	8.67558e+06	   76.1856	   15.4395	   2.53573	8.84656e+06	    76.157	   15.4331	    2.5295	8.84351e+06	   76.1413	    15.458	   2.55374	8.73295e+06	     76.17	   15.4644	   2.55996	8.73439e+06	
         R10	   1613	   76.2294	   15.4382	   2.53446	8.90241e+06	   76.2625	   15.4436	   2.53971	8.92066e+06	   76.2666	   15.4245	   2.52115	9.01471e+06	   76.2372	   15.4191	   2.51588	8.99402e+06	    76.246	   15.4409	   2.53708	8.91079e+06	   76.2645	    15.434	   2.53043	8.96767e+06	   76.2519	   15.4218	   2.51851	9.00393e+06	   76.2333	   15.4286	   2.52517	8.94814e+06	
         R10	   1614	   76.2968	   15.4574	   2.55317	8.88284e+06	   76.2902	   15.4411	   2.53729	8.93893e+06	   76.2625	   15.4436	   2.53971	8.92588e+06	   76.2646	   15.4645	   2.56001	8.79656e+06	   76.2935	   15.4493	   2.54523	8.91087e+06	   76.2764	   15.4423	    2.5385	 8.9316e+06	   76.2635	    15.454	   2.54986	8.86119e+06	   76.2807	   15.4609	   2.55659	8.83908e+06	
         R10	   1615	   76.3027	   15.4865	    2.5815	8.67481e+06	   76.3209	   15.4683	   2.56379	8.81622e+06	   76.2968	   15.4574	   2.55317	8.83601e+06	   76.2646	   15.4645	   2.56001	8.80836e+06	   76.3118	   15.4774	   2.57264	8.74507e+06	   76.3088	   15.4629	   2.55848	8.82497e+06	   76.2807	   15.4609	   2.55659	8.82144e+06	   76.2836	   15.4755	   2.57075	8.73996e+06	
         R10	   1616	   76.3248	   15.5176	   2.61172	8.42658e+06	   76.3047	   15.5494	   2.64265	8.26788e+06	   76.3516	   15.5561	    2.6492	8.13595e+06	   76.3679	   15.5224	   2.61638	8.32802e+06	   76.3147	   15.5335	   2.62719	8.34636e+06	   76.3282	   15.5528	   2.64593	8.19923e+06	   76.3598	   15.5393	   2.63279	 8.2308e+06	   76.3463	     15.52	   2.61405	8.37423e+06	
         R10	   1617	   76.2321	   15.5715	   2.66421	8.22435e+06	   76.2865	   15.5846	    2.6769	8.08825e+06	   76.3047	   15.5494	   2.64265	8.26082e+06	   76.2557	   15.5403	   2.63382	8.36396e+06	   76.2593	   15.5781	   2.67055	8.15396e+06	   76.2956	    15.567	   2.65977	8.17382e+06	   76.2802	   15.5449	   2.63824	8.31006e+06	   76.2439	   15.5559	   2.64901	 8.2936e+06	
         R10	   1618	   76.2136	   15.6087	   2.70034	8.08054e+06	   76.2709	   15.6246	   2.71587	7.92651e+06	   76.2865	   15.5846	    2.6769	8.08518e+06	   76.2321	   15.5715	   2.66421	8.22052e+06	   76.2422	   15.6167	   2.70811	8.00136e+06	   76.2787	   15.6046	   2.69639	8.00518e+06	   76.2593	   15.5781	   2.67055	8.15044e+06	   76.2229	   15.5901	   2.68227	8.15012e+06	
         R10	   1619	   76.1987	   15.6473	    2.7379	7.95778e+06	   76.2561	    15.668	   2.75808	7.81383e+06	   76.2709	   15.6246	   2.71587	7.91534e+06	   76.2136	   15.6087	   2.70034	8.07955e+06	   76.2274	   15.6577	   2.74799	  7.884e+06	   76.2635	   15.6463	   2.73698	7.86396e+06	   76.2422	   15.6167	   2.70811	7.99501e+06	   76.2061	    15.628	   2.71912	8.01837e+06	
         R10	   1620	   76.2555	   15.7925	    2.8792	7.71461e+06	   76.2924	   15.7323	   2.82059	7.67682e+06	   76.2172	   15.7163	   2.80509	7.77231e+06	    76.211	   15.7517	   2.83948	 7.7704e+06	    76.274	   15.7624	   2.84989	7.69483e+06	   76.2548	   15.7243	   2.81284	  7.723e+06	   76.2141	    15.734	   2.82228	7.77117e+06	   76.2333	   15.7721	   2.85934	7.73942e+06	
         R10	   1621	   76.0686	   15.6275	   2.71868	 8.1619e+06	   76.0555	   15.6752	   2.76507	8.03059e+06	   76.1286	   15.6803	   2.77002	7.96432e+06	    76.137	   15.6341	   2.72507	8.08807e+06	    76.062	   15.6514	   2.74187	8.09579e+06	   76.0921	   15.6778	   2.76754	7.99622e+06	   76.1328	   15.6572	   2.74754	8.02571e+06	   76.1028	   15.6308	   2.72187	8.12368e+06	
         R10	   1622	   75.9175	   15.6585	   2.74881	8.15412e+06	   75.8566	   15.7001	   2.78933	8.04341e+06	   75.9595	   15.7256	   2.81409	7.99431e+06	   75.9807	   15.6683	   2.75832	8.13327e+06	   75.8871	   15.6793	   2.76907	8.09834e+06	   75.9081	   15.7129	   2.80171	8.01672e+06	   75.9701	   15.6969	   2.78621	8.06232e+06	   75.9491	   15.6634	   2.75357	8.14312e+06	
         R10	   1623	   75.9934	   15.6099	   2.70157	  8.222e+06	   75.9076	   15.6109	   2.70252	8.20895e+06	   75.9175	   15.6585	   2.74881	 8.1257e+06	   75.9807	   15.6683	   2.75832	8.08092e+06	   75.9505	   15.6104	   2.70204	8.21461e+06	   75.9125	   15.6347	   2.72567	8.16711e+06	   75.9491	   15.6634	   2.75357	8.10257e+06	    75.987	   15.6391	   2.72994	8.15088e+06	
         R10	   1624	      75.9	    15.494	   2.58873	8.49254e+06	   75.8176	   15.4817	   2.57677	8.44553e+06	   75.8226	   15.5517	   2.64494	8.29732e+06	   75.9043	   15.5497	   2.64299	 8.3428e+06	   75.8588	   15.4878	   2.58275	8.46854e+06	   75.8201	   15.5167	   2.61086	8.37131e+06	   75.8634	   15.5507	   2.64396	8.31928e+06	   75.9021	   15.5219	   2.61586	8.41764e+06	
         R10	   1625	   75.9775	   15.5109	   2.60517	8.45935e+06	   75.9607	   15.4742	   2.56952	 8.5629e+06	      75.9	    15.494	   2.58873	8.46713e+06	   75.9043	   15.5497	   2.64299	8.34533e+06	   75.9691	   15.4926	   2.58735	 8.5111e+06	   75.9303	   15.4841	   2.57913	8.51422e+06	   75.9021	   15.5219	   2.61586	8.40618e+06	   75.9409	   15.5303	   2.62408	8.40167e+06	
         R10	   1626	   76.0441	   15.5414	   2.63485	8.40033e+06	   76.0356	   15.5017	   2.59622	8.52035e+06	   75.9775	   15.5109	   2.60517	8.46805e+06	   75.9802	   15.5601	   2.65303	8.33036e+06	   76.0399	   15.5215	   2.61554	8.46034e+06	   76.0066	   15.5063	    2.6007	8.49356e+06	   75.9789	   15.5355	    2.6291	 8.3992e+06	   76.0122	   15.5507	   2.64394	8.36451e+06	
         R10	   1627	   76.1144	   15.5334	   2.62708	8.43036e+06	   76.0957	   15.4883	   2.58322	8.59485e+06	   76.0356	   15.5017	   2.59622	8.51861e+06	   76.0441	   15.5414	   2.63485	8.40432e+06	    76.105	   15.5108	   2.60515	8.51256e+06	   76.0657	    15.495	   2.58972	8.55574e+06	   76.0399	   15.5215	   2.61554	8.46147e+06	   76.0793	   15.5374	   2.63096	8.41606e+06	
         R10	   1628	   76.1592	   15.5079	   2.60224	8.53502e+06	   76.1518	   15.4761	   2.57133	 8.6736e+06	   76.0957	   15.4883	   2.58322	8.58978e+06	   76.1144	   15.5334	   2.62708	8.44302e+06	   76.1555	    15.492	   2.58679	 8.6043e+06	   76.1237	   15.4822	   2.57728	8.63061e+06	    76.105	   15.5108	   2.60515	8.51635e+06	   76.1368	   15.5206	   2.61466	8.48816e+06	
         R10	   1629	   76.2646	   15.4645	   2.56001	8.80576e+06	   76.2625	   15.4436	   2.53971	8.91663e+06	   76.2294	   15.4382	   2.53446	8.90102e+06	   76.2231	   15.4602	   2.55591	8.79404e+06	   76.2635	    15.454	   2.54986	8.86118e+06	    76.246	   15.4409	   2.53708	8.90814e+06	   76.2263	   15.4492	   2.54519	8.84748e+06	   76.2439	   15.4623	   2.55796	 8.7986e+06	
         R10	   1630	   76.2557	   15.5403	   2.63382	8.36706e+06	   76.3047	   15.5494	   2.64265	8.25967e+06	   76.3248	   15.5176	   2.61172	  8.444e+06	   76.2833	   15.5128	   2.60706	8.51442e+06	   76.2802	   15.5449	   2.63824	8.31117e+06	   76.3147	   15.5335	   2.62719	 8.3509e+06	    76.304	   15.5152	   2.60939	8.47681e+06	   76.2695	   15.5266	   2.62044	   8.44e+06	
         R10	   1631	    76.178	   15.5561	    2.6492	8.33015e+06	   76.2321	   15.5715	   2.66421	8.22512e+06	   76.2557	   15.5403	   2.63382	8.37304e+06	   76.2083	   15.5203	   2.61437	8.49435e+06	    76.205	   15.5638	   2.65671	8.27601e+06	   76.2439	   15.5559	   2.64901	8.29846e+06	    76.232	   15.5303	   2.62409	8.43188e+06	   76.1931	   15.5382	   2.63178	8.41178e+06	
         R10	   1632	   76.0942	   15.5804	   2.67281	8.27993e+06	   76.0686	   15.6275	   2.71868	8.13027e+06	    76.137	   15.6341	   2.72507	8.07377e+06	   76.1551	   15.5916	   2.68369	8.20708e+06	   76.0814	    15.604	   2.69574	8.20484e+06	   76.1028	   15.6308	   2.72187	8.10075e+06	    76.146	   15.6128	   2.70438	8.14017e+06	   76.1246	    15.586	   2.67825	8.24214e+06	
         R10	   1633	   75.9934	   15.6099	   2.70157	8.22151e+06	   75.9807	   15.6683	   2.75832	8.07994e+06	   76.0555	   15.6752	   2.76507	8.02336e+06	   76.0686	   15.6275	   2.71868	8.17146e+06	    75.987	   15.6391	   2.72994	8.15017e+06	   76.0181	   15.6717	    2.7617	 8.0507e+06	    76.062	   15.6514	   2.74187	8.09696e+06	    76.031	   15.6187	   2.71012	 8.1951e+06	
         R10	   1634	   76.2504	   15.4889	   2.58382	8.66024e+06	   76.2646	   15.4645	   2.56001	8.80739e+06	   76.2231	   15.4602	   2.55591	8.79297e+06	   76.2121	   15.4866	   2.58153	8.65778e+06	   76.2575	   15.4767	   2.57191	8.73359e+06	   76.2439	   15.4623	   2.55796	8.79868e+06	   76.2176	   15.4734	   2.56872	8.72533e+06	   76.2312	   15.4877	   2.58268	8.65821e+06	
         R10	   1635	   76.1303	   15.7303	   2.81863	7.95742e+06	   76.1457	   15.7899	   2.87667	7.80742e+06	    76.211	   15.7517	   2.83948	7.87307e+06	   76.2172	   15.7163	   2.80509	7.77184e+06	    76.138	   15.7601	   2.84765	7.87909e+06	   76.1784	   15.7708	   2.85807	7.84022e+06	   76.2141	    15.734	   2.82228	7.82206e+06	   76.1738	   15.7233	   2.81186	7.86331e+06	
         R10	   1636	   76.1987	   15.6473	    2.7379	7.97769e+06	    76.137	   15.6341	   2.72507	8.08136e+06	   76.1286	   15.6803	   2.77002	7.96201e+06	    76.183	   15.6806	   2.77034	 7.8919e+06	   76.1678	   15.6407	   2.73148	8.02796e+06	   76.1328	   15.6572	   2.74754	8.02129e+06	   76.1558	   15.6805	   2.77018	7.92614e+06	   76.1909	    15.664	   2.75412	7.93447e+06	
         R10	   1637	   76.2172	   15.7163	   2.80509	7.81526e+06	   76.2561	    15.668	   2.75808	7.78153e+06	   76.1987	   15.6473	    2.7379	7.97912e+06	    76.183	   15.6806	   2.77034	7.88885e+06	   76.2367	   15.6922	   2.78159	7.79777e+06	   76.2274	   15.6577	   2.74799	7.87819e+06	   76.1909	    15.664	   2.75412	7.93379e+06	   76.2001	   15.6985	   2.78772	7.85111e+06	
         R10	   1638	   76.1286	   15.6803	   2.77002	7.99718e+06	   76.1303	   15.7303	   2.81863	 7.8962e+06	   76.2172	   15.7163	   2.80509	7.77958e+06	    76.183	   15.6806	   2.77034	7.91432e+06	   76.1295	   15.7053	   2.79432	7.94537e+06	   76.1738	   15.7233	   2.81186	7.83631e+06	   76.2001	   15.6985	   2.78772	7.84572e+06	   76.1558	   15.6805	   2.77018	7.95487e+06	
         R10	   1639	    76.137	   15.6341	   2.72507	8.07174e+06	   76.1987	   15.6473	    2.7379	7.96525e+06	   76.2136	   15.6087	   2.70034	 8.0788e+06	   76.1551	   15.5916	   2.68369	8.20642e+06	   76.1678	   15.6407	   2.73148	8.01695e+06	   76.2061	    15.628	   2.71912	8.02171e+06	   76.1843	   15.6001	   2.69202	8.14086e+06	    76.146	   15.6128	   2.70438	8.13881e+06	
         R10	   1640	   76.2136	   15.6087	   2.70034	8.07946e+06	   76.2321	   15.5715	   2.66421	8.22599e+06	    76.178	   15.5561	    2.6492	8.33281e+06	   76.1551	   15.5916	   2.68369	8.19996e+06	   76.2229	   15.5901	   2.68227	8.15236e+06	    76.205	   15.5638	   2.65671	8.27777e+06	   76.1665	   15.5738	   2.66645	8.26606e+06	   76.1843	   15.6001	   2.69202	8.13791e+06	
         R10	   1641	   75.9934	   15.6099	   2.70157	8.21209e+06	   76.0686	   15.6275	   2.71868	8.13135e+06	   76.0942	   15.5804	   2.67281	8.27885e+06	   76.0481	   15.5753	   2.66787	8.29146e+06	    76.031	   15.6187	   2.71012	8.17045e+06	   76.0814	    15.604	   2.69574	8.20491e+06	   76.0711	   15.5778	   2.67034	8.28462e+06	   76.0208	   15.5926	   2.68472	8.25137e+06	
         R10	   1642	   76.0441	   15.5414	   2.63485	 8.3954e+06	   75.9802	   15.5601	   2.65303	 8.3386e+06	   75.9934	   15.6099	   2.70157	8.20703e+06	   76.0481	   15.5753	   2.66787	8.29458e+06	   76.0122	   15.5507	   2.64394	8.36622e+06	   75.9868	    15.585	    2.6773	8.27265e+06	   76.0208	   15.5926	   2.68472	8.25041e+06	   76.0461	   15.5583	   2.65136	8.34495e+06	
         R10	   1643	   76.0942	   15.5804	   2.67281	8.27533e+06	   76.1144	   15.5334	   2.62708	8.43424e+06	   76.0441	   15.5414	   2.63485	8.40262e+06	   76.0481	   15.5753	   2.66787	8.29002e+06	   76.1043	   15.5569	   2.64994	8.35462e+06	   76.0793	   15.5374	   2.63096	8.41716e+06	   76.0461	   15.5583	   2.65136	 8.3463e+06	   76.0711	   15.5778	   2.67034	8.28212e+06	
         R10	   1644	   76.1144	   15.5334	   2.62708	8.42976e+06	   76.0942	   15.5804	   2.67281	8.27052e+06	   76.1551	   15.5916	   2.68369	8.19832e+06	    76.178	   15.5561	    2.6492	8.33728e+06	   76.1043	   15.5569	   2.64994	8.34999e+06	   76.1246	    15.586	   2.67825	8.23318e+06	   76.1665	   15.5738	   2.66645	8.26753e+06	   76.1462	   15.5448	   2.63814	8.38186e+06	
         R10	   1645	   76.1592	   15.5079	   2.60224	8.53376e+06	   76.1144	   15.5334	   2.62708	8.44208e+06	    76.178	   15.5561	    2.6492	8.33568e+06	   76.2083	   15.5203	   2.61437	8.49338e+06	   76.1368	   15.5206	   2.61466	8.48719e+06	   76.1462	   15.5448	   2.63814	8.38727e+06	   76.1931	   15.5382	   2.63178	8.41396e+06	   76.1838	   15.5141	    2.6083	8.51233e+06	
         R10	   1646	   76.2954	   15.3454	    2.4442	9.45493e+06	   76.2895	   15.3333	   2.43243	9.51494e+06	   76.2648	   15.3381	   2.43705	9.42096e+06	   76.2828	   15.3559	   2.45444	  9.354e+06	   76.2924	   15.3394	   2.43831	9.48483e+06	   76.2772	   15.3357	   2.43474	9.46733e+06	   76.2738	    15.347	   2.44574	9.38744e+06	   76.2891	   15.3507	   2.44932	9.40412e+06	
         R10	   1647	   76.2639	   15.3609	   2.45922	 9.2777e+06	   76.2828	   15.3559	   2.45444	9.36785e+06	   76.2648	   15.3381	   2.43705	9.42233e+06	    76.235	   15.3497	   2.44833	9.28582e+06	   76.2734	   15.3584	   2.45683	 9.3224e+06	   76.2738	    15.347	   2.44574	9.39495e+06	   76.2499	   15.3439	   2.44269	9.35307e+06	   76.2495	   15.3553	   2.45377	9.28165e+06	
         R10	   1648	   76.2639	   15.3609	   2.45922	9.27635e+06	    76.235	   15.3497	   2.44833	9.29838e+06	   76.2358	   15.3748	    2.4728	9.16804e+06	   76.2686	   15.3784	   2.47625	9.23625e+06	   76.2495	   15.3553	   2.45377	9.28727e+06	   76.2354	   15.3622	   2.46057	9.23275e+06	   76.2522	   15.3766	   2.47452	9.20169e+06	   76.2663	   15.3696	   2.46773	9.25616e+06	
         R10	   1649	   76.2882	   15.4032	   2.50043	9.16302e+06	   76.2883	   15.3899	   2.48749	9.20836e+06	   76.2686	   15.3784	   2.47625	  9.218e+06	   76.2613	   15.4006	   2.49785	 9.1052e+06	   76.2882	   15.3966	   2.49396	9.18556e+06	   76.2784	   15.3841	   2.48187	 9.2131e+06	    76.265	   15.3895	   2.48705	9.16128e+06	   76.2748	   15.4019	   2.49914	9.13354e+06	
         R10	   1650	   76.2164	   15.4046	   2.50178	9.02504e+06	   76.2372	   15.4191	   2.51588	8.99657e+06	   76.2613	   15.4006	   2.49785	9.10755e+06	   76.2402	   15.3927	   2.49019	9.11196e+06	   76.2268	   15.4119	   2.50883	9.01069e+06	   76.2492	   15.4098	   2.50686	9.05152e+06	   76.2507	   15.3966	   2.49402	9.10961e+06	   76.2283	   15.3987	   2.49598	 9.0681e+06	
         R10	   1651	   76.2358	   15.3748	    2.4728	9.17746e+06	   76.2027	   15.3823	   2.48004	9.09925e+06	   76.2164	   15.4046	   2.50178	9.02342e+06	   76.2402	   15.3927	   2.49019	9.10987e+06	   76.2193	   15.3785	   2.47642	 9.1378e+06	   76.2096	   15.3934	   2.49091	9.06123e+06	   76.2283	   15.3987	   2.49598	9.06617e+06	    76.238	   15.3838	   2.48149	9.14358e+06	
         R10	   1652	   76.2613	   15.4006	   2.49785	9.10913e+06	   76.2686	   15.3784	   2.47625	9.22381e+06	   76.2358	   15.3748	    2.4728	9.17068e+06	   76.2402	   15.3927	   2.49019	9.11201e+06	    76.265	   15.3895	   2.48705	9.16616e+06	   76.2522	   15.3766	   2.47452	9.19677e+06	    76.238	   15.3838	   2.48149	 9.1412e+06	   76.2507	   15.3966	   2.49402	9.11036e+06	
         R10	   1653	   76.2372	   15.4191	   2.51588	9.00307e+06	   76.2164	   15.4046	   2.50178	9.01937e+06	   76.1831	   15.4263	   2.52287	8.89999e+06	   76.2294	   15.4382	   2.53446	8.90209e+06	   76.2268	   15.4119	   2.50883	9.01102e+06	   76.1998	   15.4154	   2.51232	8.95891e+06	   76.2063	   15.4322	   2.52866	8.90027e+06	   76.2333	   15.4286	   2.52517	8.95246e+06	
         R10	   1654	   76.2294	   15.4382	   2.53446	8.90495e+06	   76.1831	   15.4263	   2.52287	8.90151e+06	   76.1882	   15.4527	    2.5486	8.79079e+06	   76.2231	   15.4602	   2.55591	8.79826e+06	   76.2063	   15.4322	   2.52866	8.90243e+06	   76.1856	   15.4395	   2.53573	8.84612e+06	   76.2057	   15.4565	   2.55226	8.79395e+06	   76.2263	   15.4492	   2.54519	8.85156e+06	
         R10	   1655	   76.2231	   15.4602	   2.55591	8.80675e+06	   76.1882	   15.4527	    2.5486	8.78771e+06	   76.1518	   15.4761	   2.57133	8.67677e+06	   76.2121	   15.4866	   2.58153	8.63591e+06	   76.2057	   15.4565	   2.55226	8.79661e+06	     76.17	   15.4644	   2.55996	8.73156e+06	    76.182	   15.4813	   2.57643	8.65464e+06	   76.2176	   15.4734	   2.56872	8.72124e+06	
         R10	   1656	   76.2121	   15.4866	   2.58153	8.67135e+06	   76.1518	   15.4761	   2.57133	8.66934e+06	   76.1592	   15.5079	   2.60224	8.55038e+06	   76.2083	   15.5203	   2.61437	8.49809e+06	    76.182	   15.4813	   2.57643	8.66889e+06	   76.1555	    15.492	   2.58679	8.60985e+06	   76.1838	   15.5141	    2.6083	8.52295e+06	   76.2102	   15.5034	   2.59795	8.58472e+06	
         R10	   1657	   76.2083	   15.5203	   2.61437	8.50815e+06	   76.2557	   15.5403	   2.63382	8.36222e+06	   76.2833	   15.5128	   2.60706	8.51381e+06	   76.2508	   15.5057	   2.60015	8.55384e+06	    76.232	   15.5303	   2.62409	8.43333e+06	   76.2695	   15.5266	   2.62044	8.43728e+06	   76.2671	   15.5093	    2.6036	8.53273e+06	   76.2296	    15.513	   2.60726	8.52973e+06	
         R10	   1658	   76.2504	   15.4889	   2.58382	8.66663e+06	   76.2121	   15.4866	   2.58153	8.64915e+06	   76.2083	   15.5203	   2.61437	 8.4963e+06	   76.2508	   15.5057	   2.60015	8.55529e+06	   76.2312	   15.4877	   2.58268	8.65694e+06	   76.2102	   15.5034	   2.59795	8.57269e+06	   76.2296	    15.513	   2.60726	8.52446e+06	   76.2506	   15.4973	   2.59198	 8.6109e+06	
         R10	   1659	   76.2833	   15.5128	   2.60706	8.51758e+06	   76.3027	   15.4865	    2.5815	8.68288e+06	   76.2504	   15.4889	   2.58382	8.67394e+06	   76.2508	   15.5057	   2.60015	8.56237e+06	    76.293	   15.4997	   2.59428	8.59969e+06	   76.2765	   15.4877	   2.58266	8.67553e+06	   76.2506	   15.4973	   2.59198	8.61812e+06	   76.2671	   15.5093	    2.6036	8.53904e+06	
         R10	   1660	   76.3027	   15.4865	    2.5815	8.65043e+06	   76.2833	   15.5128	   2.60706	8.52609e+06	   76.3248	   15.5176	   2.61172	8.43573e+06	   76.3374	   15.4944	   2.58912	 8.5938e+06	    76.293	   15.4997	   2.59428	8.58772e+06	    76.304	   15.5152	   2.60939	8.47879e+06	   76.3311	    15.506	   2.60042	8.51439e+06	     76.32	   15.4905	   2.58531	8.62029e+06	
         R10	   1661	   76.3374	   15.4944	   2.58912	8.59997e+06	   76.3248	   15.5176	   2.61172	8.44066e+06	   76.3679	   15.5224	   2.61638	8.32855e+06	   76.3839	    15.492	   2.58685	8.51993e+06	   76.3311	    15.506	   2.60042	8.51985e+06	   76.3463	     15.52	   2.61405	8.38137e+06	   76.3759	   15.5072	   2.60162	8.42297e+06	   76.3606	   15.4932	   2.58799	8.55552e+06	
         R10	   1662	   76.3501	   15.4702	   2.56563	 8.8013e+06	   76.3839	    15.492	   2.58685	8.46285e+06	    76.386	   15.4672	   2.56269	8.68038e+06	    76.374	   15.4633	   2.55884	8.79724e+06	    76.367	   15.4811	   2.57624	8.62866e+06	    76.385	   15.4796	   2.57477	 8.5716e+06	     76.38	   15.4652	   2.56077	8.73704e+06	   76.3621	   15.4667	   2.56224	8.79743e+06	
         R10	   1663	   76.3765	   15.4499	   2.54586	9.02472e+06	   76.3497	   15.4511	   2.54698	8.81384e+06	   76.3501	   15.4702	   2.56563	8.81297e+06	    76.374	   15.4633	   2.55884	8.68319e+06	   76.3631	   15.4505	   2.54642	8.91729e+06	   76.3499	   15.4607	   2.55631	8.81263e+06	   76.3621	   15.4667	   2.56224	8.74676e+06	   76.3752	   15.4566	   2.55235	8.85389e+06	
         R10	   1664	    76.386	   15.4672	   2.56269	8.80167e+06	   76.4028	   15.4556	   2.55143	8.78633e+06	   76.3765	   15.4499	   2.54586	8.80928e+06	    76.374	   15.4633	   2.55884	8.84213e+06	   76.3944	   15.4614	   2.55706	8.79237e+06	   76.3896	   15.4528	   2.54865	8.79309e+06	   76.3752	   15.4566	   2.55235	8.82319e+06	     76.38	   15.4652	   2.56077	8.81943e+06	
         R10	   1665	    76.386	   15.4672	   2.56269	8.63667e+06	   76.3839	    15.492	   2.58685	8.51307e+06	    76.411	   15.4723	   2.56765	8.62439e+06	   76.4028	   15.4556	   2.55143	8.76906e+06	    76.385	   15.4796	   2.57477	8.57417e+06	   76.3974	   15.4822	   2.57725	8.56679e+06	   76.4069	    15.464	   2.55954	8.69637e+06	   76.3944	   15.4614	   2.55706	8.70138e+06	
         R10	   1666	   76.4282	   15.4527	   2.54857	8.71057e+06	   76.4028	   15.4556	   2.55143	8.74803e+06	    76.411	   15.4723	   2.56765	8.60328e+06	   76.4367	   15.4738	    2.5691	8.44643e+06	   76.4155	   15.4542	      2.55	8.72585e+06	   76.4069	    15.464	   2.55954	8.67447e+06	   76.4239	   15.4731	   2.56838	8.52205e+06	   76.4325	   15.4632	   2.55884	8.57653e+06	
         R10	   1667	   76.4742	   15.4563	   2.55203	8.27519e+06	   76.4641	   15.4373	   2.53358	8.62837e+06	   76.4473	   15.4489	   2.54487	8.52694e+06	    76.454	   15.4581	   2.55379	8.50765e+06	   76.4691	   15.4468	   2.54281	8.44924e+06	   76.4557	   15.4431	   2.53922	8.57344e+06	   76.4507	   15.4535	   2.54933	8.51553e+06	   76.4641	   15.4572	   2.55291	 8.3885e+06	
         R10	   1668	   76.4367	   15.4738	    2.5691	 8.4361e+06	   76.4679	   15.4776	   2.57279	8.21314e+06	   76.4742	   15.4563	   2.55203	8.31024e+06	    76.454	   15.4581	   2.55379	8.48853e+06	   76.4523	   15.4757	   2.57095	8.31968e+06	    76.471	   15.4669	   2.56241	8.25903e+06	   76.4641	   15.4572	   2.55291	8.39578e+06	   76.4454	   15.4659	   2.56145	8.45983e+06	
         R10	   1669	   76.4473	   15.4489	   2.54487	8.58817e+06	   76.4282	   15.4527	   2.54857	8.68447e+06	   76.4367	   15.4738	    2.5691	8.46893e+06	    76.454	   15.4581	   2.55379	8.44681e+06	   76.4378	   15.4508	   2.54672	8.63297e+06	   76.4325	   15.4632	   2.55884	8.57494e+06	   76.4454	   15.4659	   2.56145	8.45512e+06	   76.4507	   15.4535	   2.54933	8.51745e+06	
         R10	   1670	   76.4473	   15.4489	   2.54487	8.55324e+06	   76.4453	   15.4339	   2.53029	8.85192e+06	   76.4288	   15.4365	   2.53282	8.76622e+06	   76.4282	   15.4527	   2.54857	8.74033e+06	   76.4463	   15.4414	   2.53758	8.70179e+06	   76.4371	   15.4352	   2.53155	8.80516e+06	   76.4285	   15.4446	    2.5407	8.75152e+06	   76.4378	   15.4508	   2.54672	8.64613e+06	
         R10	   1671	   76.4282	   15.4527	   2.54857	8.67925e+06	   76.4288	   15.4365	   2.53282	8.88095e+06	   76.4143	   15.4355	    2.5318	8.94574e+06	   76.4028	   15.4556	   2.55143	8.76991e+06	   76.4285	   15.4446	    2.5407	8.77959e+06	   76.4215	    15.436	   2.53231	8.91084e+06	   76.4086	   15.4455	   2.54161	8.85628e+06	   76.4155	   15.4542	      2.55	8.72187e+06	
         R10	   1672	     76.33	   15.3244	   2.42371	9.75775e+06	     76.33	   15.3122	   2.41185	9.91954e+06	   76.3098	   15.3169	   2.41643	9.75044e+06	     76.33	   15.3183	   2.41778	9.83833e+06	   76.3199	   15.3145	   2.41414	9.83412e+06	   76.3199	   15.3206	   2.42007	9.75393e+06	       N/A	       N/A	       N/A	        N/A	       N/A	       N/A	       N/A	        N/A	
         R10	   1673	   76.3065	   15.3854	   2.48306	9.27389e+06	   76.3116	   15.3707	   2.46879	9.35108e+06	   76.2907	   15.3712	    2.4693	9.31408e+06	   76.3091	    15.378	   2.47593	9.31225e+06	   76.3012	    15.371	   2.46904	9.33226e+06	   76.2986	   15.3783	   2.47618	9.29379e+06	       N/A	       N/A	       N/A	        N/A	       N/A	       N/A	       N/A	        N/A	
         R10	   1674	   76.3116	   15.4106	   2.50759	9.15574e+06	    76.312	    15.397	   2.49437	9.22925e+06	   76.2882	   15.4032	   2.50043	9.18342e+06	   76.3118	   15.4038	   2.50098	9.19248e+06	   76.3001	   15.4001	    2.4974	9.20572e+06	   76.2999	   15.4069	   2.50401	9.16909e+06	       N/A	       N/A	       N/A	        N/A	       N/A	       N/A	       N/A	        N/A	
         R10	   1675	   76.3635	   15.4343	   2.53068	9.10557e+06	   76.3452	   15.4349	   2.53121	9.05362e+06	   76.3497	   15.4511	   2.54698	8.86885e+06	   76.3543	   15.4346	   2.53095	9.07832e+06	   76.3475	    15.443	    2.5391	8.96094e+06	   76.3566	   15.4427	   2.53883	8.98683e+06	       N/A	       N/A	       N/A	        N/A	       N/A	       N/A	       N/A	        N/A	
         R10	   1676	   76.4143	   15.4355	    2.5318	8.96415e+06	   76.3948	   15.4356	   2.53193	9.00957e+06	   76.4028	   15.4556	   2.55143	8.74943e+06	   76.4045	   15.4355	   2.53186	8.98426e+06	   76.3988	   15.4456	   2.54168	8.87809e+06	   76.4086	   15.4455	   2.54161	8.85558e+06	       N/A	       N/A	       N/A	        N/A	       N/A	       N/A	       N/A	        N/A	
         R10	   1677	   76.3269	   15.4508	   2.54669	8.91745e+06	   76.3311	   15.4347	   2.53106	9.08283e+06	     76.31	   15.4362	   2.53254	8.98039e+06	    76.329	   15.4427	   2.53887	9.00004e+06	   76.3206	   15.4355	    2.5318	9.03067e+06	   76.3185	   15.4435	   2.53961	8.94803e+06	       N/A	       N/A	       N/A	        N/A	       N/A	       N/A	       N/A	        N/A	
         R10	   1678	   76.3209	   15.4683	   2.56379	8.79978e+06	   76.3269	   15.4508	   2.54669	8.90581e+06	   76.2968	   15.4574	   2.55317	8.86655e+06	   76.3239	   15.4596	   2.55524	8.85277e+06	   76.3118	   15.4541	   2.54993	8.88502e+06	   76.3088	   15.4629	   2.55848	8.83216e+06	       N/A	       N/A	       N/A	        N/A	       N/A	       N/A	       N/A	        N/A	
         R10	   1679	      75.9	    15.494	   2.58873	8.49676e+06	    75.889	    15.441	   2.53717	8.59725e+06	   75.8176	   15.4817	   2.57677	8.46748e+06	   75.8945	   15.4675	   2.56295	8.54668e+06	   75.8533	   15.4613	   2.55697	8.53137e+06	   75.8588	   15.4878	   2.58275	8.48172e+06	       N/A	       N/A	       N/A	        N/A	       N/A	       N/A	       N/A	        N/A	
         R10	   1680	   75.9775	   15.5109	   2.60517	8.45977e+06	   75.9043	   15.5497	   2.64299	8.35026e+06	   75.9802	   15.5601	   2.65303	8.33929e+06	   75.9409	   15.5303	   2.62408	8.40422e+06	   75.9422	   15.5549	   2.64801	8.34407e+06	   75.9789	   15.5355	    2.6291	8.39953e+06	       N/A	       N/A	       N/A	        N/A	       N/A	       N/A	       N/A	        N/A	
         R10	   1681	   76.3501	   15.4702	   2.56563	 8.7661e+06	   76.3374	   15.4944	   2.58912	8.58665e+06	   76.3839	    15.492	   2.58685	8.52798e+06	   76.3438	   15.4823	   2.57738	8.67581e+06	   76.3606	   15.4932	   2.58799	8.55258e+06	    76.367	   15.4811	   2.57624	8.64355e+06	       N/A	       N/A	       N/A	        N/A	       N/A	       N/A	       N/A	        N/A	
         R10	   1682	   76.2613	   15.4006	   2.49785	9.11677e+06	   76.2372	   15.4191	   2.51588	8.99546e+06	   76.2666	   15.4245	   2.52115	9.01795e+06	   76.2492	   15.4098	   2.50686	9.05562e+06	   76.2519	   15.4218	   2.51851	 9.0062e+06	   76.2639	   15.4125	    2.5095	9.06725e+06	       N/A	       N/A	       N/A	        N/A	       N/A	       N/A	       N/A	        N/A	
         R10	   1683	   76.4641	   15.4373	   2.53358	 8.4962e+06	   76.4453	   15.4339	   2.53029	 8.7428e+06	   76.4473	   15.4489	   2.54487	8.68476e+06	   76.4547	   15.4356	   2.53193	 8.6158e+06	   76.4463	   15.4414	   2.53758	8.71176e+06	   76.4557	   15.4431	   2.53922	8.58687e+06	       N/A	       N/A	       N/A	        N/A	       N/A	       N/A	       N/A	        N/A	
         R10	   1684	   76.2646	   15.4645	   2.56001	8.78937e+06	   76.2504	   15.4889	   2.58382	8.67525e+06	   76.3027	   15.4865	    2.5815	8.67019e+06	   76.2575	   15.4767	   2.57191	8.73205e+06	   76.2765	   15.4877	   2.58266	8.66985e+06	   76.2836	   15.4755	   2.57075	8.72811e+06	       N/A	       N/A	       N/A	        N/A	       N/A	       N/A	       N/A	        N/A	
         R10	   1685	   76.4641	   15.4373	   2.53358	8.57803e+06	   76.4742	   15.4563	   2.55203	8.28198e+06	   76.4839	   15.4361	   2.53243	8.35537e+06	   76.4691	   15.4468	   2.54281	8.42698e+06	    76.479	   15.4462	   2.54223	8.31515e+06	    76.474	   15.4367	     2.533	8.46205e+06	       N/A	       N/A	       N/A	        N/A	       N/A	       N/A	       N/A	        N/A	
         R10	   1686	    76.211	   15.7517	   2.83948	7.84766e+06	   76.1457	   15.7899	   2.87667	7.79943e+06	   76.2555	   15.7925	    2.8792	7.66096e+06	   76.1784	   15.7708	   2.85807	7.82324e+06	   76.2006	   15.7912	   2.87794	 7.7282e+06	   76.2333	   15.7721	   2.85934	7.75124e+06	       N/A	       N/A	       N/A	        N/A	       N/A	       N/A	       N/A	        N/A	
         R10	   1687	   76.5349	   15.4345	   2.53086	7.50004e+06	    76.534	   15.4218	   2.51855	7.51599e+06	    76.517	   15.4218	   2.51855	7.46208e+06	   76.5159	   15.4351	   2.53148	7.31479e+06	   76.5344	   15.4282	    2.5247	7.50627e+06	   76.5255	   15.4218	   2.51855	7.48347e+06	   76.5164	   15.4285	   2.52502	7.38686e+06	   76.5254	   15.4348	   2.53117	7.40134e+06	
         R10	   1688	   76.5507	   15.4353	   2.53169	 7.5724e+06	    76.551	   15.4218	   2.51855	7.62177e+06	    76.534	   15.4218	   2.51855	7.57803e+06	   76.5349	   15.4345	   2.53086	7.48745e+06	   76.5509	   15.4286	   2.52512	 7.5944e+06	   76.5425	   15.4218	   2.51855	7.59616e+06	   76.5344	   15.4282	    2.5247	7.53252e+06	   76.5428	   15.4349	   2.53127	7.52578e+06	
         R10	   1689	   76.5695	    15.435	   2.53134	7.65983e+06	    76.568	   15.4218	   2.51855	7.77951e+06	    76.551	   15.4218	   2.51855	7.70642e+06	   76.5507	   15.4353	   2.53169	7.54495e+06	   76.5688	   15.4284	   2.52494	7.71872e+06	   76.5595	   15.4218	   2.51855	7.73923e+06	   76.5509	   15.4286	   2.52512	7.62505e+06	   76.5601	   15.4352	   2.53151	 7.5986e+06	
         R10	   1690	   76.5856	    15.434	   2.53033	7.78684e+06	    76.585	   15.4218	   2.51855	7.79959e+06	    76.568	   15.4218	   2.51855	7.82179e+06	   76.5695	    15.435	   2.53134	7.59774e+06	   76.5853	   15.4279	   2.52444	7.79237e+06	   76.5765	   15.4218	   2.51855	7.80737e+06	   76.5688	   15.4284	   2.52494	 7.7088e+06	   76.5776	   15.4345	   2.53084	7.69116e+06	
         R10	   1691	   76.6035	   15.4339	   2.53032	7.78912e+06	    76.602	   15.4218	   2.51855	7.84092e+06	    76.585	   15.4218	   2.51855	 7.8868e+06	   76.5856	    15.434	   2.53033	 7.6175e+06	   76.6028	   15.4279	   2.52444	7.81418e+06	   76.5935	   15.4218	   2.51855	7.86189e+06	   76.5853	   15.4279	   2.52444	7.75211e+06	   76.5945	   15.4339	   2.53033	7.70142e+06	
         R10	   1692	   76.6173	   15.4337	   2.53013	7.73567e+06	    76.619	   15.4218	   2.51855	7.87574e+06	    76.602	   15.4218	   2.51855	7.89867e+06	   76.6035	   15.4339	   2.53032	7.69574e+06	   76.6182	   15.4278	   2.52434	7.80455e+06	   76.6105	   15.4218	   2.51855	 7.8864e+06	   76.6028	   15.4279	   2.52444	 7.7971e+06	   76.6104	   15.4338	   2.53022	7.71484e+06	
         R10	   1693	   76.6366	   15.4346	   2.53096	7.77165e+06	    76.636	   15.4218	   2.51855	7.95051e+06	    76.619	   15.4218	   2.51855	7.88859e+06	   76.6173	   15.4337	   2.53013	7.64761e+06	   76.6363	   15.4282	   2.52476	7.85917e+06	   76.6275	   15.4218	   2.51855	 7.9183e+06	   76.6182	   15.4278	   2.52434	7.76771e+06	    76.627	   15.4342	   2.53054	7.70656e+06	
         R10	   1694	   76.6511	   15.4357	   2.53202	7.82908e+06	    76.653	   15.4218	   2.51855	7.90753e+06	    76.636	   15.4218	   2.51855	  7.961e+06	   76.6366	   15.4346	   2.53096	7.69445e+06	   76.6521	   15.4288	   2.52528	7.86799e+06	   76.6445	   15.4218	   2.51855	 7.9335e+06	   76.6363	   15.4282	   2.52476	7.82714e+06	   76.6438	   15.4351	   2.53149	7.76109e+06	
         R10	   1695	   76.6716	   15.4355	   2.53181	7.83467e+06	     76.67	   15.4218	   2.51855	7.88721e+06	    76.653	   15.4218	   2.51855	7.93208e+06	   76.6511	   15.4357	   2.53202	7.77963e+06	   76.6708	   15.4287	   2.52518	7.86083e+06	   76.6615	   15.4218	   2.51855	7.90922e+06	   76.6521	   15.4288	   2.52528	7.85555e+06	   76.6613	   15.4356	   2.53191	7.80573e+06	
         R10	   1696	   76.6861	   15.4106	   2.50766	7.88404e+06	     76.67	   15.4097	    2.5067	7.99615e+06	     76.67	   15.4218	   2.51855	7.86804e+06	   76.6864	   15.4209	   2.51764	7.86986e+06	   76.6781	   15.4102	   2.50718	7.93953e+06	     76.67	   15.4158	   2.51262	7.93188e+06	   76.6782	   15.4214	   2.51809	7.86839e+06	   76.6863	   15.4158	   2.51265	7.87665e+06	
         R10	   1697	   76.6913	   15.3977	   2.49502	8.00244e+06	     76.67	   15.3975	   2.49484	8.07063e+06	     76.67	   15.4097	    2.5067	7.93643e+06	   76.6861	   15.4106	   2.50766	7.94894e+06	   76.6807	   15.3976	   2.49493	8.03628e+06	     76.67	   15.4036	   2.50077	8.00315e+06	   76.6781	   15.4102	   2.50718	7.94078e+06	   76.6887	   15.4042	   2.50134	7.97555e+06	
         R10	   1698	   76.6873	   15.3848	    2.4825	8.11037e+06	     76.67	   15.3853	   2.48299	8.13095e+06	     76.67	   15.3975	   2.49484	8.02842e+06	   76.6913	   15.3977	   2.49502	8.01881e+06	   76.6786	    15.385	   2.48274	8.12019e+06	     76.67	   15.3914	   2.48891	 8.0795e+06	   76.6807	   15.3976	   2.49493	  8.023e+06	   76.6893	   15.3912	   2.48876	8.06457e+06	
         R10	   1699	   76.6879	    15.373	   2.47103	8.15367e+06	     76.67	   15.3731	   2.47113	8.22638e+06	     76.67	   15.3853	   2.48299	8.12081e+06	   76.6873	   15.3848	    2.4825	8.11518e+06	    76.679	   15.3731	   2.47108	8.18978e+06	     76.67	   15.3792	   2.47706	8.17354e+06	   76.6786	    15.385	   2.48274	 8.1176e+06	   76.6876	   15.3789	   2.47676	8.13417e+06	
         R10	   1700	   76.6878	    15.361	   2.45931	8.28916e+06	     76.67	   15.3609	   2.45928	8.26862e+06	     76.67	   15.3731	   2.47113	8.23268e+06	   76.6879	    15.373	   2.47103	 8.1472e+06	   76.6789	   15.3609	   2.45929	8.27752e+06	     76.67	    15.367	    2.4652	8.25008e+06	    76.679	   15.3731	   2.47108	8.18957e+06	   76.6879	    15.367	   2.46517	8.21817e+06	
         R10	   1701	    76.687	   15.3486	   2.44733	8.40111e+06	     76.67	   15.3487	   2.44742	 8.3532e+06	     76.67	   15.3609	   2.45928	8.37532e+06	   76.6878	    15.361	   2.45931	8.21804e+06	   76.6785	   15.3487	   2.44737	8.37711e+06	     76.67	   15.3548	   2.45335	8.36397e+06	   76.6789	   15.3609	   2.45929	8.29652e+06	   76.6874	   15.3548	   2.45332	8.30907e+06	
         R10	   1702	   76.6853	   15.3372	   2.43616	8.44323e+06	     76.67	   15.3366	   2.43556	8.49271e+06	     76.67	   15.3487	   2.44742	8.38773e+06	    76.687	   15.3486	   2.44733	8.37589e+06	   76.6776	   15.3369	   2.43586	8.46796e+06	     76.67	   15.3426	   2.44149	8.43981e+06	   76.6785	   15.3487	   2.44737	8.38169e+06	   76.6861	   15.3429	   2.44174	8.40879e+06	
         R10	   1703	   76.6868	   15.3242	   2.42351	8.67043e+06	     76.67	   15.3244	   2.42371	 8.5538e+06	     76.67	   15.3366	   2.43556	8.59724e+06	   76.6853	   15.3372	   2.43616	8.42006e+06	   76.6784	   15.3243	   2.42361	8.61155e+06	     76.67	   15.3305	   2.42964	8.57507e+06	   76.6776	   15.3369	   2.43586	8.50759e+06	    76.686	   15.3307	   2.42983	8.54433e+06	
         R10	   1704	   76.6893	   15.3131	   2.41271	8.70097e+06	     76.67	   15.3122	   2.41185	8.79465e+06	     76.67	   15.3244	   2.42371	8.74705e+06	   76.6868	   15.3242	   2.42351	8.53158e+06	   76.6796	   15.3126	   2.41228	8.74674e+06	     76.67	   15.3183	   2.41778	 8.7696e+06	   76.6784	   15.3243	   2.42361	 8.6391e+06	    76.688	   15.3186	   2.41811	8.61622e+06	
         R10	   1705	   76.6874	      15.3	       2.4	8.90606e+06	     76.67	      15.3	       2.4	9.00239e+06	     76.67	   15.3122	   2.41185	8.82083e+06	   76.6893	   15.3131	   2.41271	8.67565e+06	   76.6787	      15.3	       2.4	8.95396e+06	     76.67	   15.3061	   2.40593	 8.9114e+06	   76.6796	   15.3126	   2.41228	8.74672e+06	   76.6883	   15.3065	   2.40635	8.78972e+06	
         R10	   1706	   76.7118	    15.317	   2.41652	8.53008e+06	   76.7095	      15.3	       2.4	8.73548e+06	   76.6874	      15.3	       2.4	8.84171e+06	   76.6893	   15.3131	   2.41271	8.72959e+06	   76.7107	   15.3085	   2.40826	8.63219e+06	   76.6984	      15.3	       2.4	8.78811e+06	   76.6883	   15.3065	   2.40635	8.78547e+06	   76.7005	    15.315	   2.41461	 8.6286e+06	
         R10	   1707	   76.7382	   15.3203	   2.41978	8.42105e+06	   76.7365	      15.3	       2.4	8.59927e+06	   76.7095	      15.3	       2.4	8.72748e+06	   76.7118	    15.317	   2.41652	8.54302e+06	   76.7373	   15.3102	   2.40989	8.50969e+06	    76.723	      15.3	       2.4	8.66245e+06	   76.7107	   15.3085	   2.40826	8.63465e+06	    76.725	   15.3187	   2.41815	8.48128e+06	
         R10	   1708	   76.7701	   15.3235	   2.42284	8.32169e+06	   76.7683	      15.3	       2.4	8.49557e+06	   76.7365	      15.3	       2.4	8.59925e+06	   76.7382	   15.3203	   2.41978	8.42971e+06	   76.7692	   15.3117	   2.41142	8.40803e+06	   76.7524	      15.3	       2.4	8.54656e+06	   76.7373	   15.3102	   2.40989	8.51396e+06	   76.7542	   15.3219	   2.42131	8.37481e+06	
         R10	   1709	    76.807	   15.3273	   2.42655	 8.2349e+06	   76.8048	      15.3	       2.4	8.40612e+06	   76.7683	      15.3	       2.4	8.49422e+06	   76.7701	   15.3235	   2.42284	8.32691e+06	   76.8059	   15.3136	   2.41328	8.31977e+06	   76.7865	      15.3	       2.4	8.44934e+06	   76.7692	   15.3117	   2.41142	   8.41e+06	   76.7886	   15.3254	   2.42469	8.27997e+06	
         R10	   1710	   76.8482	   15.3315	   2.43061	8.15374e+06	   76.8462	      15.3	       2.4	8.34199e+06	   76.8048	      15.3	       2.4	8.40709e+06	    76.807	   15.3273	   2.42655	8.23534e+06	   76.8472	   15.3157	   2.41531	8.24679e+06	   76.8255	      15.3	       2.4	 8.3738e+06	   76.8059	   15.3136	   2.41328	 8.3205e+06	   76.8276	   15.3294	   2.42858	8.19359e+06	
         R10	   1711	    76.894	   15.3352	   2.43428	8.08862e+06	   76.8924	      15.3	       2.4	8.28194e+06	   76.8462	      15.3	       2.4	8.33611e+06	   76.8482	   15.3315	   2.43061	8.16157e+06	   76.8932	   15.3176	   2.41714	8.18401e+06	   76.8693	      15.3	       2.4	8.30832e+06	   76.8472	   15.3157	   2.41531	8.24794e+06	   76.8711	   15.3334	   2.43245	8.12419e+06	
         R10	   1712	   76.9448	   15.3385	   2.43744	8.03565e+06	   76.9433	      15.3	       2.4	8.23597e+06	   76.8924	      15.3	       2.4	8.28258e+06	    76.894	   15.3352	   2.43428	8.09082e+06	   76.9441	   15.3192	   2.41872	8.13428e+06	   76.9179	      15.3	       2.4	8.25858e+06	   76.8932	   15.3176	   2.41714	8.18543e+06	   76.9194	   15.3369	   2.43586	8.06243e+06	
         R10	   1713	   77.0006	   15.3412	   2.44013	7.98768e+06	   76.9991	      15.3	       2.4	8.19892e+06	   76.9433	      15.3	       2.4	 8.2343e+06	   76.9448	   15.3385	   2.43744	8.03751e+06	   76.9998	   15.3206	   2.42007	8.09148e+06	   76.9712	      15.3	       2.4	8.21598e+06	   76.9441	   15.3192	   2.41872	8.13437e+06	   76.9727	   15.3399	   2.43879	8.01185e+06	
         R10	   1714	   77.0619	   15.3449	   2.44365	7.94141e+06	   77.0597	      15.3	       2.4	8.15725e+06	   76.9991	      15.3	       2.4	8.19923e+06	   77.0006	   15.3412	   2.44013	7.98722e+06	   77.0608	   15.3224	   2.42182	8.04714e+06	   77.0294	      15.3	       2.4	8.17761e+06	   76.9998	   15.3206	   2.42007	8.09142e+06	   77.0312	   15.3431	   2.44189	7.96357e+06	
         R10	   1715	   77.1272	   15.3492	   2.44791	7.89251e+06	   77.1251	      15.3	       2.4	8.12084e+06	   77.0597	      15.3	       2.4	8.16084e+06	   77.0619	   15.3449	   2.44365	7.94027e+06	   77.1261	   15.3246	   2.42396	8.00393e+06	   77.0924	      15.3	       2.4	8.14021e+06	   77.0608	   15.3224	   2.42182	8.04838e+06	   77.0945	   15.3471	   2.44578	7.91567e+06	
         R10	   1716	    77.197	   15.3529	    2.4515	7.85094e+06	   77.1952	      15.3	       2.4	8.08818e+06	   77.1251	      15.3	       2.4	 8.1242e+06	   77.1272	   15.3492	   2.44791	7.89182e+06	   77.1961	   15.3265	   2.42575	7.96647e+06	   77.1601	      15.3	       2.4	8.10559e+06	   77.1261	   15.3246	   2.42396	8.00532e+06	   77.1621	   15.3511	   2.44971	7.87072e+06	
         R10	   1717	   77.2726	   15.3565	   2.45498	 7.7984e+06	   77.2702	      15.3	       2.4	8.05798e+06	   77.1952	      15.3	       2.4	8.09416e+06	    77.197	   15.3529	    2.4515	7.84546e+06	   77.2714	   15.3283	   2.42749	7.92471e+06	   77.2327	      15.3	       2.4	8.07551e+06	   77.1961	   15.3265	   2.42575	 7.9668e+06	   77.2348	   15.3547	   2.45324	7.82124e+06	
         R10	   1718	     77.35	   15.3588	   2.45717	7.75928e+06	     77.35	      15.3	       2.4	8.01486e+06	   77.2702	      15.3	       2.4	8.06887e+06	   77.2726	   15.3565	   2.45498	 7.7904e+06	     77.35	   15.3294	   2.42859	7.88341e+06	   77.3101	      15.3	       2.4	8.04114e+06	   77.2714	   15.3283	   2.42749	7.92626e+06	   77.3113	   15.3576	   2.45608	7.77435e+06	
         R10	   1719	     77.35	     15.42	   2.51671	7.54344e+06	     77.35	   15.3588	   2.45717	7.76057e+06	   77.2726	   15.3565	   2.45498	7.79455e+06	   77.2694	   15.4169	   2.51371	7.57845e+06	     77.35	   15.3894	   2.48694	7.64975e+06	   77.3113	   15.3576	   2.45608	7.77704e+06	    77.271	   15.3867	   2.48435	7.68419e+06	   77.3097	   15.4184	   2.51521	7.56032e+06	
         R10	   1720	   77.2623	   15.4826	   2.57766	7.40034e+06	     77.35	   15.4836	   2.57862	7.36925e+06	     77.35	     15.42	   2.51671	7.54818e+06	   77.2694	   15.4169	   2.51371	7.58875e+06	   77.3061	   15.4831	   2.57814	7.38415e+06	     77.35	   15.4518	   2.54767	7.45767e+06	   77.3097	   15.4184	   2.51521	7.56778e+06	   77.2659	   15.4497	   2.54569	7.49336e+06	
         R10	   1721	   77.2578	    15.549	   2.64226	7.25035e+06	     77.35	   15.5496	   2.64289	7.23577e+06	     77.35	   15.4836	   2.57862	7.38075e+06	   77.2623	   15.4826	   2.57766	7.41599e+06	   77.3039	   15.5493	   2.64258	7.24233e+06	     77.35	   15.5166	   2.61075	7.30806e+06	   77.3061	   15.4831	   2.57814	7.39768e+06	     77.26	   15.5158	   2.60996	7.33303e+06	
         R10	   1722	   77.2563	    15.619	   2.71036	7.13272e+06	     77.35	   15.6181	   2.70953	7.11577e+06	     77.35	   15.5496	   2.64289	7.25445e+06	   77.2578	    15.549	   2.64226	7.26721e+06	   77.3032	   15.6186	   2.70994	7.12359e+06	     77.35	   15.5839	   2.67621	7.18497e+06	   77.3039	   15.5493	   2.64258	7.26014e+06	    77.257	    15.584	   2.67631	7.19987e+06	
         R10	   1723	   77.2534	   15.6904	   2.77984	7.04192e+06	     77.35	    15.689	   2.77853	7.04054e+06	     77.35	   15.6181	   2.70953	7.15116e+06	   77.2563	    15.619	   2.71036	7.16419e+06	   77.3017	   15.6897	   2.77918	 7.0406e+06	     77.35	   15.6536	   2.74403	7.09449e+06	   77.3032	   15.6186	   2.70994	7.15704e+06	   77.2548	   15.6547	    2.7451	7.10165e+06	
         R10	   1724	   77.2487	    15.764	   2.85143	7.02337e+06	     77.35	   15.7624	   2.84989	7.02125e+06	     77.35	    15.689	   2.77853	7.10881e+06	   77.2534	   15.6904	   2.77984	7.09946e+06	   77.2994	   15.7632	   2.85066	7.02164e+06	     77.35	   15.7257	   2.81421	7.06159e+06	   77.3017	   15.6897	   2.77918	7.10367e+06	    77.251	   15.7272	   2.81563	7.05689e+06	
         R10	   1725	   77.2458	    15.839	   2.92447	7.07926e+06	     77.35	   15.8382	   2.92363	 7.1179e+06	     77.35	   15.7624	   2.84989	7.12771e+06	   77.2487	    15.764	   2.85143	7.13441e+06	   77.2979	   15.8386	   2.92405	7.09831e+06	     77.35	   15.8003	   2.88676	 7.1133e+06	   77.2994	   15.7632	   2.85066	7.13044e+06	   77.2473	   15.8015	   2.88795	7.09641e+06	
         R10	   1726	   77.2466	   15.9164	   2.99973	7.31329e+06	     77.35	   15.9164	   2.99973	7.32776e+06	     77.35	   15.8382	   2.92363	7.29031e+06	   77.2458	    15.839	   2.92447	7.28224e+06	   77.2983	   15.9164	   2.99973	7.32029e+06	     77.35	   15.8773	   2.96168	 7.2883e+06	   77.2979	   15.8386	   2.92405	7.28586e+06	   77.2462	   15.8777	    2.9621	7.27759e+06	
         R10	   1727	   77.1454	   15.9164	   2.99973	7.29262e+06	   77.2466	   15.9164	   2.99973	7.31366e+06	   77.2458	    15.839	   2.92447	 7.2977e+06	   77.1459	   15.8391	   2.92449	7.27765e+06	    77.196	   15.9164	   2.99973	7.30279e+06	   77.2462	   15.8777	    2.9621	7.28451e+06	   77.1959	    15.839	   2.92448	7.28723e+06	   77.1457	   15.8777	   2.96211	7.26315e+06	
         R10	   1728	    77.048	    15.842	   2.92734	7.27237e+06	   77.0465	   15.9164	   2.99973	7.25402e+06	   77.1454	   15.9164	   2.99973	7.28918e+06	   77.1459	   15.8391	   2.92449	7.29384e+06	   77.0472	   15.8792	   2.96353	 7.2402e+06	   77.0959	   15.9164	   2.99973	7.27102e+06	   77.1457	   15.8777	   2.96211	7.26894e+06	   77.0969	   15.8405	   2.92592	7.28224e+06	
         R10	   1729	    76.954	   15.8465	   2.93172	 7.2753e+06	   76.9498	   15.9164	   2.99973	  7.205e+06	   77.0465	   15.9164	   2.99973	7.24772e+06	    77.048	    15.842	   2.92734	7.28182e+06	   76.9519	   15.8814	   2.96572	7.21419e+06	   76.9981	   15.9164	   2.99973	7.22519e+06	   77.0472	   15.8792	   2.96353	7.24159e+06	    77.001	   15.8442	   2.92953	7.27747e+06	
         R10	   1730	   76.8559	   15.8514	   2.93649	7.24344e+06	   76.8553	   15.9164	   2.99973	7.17243e+06	   76.9498	   15.9164	   2.99973	7.20619e+06	    76.954	   15.8465	   2.93172	7.27272e+06	   76.8556	   15.8839	   2.96811	7.17866e+06	   76.9026	   15.9164	   2.99973	7.18736e+06	   76.9519	   15.8814	   2.96572	7.21346e+06	    76.905	   15.8489	    2.9341	7.25638e+06	
         R10	   1731	   76.7635	   15.8528	   2.93788	7.19266e+06	   76.7631	   15.9164	   2.99973	 7.2012e+06	   76.8553	   15.9164	   2.99973	7.17873e+06	   76.8559	   15.8514	   2.93649	7.23238e+06	   76.7633	   15.8846	    2.9688	7.16102e+06	   76.8092	   15.9164	   2.99973	7.18682e+06	   76.8556	   15.8839	   2.96811	7.17634e+06	   76.8097	   15.8521	   2.93718	7.21084e+06	
         R10	   1732	   76.6737	   15.8538	   2.93883	7.30294e+06	   76.6732	   15.9164	   2.99973	7.29688e+06	   76.7631	   15.9164	   2.99973	7.18911e+06	   76.7635	   15.8528	   2.93788	 7.1968e+06	   76.6734	   15.8851	   2.96928	7.24896e+06	   76.7182	   15.9164	   2.99973	7.23788e+06	   76.7633	   15.8846	    2.9688	7.15633e+06	   76.7186	   15.8533	   2.93835	7.24793e+06	
         R10	   1733	   76.5861	   15.8546	   2.93963	7.03863e+06	   76.5855	   15.9164	   2.99973	8.08288e+06	   76.6732	   15.9164	   2.99973	7.34809e+06	   76.6737	   15.8538	   2.93883	7.32187e+06	   76.5858	   15.8855	   2.96968	7.47736e+06	   76.6293	   15.9164	   2.99973	7.70277e+06	   76.6734	   15.8851	   2.96928	 7.2831e+06	   76.6299	   15.8542	   2.93923	7.17898e+06	
         R10	   1734	      76.5	   15.8529	   2.93793	4.13212e+06	      76.5	   15.9164	   2.99973	1.01173e+07	   76.5855	   15.9164	   2.99973	8.27249e+06	   76.5861	   15.8546	   2.93963	7.57144e+06	      76.5	   15.8846	   2.96883	6.80209e+06	   76.5427	   15.9164	   2.99973	9.16388e+06	   76.5858	   15.8855	   2.96968	7.81975e+06	   76.5431	   15.8537	   2.93878	5.81239e+06	
         R10	   1735	      76.5	   15.7936	   2.88026	5.49979e+06	      76.5	   15.8529	   2.93793	5.70058e+06	   76.5861	   15.8546	   2.93963	6.99613e+06	   76.5851	   15.7954	   2.88205	6.34689e+06	      76.5	   15.8232	   2.90909	5.56936e+06	   76.5431	   15.8537	   2.93878	6.29194e+06	   76.5856	    15.825	   2.91084	6.66766e+06	   76.5425	   15.7945	   2.88115	5.92161e+06	
         R10	   1736	    76.578	   15.7407	   2.82882	6.24239e+06	      76.5	   15.7386	   2.82672	6.20562e+06	      76.5	   15.7936	   2.88026	5.74741e+06	   76.5851	   15.7954	   2.88205	6.22818e+06	    76.539	   15.7397	   2.82777	6.22056e+06	      76.5	   15.7661	   2.85349	5.97646e+06	   76.5425	   15.7945	   2.88115	5.98108e+06	   76.5816	   15.7681	   2.85543	6.23189e+06	
         R10	   1737	   76.5686	   15.6905	   2.77997	6.40738e+06	      76.5	   15.6878	   2.77731	6.46427e+06	      76.5	   15.7386	   2.82672	6.20182e+06	    76.578	   15.7407	   2.82882	6.22758e+06	   76.5343	   15.6892	   2.77864	6.43266e+06	      76.5	   15.7132	   2.80201	6.33282e+06	    76.539	   15.7397	   2.82777	6.21285e+06	   76.5733	   15.7156	   2.80439	 6.3157e+06	
         R10	   1738	   76.5606	   15.6427	   2.73346	6.57547e+06	      76.5	   15.6413	   2.73204	6.66884e+06	      76.5	   15.6878	   2.77731	6.47091e+06	   76.5686	   15.6905	   2.77997	6.39239e+06	   76.5303	    15.642	   2.73275	6.61806e+06	      76.5	   15.6645	   2.75467	6.56919e+06	   76.5343	   15.6892	   2.77864	6.42923e+06	   76.5646	   15.6666	   2.75671	6.48207e+06	
         R10	   1739	    76.556	   15.6005	    2.6924	6.73221e+06	      76.5	    15.599	   2.69089	6.80284e+06	      76.5	   15.6413	   2.73204	6.67116e+06	   76.5606	   15.6427	   2.73346	 6.5666e+06	    76.528	   15.5997	   2.69165	  6.762e+06	      76.5	   15.6201	   2.71146	6.73568e+06	   76.5303	    15.642	   2.73275	6.61534e+06	   76.5583	   15.6216	   2.71293	6.64753e+06	
         R10	   1740	   76.5509	   15.5624	   2.65534	6.87324e+06	      76.5	   15.5609	   2.65388	6.89872e+06	      76.5	    15.599	   2.69089	6.80424e+06	    76.556	   15.6005	    2.6924	6.72651e+06	   76.5254	   15.5617	   2.65461	6.87911e+06	      76.5	     15.58	   2.67238	6.84953e+06	    76.528	   15.5997	   2.69165	6.76009e+06	   76.5535	   15.5815	   2.67387	6.79784e+06	
         R10	   1741	   76.5447	    15.529	   2.62282	7.00056e+06	      76.5	   15.5271	     2.621	6.97243e+06	      76.5	   15.5609	   2.65388	6.90083e+06	   76.5509	   15.5624	   2.65534	6.86981e+06	   76.5224	   15.5281	   2.62191	6.97848e+06	      76.5	    15.544	   2.63744	6.93414e+06	   76.5254	   15.5617	   2.65461	6.87851e+06	   76.5478	   15.5457	   2.63908	6.93297e+06	
         R10	   1742	   76.5375	   15.4995	   2.59408	7.10748e+06	      76.5	   15.4976	   2.59224	7.03734e+06	      76.5	   15.5271	     2.621	6.97373e+06	   76.5447	    15.529	   2.62282	7.00058e+06	   76.5188	   15.4985	   2.59316	7.06438e+06	      76.5	   15.5124	   2.60662	7.00261e+06	   76.5224	   15.5281	   2.62191	6.97909e+06	   76.5411	   15.5142	   2.60845	7.05156e+06	
         R10	   1743	    76.531	    15.474	   2.56934	 7.2082e+06	      76.5	   15.4723	   2.56762	7.10416e+06	      76.5	   15.4976	   2.59224	 7.0369e+06	   76.5375	   15.4995	   2.59408	7.10706e+06	   76.5155	   15.4732	   2.56848	7.14803e+06	      76.5	   15.4849	   2.57993	7.06742e+06	   76.5188	   15.4985	   2.59316	7.06371e+06	   76.5343	   15.4868	   2.58171	7.15483e+06	
         R10	   1744	   76.5262	   15.4528	   2.54863	7.29023e+06	      76.5	   15.4512	   2.54714	7.16692e+06	      76.5	   15.4723	   2.56762	7.09052e+06	    76.531	    15.474	   2.56934	7.22023e+06	   76.5131	    15.452	   2.54788	7.22021e+06	      76.5	   15.4618	   2.55738	7.12517e+06	   76.5155	   15.4732	   2.56848	7.14704e+06	   76.5286	   15.4634	   2.55898	7.25298e+06	
         R10	   1745	   76.5159	   15.4351	   2.53148	7.35715e+06	    76.517	   15.4218	   2.51855	7.40173e+06	      76.5	   15.4218	   2.51855	 7.2872e+06	      76.5	   15.4344	   2.53078	7.21565e+06	   76.5164	   15.4285	   2.52502	7.37842e+06	   76.5085	   15.4218	   2.51855	7.33718e+06	      76.5	   15.4281	   2.52466	7.24855e+06	   76.5079	   15.4348	   2.53113	7.28264e+06	
         R10	   1746	    76.625	   15.4493	   2.54528	7.66504e+06	   76.6173	   15.4337	   2.53013	7.69931e+06	   76.6035	   15.4339	   2.53032	7.80572e+06	      76.6	   15.4477	   2.54374	 7.5737e+06	   76.6212	   15.4415	    2.5377	7.68181e+06	   76.6104	   15.4338	   2.53022	7.75022e+06	   76.6018	   15.4408	   2.53703	7.68912e+06	   76.6125	   15.4485	   2.54451	 7.6141e+06	
         R10	   1747	   76.6728	   15.4505	   2.54641	7.70966e+06	   76.6716	   15.4355	   2.53181	7.77478e+06	   76.6511	   15.4357	   2.53202	7.80881e+06	   76.6481	   15.4508	   2.54673	7.63084e+06	   76.6722	    15.443	   2.53911	  7.742e+06	   76.6613	   15.4356	   2.53191	7.79066e+06	   76.6496	   15.4432	   2.53937	7.71978e+06	   76.6605	   15.4506	   2.54657	7.66815e+06	
         R10	   1748	   76.6864	   15.4209	   2.51764	7.78206e+06	     76.67	   15.4218	   2.51855	7.92724e+06	   76.6716	   15.4355	   2.53181	7.80564e+06	   76.6916	   15.4354	   2.53179	 7.7759e+06	   76.6782	   15.4214	   2.51809	7.85255e+06	   76.6708	   15.4287	   2.52518	7.86626e+06	   76.6816	   15.4355	    2.5318	7.79061e+06	    76.689	   15.4282	   2.52471	7.77783e+06	
         R10	   1749	   76.7071	   15.4092	   2.50621	7.91493e+06	   76.6861	   15.4106	   2.50766	7.93179e+06	   76.6864	   15.4209	   2.51764	7.89518e+06	   76.7113	   15.4257	   2.52233	7.85193e+06	   76.6966	   15.4099	   2.50693	7.92277e+06	   76.6863	   15.4158	   2.51265	7.91328e+06	   76.6989	   15.4233	   2.51998	7.87322e+06	   76.7092	   15.4174	   2.51427	 7.8834e+06	
         R10	   1750	   76.7127	   15.3819	   2.47973	8.06769e+06	   76.6873	   15.3848	    2.4825	 8.1087e+06	   76.6913	   15.3977	   2.49502	8.02355e+06	   76.7124	   15.3915	   2.48907	8.02566e+06	      76.7	   15.3834	   2.48111	8.08769e+06	   76.6893	   15.3912	   2.48876	8.06601e+06	   76.7018	   15.3946	   2.49204	8.02397e+06	   76.7125	   15.3867	    2.4844	8.04667e+06	
         R10	   1751	    76.708	   15.3727	   2.47069	8.14592e+06	   76.6879	    15.373	   2.47103	8.16871e+06	   76.6873	   15.3848	    2.4825	8.10603e+06	   76.7127	   15.3819	   2.47973	8.07262e+06	    76.698	   15.3728	   2.47086	8.15728e+06	   76.6876	   15.3789	   2.47676	8.13727e+06	      76.7	   15.3834	   2.48111	8.08862e+06	   76.7104	   15.3773	   2.47521	8.10894e+06	
         R10	   1752	   76.7184	   15.3586	   2.45706	8.20198e+06	   76.6878	    15.361	   2.45931	8.30429e+06	   76.6879	    15.373	   2.47103	8.13802e+06	    76.708	   15.3727	   2.47069	 8.1688e+06	   76.7031	   15.3598	   2.45819	8.25236e+06	   76.6879	    15.367	   2.46517	8.22108e+06	    76.698	   15.3728	   2.47086	8.15277e+06	   76.7132	   15.3657	   2.46388	8.18522e+06	
         R10	   1753	   76.7073	   15.3337	   2.43278	8.38807e+06	   76.7118	    15.317	   2.41652	8.54027e+06	   76.6893	   15.3131	   2.41271	8.68331e+06	   76.6868	   15.3242	   2.42351	8.56067e+06	   76.7095	   15.3253	   2.42465	8.46356e+06	   76.7005	    15.315	   2.41461	8.61101e+06	    76.688	   15.3186	   2.41811	8.62195e+06	   76.6971	   15.3289	   2.42815	8.47225e+06	
         R10	   1754	   76.7332	   15.3414	   2.44028	8.27093e+06	   76.7382	   15.3203	   2.41978	8.42303e+06	   76.7118	    15.317	   2.41652	 8.5394e+06	   76.7073	   15.3337	   2.43278	8.39301e+06	   76.7357	   15.3309	   2.43003	 8.3465e+06	    76.725	   15.3187	   2.41815	8.48036e+06	   76.7095	   15.3253	   2.42465	8.46599e+06	   76.7202	   15.3375	   2.43653	8.33068e+06	
         R10	   1755	   76.7631	   15.3475	   2.44619	8.18475e+06	   76.7701	   15.3235	   2.42284	8.32512e+06	   76.7382	   15.3203	   2.41978	8.41646e+06	   76.7332	   15.3414	   2.44028	8.27622e+06	   76.7666	   15.3355	   2.43452	 8.2546e+06	   76.7542	   15.3219	   2.42131	8.36981e+06	   76.7357	   15.3309	   2.43003	8.34589e+06	   76.7481	   15.3444	   2.44324	8.22974e+06	
         R10	   1756	   76.8018	   15.3545	   2.45304	8.07914e+06	    76.807	   15.3273	   2.42655	8.23358e+06	   76.7701	   15.3235	   2.42284	 8.3208e+06	   76.7631	   15.3475	   2.44619	8.18398e+06	   76.8044	   15.3409	    2.4398	8.15586e+06	   76.7886	   15.3254	   2.42469	8.27624e+06	   76.7666	   15.3355	   2.43452	8.25201e+06	   76.7825	    15.351	   2.44962	8.13048e+06	
         R10	   1757	   76.8424	   15.3636	   2.46184	7.99127e+06	   76.8482	   15.3315	   2.43061	8.15435e+06	    76.807	   15.3273	   2.42655	8.22738e+06	   76.8018	   15.3545	   2.45304	8.08369e+06	   76.8453	   15.3475	   2.44622	8.07216e+06	   76.8276	   15.3294	   2.42858	8.18995e+06	   76.8044	   15.3409	    2.4398	8.15502e+06	   76.8221	    15.359	   2.45744	8.03645e+06	
         R10	   1758	   76.8883	   15.3705	   2.46855	7.92277e+06	    76.894	   15.3352	   2.43428	8.08579e+06	   76.8482	   15.3315	   2.43061	 8.1521e+06	   76.8424	   15.3636	   2.46184	7.99285e+06	   76.8912	   15.3528	   2.45142	8.00349e+06	   76.8711	   15.3334	   2.43245	8.11806e+06	   76.8453	   15.3475	   2.44622	 8.0718e+06	   76.8654	    15.367	   2.46519	 7.9569e+06	
         R10	   1759	   76.9397	   15.3767	   2.47464	7.86125e+06	   76.9448	   15.3385	   2.43744	8.03231e+06	    76.894	   15.3352	   2.43428	8.08785e+06	   76.8883	   15.3705	   2.46855	7.92244e+06	   76.9422	   15.3576	   2.45604	7.94583e+06	   76.9194	   15.3369	   2.43586	8.05928e+06	   76.8912	   15.3528	   2.45142	8.00436e+06	    76.914	   15.3736	   2.47159	7.89093e+06	
         R10	   1760	   76.9953	   15.3815	   2.47931	7.81313e+06	   77.0006	   15.3412	   2.44013	7.98672e+06	   76.9448	   15.3385	   2.43744	8.03164e+06	   76.9397	   15.3767	   2.47464	7.86121e+06	    76.998	   15.3614	   2.45972	7.89882e+06	   76.9727	   15.3399	   2.43879	8.00843e+06	   76.9422	   15.3576	   2.45604	7.94547e+06	   76.9675	   15.3791	   2.47697	7.83636e+06	
         R10	   1761	   77.0576	   15.3874	   2.48507	7.76065e+06	   77.0619	   15.3449	   2.44365	7.93572e+06	   77.0006	   15.3412	   2.44013	7.98625e+06	   76.9953	   15.3815	   2.47931	7.81083e+06	   77.0597	   15.3661	   2.46436	  7.847e+06	   77.0312	   15.3431	   2.44189	 7.9602e+06	    76.998	   15.3614	   2.45972	7.89745e+06	   77.0265	   15.3845	   2.48219	 7.7849e+06	
         R10	   1762	   77.1229	   15.3984	   2.49575	7.69431e+06	   77.1272	   15.3492	   2.44791	7.88716e+06	   77.0619	   15.3449	   2.44365	7.93486e+06	   77.0576	   15.3874	   2.48507	7.76174e+06	   77.1251	   15.3738	   2.47183	7.78912e+06	   77.0945	   15.3471	   2.44578	7.91028e+06	   77.0597	   15.3661	   2.46436	7.84709e+06	   77.0902	   15.3929	   2.49041	7.72708e+06	
         R10	   1763	   77.1938	   15.4077	   2.50483	7.63595e+06	    77.197	   15.3529	    2.4515	7.84223e+06	   77.1272	   15.3492	   2.44791	7.88515e+06	   77.1229	   15.3984	   2.49575	7.69974e+06	   77.1954	   15.3803	   2.47816	7.73721e+06	   77.1621	   15.3511	   2.44971	  7.863e+06	   77.1251	   15.3738	   2.47183	7.79082e+06	   77.1584	   15.4031	   2.50029	7.66701e+06	
         R10	   1764	   77.2694	   15.4169	   2.51371	7.57721e+06	   77.2726	   15.3565	   2.45498	7.80091e+06	    77.197	   15.3529	    2.4515	7.83796e+06	   77.1938	   15.4077	   2.50483	 7.6422e+06	    77.271	   15.3867	   2.48435	7.68675e+06	   77.2348	   15.3547	   2.45324	7.81885e+06	   77.1954	   15.3803	   2.47816	7.73818e+06	   77.2316	   15.4123	   2.50927	7.60883e+06	
         R10	   1765	   77.2623	   15.4826	   2.57766	7.40128e+06	   77.2694	   15.4169	   2.51371	7.58447e+06	   77.1938	   15.4077	   2.50483	7.63988e+06	   77.1873	   15.4685	   2.56395	7.45567e+06	   77.2659	   15.4497	   2.54569	7.49167e+06	   77.2316	   15.4123	   2.50927	7.61147e+06	   77.1906	   15.4381	   2.53439	7.54679e+06	   77.2248	   15.4756	   2.57081	7.42756e+06	
         R10	   1766	   77.1725	    15.549	   2.64227	7.27243e+06	   77.2578	    15.549	   2.64226	7.25307e+06	   77.2623	   15.4826	   2.57766	7.40676e+06	   77.1873	   15.4685	   2.56395	7.45221e+06	   77.2152	    15.549	   2.64227	7.26208e+06	     77.26	   15.5158	   2.60996	7.32978e+06	   77.2248	   15.4756	   2.57081	7.42873e+06	   77.1799	   15.5088	   2.60311	7.36214e+06	
         R10	   1767	   77.1671	   15.6172	   2.70862	7.13126e+06	   77.2563	    15.619	   2.71036	7.13418e+06	   77.2578	    15.549	   2.64226	7.26283e+06	   77.1725	    15.549	   2.64227	7.28694e+06	   77.2117	   15.6181	   2.70949	7.13199e+06	    77.257	    15.584	   2.67631	 7.1984e+06	   77.2152	    15.549	   2.64227	 7.2742e+06	   77.1698	   15.5831	   2.67544	7.20891e+06	
         R10	   1768	   77.1635	   15.6891	   2.77856	7.03145e+06	   77.2534	   15.6904	   2.77984	7.05144e+06	   77.2563	    15.619	   2.71036	7.16088e+06	   77.1671	   15.6172	   2.70862	7.16364e+06	   77.2084	   15.6897	    2.7792	7.04093e+06	   77.2548	   15.6547	    2.7451	7.10483e+06	   77.2117	   15.6181	   2.70949	 7.1615e+06	   77.1653	   15.6531	   2.74359	 7.0961e+06	
         R10	   1769	    77.152	    15.764	   2.85149	7.00066e+06	   77.2487	    15.764	   2.85143	7.02464e+06	   77.2534	   15.6904	   2.77984	 7.1032e+06	   77.1635	   15.6891	   2.77856	7.10156e+06	   77.2004	    15.764	   2.85146	7.01216e+06	    77.251	   15.7272	   2.81563	7.05934e+06	   77.2084	   15.6897	    2.7792	 7.1017e+06	   77.1578	   15.7266	   2.81503	7.04604e+06	
         R10	   1770	   77.1459	   15.8391	   2.92449	7.06439e+06	   77.2458	    15.839	   2.92447	7.10057e+06	   77.2487	    15.764	   2.85143	7.13321e+06	    77.152	    15.764	   2.85149	7.12928e+06	   77.1959	    15.839	   2.92448	7.08201e+06	   77.2473	   15.8015	   2.88795	7.10704e+06	   77.2004	    15.764	   2.85146	7.13069e+06	    77.149	   15.8015	   2.88799	7.08526e+06	
         R10	   1771	    77.048	    15.842	   2.92734	7.05315e+06	   77.1459	   15.8391	   2.92449	7.07374e+06	    77.152	    15.764	   2.85149	 7.1301e+06	   77.0546	   15.7639	   2.85139	7.07738e+06	   77.0969	   15.8405	   2.92592	7.06264e+06	    77.149	   15.8015	   2.88799	7.09043e+06	   77.1033	    15.764	   2.85144	7.10305e+06	   77.0513	    15.803	   2.88937	7.05398e+06	
         R10	   1772	   76.9485	   15.7881	   2.87489	 7.1123e+06	    76.954	   15.8465	   2.93172	6.96408e+06	    77.048	    15.842	   2.92734	7.02991e+06	   77.0546	   15.7639	   2.85139	 7.1238e+06	   76.9512	   15.8173	    2.9033	7.02687e+06	    77.001	   15.8442	   2.92953	6.99518e+06	   77.0513	    15.803	   2.88937	7.06539e+06	   77.0015	    15.776	   2.86314	7.11523e+06	
         R10	   1773	   76.8523	   15.7896	   2.87639	6.99779e+06	   76.8559	   15.8514	   2.93649	6.97974e+06	    76.954	   15.8465	   2.93172	6.99165e+06	   76.9485	   15.7881	   2.87489	 7.0861e+06	   76.8541	   15.8205	   2.90644	6.97752e+06	    76.905	   15.8489	    2.9341	6.98388e+06	   76.9512	   15.8173	    2.9033	7.02675e+06	   76.9004	   15.7889	   2.87564	7.04001e+06	
         R10	   1774	   76.7608	   15.7939	   2.88054	6.93818e+06	   76.7635	   15.8528	   2.93788	6.94864e+06	   76.8559	   15.8514	   2.93649	6.98698e+06	   76.8523	   15.7896	   2.87639	7.00454e+06	   76.7622	   15.8234	   2.90921	6.93241e+06	   76.8097	   15.8521	   2.93718	  6.966e+06	   76.8541	   15.8205	   2.90644	6.98427e+06	   76.8066	   15.7918	   2.87847	6.96949e+06	
         R10	   1775	   76.6698	   15.7943	   2.88089	 6.6818e+06	   76.6737	   15.8538	   2.93883	6.96311e+06	   76.7635	   15.8528	   2.93788	6.98984e+06	   76.7608	   15.7939	   2.88054	6.93096e+06	   76.6718	    15.824	   2.90986	 6.8141e+06	   76.7186	   15.8533	   2.93835	6.97539e+06	   76.7622	   15.8234	   2.90921	6.94987e+06	   76.7153	   15.7941	   2.88072	6.80439e+06	
         R10	   1776	   76.5851	   15.7954	   2.88205	6.45721e+06	   76.5861	   15.8546	   2.93963	6.65699e+06	   76.6737	   15.8538	   2.93883	6.90579e+06	   76.6698	   15.7943	   2.88089	6.72944e+06	   76.5856	    15.825	   2.91084	6.55519e+06	   76.6299	   15.8542	   2.93923	6.78024e+06	   76.6718	    15.824	   2.90986	6.80788e+06	   76.6275	   15.7948	   2.88147	6.58917e+06	
         R10	   1777	    76.578	   15.7407	   2.82882	6.29909e+06	   76.5851	   15.7954	   2.88205	6.25807e+06	   76.6698	   15.7943	   2.88089	6.67596e+06	   76.6658	   15.7372	   2.82535	 6.5374e+06	   76.5816	   15.7681	   2.85543	6.27667e+06	   76.6275	   15.7948	   2.88147	6.46361e+06	   76.6678	   15.7657	   2.85312	6.60507e+06	   76.6219	   15.7389	   2.82708	6.41161e+06	
         R10	   1778	   76.6226	   15.6845	   2.77408	6.48173e+06	   76.5686	   15.6905	   2.77997	6.40324e+06	    76.578	   15.7407	   2.82882	6.27229e+06	   76.6658	   15.7372	   2.82535	6.49068e+06	   76.5956	   15.6875	   2.77702	6.43929e+06	   76.5733	   15.7156	   2.80439	6.33593e+06	   76.6219	   15.7389	   2.82708	6.37438e+06	   76.6442	   15.7108	   2.79971	6.48395e+06	
         R10	   1779	   76.6187	   15.6386	    2.7294	6.59673e+06	   76.5606	   15.6427	   2.73346	6.57911e+06	   76.5686	   15.6905	   2.77997	6.39639e+06	   76.6226	   15.6845	   2.77408	 6.4635e+06	   76.5897	   15.6406	   2.73143	6.58401e+06	   76.5646	   15.6666	   2.75671	6.48586e+06	   76.5956	   15.6875	   2.77702	6.42678e+06	   76.6207	   15.6615	   2.75174	 6.5282e+06	
         R10	   1780	    76.611	    15.597	   2.68897	6.75319e+06	    76.556	   15.6005	    2.6924	6.73295e+06	   76.5606	   15.6427	   2.73346	6.57142e+06	   76.6187	   15.6386	    2.7294	6.59895e+06	   76.5835	   15.5988	   2.69068	6.73809e+06	   76.5583	   15.6216	   2.71293	6.65031e+06	   76.5897	   15.6406	   2.73143	6.58084e+06	   76.6149	   15.6178	   2.70919	6.67416e+06	
         R10	   1781	    76.601	   15.5583	   2.65128	6.92089e+06	   76.5509	   15.5624	   2.65534	6.87477e+06	    76.556	   15.6005	    2.6924	6.72913e+06	    76.611	    15.597	   2.68897	6.75247e+06	   76.5759	   15.5603	   2.65331	6.89205e+06	   76.5535	   15.5815	   2.67387	 6.7999e+06	   76.5835	   15.5988	   2.69068	6.73558e+06	    76.606	   15.5776	   2.67013	6.83466e+06	
         R10	   1782	   76.5896	   15.5245	   2.61839	7.08285e+06	   76.5447	    15.529	   2.62282	6.99887e+06	   76.5509	   15.5624	   2.65534	6.87284e+06	    76.601	   15.5583	   2.65128	6.92421e+06	   76.5671	   15.5267	   2.62061	7.03423e+06	   76.5478	   15.5457	   2.63908	6.93366e+06	   76.5759	   15.5603	   2.65331	6.89257e+06	   76.5953	   15.5414	   2.63484	7.00156e+06	
         R10	   1783	   76.5744	   15.4951	   2.58982	7.22851e+06	   76.5375	   15.4995	   2.59408	7.10992e+06	   76.5447	    15.529	   2.62282	7.00092e+06	   76.5896	   15.5245	   2.61839	7.08272e+06	   76.5559	   15.4973	   2.59195	 7.1632e+06	   76.5411	   15.5142	   2.60845	7.05299e+06	   76.5671	   15.5267	   2.62061	7.03492e+06	    76.582	   15.5098	   2.60411	7.15318e+06	
         R10	   1784	    76.562	   15.4704	   2.56582	7.33383e+06	    76.531	    15.474	   2.56934	7.20908e+06	   76.5375	   15.4995	   2.59408	7.11717e+06	   76.5744	   15.4951	   2.58982	7.21895e+06	   76.5465	   15.4722	   2.56758	7.26398e+06	   76.5343	   15.4868	   2.58171	7.16025e+06	   76.5559	   15.4973	   2.59195	7.16211e+06	   76.5682	   15.4828	   2.57782	7.27441e+06	
         R10	   1785	   76.5527	   15.4511	   2.54699	7.45024e+06	   76.5262	   15.4528	   2.54863	7.29989e+06	    76.531	    15.474	   2.56934	7.19901e+06	    76.562	   15.4704	   2.56582	7.35368e+06	   76.5395	   15.4519	   2.54781	 7.3675e+06	   76.5286	   15.4634	   2.55898	7.24691e+06	   76.5465	   15.4722	   2.56758	7.26987e+06	   76.5574	   15.4607	    2.5564	7.39961e+06	
         R10	   1786	   76.5159	   15.4351	   2.53148	7.34176e+06	      76.5	   15.4344	   2.53078	7.22729e+06	      76.5	   15.4512	   2.54714	7.16578e+06	   76.5262	   15.4528	   2.54863	7.28946e+06	   76.5079	   15.4348	   2.53113	 7.2802e+06	      76.5	   15.4428	   2.53896	7.19371e+06	   76.5131	    15.452	   2.54788	 7.2192e+06	    76.521	   15.4439	   2.54005	7.31208e+06	
         R10	   1787	   76.6481	   15.4508	   2.54673	7.74706e+06	   76.6511	   15.4357	   2.53202	7.68151e+06	   76.6366	   15.4346	   2.53096	7.77926e+06	    76.625	   15.4493	   2.54528	7.59703e+06	   76.6496	   15.4432	   2.53937	7.71387e+06	   76.6438	   15.4351	   2.53149	7.72976e+06	   76.6308	    15.442	   2.53812	7.68731e+06	   76.6366	   15.4501	   2.54601	7.66871e+06	
         R10	   1788	   76.6738	   15.4687	   2.56417	7.57673e+06	   76.6728	   15.4505	   2.54641	7.67906e+06	   76.6481	   15.4508	   2.54673	7.63209e+06	   76.6456	   15.4694	    2.5648	7.55355e+06	   76.6733	   15.4596	   2.55529	 7.6276e+06	   76.6605	   15.4506	   2.54657	7.65508e+06	   76.6469	   15.4601	   2.55576	 7.5922e+06	   76.6597	   15.4691	   2.56448	7.56192e+06	
         R10	   1789	   76.6916	   15.4354	   2.53179	7.78986e+06	   76.6716	   15.4355	   2.53181	7.81676e+06	   76.6728	   15.4505	   2.54641	7.69714e+06	   76.6954	   15.4488	   2.54477	7.70557e+06	   76.6816	   15.4355	    2.5318	7.80257e+06	   76.6722	    15.443	   2.53911	 7.7567e+06	   76.6841	   15.4496	   2.54559	 7.6998e+06	   76.6935	   15.4421	   2.53828	7.74732e+06	
         R10	   1790	   76.7124	   15.3915	   2.48907	8.00772e+06	   76.6913	   15.3977	   2.49502	8.03379e+06	   76.7071	   15.4092	   2.50621	7.95082e+06	   76.7363	   15.4007	   2.49799	7.94384e+06	   76.7018	   15.3946	   2.49204	8.02062e+06	   76.6992	   15.4034	   2.50062	7.99213e+06	   76.7217	   15.4049	    2.5021	7.94642e+06	   76.7243	   15.3961	   2.49353	7.97492e+06	
         R10	   1791	   76.7886	   15.3814	   2.47916	7.96332e+06	   76.8018	   15.3545	   2.45304	8.08441e+06	   76.7631	   15.3475	   2.44619	8.17915e+06	   76.7501	   15.3717	   2.46976	8.06768e+06	   76.7952	   15.3679	    2.4661	8.02357e+06	   76.7825	    15.351	   2.44962	8.13082e+06	   76.7566	   15.3596	   2.45797	8.12326e+06	   76.7693	   15.3765	   2.47446	8.01421e+06	
         R10	   1792	   76.8302	    15.394	   2.49146	7.86336e+06	   76.8424	   15.3636	   2.46184	7.99164e+06	   76.8018	   15.3545	   2.45304	8.08474e+06	   76.7886	   15.3814	   2.47916	7.96323e+06	   76.8363	   15.3788	   2.47665	7.92721e+06	   76.8221	    15.359	   2.45744	8.03712e+06	   76.7952	   15.3679	    2.4661	 8.0237e+06	   76.8094	   15.3877	   2.48531	7.91217e+06	
         R10	   1793	   76.8781	   15.4048	   2.50201	7.78272e+06	   76.8883	   15.3705	   2.46855	 7.9222e+06	   76.8424	   15.3636	   2.46184	 7.9928e+06	   76.8302	    15.394	   2.49146	7.86194e+06	   76.8832	   15.3876	   2.48528	7.85204e+06	   76.8654	    15.367	   2.46519	7.95659e+06	   76.8363	   15.3788	   2.47665	7.92708e+06	   76.8542	   15.3994	   2.49674	7.82121e+06	
         R10	   1794	   76.9318	   15.4141	   2.51104	7.71346e+06	   76.9397	   15.3767	   2.47464	7.86236e+06	   76.8883	   15.3705	   2.46855	 7.9227e+06	   76.8781	   15.4048	   2.50201	7.78068e+06	   76.9357	   15.3954	   2.49284	7.78739e+06	    76.914	   15.3736	   2.47159	7.89164e+06	   76.8832	   15.3876	   2.48528	7.85129e+06	   76.9049	   15.4095	   2.50652	7.74598e+06	
         R10	   1795	   76.9872	   15.4205	   2.51724	7.66766e+06	   76.9953	   15.3815	   2.47931	7.81076e+06	   76.9397	   15.3767	   2.47464	7.86119e+06	   76.9318	   15.4141	   2.51104	7.71485e+06	   76.9913	    15.401	   2.49827	7.73864e+06	   76.9675	   15.3791	   2.47697	7.83515e+06	   76.9357	   15.3954	   2.49284	7.78749e+06	   76.9595	   15.4173	   2.51414	7.69043e+06	
         R10	   1796	   77.0479	   15.4287	   2.52518	7.62126e+06	   77.0576	   15.3874	   2.48507	7.76105e+06	   76.9953	   15.3815	   2.47931	7.81041e+06	   76.9872	   15.4205	   2.51724	7.66747e+06	   77.0527	    15.408	   2.50513	7.69056e+06	   77.0265	   15.3845	   2.48219	 7.7849e+06	   76.9913	    15.401	   2.49827	7.73837e+06	   77.0175	   15.4246	   2.52121	 7.6435e+06	
         R10	   1797	   77.1108	   15.4427	   2.53889	7.54844e+06	   77.1229	   15.3984	   2.49575	7.69939e+06	   77.0576	   15.3874	   2.48507	7.76411e+06	   77.0479	   15.4287	   2.52518	7.61646e+06	   77.1169	   15.4206	   2.51732	7.62326e+06	   77.0902	   15.3929	   2.49041	7.73086e+06	   77.0527	    15.408	   2.50513	7.68968e+06	   77.0794	   15.4357	   2.53204	7.58137e+06	
         R10	   1798	   77.1873	   15.4685	   2.56395	 7.4733e+06	   77.1938	   15.4077	   2.50483	7.63131e+06	   77.1229	   15.3984	   2.49575	 7.6995e+06	   77.1108	   15.4427	   2.53889	7.53649e+06	   77.1906	   15.4381	   2.53439	7.55125e+06	   77.1584	   15.4031	   2.50029	7.66449e+06	   77.1169	   15.4206	   2.51732	7.61735e+06	    77.149	   15.4556	   2.55142	7.50357e+06	
         R10	   1799	   77.0855	   15.6151	   2.70654	7.11921e+06	   77.1671	   15.6172	   2.70862	 7.1338e+06	   77.1725	    15.549	   2.64227	 7.2598e+06	    77.085	   15.5505	   2.64376	7.30204e+06	   77.1263	   15.6161	   2.70758	7.12579e+06	   77.1698	   15.5831	   2.67544	7.19664e+06	   77.1288	   15.5498	   2.64302	7.27995e+06	   77.0852	   15.5828	   2.67515	 7.2104e+06	
         R10	   1800	   77.0823	    15.684	   2.77362	7.02339e+06	   77.1635	   15.6891	   2.77856	7.03319e+06	   77.1671	   15.6172	   2.70862	 7.1718e+06	   77.0855	   15.6151	   2.70654	7.15326e+06	   77.1229	   15.6865	   2.77609	7.02762e+06	   77.1653	   15.6531	   2.74359	7.10099e+06	   77.1263	   15.6161	   2.70758	7.16185e+06	   77.0839	   15.6495	   2.74008	7.08699e+06	
         R10	   1801	   77.0546	   15.7639	   2.85139	6.98248e+06	    77.152	    15.764	   2.85149	7.00184e+06	   77.1635	   15.6891	   2.77856	7.09971e+06	   77.0823	    15.684	   2.77362	7.06664e+06	   77.1033	    15.764	   2.85144	6.99143e+06	   77.1578	   15.7266	   2.81503	7.04583e+06	   77.1229	   15.6865	   2.77609	7.08269e+06	   77.0685	    15.724	    2.8125	7.01893e+06	
         R10	   1802	   76.8479	   15.7321	   2.82041	6.88824e+06	   76.8523	   15.7896	   2.87639	 6.8664e+06	   76.9485	   15.7881	   2.87489	6.94754e+06	   76.9302	   15.7289	   2.81727	6.97422e+06	   76.8501	   15.7609	    2.8484	6.87335e+06	   76.9004	   15.7889	   2.87564	 6.9057e+06	   76.9393	   15.7585	   2.84608	6.95582e+06	   76.8891	   15.7305	   2.81884	6.92924e+06	
         R10	   1803	   76.7579	   15.7397	   2.82783	6.77058e+06	   76.7608	   15.7939	   2.88054	6.77926e+06	   76.8523	   15.7896	   2.87639	6.86528e+06	   76.8479	   15.7321	   2.82041	 6.9019e+06	   76.7594	   15.7668	   2.85419	6.77165e+06	   76.8066	   15.7918	   2.87847	6.82012e+06	   76.8501	   15.7609	    2.8484	6.87974e+06	   76.8029	   15.7359	   2.82412	6.83337e+06	
         R10	   1804	   76.6658	   15.7372	   2.82535	6.54453e+06	   76.6698	   15.7943	   2.88089	6.64154e+06	   76.7608	   15.7939	   2.88054	6.78287e+06	   76.7579	   15.7397	   2.82783	6.76431e+06	   76.6678	   15.7657	   2.85312	  6.591e+06	   76.7153	   15.7941	   2.88072	6.70978e+06	   76.7594	   15.7668	   2.85419	6.77013e+06	   76.7119	   15.7384	   2.82659	6.65035e+06	
         R10	   1805	   76.6694	   15.6294	    2.7205	6.69956e+06	   76.6187	   15.6386	    2.7294	6.60336e+06	   76.6226	   15.6845	   2.77408	6.48091e+06	   76.6976	   15.6778	   2.76758	 6.6042e+06	   76.6441	    15.634	   2.72495	6.64767e+06	   76.6207	   15.6615	   2.75174	6.54039e+06	   76.6601	   15.6811	   2.77083	6.53712e+06	   76.6835	   15.6536	   2.74404	6.64994e+06	
         R10	   1806	   76.6639	   15.5911	   2.68319	6.83288e+06	    76.611	    15.597	   2.68897	6.75688e+06	   76.6187	   15.6386	    2.7294	6.59807e+06	   76.6694	   15.6294	    2.7205	6.69247e+06	   76.6375	    15.594	   2.68608	6.79041e+06	   76.6149	   15.6178	   2.70919	6.67555e+06	   76.6441	    15.634	   2.72495	6.64179e+06	   76.6667	   15.6102	   2.70184	6.76134e+06	
         R10	   1807	   76.6486	   15.5495	   2.64276	7.01857e+06	    76.601	   15.5583	   2.65128	6.92147e+06	    76.611	    15.597	   2.68897	6.75455e+06	   76.6639	   15.5911	   2.68319	6.83417e+06	   76.6248	   15.5539	   2.64702	6.96521e+06	    76.606	   15.5776	   2.67013	6.83603e+06	   76.6375	    15.594	   2.68608	6.78994e+06	   76.6562	   15.5703	   2.66297	6.92435e+06	
         R10	   1808	   76.6247	   15.5164	   2.61056	7.18505e+06	   76.5896	   15.5245	   2.61839	7.08815e+06	    76.601	   15.5583	   2.65128	6.92348e+06	   76.6486	   15.5495	   2.64276	7.02273e+06	   76.6071	   15.5204	   2.61448	7.13285e+06	   76.5953	   15.5414	   2.63484	7.00384e+06	   76.6248	   15.5539	   2.64702	6.96822e+06	   76.6366	    15.533	   2.62666	7.10174e+06	
         R10	   1809	   76.6065	   15.4869	   2.58183	7.32593e+06	   76.5744	   15.4951	   2.58982	7.22406e+06	   76.5896	   15.5245	   2.61839	7.08024e+06	   76.6247	   15.5164	   2.61056	7.20728e+06	   76.5904	    15.491	   2.58583	7.27095e+06	    76.582	   15.5098	   2.60411	7.14996e+06	   76.6071	   15.5204	   2.61448	7.14021e+06	   76.6156	   15.5016	    2.5962	7.26444e+06	
         R10	   1810	    76.587	   15.4648	   2.56036	 7.4869e+06	    76.562	   15.4704	   2.56582	7.36166e+06	   76.5744	   15.4951	   2.58982	7.21567e+06	   76.6065	   15.4869	   2.58183	7.33203e+06	   76.5745	   15.4676	   2.56309	7.42005e+06	   76.5682	   15.4828	   2.57782	7.28634e+06	   76.5904	    15.491	   2.58583	7.26989e+06	   76.5967	   15.4758	    2.5711	7.40694e+06	
         R10	   1811	   76.5507	   15.4353	   2.53169	7.58538e+06	   76.5349	   15.4345	   2.53086	 7.4691e+06	   76.5262	   15.4528	   2.54863	7.28684e+06	   76.5527	   15.4511	   2.54699	7.44597e+06	   76.5428	   15.4349	   2.53127	7.52415e+06	   76.5305	   15.4436	   2.53974	7.37402e+06	   76.5395	   15.4519	   2.54781	  7.358e+06	   76.5517	   15.4432	   2.53934	7.51409e+06	
         R10	   1812	   76.5695	    15.435	   2.53134	7.65092e+06	   76.5507	   15.4353	   2.53169	7.55718e+06	   76.5527	   15.4511	   2.54699	7.44913e+06	   76.5732	    15.448	   2.54395	7.57707e+06	   76.5601	   15.4352	   2.53151	7.59926e+06	   76.5517	   15.4432	   2.53934	7.50193e+06	    76.563	   15.4495	   2.54547	7.51018e+06	   76.5714	   15.4415	   2.53765	7.61342e+06	
         R10	   1813	      76.6	   15.4477	   2.54374	 7.6646e+06	   76.5856	    15.434	   2.53033	7.67856e+06	   76.5695	    15.435	   2.53134	7.70433e+06	   76.5732	    15.448	   2.54395	7.53005e+06	   76.5928	   15.4408	   2.53703	7.66983e+06	   76.5776	   15.4345	   2.53084	7.68802e+06	   76.5714	   15.4415	   2.53765	 7.6165e+06	   76.5866	   15.4478	   2.54384	7.59176e+06	
         R10	   1814	   76.6255	   15.4665	     2.562	7.60766e+06	   76.6456	   15.4694	    2.5648	7.52129e+06	   76.6481	   15.4508	   2.54673	7.61969e+06	    76.625	   15.4493	   2.54528	7.58959e+06	   76.6356	   15.4679	    2.5634	7.56262e+06	   76.6469	   15.4601	   2.55576	 7.5702e+06	   76.6366	   15.4501	   2.54601	7.60411e+06	   76.6253	   15.4579	   2.55364	7.59846e+06	
         R10	   1815	   76.6793	    15.489	   2.58393	7.44857e+06	   76.6738	   15.4687	   2.56417	7.53943e+06	   76.6456	   15.4694	    2.5648	7.56556e+06	    76.648	   15.4954	   2.59012	7.30407e+06	   76.6765	   15.4789	   2.57405	7.49379e+06	   76.6597	   15.4691	   2.56448	7.54921e+06	   76.6468	   15.4824	   2.57746	7.43385e+06	   76.6636	   15.4922	   2.58703	7.37475e+06	
         R10	   1816	   76.6954	   15.4488	   2.54477	7.69176e+06	   76.6728	   15.4505	   2.54641	7.68567e+06	   76.6738	   15.4687	   2.56417	7.54024e+06	    76.699	   15.4673	   2.56276	7.60795e+06	   76.6841	   15.4496	   2.54559	7.68753e+06	   76.6733	   15.4596	   2.55529	7.61292e+06	   76.6864	    15.468	   2.56346	 7.5731e+06	   76.6972	    15.458	   2.55376	7.64968e+06	
         R10	   1817	   76.7363	   15.4007	   2.49799	7.94346e+06	   76.7071	   15.4092	   2.50621	7.92182e+06	   76.7113	   15.4257	   2.52233	7.84345e+06	   76.7332	   15.4225	   2.51916	7.83547e+06	   76.7217	   15.4049	    2.5021	7.93216e+06	   76.7092	   15.4174	   2.51427	7.88249e+06	   76.7223	   15.4241	   2.52075	7.83817e+06	   76.7348	   15.4116	   2.50857	7.88936e+06	
         R10	   1818	   76.8139	   15.4236	   2.52022	7.74706e+06	   76.8302	    15.394	   2.49146	7.86242e+06	   76.7886	   15.3814	   2.47916	7.96837e+06	   76.7727	   15.4085	   2.50555	7.85708e+06	   76.8221	   15.4088	   2.50584	7.80463e+06	   76.8094	   15.3877	   2.48531	7.91424e+06	   76.7807	   15.3949	   2.49236	7.91256e+06	   76.7933	    15.416	   2.51289	7.80094e+06	
         R10	   1819	   76.8647	   15.4374	   2.53369	7.65415e+06	   76.8781	   15.4048	   2.50201	7.78308e+06	   76.8302	    15.394	   2.49146	7.86403e+06	   76.8139	   15.4236	   2.52022	7.74805e+06	   76.8714	   15.4211	   2.51785	7.71848e+06	   76.8542	   15.3994	   2.49674	 7.8225e+06	   76.8221	   15.4088	   2.50584	7.80592e+06	   76.8393	   15.4305	   2.52695	 7.6997e+06	
         R10	   1820	   76.9214	   15.4502	   2.54616	7.58266e+06	   76.9318	   15.4141	   2.51104	7.71572e+06	   76.8781	   15.4048	   2.50201	7.78145e+06	   76.8647	   15.4374	   2.53369	7.65638e+06	   76.9266	   15.4322	    2.5286	7.64901e+06	   76.9049	   15.4095	   2.50652	 7.7475e+06	   76.8714	   15.4211	   2.51785	7.71878e+06	   76.8931	   15.4438	   2.53992	7.61824e+06	
         R10	   1821	   76.9779	    15.463	   2.55856	 7.5257e+06	   76.9872	   15.4205	   2.51724	7.66244e+06	   76.9318	   15.4141	   2.51104	7.71491e+06	   76.9214	   15.4502	   2.54616	7.58142e+06	   76.9825	   15.4417	    2.5379	 7.5938e+06	   76.9595	   15.4173	   2.51414	7.68775e+06	   76.9266	   15.4322	    2.5286	7.64797e+06	   76.9496	   15.4566	   2.55236	7.55264e+06	
         R10	   1822	   77.0345	   15.4782	   2.57334	 7.4573e+06	   77.0479	   15.4287	   2.52518	7.62208e+06	   76.9872	   15.4205	   2.51724	7.66602e+06	   76.9779	    15.463	   2.55856	7.53667e+06	   77.0412	   15.4534	   2.54926	7.53936e+06	   77.0175	   15.4246	   2.52121	7.64322e+06	   76.9825	   15.4417	    2.5379	7.60108e+06	   77.0062	   15.4706	   2.56595	7.49594e+06	
         R10	   1823	   77.0895	   15.4913	   2.58613	7.41179e+06	   77.1108	   15.4427	   2.53889	7.55276e+06	   77.0479	   15.4287	   2.52518	7.61776e+06	   77.0345	   15.4782	   2.57334	7.45705e+06	   77.1002	    15.467	   2.56251	7.48203e+06	   77.0794	   15.4357	   2.53204	7.58438e+06	   77.0412	   15.4534	   2.54926	7.53707e+06	    77.062	   15.4847	   2.57974	7.43364e+06	
         R10	   1824	   77.0095	   15.6124	   2.70397	 7.1196e+06	   77.0855	   15.6151	   2.70654	7.12467e+06	    77.085	   15.5505	   2.64376	7.26708e+06	   77.0134	   15.5451	    2.6385	 7.2829e+06	   77.0475	   15.6137	   2.70526	7.12112e+06	   77.0852	   15.5828	   2.67515	7.19572e+06	   77.0492	   15.5478	   2.64113	 7.2742e+06	   77.0114	   15.5788	   2.67124	7.20104e+06	
         R10	   1825	    77.007	   15.6769	   2.76674	6.99089e+06	   77.0823	    15.684	   2.77362	7.04392e+06	   77.0855	   15.6151	   2.70654	7.15476e+06	   77.0095	   15.6124	   2.70397	7.11622e+06	   77.0447	   15.6805	   2.77018	7.01643e+06	   77.0839	   15.6495	   2.74008	7.09793e+06	   77.0475	   15.6137	   2.70526	7.13472e+06	   77.0082	   15.6447	   2.73536	7.05287e+06	
         R10	   1826	   76.8456	   15.6806	   2.77036	 6.8872e+06	   76.8479	   15.7321	   2.82041	6.82633e+06	   76.9302	   15.7289	   2.81727	6.90138e+06	   76.9279	   15.6741	   2.76403	6.99363e+06	   76.8467	   15.7064	   2.79539	6.85506e+06	   76.8891	   15.7305	   2.81884	6.86241e+06	    76.929	   15.7015	   2.79065	6.94522e+06	   76.8867	   15.6774	    2.7672	6.93824e+06	
         R10	   1827	   76.7597	   15.6903	   2.77973	6.74763e+06	   76.7579	   15.7397	   2.82783	6.68718e+06	   76.8479	   15.7321	   2.82041	6.82778e+06	   76.8456	   15.6806	   2.77036	6.88696e+06	   76.7588	    15.715	   2.80378	6.71548e+06	   76.8029	   15.7359	   2.82412	6.75431e+06	   76.8467	   15.7064	   2.79539	6.85571e+06	   76.8026	   15.6855	   2.77505	6.81361e+06	
         R10	   1828	   76.7146	   15.5843	   2.67665	6.93442e+06	   76.6639	   15.5911	   2.68319	6.83936e+06	   76.6694	   15.6294	    2.7205	6.69596e+06	   76.7276	   15.6287	   2.71979	6.77166e+06	   76.6892	   15.5877	   2.67992	6.88352e+06	   76.6667	   15.6102	   2.70184	6.76623e+06	   76.6985	    15.629	   2.72014	6.73032e+06	   76.7211	   15.6065	   2.69822	6.85156e+06	
         R10	   1829	    76.698	   15.5469	   2.64022	7.09581e+06	   76.6486	   15.5495	   2.64276	7.02527e+06	   76.6639	   15.5911	   2.68319	6.83468e+06	   76.7146	   15.5843	   2.67665	6.93002e+06	   76.6733	   15.5482	   2.64149	7.05644e+06	   76.6562	   15.5703	   2.66297	6.92787e+06	   76.6892	   15.5877	   2.67992	6.87922e+06	   76.7063	   15.5656	   2.65844	7.01177e+06	
         R10	   1830	   76.5732	    15.448	   2.54395	7.56015e+06	   76.5527	   15.4511	   2.54699	7.45361e+06	    76.562	   15.4704	   2.56582	7.33963e+06	    76.587	   15.4648	   2.56036	7.48577e+06	    76.563	   15.4495	   2.54547	7.50341e+06	   76.5574	   15.4607	    2.5564	7.39446e+06	   76.5745	   15.4676	   2.56309	7.40832e+06	   76.5801	   15.4564	   2.55216	7.52126e+06	
         R10	   1831	   76.6255	   15.4665	     2.562	7.58877e+06	    76.625	   15.4493	   2.54528	7.58735e+06	      76.6	   15.4477	   2.54374	7.71976e+06	    76.587	   15.4648	   2.56036	7.43295e+06	   76.6253	   15.4579	   2.55364	7.58805e+06	   76.6125	   15.4485	   2.54451	7.65228e+06	   76.5935	   15.4563	   2.55205	7.57288e+06	   76.6062	   15.4657	   2.56118	 7.5032e+06	
         R10	   1832	    76.648	   15.4954	   2.59012	7.36668e+06	   76.6456	   15.4694	    2.5648	 7.4824e+06	   76.6255	   15.4665	     2.562	7.52695e+06	   76.6065	   15.4869	   2.58183	 7.3564e+06	   76.6468	   15.4824	   2.57746	7.42372e+06	   76.6356	   15.4679	    2.5634	7.50232e+06	    76.616	   15.4767	   2.57191	7.44007e+06	   76.6272	   15.4911	   2.58597	7.35736e+06	
         R10	   1833	   76.6856	   15.5145	   2.60875	7.28642e+06	   76.6793	    15.489	   2.58393	 7.4085e+06	    76.648	   15.4954	   2.59012	7.35609e+06	   76.6634	    15.517	   2.61118	7.19706e+06	   76.6825	   15.5018	   2.59634	7.34674e+06	   76.6636	   15.4922	   2.58703	7.37969e+06	   76.6557	   15.5062	   2.60065	7.27586e+06	   76.6745	   15.5158	   2.60997	7.24089e+06	
         R10	   1834	    76.699	   15.4673	   2.56276	7.55695e+06	   76.6738	   15.4687	   2.56417	7.58408e+06	   76.6793	    15.489	   2.58393	7.38704e+06	   76.7069	   15.4873	   2.58226	7.48566e+06	   76.6864	    15.468	   2.56346	7.56896e+06	   76.6765	   15.4789	   2.57405	7.48533e+06	   76.6931	   15.4882	    2.5831	7.43485e+06	    76.703	   15.4773	   2.57251	 7.5212e+06	
         R10	   1835	   76.7197	   15.4447	   2.54083	7.70143e+06	   76.6954	   15.4488	   2.54477	7.72314e+06	    76.699	   15.4673	   2.56276	7.53559e+06	    76.728	   15.4633	    2.5589	 7.6174e+06	   76.7076	   15.4468	    2.5428	7.71101e+06	   76.6972	    15.458	   2.55376	7.62926e+06	   76.7135	   15.4653	   2.56083	7.57562e+06	   76.7239	    15.454	   2.54987	7.65937e+06	
         R10	   1836	   76.7113	   15.4257	   2.52233	7.83609e+06	   76.6916	   15.4354	   2.53179	7.72897e+06	   76.6954	   15.4488	   2.54477	7.72541e+06	   76.7197	   15.4447	   2.54083	7.70384e+06	   76.7014	   15.4306	   2.52706	7.78224e+06	   76.6935	   15.4421	   2.53828	7.72715e+06	   76.7076	   15.4468	    2.5428	 7.7138e+06	   76.7155	   15.4352	   2.53158	7.76958e+06	
         R10	   1837	   76.7332	   15.4225	   2.51916	7.79846e+06	   76.7113	   15.4257	   2.52233	7.83697e+06	   76.7197	   15.4447	   2.54083	7.68292e+06	   76.7563	   15.4362	   2.53248	 7.7595e+06	   76.7223	   15.4241	   2.52075	 7.8176e+06	   76.7155	   15.4352	   2.53158	7.75992e+06	    76.738	   15.4405	   2.53666	7.72006e+06	   76.7448	   15.4293	   2.52582	7.77818e+06	
         R10	   1838	    76.849	   15.4697	   2.56511	7.53231e+06	   76.8647	   15.4374	   2.53369	7.65723e+06	   76.8139	   15.4236	   2.52022	7.74898e+06	      76.8	    15.451	   2.54695	7.62989e+06	   76.8568	   15.4535	    2.5494	7.59475e+06	   76.8393	   15.4305	   2.52695	7.70171e+06	    76.807	   15.4373	   2.53358	7.68941e+06	   76.8245	   15.4604	   2.55603	7.57962e+06	
         R10	   1839	   76.9046	   15.4838	   2.57885	7.46642e+06	   76.9214	   15.4502	   2.54616	7.58068e+06	   76.8647	   15.4374	   2.53369	7.65641e+06	    76.849	   15.4697	   2.56511	7.53114e+06	    76.913	    15.467	   2.56251	7.52352e+06	   76.8931	   15.4438	   2.53992	7.61719e+06	   76.8568	   15.4535	    2.5494	7.59375e+06	   76.8768	   15.4768	   2.57198	7.49742e+06	
         R10	   1840	   76.9637	   15.4977	   2.59232	 7.4122e+06	   76.9779	    15.463	   2.55856	7.53864e+06	   76.9214	   15.4502	   2.54616	7.58723e+06	   76.9046	   15.4838	   2.57885	7.46935e+06	   76.9708	   15.4803	   2.57544	7.47532e+06	   76.9496	   15.4566	   2.55236	7.56213e+06	    76.913	    15.467	   2.56251	7.52825e+06	   76.9342	   15.4907	   2.58559	7.43912e+06	
         R10	   1841	   77.1873	   15.4685	   2.56395	7.47398e+06	   77.1108	   15.4427	   2.53889	7.54297e+06	   77.0895	   15.4913	   2.58613	7.42771e+06	   77.1339	   15.4998	   2.59444	7.38253e+06	    77.149	   15.4556	   2.55142	7.50715e+06	   77.1002	    15.467	   2.56251	7.48503e+06	   77.1117	   15.4956	   2.59029	7.40459e+06	   77.1606	   15.4842	    2.5792	7.42823e+06	
         R10	   1842	   76.9299	   15.6115	   2.70308	7.06152e+06	   77.0095	   15.6124	   2.70397	7.12617e+06	   77.0134	   15.5451	    2.6385	7.24184e+06	   76.9333	   15.5636	   2.65648	7.23275e+06	   76.9697	    15.612	   2.70352	7.09252e+06	   77.0114	   15.5788	   2.67124	7.18386e+06	   76.9734	   15.5544	   2.64749	7.23565e+06	   76.9316	   15.5875	   2.67978	7.14677e+06	
         R10	   1843	   77.0546	   15.7639	   2.85139	6.92316e+06	   77.0823	    15.684	   2.77362	7.08341e+06	    77.007	   15.6769	   2.76674	7.00212e+06	   76.9992	   15.7251	   2.81362	7.08095e+06	   77.0685	    15.724	    2.8125	6.99698e+06	   77.0447	   15.6805	   2.77018	7.04199e+06	   77.0031	    15.701	   2.79018	7.04077e+06	   77.0269	   15.7445	    2.8325	7.00137e+06	
         R10	   1844	   76.6976	   15.6778	   2.76758	6.61693e+06	   76.6658	   15.7372	   2.82535	6.52774e+06	   76.7579	   15.7397	   2.82783	6.71265e+06	   76.7597	   15.6903	   2.77973	6.73323e+06	   76.6817	   15.7075	   2.79646	6.56853e+06	   76.7119	   15.7384	   2.82659	6.61622e+06	   76.7588	    15.715	   2.80378	6.72103e+06	   76.7286	    15.684	   2.77365	6.67252e+06	
         R10	   1845	   76.7748	   15.5793	   2.67176	7.02827e+06	   76.7146	   15.5843	   2.67665	6.93808e+06	   76.7276	   15.6287	   2.71979	6.77363e+06	   76.7811	   15.6301	   2.72114	6.86268e+06	   76.7447	   15.5818	   2.67421	6.97972e+06	   76.7211	   15.6065	   2.69822	6.85435e+06	   76.7544	   15.6294	   2.72046	6.81609e+06	    76.778	   15.6047	   2.69645	 6.9443e+06	
         R10	   1846	   76.7472	   15.5375	   2.63107	7.18484e+06	    76.698	   15.5469	   2.64022	 7.1065e+06	   76.7146	   15.5843	   2.67665	6.92733e+06	   76.7748	   15.5793	   2.67176	7.02616e+06	   76.7226	   15.5422	   2.63564	7.14257e+06	   76.7063	   15.5656	   2.65844	7.01564e+06	   76.7447	   15.5818	   2.67421	6.97339e+06	    76.761	   15.5584	   2.65141	7.10429e+06	
         R10	   1847	   76.6634	    15.517	   2.61118	7.22832e+06	    76.648	   15.4954	   2.59012	7.33262e+06	   76.6247	   15.5164	   2.61056	7.19101e+06	   76.6486	   15.5495	   2.64276	7.02905e+06	   76.6557	   15.5062	   2.60065	7.27943e+06	   76.6363	   15.5059	   2.60034	 7.2598e+06	   76.6366	    15.533	   2.62666	7.10732e+06	    76.656	   15.5333	   2.62697	7.12723e+06	
         R10	   1848	   76.7069	   15.4873	   2.58226	7.47036e+06	   76.6793	    15.489	   2.58393	7.41775e+06	   76.6856	   15.5145	   2.60875	7.25043e+06	   76.7195	     15.51	    2.6043	7.32284e+06	   76.6931	   15.4882	    2.5831	7.44229e+06	   76.6825	   15.5018	   2.59634	7.33374e+06	   76.7026	   15.5123	   2.60653	7.28499e+06	   76.7132	   15.4986	   2.59328	7.39626e+06	
         R10	   1849	    76.728	   15.4633	    2.5589	7.57782e+06	    76.699	   15.4673	   2.56276	7.60163e+06	   76.7069	   15.4873	   2.58226	7.43299e+06	   76.7356	   15.4816	   2.57665	7.50306e+06	   76.7135	   15.4653	   2.56083	7.58853e+06	    76.703	   15.4773	   2.57251	7.51725e+06	   76.7213	   15.4844	   2.57945	7.46693e+06	   76.7318	   15.4724	   2.56777	 7.5403e+06	
         R10	   1850	   76.8292	   15.5008	   2.59536	7.39981e+06	    76.849	   15.4697	   2.56511	7.53088e+06	      76.8	    15.451	   2.54695	7.63424e+06	   76.7847	   15.4802	   2.57532	7.49895e+06	   76.8391	   15.4852	   2.58023	 7.4652e+06	   76.8245	   15.4604	   2.55603	7.58095e+06	   76.7923	   15.4656	   2.56113	7.56656e+06	   76.8069	   15.4905	   2.58534	7.44828e+06	
         R10	   1851	   76.8817	   15.5173	   2.61145	7.33858e+06	   76.9046	   15.4838	   2.57885	7.47047e+06	    76.849	   15.4697	   2.56511	7.53232e+06	   76.8292	   15.5008	   2.59536	7.40565e+06	   76.8931	   15.5006	   2.59515	7.40449e+06	   76.8768	   15.4768	   2.57198	7.50009e+06	   76.8391	   15.4852	   2.58023	7.46886e+06	   76.8554	   15.5091	    2.6034	7.37041e+06	
         R10	   1852	   76.7811	   15.6301	   2.72114	6.86186e+06	   76.7276	   15.6287	   2.71979	6.79273e+06	   76.6976	   15.6778	   2.76758	6.60513e+06	   76.7597	   15.6903	   2.77973	6.71691e+06	   76.7544	   15.6294	   2.72046	6.82505e+06	   76.7126	   15.6532	   2.74368	6.69557e+06	   76.7286	    15.684	   2.77365	6.65871e+06	   76.7704	   15.6602	   2.75043	6.78677e+06	
         R10	   1853	   76.8526	   15.6219	   2.71322	  6.988e+06	   76.7811	   15.6301	   2.72114	6.87165e+06	   76.7597	   15.6903	   2.77973	6.71401e+06	   76.8456	   15.6806	   2.77036	6.85784e+06	   76.8169	    15.626	   2.71718	6.92686e+06	   76.7704	   15.6602	   2.75043	6.79028e+06	   76.8026	   15.6855	   2.77505	6.78237e+06	   76.8491	   15.6513	   2.74179	6.92135e+06	
         R10	   1854	   76.7356	   15.4816	   2.57665	7.47961e+06	   76.7069	   15.4873	   2.58226	7.45555e+06	   76.7195	     15.51	    2.6043	7.32425e+06	   76.7614	   15.5042	   2.59867	7.38103e+06	   76.7213	   15.4844	   2.57945	7.46646e+06	   76.7132	   15.4986	   2.59328	7.38963e+06	   76.7405	   15.5071	   2.60149	7.35051e+06	   76.7485	   15.4929	   2.58766	7.42955e+06	
         R10	   1855	   76.8491	   15.5689	   2.66163	7.14367e+06	   76.8817	   15.5173	   2.61145	7.33747e+06	   76.8292	   15.5008	   2.59536	7.39907e+06	   76.7988	   15.5275	   2.62134	7.26707e+06	   76.8654	   15.5431	   2.63654	7.23993e+06	   76.8554	   15.5091	    2.6034	7.36678e+06	    76.814	   15.5141	   2.60835	7.33254e+06	   76.8239	   15.5482	   2.64149	7.20357e+06	
         R10	   1856	    77.085	   15.5505	   2.64376	7.27696e+06	   77.1725	    15.549	   2.64227	7.25751e+06	   77.1339	   15.4998	   2.59444	 7.3852e+06	   77.0895	   15.4913	   2.58613	7.41912e+06	   77.1288	   15.5498	   2.64302	7.26648e+06	   77.1532	   15.5244	   2.61835	7.32103e+06	   77.1117	   15.4956	   2.59029	7.40172e+06	   77.0872	   15.5209	   2.61495	7.34794e+06	
         R10	   1857	   77.0134	   15.5451	    2.6385	7.29581e+06	    77.085	   15.5505	   2.64376	7.25553e+06	   77.0895	   15.4913	   2.58613	7.42697e+06	   77.0345	   15.4782	   2.57334	7.45599e+06	   77.0492	   15.5478	   2.64113	7.27449e+06	   77.0872	   15.5209	   2.61495	7.34115e+06	    77.062	   15.4847	   2.57974	7.44099e+06	    77.024	   15.5116	   2.60592	7.37588e+06	
         R10	   1858	   77.0345	   15.4782	   2.57334	 7.4477e+06	   76.9779	    15.463	   2.55856	7.51824e+06	   76.9637	   15.4977	   2.59232	7.39637e+06	   77.0134	   15.5451	    2.6385	7.28009e+06	   77.0062	   15.4706	   2.56595	7.48171e+06	   76.9708	   15.4803	   2.57544	7.45725e+06	   76.9886	   15.5214	   2.61541	7.33765e+06	    77.024	   15.5116	   2.60592	7.36386e+06	
         R10	   1859	   76.9637	   15.4977	   2.59232	 7.4053e+06	   76.9046	   15.4838	   2.57885	7.46855e+06	   76.8817	   15.5173	   2.61145	7.34782e+06	   76.9325	   15.5221	    2.6161	7.31437e+06	   76.9342	   15.4907	   2.58559	7.43529e+06	   76.8931	   15.5006	   2.59515	7.40815e+06	   76.9071	   15.5197	   2.61378	7.33025e+06	   76.9481	   15.5099	   2.60421	7.35952e+06	
         R10	   1860	   76.9333	   15.5636	   2.65648	7.21685e+06	   77.0134	   15.5451	    2.6385	7.28526e+06	   76.9637	   15.4977	   2.59232	7.40279e+06	   76.9325	   15.5221	    2.6161	7.34658e+06	   76.9734	   15.5544	   2.64749	7.24988e+06	   76.9886	   15.5214	   2.61541	7.34334e+06	   76.9481	   15.5099	   2.60421	7.37442e+06	   76.9329	   15.5429	   2.63629	7.28166e+06	
         R10	   1861	   76.8817	   15.5173	   2.61145	7.33977e+06	   76.8491	   15.5689	   2.66163	7.14814e+06	   76.9333	   15.5636	   2.65648	7.20484e+06	   76.9325	   15.5221	    2.6161	7.32883e+06	   76.8654	   15.5431	   2.63654	7.24321e+06	   76.8912	   15.5663	   2.65906	7.17354e+06	   76.9329	   15.5429	   2.63629	7.26677e+06	   76.9071	   15.5197	   2.61378	7.33343e+06	
         R10	   1862	   76.9485	   15.7881	   2.87489	 6.9119e+06	   77.0546	   15.7639	   2.85139	6.94411e+06	   76.9992	   15.7251	   2.81362	 7.0326e+06	   76.9302	   15.7289	   2.81727	6.99157e+06	   77.0015	    15.776	   2.86314	6.92396e+06	   77.0269	   15.7445	    2.8325	6.98672e+06	   76.9647	    15.727	   2.81545	7.01127e+06	   76.9393	   15.7585	   2.84608	6.94681e+06	
         R10	   1863	   76.9302	   15.7289	   2.81727	6.90123e+06	   76.9992	   15.7251	   2.81362	6.98729e+06	    77.007	   15.6769	   2.76674	7.00536e+06	   76.9279	   15.6741	   2.76403	6.98154e+06	   76.9647	    15.727	   2.81545	6.94288e+06	   77.0031	    15.701	   2.79018	6.99568e+06	   76.9674	   15.6755	   2.76539	6.99242e+06	    76.929	   15.7015	   2.79065	6.93894e+06	
         R10	   1864	   76.9279	   15.6741	   2.76403	6.95902e+06	    77.007	   15.6769	   2.76674	7.02225e+06	   77.0095	   15.6124	   2.70397	7.11512e+06	   76.9299	   15.6115	   2.70308	7.07716e+06	   76.9674	   15.6755	   2.76539	6.98939e+06	   77.0082	   15.6447	   2.73536	7.06793e+06	   76.9697	    15.612	   2.70352	7.09474e+06	   76.9289	   15.6428	   2.73355	7.01689e+06	
         R10	   1865	   76.8526	   15.6219	   2.71322	6.98513e+06	   76.8456	   15.6806	   2.77036	6.85617e+06	   76.9279	   15.6741	   2.76403	6.94688e+06	   76.9299	   15.6115	   2.70308	7.09343e+06	   76.8491	   15.6513	   2.74179	6.91913e+06	   76.8867	   15.6774	    2.7672	6.89939e+06	   76.9289	   15.6428	   2.73355	7.01896e+06	   76.8912	   15.6167	   2.70815	  7.037e+06	
         R10	   1866	   76.9299	   15.6115	   2.70308	7.07386e+06	   76.9333	   15.5636	   2.65648	7.21164e+06	   76.8491	   15.5689	   2.66163	 7.1463e+06	   76.8526	   15.6219	   2.71322	6.97999e+06	   76.9316	   15.5875	   2.67978	7.14247e+06	   76.8912	   15.5663	   2.65906	7.17645e+06	   76.8508	   15.5954	   2.68743	7.06253e+06	   76.8912	   15.6167	   2.70815	 7.0246e+06	
         R10	   1867	   76.7811	   15.6301	   2.72114	6.85528e+06	   76.8526	   15.6219	   2.71322	6.98312e+06	   76.8491	   15.5689	   2.66163	7.12316e+06	   76.7748	   15.5793	   2.67176	7.04409e+06	   76.8169	    15.626	   2.71718	6.91644e+06	   76.8508	   15.5954	   2.68743	7.05256e+06	    76.812	   15.5741	    2.6667	7.08014e+06	    76.778	   15.6047	   2.69645	6.94852e+06	
         R10	   1868	   76.7748	   15.5793	   2.67176	7.03223e+06	   76.8491	   15.5689	   2.66163	7.14145e+06	   76.7988	   15.5275	   2.62134	7.26736e+06	   76.7472	   15.5375	   2.63107	7.19702e+06	    76.812	   15.5741	    2.6667	7.08356e+06	   76.8239	   15.5482	   2.64149	7.20281e+06	    76.773	   15.5325	    2.6262	7.22979e+06	    76.761	   15.5584	   2.65141	7.11332e+06	
         R10	   1869	   76.6634	    15.517	   2.61118	7.24382e+06	   76.6486	   15.5495	   2.64276	7.01522e+06	    76.698	   15.5469	   2.64022	7.09923e+06	   76.6856	   15.5145	   2.60875	7.25699e+06	    76.656	   15.5333	   2.62697	7.12766e+06	   76.6733	   15.5482	   2.64149	7.05279e+06	   76.6918	   15.5307	   2.62448	7.17706e+06	   76.6745	   15.5158	   2.60997	7.24982e+06	
         R10	   1870	   76.7195	     15.51	    2.6043	7.33264e+06	   76.6856	   15.5145	   2.60875	7.25746e+06	    76.698	   15.5469	   2.64022	7.09649e+06	   76.7472	   15.5375	   2.63107	7.19363e+06	   76.7026	   15.5123	   2.60653	7.29315e+06	   76.6918	   15.5307	   2.62448	 7.1762e+06	   76.7226	   15.5422	   2.63564	7.14212e+06	   76.7334	   15.5237	   2.61768	7.26197e+06	
         R10	   1871	   76.7614	   15.5042	   2.59867	7.36525e+06	   76.7195	     15.51	    2.6043	7.33194e+06	   76.7472	   15.5375	   2.63107	7.18189e+06	   76.7988	   15.5275	   2.62134	7.28126e+06	   76.7405	   15.5071	   2.60149	7.34684e+06	   76.7334	   15.5237	   2.61768	7.25592e+06	    76.773	   15.5325	    2.6262	7.22896e+06	   76.7801	   15.5158	   2.61001	7.32183e+06	
         R10	   1872	   76.7614	   15.5042	   2.59867	7.37408e+06	   76.7988	   15.5275	   2.62134	  7.281e+06	   76.8292	   15.5008	   2.59536	7.40506e+06	   76.7847	   15.4802	   2.57532	7.50181e+06	   76.7801	   15.5158	   2.61001	7.32605e+06	    76.814	   15.5141	   2.60835	 7.3426e+06	   76.8069	   15.4905	   2.58534	7.45222e+06	   76.7731	   15.4922	   2.58699	7.43735e+06	
         R10	   1873	   76.7563	   15.4362	   2.53248	7.72525e+06	   76.7197	   15.4447	   2.54083	7.72836e+06	    76.728	   15.4633	    2.5589	7.60711e+06	   76.7532	   15.4588	   2.55454	7.62136e+06	    76.738	   15.4405	   2.53666	7.72539e+06	   76.7239	    15.454	   2.54987	7.66757e+06	   76.7406	   15.4611	   2.55672	7.61365e+06	   76.7548	   15.4475	   2.54351	 7.6733e+06	
         R10	   1874	   76.7847	   15.4802	   2.57532	7.50997e+06	      76.8	    15.451	   2.54695	7.63183e+06	   76.7563	   15.4362	   2.53248	7.73684e+06	   76.7532	   15.4588	   2.55454	7.59712e+06	   76.7923	   15.4656	   2.56113	7.57084e+06	   76.7781	   15.4436	   2.53971	7.68305e+06	   76.7548	   15.4475	   2.54351	7.66697e+06	    76.769	   15.4695	   2.56493	7.55261e+06	
         R10	   1875	    76.728	   15.4633	    2.5589	7.60322e+06	   76.7356	   15.4816	   2.57665	7.48877e+06	   76.7847	   15.4802	   2.57532	7.50495e+06	   76.7532	   15.4588	   2.55454	7.61916e+06	   76.7318	   15.4724	   2.56777	7.54576e+06	   76.7601	   15.4809	   2.57598	7.49496e+06	    76.769	   15.4695	   2.56493	 7.5611e+06	   76.7406	   15.4611	   2.55672	 7.6105e+06	
         R10	   1876	      76.8	    15.451	   2.54695	7.63321e+06	   76.8139	   15.4236	   2.52022	 7.7544e+06	   76.7727	   15.4085	   2.50555	 7.8495e+06	   76.7563	   15.4362	   2.53248	7.73775e+06	    76.807	   15.4373	   2.53358	7.69376e+06	   76.7933	    15.416	   2.51289	 7.8009e+06	   76.7645	   15.4223	   2.51902	7.79346e+06	   76.7781	   15.4436	   2.53971	7.68397e+06	
         R10	   1877	   76.7332	   15.4225	   2.51916	7.83622e+06	   76.7563	   15.4362	   2.53248	 7.7224e+06	   76.7727	   15.4085	   2.50555	7.85708e+06	   76.7363	   15.4007	   2.49799	7.94388e+06	   76.7448	   15.4293	   2.52582	7.77862e+06	   76.7645	   15.4223	   2.51902	7.78959e+06	   76.7545	   15.4046	   2.50177	7.89948e+06	   76.7348	   15.4116	   2.50857	7.88999e+06	
         R10	   1878	   76.7727	   15.4085	   2.50555	7.85505e+06	   76.7886	   15.3814	   2.47916	7.96058e+06	   76.7501	   15.3717	   2.46976	8.06512e+06	   76.7363	   15.4007	   2.49799	7.94063e+06	   76.7807	   15.3949	   2.49236	7.90765e+06	   76.7693	   15.3765	   2.47446	8.01176e+06	   76.7432	   15.3862	   2.48387	8.00266e+06	   76.7545	   15.4046	   2.50177	7.89698e+06	
         R10	   1879	   76.7127	   15.3819	   2.47973	 8.0758e+06	   76.7124	   15.3915	   2.48907	8.04173e+06	   76.7363	   15.4007	   2.49799	7.94071e+06	   76.7501	   15.3717	   2.46976	8.07461e+06	   76.7125	   15.3867	    2.4844	8.05869e+06	   76.7243	   15.3961	   2.49353	7.99053e+06	   76.7432	   15.3862	   2.48387	8.00732e+06	   76.7314	   15.3768	   2.47474	8.07472e+06	
         R10	   1880	    76.708	   15.3727	   2.47069	8.13415e+06	   76.7127	   15.3819	   2.47973	8.08163e+06	   76.7501	   15.3717	   2.46976	8.08976e+06	   76.7104	   15.3773	   2.47521	8.10783e+06	   76.7314	   15.3768	   2.47474	 8.0853e+06	    76.729	   15.3722	   2.47022	8.11119e+06	       N/A	       N/A	       N/A	        N/A	       N/A	       N/A	       N/A	        N/A	
         R10	   1881	   76.7501	   15.3717	   2.46976	8.06592e+06	   76.7631	   15.3475	   2.44619	8.17808e+06	   76.7332	   15.3414	   2.44028	8.27994e+06	   76.7184	   15.3586	   2.45706	8.20059e+06	   76.7566	   15.3596	   2.45797	8.12179e+06	   76.7481	   15.3444	   2.44324	8.22805e+06	   76.7258	     15.35	   2.44867	8.23995e+06	   76.7342	   15.3652	   2.46341	8.13226e+06	
         R10	   1882	   76.7073	   15.3337	   2.43278	8.54942e+06	   76.6853	   15.3372	   2.43616	8.38425e+06	    76.687	   15.3486	   2.44733	8.38587e+06	   76.7028	    15.347	   2.44569	8.22181e+06	   76.6963	   15.3354	   2.43447	8.46576e+06	   76.6861	   15.3429	   2.44174	8.38374e+06	   76.6949	   15.3478	   2.44651	8.30336e+06	    76.705	   15.3403	   2.43924	8.38493e+06	
         R10	   1883	   76.7184	   15.3586	   2.45706	8.20112e+06	   76.7332	   15.3414	   2.44028	8.26854e+06	   76.7073	   15.3337	   2.43278	8.42239e+06	   76.7028	    15.347	   2.44569	8.32939e+06	   76.7258	     15.35	   2.44867	 8.2347e+06	   76.7202	   15.3375	   2.43653	8.34458e+06	    76.705	   15.3403	   2.43924	 8.3758e+06	   76.7106	   15.3528	   2.45138	8.26426e+06	
         R10	   1884	    76.687	   15.3486	   2.44733	8.30309e+06	   76.6878	    15.361	   2.45931	8.30841e+06	   76.7184	   15.3586	   2.45706	8.19345e+06	   76.7028	    15.347	   2.44569	8.36952e+06	   76.6874	   15.3548	   2.45332	8.30538e+06	   76.7031	   15.3598	   2.45819	8.25067e+06	   76.7106	   15.3528	   2.45138	8.28086e+06	   76.6949	   15.3478	   2.44651	8.33515e+06	
         R10	   1885	   76.6366	   15.4346	   2.53096	7.66303e+06	   76.6173	   15.4337	   2.53013	7.89097e+06	    76.625	   15.4493	   2.54528	7.60819e+06	    76.627	   15.4342	   2.53054	7.77607e+06	   76.6212	   15.4415	    2.5377	7.74941e+06	   76.6308	    15.442	   2.53812	7.63475e+06	       N/A	       N/A	       N/A	        N/A	       N/A	       N/A	       N/A	        N/A	
         R10	   1886	   76.6913	   15.3977	   2.49502	8.03113e+06	   76.6861	   15.4106	   2.50766	7.93003e+06	   76.7071	   15.4092	   2.50621	7.94143e+06	   76.6887	   15.4042	   2.50134	7.98053e+06	   76.6966	   15.4099	   2.50693	7.93472e+06	   76.6992	   15.4034	   2.50062	 7.9855e+06	       N/A	       N/A	       N/A	        N/A	       N/A	       N/A	       N/A	        N/A	
         R10	   1887	   76.5349	   15.4345	   2.53086	7.47327e+06	   76.5159	   15.4351	   2.53148	7.32372e+06	   76.5262	   15.4528	   2.54863	7.28419e+06	   76.5254	   15.4348	   2.53117	7.39264e+06	    76.521	   15.4439	   2.54005	 7.2996e+06	   76.5305	   15.4436	   2.53974	7.37411e+06	       N/A	       N/A	       N/A	        N/A	       N/A	       N/A	       N/A	        N/A	
         R10	   1888	      76.6	   15.4477	   2.54374	7.63112e+06	   76.6035	   15.4339	   2.53032	 7.6789e+06	   76.5856	    15.434	   2.53033	7.79047e+06	   76.6018	   15.4408	   2.53703	7.65456e+06	   76.5945	   15.4339	   2.53033	7.73252e+06	   76.5928	   15.4408	   2.53703	7.70976e+06	       N/A	       N/A	       N/A	        N/A	       N/A	       N/A	       N/A	        N/A	
         R10	   1889	   76.7113	   15.4257	   2.52233	7.83875e+06	   76.6864	   15.4209	   2.51764	7.86004e+06	   76.6916	   15.4354	   2.53179	7.69975e+06	   76.6989	   15.4233	   2.51998	7.84769e+06	    76.689	   15.4282	   2.52471	 7.7793e+06	   76.7014	   15.4306	   2.52706	7.76882e+06	       N/A	       N/A	       N/A	        N/A	       N/A	       N/A	       N/A	        N/A	
         R10	   1890	   76.6976	   15.6778	   2.76758	6.62447e+06	   76.6226	   15.6845	   2.77408	6.48738e+06	   76.6658	   15.7372	   2.82535	6.44767e+06	   76.6601	   15.6811	   2.77083	6.55126e+06	   76.6442	   15.7108	   2.79971	6.46582e+06	   76.6817	   15.7075	   2.79646	6.53184e+06	       N/A	       N/A	       N/A	        N/A	       N/A	       N/A	       N/A	        N/A	
         R10	   1891	      76.6	   15.4477	   2.54374	  7.607e+06	   76.5732	    15.448	   2.54395	7.58158e+06	    76.587	   15.4648	   2.56036	7.48063e+06	   76.5866	   15.4478	   2.54384	7.59072e+06	   76.5801	   15.4564	   2.55216	7.52927e+06	   76.5935	   15.4563	   2.55205	7.54213e+06	       N/A	       N/A	       N/A	        N/A	       N/A	       N/A	       N/A	        N/A	
         R10	   1892	   76.6255	   15.4665	     2.562	7.54574e+06	    76.587	   15.4648	   2.56036	7.47878e+06	   76.6065	   15.4869	   2.58183	7.34597e+06	   76.6062	   15.4657	   2.56118	7.50595e+06	   76.5967	   15.4758	    2.5711	7.41018e+06	    76.616	   15.4767	   2.57191	7.44308e+06	       N/A	       N/A	       N/A	        N/A	       N/A	       N/A	       N/A	        N/A	
         R10	   1893	    76.648	   15.4954	   2.59012	7.34812e+06	   76.6065	   15.4869	   2.58183	7.35125e+06	   76.6247	   15.5164	   2.61056	7.16429e+06	   76.6272	   15.4911	   2.58597	 7.3451e+06	   76.6156	   15.5016	    2.5962	7.25556e+06	   76.6363	   15.5059	   2.60034	7.25429e+06	       N/A	       N/A	       N/A	        N/A	       N/A	       N/A	       N/A	        N/A	
         R10	   1894	   76.7276	   15.6287	   2.71979	6.79802e+06	   76.6694	   15.6294	    2.7205	6.69619e+06	   76.6976	   15.6778	   2.76758	6.59836e+06	   76.6985	    15.629	   2.72014	6.74399e+06	   76.6835	   15.6536	   2.74404	6.64526e+06	   76.7126	   15.6532	   2.74368	6.69475e+06	       N/A	       N/A	       N/A	        N/A	       N/A	       N/A	       N/A	        N/A	
         R10	   1895	   76.6853	   15.3372	   2.43616	8.51934e+06	   76.7073	   15.3337	   2.43278	8.41854e+06	   76.6868	   15.3242	   2.42351	8.59554e+06	   76.6963	   15.3354	   2.43447	8.46828e+06	   76.6971	   15.3289	   2.42815	8.50544e+06	    76.686	   15.3307	   2.42983	8.55669e+06	       N/A	       N/A	       N/A	        N/A	       N/A	       N/A	       N/A	        N/A	
         R10	   1896	   76.7847	   15.4802	   2.57532	 7.4998e+06	   76.7356	   15.4816	   2.57665	7.48798e+06	   76.7614	   15.5042	   2.59867	7.37561e+06	   76.7601	   15.4809	   2.57598	7.49166e+06	   76.7485	   15.4929	   2.58766	  7.431e+06	   76.7731	   15.4922	   2.58699	7.43728e+06	       N/A	       N/A	       N/A	        N/A	       N/A	       N/A	       N/A	        N/A	
         R10	   1897	   77.1339	   15.4998	   2.59444	7.40902e+06	   77.1725	    15.549	   2.64227	7.29154e+06	   77.1873	   15.4685	   2.56395	7.41955e+06	   77.1532	   15.5244	   2.61835	7.34988e+06	   77.1799	   15.5088	   2.60311	7.35535e+06	   77.1606	   15.4842	    2.5792	7.41422e+06	       N/A	       N/A	       N/A	        N/A	       N/A	       N/A	       N/A	        N/A	
         R10	   1898	    76.708	   15.3727	   2.47069	8.14615e+06	   76.7501	   15.3717	   2.46976	8.07787e+06	   76.7184	   15.3586	   2.45706	8.19403e+06	    76.729	   15.3722	   2.47022	8.11114e+06	   76.7342	   15.3652	   2.46341	 8.1347e+06	   76.7132	   15.3657	   2.46388	8.16993e+06	       N/A	       N/A	       N/A	        N/A	       N/A	       N/A	       N/A	        N/A	
         R10	   1899	    77.535	   15.3659	   2.46416	7.67333e+06	   77.5234	      15.3	       2.4	 7.8924e+06	   77.4288	      15.3	       2.4	8.02669e+06	   77.4369	     15.36	   2.45841	7.69977e+06	   77.5292	    15.333	   2.43208	7.77771e+06	   77.4761	      15.3	       2.4	7.95813e+06	   77.4329	     15.33	    2.4292	7.85975e+06	   77.4859	    15.363	   2.46128	 7.6861e+06	
         R10	   1900	   77.6461	   15.3829	   2.48063	7.55045e+06	   77.6336	      15.3	       2.4	7.86174e+06	   77.5234	      15.3	       2.4	7.96562e+06	    77.535	   15.3659	   2.46416	 7.6635e+06	   77.6399	   15.3414	   2.44032	7.69808e+06	   77.5785	      15.3	       2.4	7.91108e+06	   77.5292	    15.333	   2.43208	7.81053e+06	   77.5906	   15.3744	   2.47239	7.60605e+06	
         R10	   1901	   77.7668	   15.3978	   2.49511	7.45758e+06	   77.7596	      15.3	       2.4	7.79158e+06	   77.6336	      15.3	       2.4	7.92282e+06	   77.6461	   15.3829	   2.48063	7.53901e+06	   77.7632	   15.3489	   2.44756	7.61449e+06	   77.6966	      15.3	       2.4	7.85316e+06	   77.6399	   15.3414	   2.44032	7.72471e+06	   77.7065	   15.3903	   2.48787	7.49753e+06	
         R10	   1902	   77.9083	   15.4097	   2.50673	7.36297e+06	   77.9013	      15.3	       2.4	7.72766e+06	   77.7596	      15.3	       2.4	7.86575e+06	   77.7668	   15.3978	   2.49511	7.44751e+06	   77.9048	   15.3548	   2.45337	7.53313e+06	   77.8304	      15.3	       2.4	7.79113e+06	   77.7632	   15.3489	   2.44756	7.64829e+06	   77.8376	   15.4037	   2.50092	7.40455e+06	
         R10	   1903	   78.0655	   15.4217	   2.51837	7.29905e+06	   78.0586	      15.3	       2.4	7.63906e+06	   77.9013	      15.3	       2.4	7.84263e+06	   77.9083	   15.4097	   2.50673	7.33353e+06	   78.0621	   15.3608	   2.45918	 7.4528e+06	     77.98	      15.3	       2.4	7.72984e+06	   77.9048	   15.3548	   2.45337	7.57713e+06	   77.9869	   15.4157	   2.51255	7.31605e+06	
         R10	   1904	   78.2392	    15.433	   2.52945	7.17349e+06	   78.2317	      15.3	       2.4	7.55503e+06	   78.0586	      15.3	       2.4	7.78436e+06	   78.0655	   15.4217	   2.51837	7.24317e+06	   78.2355	   15.3665	   2.46473	 7.3478e+06	   78.1452	      15.3	       2.4	7.65564e+06	   78.0621	   15.3608	   2.45918	 7.5021e+06	   78.1524	   15.4274	   2.52391	 7.2077e+06	
         R10	   1905	   78.4287	   15.4423	   2.53842	7.14221e+06	   78.4205	      15.3	       2.4	7.47108e+06	   78.2317	      15.3	       2.4	 7.7439e+06	   78.2392	    15.433	   2.52945	7.13427e+06	   78.4246	   15.3711	   2.46921	7.28854e+06	   78.3261	      15.3	       2.4	7.58895e+06	   78.2355	   15.3665	   2.46473	7.42596e+06	    78.334	   15.4377	   2.53393	7.13757e+06	
         R10	   1906	    78.625	   15.4468	   2.54279	7.16646e+06	    78.625	      15.3	       2.4	7.37348e+06	   78.4205	      15.3	       2.4	7.74895e+06	   78.4287	   15.4423	   2.53842	6.99816e+06	    78.625	   15.3734	    2.4714	7.24508e+06	   78.5228	      15.3	       2.4	7.52836e+06	   78.4246	   15.3711	   2.46921	7.35419e+06	   78.5268	   15.4445	    2.5406	7.08225e+06	
         R10	   1907	    78.625	   15.5984	   2.69034	6.68976e+06	    78.625	   15.4468	   2.54279	7.17834e+06	   78.4287	   15.4423	   2.53842	7.00562e+06	   78.4182	   15.5985	    2.6904	6.86239e+06	    78.625	   15.5226	   2.61657	6.93361e+06	   78.5268	   15.4445	    2.5406	7.09157e+06	   78.4234	   15.5204	   2.61441	6.93335e+06	   78.5216	   15.5984	   2.69037	6.77587e+06	
         R10	   1908	   78.4134	   15.7495	   2.83738	6.64779e+06	    78.625	    15.755	   2.84265	6.89828e+06	    78.625	   15.5984	   2.69034	6.70173e+06	   78.4182	   15.5985	    2.6904	6.87775e+06	   78.5192	   15.7522	   2.84002	 6.7675e+06	    78.625	   15.6767	    2.7665	6.78748e+06	   78.5216	   15.5984	   2.69037	6.78946e+06	   78.4158	    15.674	   2.76389	6.75162e+06	
         R10	   1909	   78.4076	   15.9164	   2.99973	7.25693e+06	    78.625	   15.9164	   2.99973	7.26401e+06	    78.625	    15.755	   2.84265	6.87132e+06	   78.4134	   15.7495	   2.83738	6.66361e+06	   78.5163	   15.9164	   2.99973	7.25764e+06	    78.625	   15.8357	   2.92119	7.00942e+06	   78.5192	   15.7522	   2.84002	6.76322e+06	   78.4105	    15.833	   2.91855	6.91161e+06	
         R10	   1910	   78.2069	   15.9164	   2.99973	7.26335e+06	   78.4076	   15.9164	   2.99973	7.24102e+06	   78.4134	   15.7495	   2.83738	6.89596e+06	   78.2173	   15.7536	   2.84131	6.76564e+06	   78.3073	   15.9164	   2.99973	7.25003e+06	   78.4105	    15.833	   2.91855	 7.0172e+06	   78.3154	   15.7515	   2.83935	6.82884e+06	   78.2121	    15.835	   2.92052	6.97002e+06	
         R10	   1911	   78.0389	   15.7778	   2.86486	6.88556e+06	   78.0226	   15.9164	   2.99973	 7.2689e+06	   78.2069	   15.9164	   2.99973	7.24859e+06	   78.2173	   15.7536	   2.84131	6.94517e+06	   78.0308	   15.8471	   2.93229	7.04486e+06	   78.1147	   15.9164	   2.99973	7.25737e+06	   78.2121	    15.835	   2.92052	7.05023e+06	   78.1281	   15.7657	   2.85308	6.91353e+06	
         R10	   1912	   77.8625	   15.8044	   2.89073	6.97335e+06	    77.855	   15.9164	   2.99973	7.29883e+06	   78.0226	   15.9164	   2.99973	7.26551e+06	   78.0389	   15.7778	   2.86486	7.08625e+06	   77.8588	   15.8604	   2.94523	7.11288e+06	   77.9388	   15.9164	   2.99973	7.28129e+06	   78.0308	   15.8471	   2.93229	 7.1411e+06	   77.9507	   15.7911	    2.8778	7.02861e+06	
         R10	   1913	   77.7119	   15.8164	    2.9024	7.06134e+06	   77.7039	   15.9164	   2.99973	7.32609e+06	    77.855	   15.9164	   2.99973	7.29451e+06	   77.8625	   15.8044	   2.89073	7.16522e+06	   77.7079	   15.8664	   2.95106	7.17346e+06	   77.7794	   15.9164	   2.99973	7.30963e+06	   77.8588	   15.8604	   2.94523	7.20199e+06	   77.7872	   15.8104	   2.89657	7.11272e+06	
         R10	   1914	   77.5781	   15.8274	   2.91317	7.16095e+06	   77.5694	   15.9164	   2.99973	7.33553e+06	   77.7039	   15.9164	   2.99973	7.31902e+06	   77.7119	   15.8164	    2.9024	 7.2114e+06	   77.5737	   15.8719	   2.95645	7.23069e+06	   77.6366	   15.9164	   2.99973	7.32683e+06	   77.7079	   15.8664	   2.95106	7.24041e+06	    77.645	   15.8219	   2.90778	7.18554e+06	
         R10	   1915	   77.4595	   15.8359	   2.92146	7.23931e+06	   77.4514	   15.9164	   2.99973	7.32695e+06	   77.5694	   15.9164	   2.99973	7.32547e+06	   77.5781	   15.8274	   2.91317	7.25407e+06	   77.4555	   15.8762	   2.96059	7.26577e+06	   77.5104	   15.9164	   2.99973	7.32597e+06	   77.5737	   15.8719	   2.95645	7.26886e+06	   77.5188	   15.8317	   2.91731	7.24625e+06	
         R10	   1916	     77.35	   15.8382	   2.92363	7.25695e+06	     77.35	   15.9164	   2.99973	 7.3301e+06	   77.4514	   15.9164	   2.99973	7.32967e+06	   77.4595	   15.8359	   2.92146	7.29097e+06	     77.35	   15.8773	   2.96168	7.27475e+06	   77.4007	   15.9164	   2.99973	7.32967e+06	   77.4555	   15.8762	   2.96059	7.29053e+06	   77.4048	   15.8371	   2.92254	 7.2737e+06	
         R10	   1917	     77.35	   15.7624	   2.84989	7.11527e+06	     77.35	   15.8382	   2.92363	7.08986e+06	   77.4595	   15.8359	   2.92146	7.10601e+06	   77.4446	   15.7697	   2.85703	 7.1213e+06	     77.35	   15.8003	   2.88676	7.09159e+06	   77.4048	   15.8371	   2.92254	7.09748e+06	   77.4521	   15.8028	   2.88924	7.10585e+06	   77.3973	   15.7661	   2.85346	 7.1181e+06	
         R10	   1918	   77.4464	   15.6844	     2.774	7.07398e+06	     77.35	    15.689	   2.77853	7.10635e+06	     77.35	   15.7624	   2.84989	7.02951e+06	   77.4446	   15.7697	   2.85703	7.04123e+06	   77.3982	   15.6867	   2.77626	7.08941e+06	     77.35	   15.7257	   2.81421	7.06457e+06	   77.3973	   15.7661	   2.85346	 7.0351e+06	   77.4455	   15.7271	   2.81551	7.05112e+06	
         R10	   1919	   77.4567	   15.6263	   2.71744	7.10384e+06	     77.35	   15.6181	   2.70953	7.14924e+06	     77.35	    15.689	   2.77853	7.02582e+06	   77.4464	   15.6844	     2.774	7.03806e+06	   77.4034	   15.6222	   2.71348	7.12521e+06	     77.35	   15.6536	   2.74403	7.08609e+06	   77.3982	   15.6867	   2.77626	 7.0317e+06	   77.4516	   15.6553	   2.74572	7.07009e+06	
         R10	   1920	   77.4621	    15.546	   2.63932	7.22198e+06	     77.35	   15.5496	   2.64289	7.24778e+06	     77.35	   15.6181	   2.70953	 7.1269e+06	   77.4567	   15.6263	   2.71744	7.10618e+06	    77.406	   15.5478	    2.6411	7.23391e+06	     77.35	   15.5839	   2.67621	7.18721e+06	   77.4034	   15.6222	   2.71348	7.11583e+06	   77.4594	   15.5861	   2.67838	7.16404e+06	
         R10	   1921	   77.4647	   15.4849	   2.57988	7.31995e+06	     77.35	   15.4836	   2.57862	7.39001e+06	     77.35	   15.5496	   2.64289	7.22902e+06	   77.4621	    15.546	   2.63932	7.23029e+06	   77.4073	   15.4842	   2.57925	7.35379e+06	     77.35	   15.5166	   2.61075	7.30931e+06	    77.406	   15.5478	    2.6411	7.22904e+06	   77.4634	   15.5154	    2.6096	7.27493e+06	
         R10	   1922	    77.448	   15.4252	   2.52185	7.50047e+06	     77.35	     15.42	   2.51671	7.54663e+06	     77.35	   15.4836	   2.57862	7.38334e+06	   77.4647	   15.4849	   2.57988	7.32806e+06	    77.399	   15.4226	   2.51928	7.52252e+06	     77.35	   15.4518	   2.54767	7.46391e+06	   77.4073	   15.4842	   2.57925	7.35474e+06	   77.4564	   15.4551	   2.55086	7.41324e+06	
         R10	   1923	   77.4369	     15.36	   2.45841	7.72478e+06	   77.4288	      15.3	       2.4	7.97786e+06	     77.35	      15.3	       2.4	 8.0281e+06	     77.35	   15.3588	   2.45717	7.75108e+06	   77.4329	     15.33	    2.4292	7.84721e+06	   77.3894	      15.3	       2.4	8.00212e+06	     77.35	   15.3294	   2.42859	7.88606e+06	   77.3934	   15.3594	   2.45779	7.73752e+06	
         R10	   1924	   77.7441	   15.4988	   2.59345	7.20483e+06	   77.7668	   15.3978	   2.49511	7.45499e+06	   77.6461	   15.3829	   2.48063	7.52868e+06	   77.5903	    15.466	   2.56151	7.34526e+06	   77.7554	   15.4483	   2.54428	7.32748e+06	   77.7065	   15.3903	   2.48787	 7.4913e+06	   77.6182	   15.4244	   2.52107	7.43461e+06	   77.6672	   15.4824	   2.57748	7.27338e+06	
         R10	   1925	   77.9041	   15.5057	   2.60015	7.15083e+06	   77.9083	   15.4097	   2.50673	 7.3758e+06	   77.7668	   15.3978	   2.49511	7.43584e+06	   77.7441	   15.4988	   2.59345	7.19939e+06	   77.9062	   15.4577	   2.55344	7.26022e+06	   77.8376	   15.4037	   2.50092	 7.4055e+06	   77.7554	   15.4483	   2.54428	7.31537e+06	   77.8241	   15.5023	    2.5968	7.17369e+06	
         R10	   1926	   78.0401	   15.5177	   2.61179	7.03016e+06	   78.0655	   15.4217	   2.51837	7.30906e+06	   77.9083	   15.4097	   2.50673	 7.3675e+06	   77.9041	   15.5057	   2.60015	7.11366e+06	   78.0528	   15.4697	   2.56508	7.16888e+06	   77.9869	   15.4157	   2.51255	7.33756e+06	   77.9062	   15.4577	   2.55344	7.23773e+06	   77.9721	   15.5117	   2.60597	7.07089e+06	
         R10	   1927	   78.2139	   15.6009	   2.69277	6.83803e+06	   78.2392	    15.433	   2.52945	7.14075e+06	   78.0655	   15.4217	   2.51837	7.20964e+06	   78.0401	   15.5177	   2.61179	  7.132e+06	   78.2266	    15.517	   2.61111	6.98888e+06	   78.1524	   15.4274	   2.52391	7.17471e+06	   78.0528	   15.4697	   2.56508	7.16995e+06	    78.127	   15.5593	   2.65228	6.98498e+06	
         R10	   1928	   78.4182	   15.5985	    2.6904	6.78199e+06	   78.4287	   15.4423	   2.53842	7.14623e+06	   78.2392	    15.433	   2.52945	7.10786e+06	   78.2139	   15.6009	   2.69277	 6.9086e+06	   78.4234	   15.5204	   2.61441	6.96358e+06	    78.334	   15.4377	   2.53393	7.12688e+06	   78.2266	    15.517	   2.61111	 7.0076e+06	    78.316	   15.5997	   2.69159	6.84429e+06	
         R10	   1929	   78.2173	   15.7536	   2.84131	6.73958e+06	   78.4134	   15.7495	   2.83738	6.87914e+06	   78.4182	   15.5985	    2.6904	6.79096e+06	   78.2139	   15.6009	   2.69277	6.90789e+06	   78.3154	   15.7515	   2.83935	6.80657e+06	   78.4158	    15.674	   2.76389	6.82603e+06	    78.316	   15.5997	   2.69159	6.84875e+06	   78.2156	   15.6772	   2.76704	6.81168e+06	
         R10	   1930	   78.0074	   15.6669	   2.75699	7.05341e+06	   78.0389	   15.7778	   2.86486	6.76944e+06	   78.2173	   15.7536	   2.84131	6.84827e+06	   78.2139	   15.6009	   2.69277	 6.8283e+06	   78.0231	   15.7223	   2.81093	6.89726e+06	   78.1281	   15.7657	   2.85308	6.80548e+06	   78.2156	   15.6772	   2.76704	6.82912e+06	   78.1106	   15.6339	   2.72488	6.93777e+06	
         R10	   1931	   77.8352	   15.7036	   2.79265	7.03367e+06	   77.8625	   15.8044	   2.89073	6.85568e+06	   78.0389	   15.7778	   2.86486	6.89539e+06	   78.0074	   15.6669	   2.75699	6.93959e+06	   77.8489	    15.754	   2.84169	6.92609e+06	   77.9507	   15.7911	    2.8778	6.87144e+06	   78.0231	   15.7223	   2.81093	6.91114e+06	   77.9213	   15.6852	   2.77482	6.98505e+06	
         R10	   1932	   77.6965	   15.7162	   2.80499	7.03532e+06	   77.7119	   15.8164	    2.9024	6.93279e+06	   77.8625	   15.8044	   2.89073	7.02387e+06	   77.8352	   15.7036	   2.79265	6.98779e+06	   77.7042	   15.7663	   2.85369	6.96822e+06	   77.7872	   15.8104	   2.89657	6.97732e+06	   77.8489	    15.754	   2.84169	6.99506e+06	   77.7658	   15.7099	   2.79882	7.01055e+06	
         R10	   1933	   77.5637	   15.7262	   2.81465	 7.0648e+06	   77.5781	   15.8274	   2.91317	7.01509e+06	   77.7119	   15.8164	    2.9024	7.05314e+06	   77.6965	   15.7162	   2.80499	7.03818e+06	   77.5709	   15.7768	   2.86391	7.02635e+06	    77.645	   15.8219	   2.90778	7.03351e+06	   77.7042	   15.7663	   2.85369	 7.0349e+06	   77.6301	   15.7212	   2.80982	7.05077e+06	
         R10	   1934	   77.4446	   15.7697	   2.85703	7.17282e+06	   77.4595	   15.8359	   2.92146	7.00006e+06	   77.5781	   15.8274	   2.91317	7.07336e+06	   77.5637	   15.7262	   2.81465	 7.0929e+06	   77.4521	   15.8028	   2.88924	7.07617e+06	   77.5188	   15.8317	   2.91731	7.03569e+06	   77.5709	   15.7768	   2.86391	7.07224e+06	   77.5042	   15.7479	   2.83584	7.12975e+06	
         R10	   1935	   77.5613	   15.5448	   2.63821	7.19822e+06	   77.4621	    15.546	   2.63932	7.21028e+06	   77.4567	   15.6263	   2.71744	7.07993e+06	   77.5587	   15.6379	    2.7288	7.08259e+06	   77.5117	   15.5454	   2.63876	7.20383e+06	   77.4594	   15.5861	   2.67838	7.14498e+06	   77.5077	   15.6321	   2.72312	7.08015e+06	     77.56	   15.5914	   2.68351	7.14008e+06	
         R10	   1936	   77.4369	     15.36	   2.45841	 7.7196e+06	     77.35	   15.3588	   2.45717	7.75417e+06	     77.35	     15.42	   2.51671	7.54231e+06	    77.448	   15.4252	   2.52185	7.50021e+06	   77.3934	   15.3594	   2.45779	7.73639e+06	     77.35	   15.3894	   2.48694	7.64594e+06	    77.399	   15.4226	   2.51928	 7.5203e+06	   77.4425	   15.3926	   2.49013	7.60718e+06	
         R10	   1937	   77.6801	   15.6275	   2.71864	7.07699e+06	   77.6965	   15.7162	   2.80499	6.92738e+06	   77.8352	   15.7036	   2.79265	6.88564e+06	   77.7865	    15.608	   2.69972	7.07767e+06	   77.6883	   15.6719	   2.76181	6.99853e+06	   77.7658	   15.7099	   2.79882	6.90558e+06	   77.8109	   15.6558	   2.74619	6.97828e+06	   77.7333	   15.6178	   2.70918	7.07606e+06	
         R10	   1938	   77.5587	   15.6379	    2.7288	  7.086e+06	   77.4567	   15.6263	   2.71744	7.09284e+06	   77.4464	   15.6844	     2.774	7.17583e+06	   77.5637	   15.7262	   2.81465	6.90801e+06	   77.5077	   15.6321	   2.72312	7.08893e+06	   77.4516	   15.6553	   2.74572	7.13358e+06	   77.5051	   15.7053	   2.79432	7.04133e+06	   77.5612	   15.6821	   2.77173	6.99364e+06	
         R10	   1939	   77.5587	   15.6379	    2.7288	 7.0708e+06	   77.5637	   15.7262	   2.81465	6.99279e+06	   77.6965	   15.7162	   2.80499	 6.9331e+06	   77.6801	   15.6275	   2.71864	7.08779e+06	   77.5612	   15.6821	   2.77173	7.02869e+06	   77.6301	   15.7212	   2.80982	6.96185e+06	   77.6883	   15.6719	   2.76181	7.00721e+06	   77.6194	   15.6327	   2.72372	 7.0785e+06	
         R10	   1940	   77.5613	   15.5448	   2.63821	7.21479e+06	   77.5587	   15.6379	    2.7288	7.02772e+06	   77.6801	   15.6275	   2.71864	7.01645e+06	   77.6628	   15.5558	   2.64885	7.12587e+06	     77.56	   15.5914	   2.68351	7.12095e+06	   77.6194	   15.6327	   2.72372	7.02081e+06	   77.6715	   15.5916	   2.68375	7.07046e+06	   77.6121	   15.5503	   2.64353	7.16993e+06	
         R10	   1941	   77.5903	    15.466	   2.56151	 7.3463e+06	   77.6461	   15.3829	   2.48063	7.54895e+06	    77.535	   15.3659	   2.46416	7.64962e+06	   77.5228	   15.4215	   2.51824	7.46973e+06	   77.6182	   15.4244	   2.52107	7.44508e+06	   77.5906	   15.3744	   2.47239	7.59843e+06	   77.5289	   15.3937	    2.4912	7.55802e+06	   77.5565	   15.4438	   2.53988	7.40698e+06	
         R10	   1942	    77.448	   15.4252	   2.52185	 7.5003e+06	   77.4647	   15.4849	   2.57988	7.36601e+06	   77.5903	    15.466	   2.56151	7.31967e+06	   77.5228	   15.4215	   2.51824	7.46155e+06	   77.4564	   15.4551	   2.55086	7.43203e+06	   77.5275	   15.4754	    2.5707	7.34221e+06	   77.5565	   15.4438	   2.53988	7.38989e+06	   77.4854	   15.4234	   2.52004	7.48047e+06	
         R10	   1943	    77.535	   15.3659	   2.46416	7.67952e+06	   77.4369	     15.36	   2.45841	7.71083e+06	    77.448	   15.4252	   2.52185	7.50693e+06	   77.5228	   15.4215	   2.51824	7.46076e+06	   77.4859	    15.363	   2.46128	7.69466e+06	   77.4425	   15.3926	   2.49013	7.60597e+06	   77.4854	   15.4234	   2.52004	7.48329e+06	   77.5289	   15.3937	    2.4912	7.56852e+06	
         R10	   1944	   77.4647	   15.4849	   2.57988	7.37326e+06	   77.4621	    15.546	   2.63932	7.21867e+06	   77.5613	   15.5448	   2.63821	7.16738e+06	   77.5903	    15.466	   2.56151	7.31273e+06	   77.4634	   15.5154	    2.6096	 7.2958e+06	   77.5117	   15.5454	   2.63876	7.19216e+06	   77.5758	   15.5054	   2.59986	7.23963e+06	   77.5275	   15.4754	    2.5707	7.34235e+06	
         R10	   1945	   77.5903	    15.466	   2.56151	7.34706e+06	   77.5613	   15.5448	   2.63821	7.20248e+06	   77.6628	   15.5558	   2.64885	7.11358e+06	   77.7441	   15.4988	   2.59345	7.19548e+06	   77.5758	   15.5054	   2.59986	7.27428e+06	   77.6121	   15.5503	   2.64353	7.15721e+06	   77.7035	   15.5273	   2.62115	7.15435e+06	   77.6672	   15.4824	   2.57748	7.26943e+06	
         R10	   1946	   77.9041	   15.5057	   2.60015	7.15536e+06	   77.7441	   15.4988	   2.59345	7.20693e+06	   77.7865	    15.608	   2.69972	7.00992e+06	   77.8968	   15.5908	   2.68296	6.96051e+06	   77.8241	   15.5023	    2.5968	7.17925e+06	   77.7653	   15.5534	   2.64659	7.10811e+06	   77.8416	   15.5994	   2.69134	6.98452e+06	   77.9005	   15.5483	   2.64155	7.05792e+06	
         R10	   1947	   78.0074	   15.6669	   2.75699	6.88307e+06	   78.0401	   15.5177	   2.61179	7.01344e+06	   77.9041	   15.5057	   2.60015	7.12646e+06	   77.8968	   15.5908	   2.68296	7.08459e+06	   78.0237	   15.5923	   2.68439	6.94526e+06	   77.9721	   15.5117	   2.60597	7.06949e+06	   77.9005	   15.5483	   2.64155	7.10552e+06	   77.9521	   15.6289	   2.71997	6.98226e+06	
         R10	   1948	   77.7865	    15.608	   2.69972	7.07839e+06	   77.8352	   15.7036	   2.79265	6.89852e+06	   78.0074	   15.6669	   2.75699	6.83624e+06	   77.8968	   15.5908	   2.68296	7.00602e+06	   77.8109	   15.6558	   2.74619	6.98422e+06	   77.9213	   15.6852	   2.77482	6.86573e+06	   77.9521	   15.6289	   2.71997	6.91918e+06	   77.8416	   15.5994	   2.69134	7.04125e+06	
         R10	   1949	   77.7865	    15.608	   2.69972	6.98776e+06	   77.7441	   15.4988	   2.59345	7.20748e+06	   77.6628	   15.5558	   2.64885	7.23676e+06	   77.6801	   15.6275	   2.71864	6.97245e+06	   77.7653	   15.5534	   2.64659	7.09698e+06	   77.7035	   15.5273	   2.62115	7.22208e+06	   77.6715	   15.5916	   2.68375	7.10437e+06	   77.7333	   15.6178	   2.70918	6.97882e+06	
         R10	   1950	   77.4464	   15.6844	     2.774	7.14003e+06	   77.4446	   15.7697	   2.85703	6.97585e+06	   77.5637	   15.7262	   2.81465	6.93086e+06	   77.4455	   15.7271	   2.81551	7.05135e+06	   77.5042	   15.7479	   2.83584	6.95044e+06	   77.5051	   15.7053	   2.79432	7.03287e+06	       N/A	       N/A	       N/A	        N/A	       N/A	       N/A	       N/A	        N/A	
         R10	   1951	   78.2139	   15.6009	   2.69277	6.84123e+06	   78.0401	   15.5177	   2.61179	7.05959e+06	   78.0074	   15.6669	   2.75699	6.92997e+06	    78.127	   15.5593	   2.65228	6.94828e+06	   78.0237	   15.5923	   2.68439	6.99217e+06	   78.1106	   15.6339	   2.72488	6.88438e+06	       N/A	       N/A	       N/A	        N/A	       N/A	       N/A	       N/A	        N/A	
         R10	   1952	   76.1386	   13.7863	       2.4	 8.4362e+06	   76.1433	      13.6	       2.4	8.54291e+06	   75.9137	      13.6	       2.4	 7.9874e+06	   75.8912	   13.8107	       2.4	7.73947e+06	   76.1409	   13.6932	       2.4	8.47105e+06	   76.0285	      13.6	       2.4	8.25337e+06	   75.9025	   13.7054	       2.4	 7.8296e+06	   76.0149	   13.7985	       2.4	 8.0743e+06	
         R10	   1953	   76.3195	   13.7772	       2.4	8.71201e+06	   76.3387	      13.6	       2.4	9.38753e+06	   76.1433	      13.6	       2.4	8.57161e+06	   76.1386	   13.7863	       2.4	8.43686e+06	   76.3291	   13.6886	       2.4	 9.0381e+06	    76.241	      13.6	       2.4	8.94957e+06	   76.1409	   13.6932	       2.4	8.48503e+06	    76.229	   13.7818	       2.4	8.57114e+06	
         R10	   1954	      76.5	   13.7605	       2.4	9.67043e+06	      76.5	      13.6	       2.4	9.89703e+06	   76.3387	      13.6	       2.4	9.57525e+06	   76.3195	   13.7772	       2.4	8.50289e+06	      76.5	   13.6802	       2.4	9.62024e+06	   76.4194	      13.6	       2.4	9.70631e+06	   76.3291	   13.6886	       2.4	9.03452e+06	   76.4097	   13.7689	       2.4	9.05662e+06	
         R10	   1955	      76.5	    13.908	       2.4	1.02687e+07	      76.5	   13.7605	       2.4	1.02038e+07	   76.3195	   13.7772	       2.4	9.01769e+06	   76.3444	   13.9658	       2.4	 9.0122e+06	      76.5	   13.8342	       2.4	1.02116e+07	   76.4097	   13.7689	       2.4	9.58007e+06	   76.3319	   13.8715	       2.4	8.99926e+06	   76.4222	   13.9369	       2.4	9.63357e+06	
         R10	   1956	   76.3965	   14.2662	       2.4	  8.874e+06	      76.5	   14.2723	       2.4	1.02373e+07	      76.5	   14.1639	       2.4	1.02368e+07	   76.3654	   14.1208	       2.4	9.42204e+06	   76.4483	   14.2692	       2.4	9.55503e+06	      76.5	   14.2181	       2.4	 1.0235e+07	   76.4327	   14.1423	       2.4	9.82785e+06	    76.381	   14.1935	       2.4	9.14575e+06	
         R10	   1957	   76.4071	   14.3605	       2.4	8.06789e+06	      76.5	   14.3676	       2.4	1.05839e+07	      76.5	   14.2723	       2.4	 1.0225e+07	   76.3965	   14.2662	       2.4	9.56365e+06	   76.4536	   14.3641	       2.4	9.32558e+06	      76.5	   14.3199	       2.4	1.03992e+07	   76.4483	   14.2692	       2.4	 9.8918e+06	   76.4018	   14.3134	       2.4	8.81538e+06	
         R10	   1958	    76.419	     14.45	       2.4	7.98073e+06	      76.5	     14.45	       2.4	9.43156e+06	      76.5	   14.3676	       2.4	1.04768e+07	   76.4071	   14.3605	       2.4	9.18312e+06	   76.4595	     14.45	       2.4	8.65417e+06	      76.5	   14.4088	       2.4	9.93218e+06	   76.4536	   14.3641	       2.4	9.81103e+06	    76.413	   14.4052	       2.4	8.53152e+06	
         R10	   1959	   76.3346	     14.45	       2.4	7.60832e+06	    76.419	     14.45	       2.4	7.78618e+06	   76.4071	   14.3605	       2.4	9.28811e+06	   76.3263	   14.3703	       2.4	8.58332e+06	   76.3768	     14.45	       2.4	7.69153e+06	    76.413	   14.4052	       2.4	8.50808e+06	   76.3667	   14.3654	       2.4	8.93388e+06	   76.3304	   14.4102	       2.4	8.07019e+06	
         R10	   1960	   76.1522	   14.3463	       2.4	8.08637e+06	   76.1557	     14.45	       2.4	 7.4801e+06	   76.2468	     14.45	       2.4	7.73206e+06	   76.2245	    14.356	       2.4	8.21676e+06	    76.154	   14.3982	       2.4	7.75854e+06	   76.2013	     14.45	       2.4	7.60089e+06	   76.2357	    14.403	       2.4	7.96682e+06	   76.1884	   14.3512	       2.4	8.15139e+06	
         R10	   1961	   76.0613	   14.3438	       2.4	7.93336e+06	   76.0613	     14.45	       2.4	7.33509e+06	   76.1557	     14.45	       2.4	7.45888e+06	   76.1522	   14.3463	       2.4	8.04871e+06	   76.0613	   14.3969	       2.4	7.60185e+06	   76.1085	     14.45	       2.4	7.39389e+06	    76.154	   14.3982	       2.4	7.72872e+06	   76.1068	   14.3451	       2.4	7.98955e+06	
         R10	   1962	   75.9658	   14.3467	       2.4	7.69336e+06	   75.9635	     14.45	       2.4	7.23224e+06	   76.0613	     14.45	       2.4	7.32487e+06	   76.0613	   14.3438	       2.4	7.91155e+06	   75.9646	   14.3983	       2.4	  7.428e+06	   76.0124	     14.45	       2.4	7.27664e+06	   76.0613	   14.3969	       2.4	7.58446e+06	   76.0135	   14.3452	       2.4	7.80032e+06	
         R10	   1963	   75.8646	   14.3486	       2.4	7.61555e+06	   75.8624	     14.45	       2.4	7.14054e+06	   75.9635	     14.45	       2.4	7.26786e+06	   75.9658	   14.3467	       2.4	7.61076e+06	   75.8635	   14.3993	       2.4	 7.3402e+06	   75.9129	     14.45	       2.4	  7.202e+06	   75.9646	   14.3983	       2.4	7.40191e+06	   75.9152	   14.3476	       2.4	7.61128e+06	
         R10	   1964	   75.7564	   14.3355	       2.4	7.40092e+06	   75.7579	     14.45	       2.4	7.03979e+06	   75.8624	     14.45	       2.4	7.08355e+06	   75.8646	   14.3486	       2.4	7.63494e+06	   75.7571	   14.3927	       2.4	 7.1766e+06	   75.8101	     14.45	       2.4	7.06058e+06	   75.8635	   14.3993	       2.4	  7.322e+06	   75.8105	    14.342	       2.4	7.51577e+06	
         R10	   1965	     75.65	   14.3498	       2.4	7.17783e+06	     75.65	     14.45	       2.4	6.99598e+06	   75.7579	     14.45	       2.4	 7.1011e+06	   75.7564	   14.3355	       2.4	7.32132e+06	     75.65	   14.3999	       2.4	7.04811e+06	   75.7039	     14.45	       2.4	7.04649e+06	   75.7571	   14.3927	       2.4	7.16605e+06	   75.7032	   14.3427	       2.4	7.24743e+06	
         R10	   1966	   75.7756	   14.2014	       2.4	7.32973e+06	     75.65	   14.2147	       2.4	 7.3553e+06	     75.65	   14.3498	       2.4	6.91078e+06	   75.7564	   14.3355	       2.4	7.07939e+06	   75.7128	   14.2081	       2.4	7.34192e+06	     75.65	   14.2823	       2.4	 7.1024e+06	   75.7032	   14.3427	       2.4	6.99335e+06	    75.766	   14.2685	       2.4	 7.1768e+06	
         R10	   1967	   75.8356	   14.0511	       2.4	  7.656e+06	     75.65	   14.0447	       2.4	 7.4345e+06	     75.65	   14.2147	       2.4	7.08212e+06	   75.7756	   14.2014	       2.4	7.12852e+06	   75.7428	   14.0479	       2.4	7.54347e+06	     75.65	   14.1297	       2.4	7.24275e+06	   75.7128	   14.2081	       2.4	7.10356e+06	   75.8056	   14.1262	       2.4	7.38199e+06	
         R10	   1968	   75.8912	   13.8107	       2.4	7.72257e+06	   75.9137	      13.6	       2.4	7.98273e+06	     75.65	      13.6	       2.4	7.45123e+06	     75.65	   13.8398	       2.4	7.30524e+06	   75.9025	   13.7054	       2.4	7.81896e+06	   75.7819	      13.6	       2.4	7.70573e+06	     75.65	   13.7199	       2.4	7.31652e+06	   75.7706	   13.8253	       2.4	7.50365e+06	
         R10	   1969	   76.3444	   13.9658	       2.4	8.98979e+06	   76.3195	   13.7772	       2.4	9.35009e+06	   76.1386	   13.7863	       2.4	8.63015e+06	   76.1953	   13.9878	       2.4	8.40795e+06	   76.3319	   13.8715	       2.4	 9.1608e+06	    76.229	   13.7818	       2.4	8.98563e+06	   76.1669	    13.887	       2.4	8.51778e+06	   76.2699	   13.9768	       2.4	8.69848e+06	
         R10	   1970	   76.3654	   14.1208	       2.4	8.75798e+06	      76.5	   14.1639	       2.4	  1.039e+07	      76.5	   14.0424	       2.4	1.04807e+07	   76.3444	   13.9658	       2.4	9.30649e+06	   76.4327	   14.1423	       2.4	 9.5715e+06	      76.5	   14.1031	       2.4	 1.0432e+07	   76.4222	   14.0041	       2.4	9.88492e+06	   76.3549	   14.0433	       2.4	9.02904e+06	
         R10	   1971	   76.2885	   14.2954	       2.4	8.17637e+06	   76.3965	   14.2662	       2.4	8.89297e+06	   76.3654	   14.1208	       2.4	9.25634e+06	   76.2727	   14.1281	       2.4	8.57387e+06	   76.3425	   14.2808	       2.4	8.53464e+06	    76.381	   14.1935	       2.4	9.07099e+06	   76.3191	   14.1245	       2.4	8.91491e+06	   76.2806	   14.2117	       2.4	8.37091e+06	
         R10	   1972	   76.3263	   14.3703	       2.4	8.02896e+06	   76.4071	   14.3605	       2.4	8.58143e+06	   76.3965	   14.2662	       2.4	9.23588e+06	   76.2885	   14.2954	       2.4	8.17353e+06	   76.3667	   14.3654	       2.4	8.30431e+06	   76.4018	   14.3134	       2.4	8.90094e+06	   76.3425	   14.2808	       2.4	8.69777e+06	   76.3074	   14.3328	       2.4	8.10086e+06	
         R10	   1973	   76.2245	    14.356	       2.4	7.77134e+06	   76.2468	     14.45	       2.4	 7.4763e+06	   76.3263	   14.3703	       2.4	8.89804e+06	   76.2885	   14.2954	       2.4	8.22017e+06	   76.2357	    14.403	       2.4	7.60991e+06	   76.2866	   14.4102	       2.4	8.18119e+06	   76.3074	   14.3328	       2.4	8.55605e+06	   76.2565	   14.3257	       2.4	 7.9924e+06	
         R10	   1974	   76.1666	   14.2212	       2.4	8.08511e+06	   76.1522	   14.3463	       2.4	 7.4998e+06	   76.2245	    14.356	       2.4	7.84536e+06	   76.2885	   14.2954	       2.4	8.34978e+06	   76.1594	   14.2837	       2.4	  7.785e+06	   76.1884	   14.3512	       2.4	 7.6722e+06	   76.2565	   14.3257	       2.4	8.09067e+06	   76.2275	   14.2583	       2.4	8.21505e+06	
         R10	   1975	   76.0726	   14.2527	       2.4	7.76958e+06	   76.0613	   14.3438	       2.4	7.42658e+06	   76.1522	   14.3463	       2.4	7.62746e+06	   76.1666	   14.2212	       2.4	8.04115e+06	   76.0669	   14.2982	       2.4	7.57223e+06	   76.1068	   14.3451	       2.4	7.52249e+06	   76.1594	   14.2837	       2.4	7.82272e+06	   76.1196	   14.2369	       2.4	7.90384e+06	
         R10	   1976	   75.9534	    14.178	       2.4	7.63018e+06	   75.9658	   14.3467	       2.4	7.35601e+06	   76.0613	   14.3438	       2.4	7.22132e+06	   76.0726	   14.2527	       2.4	  8.158e+06	   75.9596	   14.2623	       2.4	7.47371e+06	   76.0135	   14.3452	       2.4	7.28831e+06	   76.0669	   14.2982	       2.4	7.68189e+06	    76.013	   14.2153	       2.4	 7.8881e+06	
         R10	   1977	   75.8912	   13.8107	       2.4	 7.9915e+06	     75.65	   13.8398	       2.4	7.50048e+06	     75.65	   14.0447	       2.4	7.14672e+06	   75.8356	   14.0511	       2.4	7.51351e+06	   75.7706	   13.8253	       2.4	7.73737e+06	     75.65	   13.9423	       2.4	7.31904e+06	   75.7428	   14.0479	       2.4	 7.3255e+06	   75.8634	   13.9309	       2.4	7.74468e+06	
         R10	   1978	    76.019	   14.0044	       2.4	7.83564e+06	   76.1953	   13.9878	       2.4	8.42543e+06	   76.1386	   13.7863	       2.4	8.62625e+06	   75.8912	   13.8107	       2.4	8.10084e+06	   76.1071	   13.9961	       2.4	8.12706e+06	   76.1669	    13.887	       2.4	8.52078e+06	   76.0149	   13.7985	       2.4	8.35593e+06	   75.9551	   13.9075	       2.4	7.96701e+06	
         R10	   1979	   76.2727	   14.1281	       2.4	8.41996e+06	   76.3654	   14.1208	       2.4	8.96713e+06	   76.3444	   13.9658	       2.4	9.23696e+06	   76.1953	   13.9878	       2.4	8.55061e+06	   76.3191	   14.1245	       2.4	8.69311e+06	   76.3549	   14.0433	       2.4	9.09588e+06	   76.2699	   13.9768	       2.4	8.89336e+06	    76.234	   14.0579	       2.4	8.48089e+06	
         R10	   1980	   76.0317	    14.106	       2.4	7.99398e+06	   76.0726	   14.2527	       2.4	7.51384e+06	   76.1666	   14.2212	       2.4	 7.9689e+06	   76.1397	   14.1185	       2.4	8.12613e+06	   76.0521	   14.1793	       2.4	7.74589e+06	   76.1196	   14.2369	       2.4	7.73943e+06	   76.1532	   14.1698	       2.4	8.04297e+06	   76.0857	   14.1123	       2.4	8.05985e+06	
         R10	   1981	   76.1397	   14.1185	       2.4	7.75702e+06	   76.1666	   14.2212	       2.4	7.89133e+06	   76.2727	   14.1281	       2.4	8.62306e+06	   76.1953	   13.9878	       2.4	8.66615e+06	   76.1532	   14.1698	       2.4	 7.8171e+06	   76.2197	   14.1746	       2.4	8.25583e+06	    76.234	   14.0579	       2.4	8.63967e+06	   76.1675	   14.0532	       2.4	8.21131e+06	
         R10	   1982	   76.0317	    14.106	       2.4	7.57091e+06	   76.1397	   14.1185	       2.4	7.95121e+06	   76.1953	   13.9878	       2.4	8.60917e+06	    76.019	   14.0044	       2.4	8.22174e+06	   76.0857	   14.1123	       2.4	7.75745e+06	   76.1675	   14.0532	       2.4	8.27642e+06	   76.1071	   13.9961	       2.4	8.41491e+06	   76.0253	   14.0552	       2.4	7.88676e+06	
         R10	   1983	   75.9534	    14.178	       2.4	7.43422e+06	   76.0317	    14.106	       2.4	8.07199e+06	    76.019	   14.0044	       2.4	8.12324e+06	   75.8356	   14.0511	       2.4	  7.411e+06	   75.9925	    14.142	       2.4	7.75067e+06	   76.0253	   14.0552	       2.4	8.08335e+06	   75.9273	   14.0277	       2.4	  7.759e+06	   75.8945	   14.1145	       2.4	7.41969e+06	
         R10	   1984	   75.7756	   14.2014	       2.4	7.65042e+06	   75.7564	   14.3355	       2.4	6.97754e+06	   75.8646	   14.3486	       2.4	7.12685e+06	   75.8704	   14.2449	       2.4	7.42013e+06	    75.766	   14.2685	       2.4	7.29046e+06	   75.8105	    14.342	       2.4	7.05098e+06	   75.8675	   14.2967	       2.4	7.26203e+06	    75.823	   14.2231	       2.4	7.53362e+06	
         R10	   1985	   75.9534	    14.178	       2.4	7.73649e+06	   75.8356	   14.0511	       2.4	7.72788e+06	   75.7756	   14.2014	       2.4	7.12885e+06	   75.8704	   14.2449	       2.4	7.10086e+06	   75.8945	   14.1145	       2.4	7.73078e+06	   75.8056	   14.1262	       2.4	7.42313e+06	    75.823	   14.2231	       2.4	7.10979e+06	   75.9119	   14.2114	       2.4	7.41305e+06	
         R10	   1986	   75.8646	   14.3486	       2.4	7.26723e+06	   75.9658	   14.3467	       2.4	7.31687e+06	   75.9534	    14.178	       2.4	7.71736e+06	   75.8704	   14.2449	       2.4	7.20777e+06	   75.9152	   14.3476	       2.4	7.28688e+06	   75.9596	   14.2623	       2.4	7.49953e+06	   75.9119	   14.2114	       2.4	7.45893e+06	   75.8675	   14.2967	       2.4	 7.2153e+06	
         R10	   1987	      76.5	   14.0424	       2.4	1.05129e+07	      76.5	    13.908	       2.4	1.03287e+07	   76.3444	   13.9658	       2.4	 8.9268e+06	      76.5	   13.9752	       2.4	1.04152e+07	   76.4222	   13.9369	       2.4	9.61869e+06	   76.4222	   14.0041	       2.4	9.71302e+06	       N/A	       N/A	       N/A	        N/A	       N/A	       N/A	       N/A	        N/A	
         R10	   1988	   76.2468	     14.45	       2.4	7.58959e+06	   76.3346	     14.45	       2.4	7.69407e+06	   76.3263	   14.3703	       2.4	8.52046e+06	   76.2907	     14.45	       2.4	 7.6383e+06	   76.3304	   14.4102	       2.4	 8.0885e+06	   76.2866	   14.4102	       2.4	8.02362e+06	       N/A	       N/A	       N/A	        N/A	       N/A	       N/A	       N/A	        N/A	
         R10	   1989	   76.1666	   14.2212	       2.4	7.85108e+06	   76.2885	   14.2954	       2.4	8.17774e+06	   76.2727	   14.1281	       2.4	 8.5288e+06	   76.2275	   14.2583	       2.4	8.01307e+06	   76.2806	   14.2117	       2.4	 8.3494e+06	   76.2197	   14.1746	       2.4	8.18613e+06	       N/A	       N/A	       N/A	        N/A	       N/A	       N/A	       N/A	        N/A	
         R10	   1990	   75.9534	    14.178	       2.4	7.49621e+06	   76.0726	   14.2527	       2.4	7.39191e+06	   76.0317	    14.106	       2.4	7.99422e+06	    76.013	   14.2153	       2.4	7.44315e+06	   76.0521	   14.1793	       2.4	7.68693e+06	   75.9925	    14.142	       2.4	7.73974e+06	       N/A	       N/A	       N/A	        N/A	       N/A	       N/A	       N/A	        N/A	
         R10	   1991	    76.019	   14.0044	       2.4	8.02163e+06	   75.8912	   13.8107	       2.4	 7.8126e+06	   75.8356	   14.0511	       2.4	7.48483e+06	   75.9551	   13.9075	       2.4	7.91307e+06	   75.8634	   13.9309	       2.4	7.64063e+06	   75.9273	   14.0277	       2.4	7.75244e+06	       N/A	       N/A	       N/A	        N/A	       N/A	       N/A	       N/A	        N/A	
         R10	   1992	    76.819	   13.7586	       2.4	8.25421e+06	   76.8158	      13.6	       2.4	8.46716e+06	   76.6538	      13.6	       2.4	9.13424e+06	   76.6574	   13.7542	       2.4	8.44241e+06	   76.8174	   13.6793	       2.4	8.34336e+06	   76.7348	      13.6	       2.4	8.77166e+06	   76.6556	   13.6771	       2.4	8.76756e+06	   76.7382	   13.7564	       2.4	8.34663e+06	
         R10	   1993	   76.9902	   13.7646	       2.4	7.77268e+06	   76.9858	      13.6	       2.4	8.08562e+06	   76.8158	      13.6	       2.4	8.45195e+06	    76.819	   13.7586	       2.4	8.24304e+06	    76.988	   13.6823	       2.4	7.89962e+06	   76.9008	      13.6	       2.4	8.26023e+06	   76.8174	   13.6793	       2.4	8.33145e+06	   76.9046	   13.7616	       2.4	7.99985e+06	
         R10	   1994	    77.168	   13.7696	       2.4	7.37415e+06	   77.1638	      13.6	       2.4	7.71678e+06	   76.9858	      13.6	       2.4	8.07225e+06	   76.9902	   13.7646	       2.4	7.76696e+06	   77.1659	   13.6848	       2.4	7.50531e+06	   77.0748	      13.6	       2.4	7.88837e+06	    76.988	   13.6823	       2.4	7.89028e+06	   77.0791	   13.7671	       2.4	  7.565e+06	
         R10	   1995	     77.35	   13.7811	       2.4	 7.1116e+06	     77.35	      13.6	       2.4	7.36605e+06	   77.1638	      13.6	       2.4	7.70198e+06	    77.168	   13.7696	       2.4	7.39982e+06	     77.35	   13.6906	       2.4	7.19145e+06	   77.2569	      13.6	       2.4	7.52839e+06	   77.1659	   13.6848	       2.4	7.51091e+06	    77.259	   13.7753	       2.4	 7.2513e+06	
         R10	   1996	     77.35	   13.9464	       2.4	7.17414e+06	     77.35	   13.7811	       2.4	7.33388e+06	    77.168	   13.7696	       2.4	7.70644e+06	   77.1645	   13.9364	       2.4	7.42047e+06	     77.35	   13.8638	       2.4	7.24242e+06	    77.259	   13.7753	       2.4	7.51466e+06	   77.1662	    13.853	       2.4	7.55135e+06	   77.2572	   13.9414	       2.4	7.29162e+06	
         R10	   1997	   77.1739	   14.0792	       2.4	7.25274e+06	     77.35	    14.096	       2.4	7.07398e+06	     77.35	   13.9464	       2.4	7.35403e+06	   77.1645	   13.9364	       2.4	7.64245e+06	   77.2619	   14.0876	       2.4	7.16038e+06	     77.35	   14.0212	       2.4	7.20979e+06	   77.2572	   13.9414	       2.4	7.49191e+06	   77.1692	   14.0078	       2.4	7.43972e+06	
         R10	   1998	   77.2064	   14.2116	       2.4	 7.0558e+06	     77.35	   14.2298	       2.4	6.91141e+06	     77.35	    14.096	       2.4	7.22509e+06	   77.1739	   14.0792	       2.4	7.44119e+06	   77.2782	   14.2207	       2.4	6.98078e+06	     77.35	   14.1629	       2.4	7.05656e+06	   77.2619	   14.0876	       2.4	7.32978e+06	   77.1901	   14.1454	       2.4	7.23662e+06	
         R10	   1999	   77.2381	   14.3396	       2.4	6.87493e+06	     77.35	   14.3478	       2.4	6.82542e+06	     77.35	   14.2298	       2.4	7.02843e+06	   77.2064	   14.2116	       2.4	7.24406e+06	    77.294	   14.3437	       2.4	6.84891e+06	     77.35	   14.2888	       2.4	6.90705e+06	   77.2782	   14.2207	       2.4	7.13207e+06	   77.2222	   14.2756	       2.4	 7.0302e+06	
         R10	   2000	   77.2421	     14.45	       2.4	6.85349e+06	     77.35	     14.45	       2.4	6.80022e+06	     77.35	   14.3478	       2.4	7.07028e+06	   77.2381	   14.3396	       2.4	7.17719e+06	   77.2961	     14.45	       2.4	6.82533e+06	     77.35	   14.3989	       2.4	6.89256e+06	    77.294	   14.3437	       2.4	 7.1216e+06	   77.2401	   14.3948	       2.4	6.96689e+06	
         R10	   2001	   77.1376	     14.45	       2.4	 6.8594e+06	   77.2421	     14.45	       2.4	6.82201e+06	   77.2381	   14.3396	       2.4	7.29339e+06	    77.147	   14.3542	       2.4	7.42121e+06	   77.1899	     14.45	       2.4	6.83943e+06	   77.2401	   14.3948	       2.4	7.01135e+06	   77.1925	   14.3469	       2.4	 7.3556e+06	   77.1423	   14.4021	       2.4	7.10277e+06	
         R10	   2002	   77.0291	   14.3524	       2.4	7.47091e+06	   77.0365	     14.45	       2.4	6.98365e+06	   77.1376	     14.45	       2.4	6.89965e+06	    77.147	   14.3542	       2.4	7.32742e+06	   77.0328	   14.4012	       2.4	7.18643e+06	   77.0871	     14.45	       2.4	6.93979e+06	   77.1423	   14.4021	       2.4	7.07286e+06	   77.0881	   14.3533	       2.4	7.39763e+06	
         R10	   2003	   76.9498	   14.3426	       2.4	7.58056e+06	   76.9387	     14.45	       2.4	7.09062e+06	   77.0365	     14.45	       2.4	  6.985e+06	   77.0291	   14.3524	       2.4	7.51988e+06	   76.9442	   14.3963	       2.4	7.29651e+06	   76.9876	     14.45	       2.4	7.03525e+06	   77.0328	   14.4012	       2.4	7.21143e+06	   76.9894	   14.3475	       2.4	 7.5481e+06	
         R10	   2004	   76.8456	   14.3489	       2.4	7.92221e+06	   76.8443	     14.45	       2.4	7.13939e+06	   76.9387	     14.45	       2.4	7.05603e+06	   76.9498	   14.3426	       2.4	7.67861e+06	   76.8449	   14.3995	       2.4	7.50038e+06	   76.8915	     14.45	       2.4	7.09519e+06	   76.9442	   14.3963	       2.4	7.33127e+06	   76.8977	   14.3458	       2.4	7.79847e+06	
         R10	   2005	    76.743	   14.3495	       2.4	8.16172e+06	   76.7532	     14.45	       2.4	 7.2663e+06	   76.8443	     14.45	       2.4	7.15058e+06	   76.8456	   14.3489	       2.4	7.86695e+06	   76.7481	   14.3997	       2.4	7.68858e+06	   76.7987	     14.45	       2.4	7.20519e+06	   76.8449	   14.3995	       2.4	 7.4773e+06	   76.7943	   14.3492	       2.4	8.01259e+06	
         R10	   2006	   76.6702	    14.361	       2.4	8.47385e+06	   76.6654	     14.45	       2.4	7.31739e+06	   76.7532	     14.45	       2.4	7.24184e+06	    76.743	   14.3495	       2.4	8.21159e+06	   76.6678	   14.4055	       2.4	7.87813e+06	   76.7093	     14.45	       2.4	7.27675e+06	   76.7481	   14.3997	       2.4	7.70578e+06	   76.7066	   14.3553	       2.4	8.34051e+06	
         R10	   2007	   76.5729	   14.3725	       2.4	9.22989e+06	    76.581	     14.45	       2.4	7.22668e+06	   76.6654	     14.45	       2.4	7.25754e+06	   76.6702	    14.361	       2.4	8.41439e+06	    76.577	   14.4112	       2.4	8.20564e+06	   76.6232	     14.45	       2.4	7.23853e+06	   76.6678	   14.4055	       2.4	7.81618e+06	   76.6215	   14.3667	       2.4	8.81795e+06	
         R10	   2008	      76.5	   14.3676	       2.4	 9.8312e+06	      76.5	     14.45	       2.4	8.58166e+06	    76.581	     14.45	       2.4	 7.4282e+06	   76.5729	   14.3725	       2.4	9.16903e+06	      76.5	   14.4088	       2.4	9.19854e+06	   76.5405	     14.45	       2.4	7.94921e+06	    76.577	   14.4112	       2.4	8.25443e+06	   76.5364	   14.3701	       2.4	9.49646e+06	
         R10	   2009	      76.5	   14.2723	       2.4	9.81592e+06	      76.5	   14.3676	       2.4	 9.7658e+06	   76.5729	   14.3725	       2.4	8.24463e+06	   76.6258	   14.2614	       2.4	8.92499e+06	      76.5	   14.3199	       2.4	9.78395e+06	   76.5364	   14.3701	       2.4	9.00273e+06	   76.5993	   14.3169	       2.4	8.58001e+06	   76.5629	   14.2668	       2.4	9.36941e+06	
         R10	   2010	   76.6252	    14.154	       2.4	9.03726e+06	      76.5	   14.1639	       2.4	1.01129e+07	      76.5	   14.2723	       2.4	9.69777e+06	   76.6258	   14.2614	       2.4	 8.3105e+06	   76.5626	   14.1589	       2.4	9.57416e+06	      76.5	   14.2181	       2.4	9.90459e+06	   76.5629	   14.2668	       2.4	9.00328e+06	   76.6255	   14.2077	       2.4	8.67189e+06	
         R10	   2011	    76.642	   14.0285	       2.4	9.13593e+06	      76.5	   14.0424	       2.4	1.02382e+07	      76.5	   14.1639	       2.4	9.99018e+06	   76.6252	    14.154	       2.4	8.60367e+06	    76.571	   14.0355	       2.4	9.68336e+06	      76.5	   14.1031	       2.4	1.01125e+07	   76.5626	   14.1589	       2.4	9.29542e+06	   76.6336	   14.0913	       2.4	 8.8661e+06	
         R10	   2012	   76.6543	   13.9014	       2.4	9.15143e+06	      76.5	    13.908	       2.4	1.02442e+07	      76.5	   14.0424	       2.4	1.01834e+07	    76.642	   14.0285	       2.4	8.67523e+06	   76.5771	   13.9047	       2.4	9.68879e+06	      76.5	   13.9752	       2.4	1.02091e+07	    76.571	   14.0355	       2.4	9.42576e+06	   76.6481	   13.9649	       2.4	8.90726e+06	
         R10	   2013	   76.6574	   13.7542	       2.4	8.16668e+06	   76.6538	      13.6	       2.4	9.44499e+06	      76.5	      13.6	       2.4	 9.1308e+06	      76.5	   13.7605	       2.4	9.96755e+06	   76.6556	   13.6771	       2.4	8.80046e+06	   76.5769	      13.6	       2.4	9.24294e+06	      76.5	   13.6802	       2.4	9.35439e+06	   76.5787	   13.7573	       2.4	 9.0315e+06	
         R10	   2014	   76.9928	    13.929	       2.4	7.72789e+06	   76.9902	   13.7646	       2.4	8.18612e+06	    76.819	   13.7586	       2.4	8.58796e+06	   76.8112	    13.911	       2.4	8.23617e+06	   76.9915	   13.8468	       2.4	 7.9479e+06	   76.9046	   13.7616	       2.4	8.38249e+06	   76.8151	   13.8348	       2.4	8.40442e+06	    76.902	     13.92	       2.4	7.97801e+06	
         R10	   2015	   77.1645	   13.9364	       2.4	7.44137e+06	    77.168	   13.7696	       2.4	7.70008e+06	   76.9902	   13.7646	       2.4	8.17865e+06	   76.9928	    13.929	       2.4	7.71259e+06	   77.1662	    13.853	       2.4	7.55874e+06	   77.0791	   13.7671	       2.4	7.93349e+06	   76.9915	   13.8468	       2.4	7.93587e+06	   77.0787	   13.9327	       2.4	7.57246e+06	
         R10	   2016	   77.1739	   14.0792	       2.4	7.24682e+06	   77.1645	   13.9364	       2.4	7.67504e+06	   76.9928	    13.929	       2.4	8.03609e+06	   77.0045	   14.0867	       2.4	7.47329e+06	   77.1692	   14.0078	       2.4	7.45581e+06	   77.0787	   13.9327	       2.4	7.85046e+06	   76.9987	   14.0079	       2.4	7.74666e+06	   77.0892	    14.083	       2.4	7.35726e+06	
         R10	   2017	    77.147	   14.3542	       2.4	6.84957e+06	   77.2381	   14.3396	       2.4	6.80006e+06	   77.2064	   14.2116	       2.4	7.36181e+06	   77.0892	   14.2294	       2.4	7.45809e+06	   77.1925	   14.3469	       2.4	6.82388e+06	   77.2222	   14.2756	       2.4	 7.0564e+06	   77.1478	   14.2205	       2.4	 7.4081e+06	   77.1181	   14.2918	       2.4	7.12964e+06	
         R10	   2018	   76.8465	   14.2107	       2.4	7.80185e+06	   76.8456	   14.3489	       2.4	7.34536e+06	   76.9498	   14.3426	       2.4	7.14551e+06	   76.9361	   14.2216	       2.4	7.74034e+06	   76.8461	   14.2798	       2.4	7.55822e+06	   76.8977	   14.3458	       2.4	 7.2432e+06	   76.9429	   14.2821	       2.4	7.42005e+06	   76.8913	   14.2161	       2.4	7.77101e+06	
         R10	   2019	    76.726	   14.2426	       2.4	8.19257e+06	    76.743	   14.3495	       2.4	7.54303e+06	   76.8456	   14.3489	       2.4	 7.3058e+06	   76.8465	   14.2107	       2.4	8.00045e+06	   76.7345	   14.2961	       2.4	7.85981e+06	   76.7943	   14.3492	       2.4	7.42253e+06	   76.8461	   14.2798	       2.4	7.63871e+06	   76.7863	   14.2266	       2.4	8.09505e+06	
         R10	   2020	   76.6574	   13.7542	       2.4	8.89247e+06	      76.5	   13.7605	       2.4	1.01081e+07	      76.5	    13.908	       2.4	 1.0127e+07	   76.6543	   13.9014	       2.4	8.67184e+06	   76.5787	   13.7573	       2.4	9.44839e+06	      76.5	   13.8342	       2.4	1.00907e+07	   76.5771	   13.9047	       2.4	9.39133e+06	   76.6558	   13.8278	       2.4	8.75834e+06	
         R10	   2021	   76.8112	    13.911	       2.4	8.23849e+06	    76.819	   13.7586	       2.4	8.56627e+06	   76.6574	   13.7542	       2.4	9.30083e+06	   76.6543	   13.9014	       2.4	8.71111e+06	   76.8151	   13.8348	       2.4	8.39752e+06	   76.7382	   13.7564	       2.4	8.93054e+06	   76.6558	   13.8278	       2.4	8.99626e+06	   76.7327	   13.9062	       2.4	8.47468e+06	
         R10	   2022	    76.805	   14.0681	       2.4	7.98743e+06	   76.8112	    13.911	       2.4	8.52323e+06	   76.6543	   13.9014	       2.4	9.10331e+06	    76.642	   14.0285	       2.4	8.83942e+06	   76.8081	   13.9896	       2.4	8.25244e+06	   76.7327	   13.9062	       2.4	8.81105e+06	   76.6481	   13.9649	       2.4	8.95642e+06	   76.7235	   14.0483	       2.4	8.41236e+06	
         R10	   2023	   77.0045	   14.0867	       2.4	7.47595e+06	   76.9928	    13.929	       2.4	8.01467e+06	   76.8112	    13.911	       2.4	8.50159e+06	    76.805	   14.0681	       2.4	8.05078e+06	   76.9987	   14.0079	       2.4	7.73793e+06	    76.902	     13.92	       2.4	8.25592e+06	   76.8081	   13.9896	       2.4	8.27066e+06	   76.9047	   14.0774	       2.4	7.75928e+06	
         R10	   2024	   77.0892	   14.2294	       2.4	7.04042e+06	   77.2064	   14.2116	       2.4	7.01503e+06	   77.1739	   14.0792	       2.4	7.51443e+06	   77.0045	   14.0867	       2.4	7.80728e+06	   77.1478	   14.2205	       2.4	7.02656e+06	   77.1901	   14.1454	       2.4	  7.254e+06	   77.0892	    14.083	       2.4	 7.6573e+06	   77.0469	    14.158	       2.4	7.40784e+06	
         R10	   2025	   76.9361	   14.2216	       2.4	7.68202e+06	   76.9498	   14.3426	       2.4	7.16991e+06	   77.0291	   14.3524	       2.4	7.16915e+06	   77.0892	   14.2294	       2.4	7.25232e+06	   76.9429	   14.2821	       2.4	7.40827e+06	   76.9894	   14.3475	       2.4	7.16882e+06	   77.0592	   14.2909	       2.4	7.19531e+06	   77.0126	   14.2255	       2.4	7.46573e+06	
         R10	   2026	   76.6258	   14.2614	       2.4	8.95195e+06	   76.6702	    14.361	       2.4	7.66596e+06	    76.743	   14.3495	       2.4	7.46556e+06	    76.726	   14.2426	       2.4	8.28541e+06	    76.648	   14.3112	       2.4	8.30318e+06	   76.7066	   14.3553	       2.4	7.56372e+06	   76.7345	   14.2961	       2.4	7.86805e+06	   76.6759	    14.252	       2.4	 8.6181e+06	
         R10	   2027	   76.6252	    14.154	       2.4	9.06733e+06	   76.6258	   14.2614	       2.4	8.34118e+06	    76.726	   14.2426	       2.4	7.87268e+06	   76.7115	   14.1606	       2.4	8.52588e+06	   76.6255	   14.2077	       2.4	8.70052e+06	   76.6759	    14.252	       2.4	8.10679e+06	   76.7188	   14.2016	       2.4	8.19317e+06	   76.6684	   14.1573	       2.4	8.79601e+06	
         R10	   2028	    76.805	   14.0681	       2.4	8.04439e+06	    76.642	   14.0285	       2.4	9.10138e+06	   76.6252	    14.154	       2.4	8.75092e+06	   76.7115	   14.1606	       2.4	8.20823e+06	   76.7235	   14.0483	       2.4	8.57269e+06	   76.6336	   14.0913	       2.4	8.92188e+06	   76.6684	   14.1573	       2.4	8.47938e+06	   76.7583	   14.1144	       2.4	8.12419e+06	
         R10	   2029	   76.8465	   14.2107	       2.4	7.59055e+06	   76.9361	   14.2216	       2.4	7.41666e+06	   77.0045	   14.0867	       2.4	7.65745e+06	    76.805	   14.0681	       2.4	8.27681e+06	   76.8913	   14.2161	       2.4	7.50298e+06	   76.9703	   14.1541	       2.4	7.52902e+06	   76.9047	   14.0774	       2.4	7.96385e+06	   76.8257	   14.1394	       2.4	7.92411e+06	
         R10	   2030	   76.7115	   14.1606	       2.4	8.68905e+06	    76.726	   14.2426	       2.4	7.71496e+06	   76.8465	   14.2107	       2.4	7.53789e+06	    76.805	   14.0681	       2.4	8.23702e+06	   76.7188	   14.2016	       2.4	8.20004e+06	   76.7863	   14.2266	       2.4	7.62356e+06	   76.8257	   14.1394	       2.4	7.88123e+06	   76.7583	   14.1144	       2.4	8.46051e+06	
         R10	   2031	   77.0291	   14.3524	       2.4	 7.0844e+06	    77.147	   14.3542	       2.4	6.90689e+06	   77.0892	   14.2294	       2.4	7.49034e+06	   77.0881	   14.3533	       2.4	6.99289e+06	   77.1181	   14.2918	       2.4	 7.1748e+06	   77.0592	   14.2909	       2.4	7.27422e+06	       N/A	       N/A	       N/A	        N/A	       N/A	       N/A	       N/A	        N/A	
         R10	   2032	   76.6258	   14.2614	       2.4	8.89198e+06	   76.5729	   14.3725	       2.4	8.24392e+06	   76.6702	    14.361	       2.4	7.71428e+06	   76.5993	   14.3169	       2.4	8.56324e+06	   76.6215	   14.3667	       2.4	7.97756e+06	    76.648	   14.3112	       2.4	8.29497e+06	       N/A	       N/A	       N/A	        N/A	       N/A	       N/A	       N/A	        N/A	
         R10	   2033	   76.9361	   14.2216	       2.4	7.43895e+06	   77.0892	   14.2294	       2.4	7.08821e+06	   77.0045	   14.0867	       2.4	 7.8392e+06	   77.0126	   14.2255	       2.4	7.26237e+06	   77.0469	    14.158	       2.4	7.45101e+06	   76.9703	   14.1541	       2.4	7.63099e+06	       N/A	       N/A	       N/A	        N/A	       N/A	       N/A	       N/A	        N/A	
         R10	   2034	   77.7324	    13.795	       2.4	 6.7689e+06	   77.7267	      13.6	       2.4	6.86171e+06	   77.5323	      13.6	       2.4	7.09919e+06	   77.5378	    13.781	       2.4	6.88097e+06	   77.7295	   13.6975	       2.4	6.76211e+06	   77.6295	      13.6	       2.4	 6.9747e+06	   77.5351	   13.6905	       2.4	6.94312e+06	   77.6351	    13.788	       2.4	6.82048e+06	
         R10	   2035	   77.9391	   13.8087	       2.4	6.65426e+06	   77.9332	      13.6	       2.4	6.67251e+06	   77.7267	      13.6	       2.4	6.85899e+06	   77.7324	    13.795	       2.4	6.72614e+06	   77.9362	   13.7044	       2.4	6.60605e+06	     77.83	      13.6	       2.4	6.75995e+06	   77.7295	   13.6975	       2.4	 6.7393e+06	   77.8358	   13.8018	       2.4	6.68541e+06	
         R10	   2036	   78.1576	     13.82	       2.4	6.59281e+06	   78.1517	      13.6	       2.4	6.53326e+06	   77.9332	      13.6	       2.4	6.67241e+06	   77.9391	   13.8087	       2.4	6.63842e+06	   78.1546	     13.71	       2.4	6.50595e+06	   78.0424	      13.6	       2.4	 6.5957e+06	   77.9362	   13.7044	       2.4	6.59766e+06	   78.0484	   13.8144	       2.4	6.61171e+06	
         R10	   2037	   78.3867	   13.8267	       2.4	6.53772e+06	   78.3823	      13.6	       2.4	6.44817e+06	   78.1517	      13.6	       2.4	6.53285e+06	   78.1576	     13.82	       2.4	6.57065e+06	   78.3845	   13.7134	       2.4	6.43152e+06	    78.267	      13.6	       2.4	6.48335e+06	   78.1546	     13.71	       2.4	 6.4937e+06	   78.2722	   13.8234	       2.4	6.55048e+06	
         R10	   2038	    78.625	   13.8226	       2.4	6.47187e+06	    78.625	      13.6	       2.4	6.40695e+06	   78.3823	      13.6	       2.4	6.44404e+06	   78.3867	   13.8267	       2.4	6.55017e+06	    78.625	   13.7113	       2.4	6.38626e+06	   78.5037	      13.6	       2.4	6.41641e+06	   78.3845	   13.7134	       2.4	6.43518e+06	   78.5059	   13.8247	       2.4	6.50785e+06	
         R10	   2039	    78.625	   14.0385	       2.4	6.64047e+06	    78.625	   13.8226	       2.4	6.47092e+06	   78.3867	   13.8267	       2.4	6.54869e+06	   78.3908	   14.0419	       2.4	6.60898e+06	    78.625	   13.9306	       2.4	6.55417e+06	   78.5059	   13.8247	       2.4	6.50419e+06	   78.3888	   13.9343	       2.4	6.57633e+06	   78.5079	   14.0402	       2.4	6.61576e+06	
         R10	   2040	   78.4121	   14.2448	       2.4	6.59586e+06	    78.625	   14.2476	       2.4	6.48379e+06	    78.625	   14.0385	       2.4	6.67227e+06	   78.3908	   14.0419	       2.4	6.62843e+06	   78.5185	   14.2462	       2.4	6.53719e+06	    78.625	   14.1431	       2.4	6.55515e+06	   78.5079	   14.0402	       2.4	6.63701e+06	   78.4014	   14.1434	       2.4	 6.5896e+06	
         R10	   2041	   78.4076	     14.45	       2.4	6.76409e+06	    78.625	     14.45	       2.4	6.75955e+06	    78.625	   14.2476	       2.4	6.50154e+06	   78.4121	   14.2448	       2.4	6.60095e+06	   78.5163	     14.45	       2.4	6.75931e+06	    78.625	   14.3488	       2.4	6.54901e+06	   78.5185	   14.2462	       2.4	6.54914e+06	   78.4099	   14.3474	       2.4	 6.6014e+06	
         R10	   2042	   78.2069	     14.45	       2.4	6.74121e+06	   78.4076	     14.45	       2.4	 6.7473e+06	   78.4121	   14.2448	       2.4	6.59238e+06	   78.2039	   14.2448	       2.4	6.57361e+06	   78.3073	     14.45	       2.4	6.74242e+06	   78.4099	   14.3474	       2.4	6.58677e+06	    78.308	   14.2448	       2.4	6.58289e+06	   78.2054	   14.3474	       2.4	6.57825e+06	
         R10	   2043	   78.0317	   14.2621	       2.4	6.60405e+06	   78.0226	     14.45	       2.4	6.74388e+06	   78.2069	     14.45	       2.4	6.74666e+06	   78.2039	   14.2448	       2.4	6.69431e+06	   78.0272	    14.356	       2.4	6.61108e+06	   78.1147	     14.45	       2.4	6.74279e+06	   78.2054	   14.3474	       2.4	6.63583e+06	   78.1178	   14.2534	       2.4	6.64845e+06	
         R10	   2044	    77.842	   14.2515	       2.4	6.68057e+06	    77.855	     14.45	       2.4	6.75343e+06	   78.0226	     14.45	       2.4	6.74851e+06	   78.0317	   14.2621	       2.4	6.55659e+06	   77.8485	   14.3507	       2.4	 6.6482e+06	   77.9388	     14.45	       2.4	6.74897e+06	   78.0272	    14.356	       2.4	6.58381e+06	   77.9369	   14.2568	       2.4	6.61837e+06	
         R10	   2045	   77.7065	   14.3232	       2.4	7.06271e+06	   77.7039	     14.45	       2.4	6.61496e+06	    77.855	     14.45	       2.4	6.69701e+06	    77.842	   14.2515	       2.4	6.78863e+06	   77.7052	   14.3866	       2.4	6.80316e+06	   77.7794	     14.45	       2.4	 6.6555e+06	   77.8485	   14.3507	       2.4	6.66783e+06	   77.7742	   14.2873	       2.4	6.91405e+06	
         R10	   2046	   77.5719	   14.3037	       2.4	6.79561e+06	   77.5694	     14.45	       2.4	6.82906e+06	   77.7039	     14.45	       2.4	6.78274e+06	   77.7065	   14.3232	       2.4	6.59334e+06	   77.5706	   14.3769	       2.4	6.76705e+06	   77.6366	     14.45	       2.4	 6.8027e+06	   77.7052	   14.3866	       2.4	6.64049e+06	   77.6392	   14.3134	       2.4	  6.692e+06	
         R10	   2047	   77.4506	   14.3462	       2.4	7.10447e+06	   77.4514	     14.45	       2.4	 6.6458e+06	   77.5694	     14.45	       2.4	6.72245e+06	   77.5719	   14.3037	       2.4	6.93889e+06	    77.451	   14.3981	       2.4	6.83939e+06	   77.5104	     14.45	       2.4	6.68397e+06	   77.5706	   14.3769	       2.4	6.78338e+06	   77.5112	   14.3249	       2.4	7.01574e+06	
         R10	   2048	     77.35	   14.3478	       2.4	7.08518e+06	     77.35	     14.45	       2.4	6.80297e+06	   77.4514	     14.45	       2.4	6.75294e+06	   77.4506	   14.3462	       2.4	7.01364e+06	     77.35	   14.3989	       2.4	6.90378e+06	   77.4007	     14.45	       2.4	6.77649e+06	    77.451	   14.3981	       2.4	6.84013e+06	   77.4003	    14.347	       2.4	7.04897e+06	
         R10	   2049	   77.4742	   14.2171	       2.4	7.06079e+06	     77.35	   14.2298	       2.4	7.10877e+06	     77.35	   14.3478	       2.4	6.76542e+06	   77.4506	   14.3462	       2.4	6.68169e+06	   77.4121	   14.2234	       2.4	7.08262e+06	     77.35	   14.2888	       2.4	6.91746e+06	   77.4003	    14.347	       2.4	6.72244e+06	   77.4624	   14.2816	       2.4	6.84433e+06	
         R10	   2050	   77.5014	   14.0957	       2.4	 7.0296e+06	     77.35	    14.096	       2.4	7.20447e+06	     77.35	   14.2298	       2.4	6.83171e+06	   77.4742	   14.2171	       2.4	6.77331e+06	   77.4257	   14.0958	       2.4	7.11566e+06	     77.35	   14.1629	       2.4	7.01042e+06	   77.4121	   14.2234	       2.4	6.80095e+06	   77.4878	   14.1564	       2.4	 6.8918e+06	
         R10	   2051	   77.5228	    13.943	       2.4	7.13452e+06	     77.35	   13.9464	       2.4	7.37181e+06	     77.35	    14.096	       2.4	7.02544e+06	   77.5014	   14.0957	       2.4	6.91961e+06	   77.4364	   13.9447	       2.4	7.24752e+06	     77.35	   14.0212	       2.4	7.19183e+06	   77.4257	   14.0958	       2.4	6.97162e+06	   77.5121	   14.0193	       2.4	7.02567e+06	
         R10	   2052	   77.5378	    13.781	       2.4	6.88024e+06	   77.5323	      13.6	       2.4	 7.1095e+06	     77.35	      13.6	       2.4	7.37219e+06	     77.35	   13.7811	       2.4	7.11834e+06	   77.5351	   13.6905	       2.4	6.94827e+06	   77.4412	      13.6	       2.4	7.23629e+06	     77.35	   13.6906	       2.4	7.19792e+06	   77.4439	    13.781	       2.4	6.99481e+06	
         R10	   2053	   77.9322	    14.026	       2.4	6.70934e+06	   77.9391	   13.8087	       2.4	6.70819e+06	   77.7324	    13.795	       2.4	6.81836e+06	   77.7216	   13.9815	       2.4	6.95253e+06	   77.9357	   13.9173	       2.4	6.70263e+06	   77.8358	   13.8018	       2.4	6.75715e+06	    77.727	   13.8882	       2.4	6.87624e+06	   77.8269	   14.0037	       2.4	6.82682e+06	
         R10	   2054	   78.1608	   14.0342	       2.4	6.65747e+06	   78.1576	     13.82	       2.4	6.63288e+06	   77.9391	   13.8087	       2.4	6.70318e+06	   77.9322	    14.026	       2.4	6.79465e+06	   78.1592	   13.9271	       2.4	6.63963e+06	   78.0484	   13.8144	       2.4	6.66298e+06	   77.9357	   13.9173	       2.4	6.74312e+06	   78.0465	   14.0301	       2.4	 6.7199e+06	
         R10	   2055	   78.3908	   14.0419	       2.4	6.65572e+06	   78.3867	   13.8267	       2.4	6.53765e+06	   78.1576	     13.82	       2.4	6.60354e+06	   78.1608	   14.0342	       2.4	6.67719e+06	   78.3888	   13.9343	       2.4	6.59252e+06	   78.2722	   13.8234	       2.4	6.56519e+06	   78.1592	   13.9271	       2.4	  6.637e+06	   78.2758	   14.0381	       2.4	 6.6591e+06	
         R10	   2056	   78.2039	   14.2448	       2.4	6.54603e+06	   78.4121	   14.2448	       2.4	6.58135e+06	   78.3908	   14.0419	       2.4	6.62671e+06	   78.1608	   14.0342	       2.4	6.71459e+06	    78.308	   14.2448	       2.4	6.56283e+06	   78.4014	   14.1434	       2.4	6.59348e+06	   78.2758	   14.0381	       2.4	6.65897e+06	   78.1823	   14.1395	       2.4	6.60454e+06	
         R10	   2057	   78.0317	   14.2621	       2.4	6.54246e+06	   78.2039	   14.2448	       2.4	6.62511e+06	   78.1608	   14.0342	       2.4	 6.6676e+06	   77.9322	    14.026	       2.4	6.83596e+06	   78.1178	   14.2534	       2.4	 6.5832e+06	   78.1823	   14.1395	       2.4	6.63697e+06	   78.0465	   14.0301	       2.4	6.74509e+06	    77.982	    14.144	       2.4	6.66247e+06	
         R10	   2058	   77.6666	   14.1227	       2.4	 6.6875e+06	   77.5014	   14.0957	       2.4	7.04324e+06	   77.4742	   14.2171	       2.4	7.14674e+06	   77.5719	   14.3037	       2.4	6.64326e+06	    77.584	   14.1092	       2.4	6.86302e+06	   77.4878	   14.1564	       2.4	 7.0829e+06	    77.523	   14.2604	       2.4	6.89245e+06	   77.6192	   14.2132	       2.4	6.65313e+06	
         R10	   2059	   77.5378	    13.781	       2.4	7.09992e+06	     77.35	   13.7811	       2.4	 7.3847e+06	     77.35	   13.9464	       2.4	7.14282e+06	   77.5228	    13.943	       2.4	6.98029e+06	   77.4439	    13.781	       2.4	7.23766e+06	     77.35	   13.8638	       2.4	7.25227e+06	   77.4364	   13.9447	       2.4	7.05669e+06	   77.5303	    13.862	       2.4	 7.0279e+06	
         R10	   2060	   77.7216	   13.9815	       2.4	6.89657e+06	   77.7324	    13.795	       2.4	6.85471e+06	   77.5378	    13.781	       2.4	7.03917e+06	   77.5228	    13.943	       2.4	6.97935e+06	    77.727	   13.8882	       2.4	6.86568e+06	   77.6351	    13.788	       2.4	6.94025e+06	   77.5303	    13.862	       2.4	6.99778e+06	   77.6222	   13.9622	       2.4	6.93266e+06	
         R10	   2061	   77.7216	   13.9815	       2.4	6.90638e+06	   77.5228	    13.943	       2.4	7.03567e+06	   77.5014	   14.0957	       2.4	7.04896e+06	   77.6666	   14.1227	       2.4	6.69238e+06	   77.6222	   13.9622	       2.4	6.96375e+06	   77.5121	   14.0193	       2.4	7.03675e+06	    77.584	   14.1092	       2.4	6.86852e+06	   77.6941	   14.0521	       2.4	6.79761e+06	
         R10	   2062	    77.842	   14.2515	       2.4	6.51365e+06	   77.9322	    14.026	       2.4	6.66162e+06	   77.7216	   13.9815	       2.4	6.92447e+06	   77.6666	   14.1227	       2.4	7.16342e+06	   77.8871	   14.1387	       2.4	6.57651e+06	   77.8269	   14.0037	       2.4	6.78727e+06	   77.6941	   14.0521	       2.4	7.03922e+06	   77.7543	   14.1871	       2.4	 6.8333e+06	
         R10	   2063	    77.842	   14.2515	       2.4	6.69164e+06	   78.0317	   14.2621	       2.4	6.56781e+06	   77.9322	    14.026	       2.4	6.77603e+06	   77.9369	   14.2568	       2.4	6.62969e+06	    77.982	    14.144	       2.4	6.66273e+06	   77.8871	   14.1387	       2.4	6.72553e+06	       N/A	       N/A	       N/A	        N/A	       N/A	       N/A	       N/A	        N/A	
         R10	   2064	   77.4742	   14.2171	       2.4	6.99745e+06	   77.4506	   14.3462	       2.4	6.55953e+06	   77.5719	   14.3037	       2.4	6.74387e+06	   77.4624	   14.2816	       2.4	6.74964e+06	   77.5112	   14.3249	       2.4	 6.6473e+06	    77.523	   14.2604	       2.4	6.85297e+06	       N/A	       N/A	       N/A	        N/A	       N/A	       N/A	       N/A	        N/A	
         R10	   2065	   77.7065	   14.3232	       2.4	6.51174e+06	    77.842	   14.2515	       2.4	 6.5782e+06	   77.6666	   14.1227	       2.4	 6.9835e+06	   77.7742	   14.2873	       2.4	6.54076e+06	   77.7543	   14.1871	       2.4	6.76576e+06	   77.6865	    14.223	       2.4	6.71826e+06	       N/A	       N/A	       N/A	        N/A	       N/A	       N/A	       N/A	        N/A	
         R10	   2066	   77.5719	   14.3037	       2.4	6.75669e+06	   77.7065	   14.3232	       2.4	6.47518e+06	   77.6666	   14.1227	       2.4	7.08483e+06	   77.6392	   14.3134	       2.4	6.61439e+06	   77.6865	    14.223	       2.4	6.76184e+06	   77.6192	   14.2132	       2.4	6.91055e+06	       N/A	       N/A	       N/A	        N/A	       N/A	       N/A	       N/A	        N/A	
         R10	   2067	   77.5823	   14.5733	       2.4	6.82116e+06	   77.5694	     14.45	       2.4	7.34232e+06	   77.4514	     14.45	       2.4	7.50651e+06	   77.4617	   14.5595	       2.4	6.94387e+06	   77.5758	   14.5117	       2.4	7.04468e+06	   77.5104	     14.45	       2.4	7.42133e+06	   77.4566	   14.5048	       2.4	7.19444e+06	    77.522	   14.5664	       2.4	6.87852e+06	
         R10	   2068	   77.7159	   14.5925	       2.4	 6.7524e+06	   77.7039	     14.45	       2.4	7.17786e+06	   77.5694	     14.45	       2.4	7.33987e+06	   77.5823	   14.5733	       2.4	6.86351e+06	   77.7099	   14.5213	       2.4	6.92226e+06	   77.6366	     14.45	       2.4	7.25501e+06	   77.5758	   14.5117	       2.4	7.06759e+06	   77.6491	   14.5829	       2.4	 6.8012e+06	
         R10	   2069	   77.8637	   14.6072	       2.4	 6.7083e+06	    77.855	     14.45	       2.4	7.05992e+06	   77.7039	     14.45	       2.4	7.18465e+06	   77.7159	   14.5925	       2.4	 6.7985e+06	   77.8593	   14.5286	       2.4	6.83269e+06	   77.7794	     14.45	       2.4	7.11821e+06	   77.7099	   14.5213	       2.4	 6.9528e+06	   77.7898	   14.5999	       2.4	6.74641e+06	
         R10	   2070	   78.0357	   14.6273	       2.4	6.71036e+06	   78.0226	     14.45	       2.4	6.94649e+06	    77.855	     14.45	       2.4	7.05767e+06	   77.8637	   14.6072	       2.4	6.75861e+06	   78.0292	   14.5387	       2.4	6.77506e+06	   77.9388	     14.45	       2.4	6.99749e+06	   77.8593	   14.5286	       2.4	6.86112e+06	   77.9497	   14.6173	       2.4	6.72467e+06	
         R10	   2071	   78.2183	   14.6491	       2.4	6.67524e+06	   78.2069	     14.45	       2.4	6.87487e+06	   78.0226	     14.45	       2.4	6.95259e+06	   78.0357	   14.6273	       2.4	6.72519e+06	   78.2126	   14.5496	       2.4	6.70692e+06	   78.1147	     14.45	       2.4	6.90858e+06	   78.0292	   14.5387	       2.4	 6.7892e+06	    78.127	   14.6382	       2.4	6.68544e+06	
         R10	   2072	   78.4173	   14.6624	       2.4	6.68261e+06	   78.4076	     14.45	       2.4	6.82576e+06	   78.2069	     14.45	       2.4	6.87946e+06	   78.2183	   14.6491	       2.4	6.74232e+06	   78.4125	   14.5562	       2.4	6.68129e+06	   78.3073	     14.45	       2.4	6.84731e+06	   78.2126	   14.5496	       2.4	6.74661e+06	   78.3178	   14.6557	       2.4	6.69689e+06	
         R10	   2073	    78.625	   14.6726	       2.4	6.72791e+06	    78.625	     14.45	       2.4	6.79887e+06	   78.4076	     14.45	       2.4	6.82587e+06	   78.4173	   14.6624	       2.4	6.71336e+06	    78.625	   14.5613	       2.4	6.68675e+06	   78.5163	     14.45	       2.4	6.80625e+06	   78.4125	   14.5562	       2.4	6.69871e+06	   78.5211	   14.6675	       2.4	6.70034e+06	
         R10	   2074	    78.625	   14.8885	       2.4	6.82715e+06	    78.625	   14.6726	       2.4	6.72478e+06	   78.4173	   14.6624	       2.4	6.72241e+06	   78.4138	   14.8738	       2.4	 6.8904e+06	    78.625	   14.7806	       2.4	6.76686e+06	   78.5211	   14.6675	       2.4	6.69781e+06	   78.4155	   14.7681	       2.4	 6.7913e+06	   78.5194	   14.8811	       2.4	6.85764e+06	
         R10	   2075	   78.4205	   15.0834	       2.4	6.86579e+06	    78.625	   15.0976	       2.4	6.97812e+06	    78.625	   14.8885	       2.4	6.83516e+06	   78.4138	   14.8738	       2.4	6.87847e+06	   78.5228	   15.0905	       2.4	 6.9071e+06	    78.625	   14.9931	       2.4	6.89567e+06	   78.5194	   14.8811	       2.4	6.85438e+06	   78.4172	   14.9786	       2.4	 6.8676e+06	
         R10	   2076	   78.4205	      15.3	       2.4	7.29587e+06	    78.625	      15.3	       2.4	6.90709e+06	    78.625	   15.0976	       2.4	6.97736e+06	   78.4205	   15.0834	       2.4	6.87679e+06	   78.5228	      15.3	       2.4	7.08064e+06	    78.625	   15.1988	       2.4	6.89173e+06	   78.5228	   15.0905	       2.4	6.90717e+06	   78.4205	   15.1917	       2.4	7.02431e+06	
         R10	   2077	   78.2317	      15.3	       2.4	7.24934e+06	   78.4205	      15.3	       2.4	6.96838e+06	   78.4205	   15.0834	       2.4	6.96034e+06	   78.2398	   15.0914	       2.4	6.93682e+06	   78.3261	      15.3	       2.4	7.09035e+06	   78.4205	   15.1917	       2.4	6.90165e+06	   78.3301	   15.0874	       2.4	6.93711e+06	   78.2357	   15.1957	       2.4	7.03571e+06	
         R10	   2078	   78.0696	   15.1218	       2.4	6.85869e+06	   78.0586	      15.3	       2.4	7.23759e+06	   78.2317	      15.3	       2.4	7.01435e+06	   78.2398	   15.0914	       2.4	6.94132e+06	   78.0641	   15.2109	       2.4	 7.0028e+06	   78.1452	      15.3	       2.4	7.11374e+06	   78.2357	   15.1957	       2.4	 6.9196e+06	   78.1547	   15.1066	       2.4	6.89188e+06	
         R10	   2079	   77.9102	   15.1444	       2.4	6.92925e+06	   77.9013	      15.3	       2.4	7.19009e+06	   78.0586	      15.3	       2.4	7.05544e+06	   78.0696	   15.1218	       2.4	6.95331e+06	   77.9057	   15.2222	       2.4	7.02433e+06	     77.98	      15.3	       2.4	7.11604e+06	   78.0641	   15.2109	       2.4	 6.9594e+06	   77.9899	   15.1331	       2.4	6.93141e+06	
         R10	   2080	   77.7716	   15.1587	       2.4	6.87918e+06	   77.7596	      15.3	       2.4	7.20233e+06	   77.9013	      15.3	       2.4	7.07318e+06	   77.9102	   15.1444	       2.4	6.91747e+06	   77.7656	   15.2294	       2.4	7.00759e+06	   77.8304	      15.3	       2.4	7.12957e+06	   77.9057	   15.2222	       2.4	6.95935e+06	   77.8409	   15.1516	       2.4	6.89592e+06	
         R10	   2081	   77.6539	   15.1867	       2.4	6.93698e+06	   77.6336	      15.3	       2.4	 7.2055e+06	   77.7596	      15.3	       2.4	7.09191e+06	   77.7716	   15.1587	       2.4	 6.9109e+06	   77.6438	   15.2434	       2.4	7.04952e+06	   77.6966	      15.3	       2.4	7.14519e+06	   77.7656	   15.2294	       2.4	6.96798e+06	   77.7128	   15.1727	       2.4	6.91804e+06	
         R10	   2082	   77.5287	   15.1863	       2.4	6.91388e+06	   77.5234	      15.3	       2.4	7.17124e+06	   77.6336	      15.3	       2.4	7.12805e+06	   77.6539	   15.1867	       2.4	6.90142e+06	    77.526	   15.2432	       2.4	7.02261e+06	   77.5785	      15.3	       2.4	7.14644e+06	   77.6438	   15.2434	       2.4	6.99366e+06	   77.5913	   15.1865	       2.4	6.90609e+06	
         R10	   2083	   77.4291	   15.2228	       2.4	6.91771e+06	   77.4288	      15.3	       2.4	7.20101e+06	   77.5234	      15.3	       2.4	  7.122e+06	   77.5287	   15.1863	       2.4	 6.9736e+06	    77.429	   15.2614	       2.4	7.04868e+06	   77.4761	      15.3	       2.4	7.16002e+06	    77.526	   15.2432	       2.4	 7.0271e+06	   77.4789	   15.2046	       2.4	6.94114e+06	
         R10	   2084	     77.35	    15.219	       2.4	6.95997e+06	     77.35	      15.3	       2.4	7.16966e+06	   77.4288	      15.3	       2.4	7.16712e+06	   77.4291	   15.2228	       2.4	6.95666e+06	     77.35	   15.2595	       2.4	7.05252e+06	   77.3894	      15.3	       2.4	7.16679e+06	    77.429	   15.2614	       2.4	 7.0513e+06	   77.3895	   15.2209	       2.4	6.95764e+06	
         R10	   2085	     77.35	   15.1346	       2.4	6.85046e+06	     77.35	    15.219	       2.4	6.95296e+06	   77.4291	   15.2228	       2.4	6.94285e+06	   77.4489	   15.1257	       2.4	6.87292e+06	     77.35	   15.1768	       2.4	6.89363e+06	   77.3895	   15.2209	       2.4	6.94704e+06	    77.439	   15.1742	       2.4	6.89605e+06	   77.3994	   15.1301	       2.4	6.85963e+06	
         R10	   2086	   77.4697	    15.051	       2.4	6.81849e+06	     77.35	   15.0468	       2.4	6.82363e+06	     77.35	   15.1346	       2.4	6.82083e+06	   77.4489	   15.1257	       2.4	6.87694e+06	   77.4099	   15.0489	       2.4	6.81874e+06	     77.35	   15.0907	       2.4	6.81724e+06	   77.3994	   15.1301	       2.4	 6.8479e+06	   77.4593	   15.0883	       2.4	6.84355e+06	
         R10	   2087	   77.4662	   14.9585	       2.4	6.87198e+06	     77.35	   14.9557	       2.4	6.86063e+06	     77.35	   15.0468	       2.4	 6.8197e+06	   77.4697	    15.051	       2.4	 6.8291e+06	   77.4081	   14.9571	       2.4	6.86341e+06	     77.35	   15.0013	       2.4	6.83737e+06	   77.4099	   15.0489	       2.4	6.82247e+06	    77.468	   15.0047	       2.4	6.84815e+06	
         R10	   2088	   77.4524	   14.8633	       2.4	6.87002e+06	     77.35	   14.8613	       2.4	6.94024e+06	     77.35	   14.9557	       2.4	6.83539e+06	   77.4662	   14.9585	       2.4	6.84932e+06	   77.4012	   14.8623	       2.4	6.90242e+06	     77.35	   14.9085	       2.4	6.88645e+06	   77.4081	   14.9571	       2.4	 6.8395e+06	   77.4593	   14.9109	       2.4	6.85824e+06	
         R10	   2089	   77.4446	   14.7637	       2.4	6.94914e+06	     77.35	   14.7635	       2.4	7.02257e+06	     77.35	   14.8613	       2.4	6.88969e+06	   77.4524	   14.8633	       2.4	6.82307e+06	   77.3973	   14.7636	       2.4	6.98289e+06	     77.35	   14.8124	       2.4	6.95385e+06	   77.4012	   14.8623	       2.4	6.85361e+06	   77.4485	   14.8135	       2.4	6.88389e+06	
         R10	   2090	   77.4534	   14.6617	       2.4	7.01886e+06	     77.35	   14.6624	       2.4	7.12212e+06	     77.35	   14.7635	       2.4	6.91423e+06	   77.4446	   14.7637	       2.4	6.86998e+06	   77.4017	    14.662	       2.4	7.06793e+06	     77.35	   14.7129	       2.4	7.01242e+06	   77.3973	   14.7636	       2.4	6.88968e+06	    77.449	   14.7127	       2.4	6.93843e+06	
         R10	   2091	   77.4617	   14.5595	       2.4	6.87289e+06	   77.4514	     14.45	       2.4	 7.5194e+06	     77.35	     14.45	       2.4	7.67923e+06	     77.35	   14.5579	       2.4	6.99629e+06	   77.4566	   14.5048	       2.4	7.16428e+06	   77.4007	     14.45	       2.4	7.59717e+06	     77.35	   14.5039	       2.4	 7.3087e+06	   77.4059	   14.5587	       2.4	6.93134e+06	
         R10	   2092	   77.6869	   14.7465	       2.4	6.83691e+06	   77.7159	   14.5925	       2.4	6.77281e+06	   77.5823	   14.5733	       2.4	 6.9498e+06	   77.5664	   14.6825	       2.4	6.91188e+06	   77.7014	   14.6695	       2.4	6.79161e+06	   77.6491	   14.5829	       2.4	6.84875e+06	   77.5743	   14.6279	       2.4	6.90605e+06	   77.6266	   14.7145	       2.4	6.87237e+06	
         R10	   2093	   77.8458	   14.7537	       2.4	6.76901e+06	   77.8637	   14.6072	       2.4	6.78697e+06	   77.7159	   14.5925	       2.4	6.91633e+06	   77.6869	   14.7465	       2.4	6.84516e+06	   77.8548	   14.6805	       2.4	6.76177e+06	   77.7898	   14.5999	       2.4	6.84501e+06	   77.7014	   14.6695	       2.4	6.86217e+06	   77.7664	   14.7501	       2.4	6.80296e+06	
         R10	   2094	   78.0041	   14.7897	       2.4	6.78922e+06	   78.0357	   14.6273	       2.4	6.73481e+06	   77.8637	   14.6072	       2.4	6.82505e+06	   77.8458	   14.7537	       2.4	6.82726e+06	   78.0199	   14.7085	       2.4	6.75187e+06	   77.9497	   14.6173	       2.4	 6.7667e+06	   77.8548	   14.6805	       2.4	6.80288e+06	    77.925	   14.7717	       2.4	6.80463e+06	
         R10	   2095	   78.1953	   14.8716	       2.4	 6.8574e+06	   78.2183	   14.6491	       2.4	6.65105e+06	   78.0357	   14.6273	       2.4	6.71858e+06	   78.0041	   14.7897	       2.4	6.89526e+06	   78.2068	   14.7603	       2.4	6.74371e+06	    78.127	   14.6382	       2.4	 6.6655e+06	   78.0199	   14.7085	       2.4	6.78745e+06	   78.0997	   14.8306	       2.4	6.87476e+06	
         R10	   2096	   78.4138	   14.8738	       2.4	6.84136e+06	   78.4173	   14.6624	       2.4	 6.6903e+06	   78.2183	   14.6491	       2.4	6.77314e+06	   78.1953	   14.8716	       2.4	6.88452e+06	   78.4155	   14.7681	       2.4	6.75715e+06	   78.3178	   14.6557	       2.4	6.71507e+06	   78.2068	   14.7603	       2.4	6.81167e+06	   78.3046	   14.8727	       2.4	6.86017e+06	
         R10	   2097	   78.2398	   15.0914	       2.4	6.92268e+06	   78.4205	   15.0834	       2.4	6.93563e+06	   78.4138	   14.8738	       2.4	 6.8564e+06	   78.1953	   14.8716	       2.4	6.88482e+06	   78.3301	   15.0874	       2.4	6.91646e+06	   78.4172	   14.9786	       2.4	6.88613e+06	   78.3046	   14.8727	       2.4	6.86867e+06	   78.2176	   14.9815	       2.4	6.90061e+06	
         R10	   2098	   78.0552	   14.9869	       2.4	7.13946e+06	   78.0696	   15.1218	       2.4	6.78046e+06	   78.2398	   15.0914	       2.4	6.89979e+06	   78.1953	   14.8716	       2.4	6.71159e+06	   78.0624	   15.0543	       2.4	6.95515e+06	   78.1547	   15.1066	       2.4	6.83256e+06	   78.2176	   14.9815	       2.4	6.79813e+06	   78.1253	   14.9292	       2.4	 6.9226e+06	
         R10	   2099	    77.915	   14.9645	       2.4	 6.9272e+06	   77.9102	   15.1444	       2.4	6.89724e+06	   78.0696	   15.1218	       2.4	6.95698e+06	   78.0552	   14.9869	       2.4	6.85407e+06	   77.9126	   15.0545	       2.4	6.90098e+06	   77.9899	   15.1331	       2.4	6.91973e+06	   78.0624	   15.0543	       2.4	6.89176e+06	   77.9851	   14.9757	       2.4	6.89019e+06	
         R10	   2100	    77.746	   15.0322	       2.4	7.00497e+06	   77.7716	   15.1587	       2.4	 6.8581e+06	   77.9102	   15.1444	       2.4	6.83702e+06	    77.915	   14.9645	       2.4	6.83068e+06	   77.7588	   15.0955	       2.4	6.92215e+06	   77.8409	   15.1516	       2.4	6.84243e+06	   77.9126	   15.0545	       2.4	6.82057e+06	   77.8305	   14.9984	       2.4	6.91369e+06	
         R10	   2101	   77.6009	   15.0587	       2.4	6.87565e+06	   77.6539	   15.1867	       2.4	6.93379e+06	   77.7716	   15.1587	       2.4	6.92749e+06	    77.746	   15.0322	       2.4	6.87665e+06	   77.6274	   15.1227	       2.4	6.89515e+06	   77.7128	   15.1727	       2.4	6.92708e+06	   77.7588	   15.0955	       2.4	 6.8884e+06	   77.6734	   15.0454	       2.4	6.87422e+06	
         R10	   2102	   77.5666	   14.8371	       2.4	6.80612e+06	   77.4524	   14.8633	       2.4	6.95222e+06	   77.4662	   14.9585	       2.4	 6.8201e+06	   77.5896	   14.9381	       2.4	6.90215e+06	   77.5095	   14.8502	       2.4	6.87729e+06	   77.4593	   14.9109	       2.4	6.88538e+06	   77.5279	   14.9483	       2.4	6.85871e+06	   77.5781	   14.8876	       2.4	6.85298e+06	
         R10	   2103	   77.4617	   14.5595	       2.4	 7.1457e+06	     77.35	   14.5579	       2.4	7.32582e+06	     77.35	   14.6624	       2.4	6.93699e+06	   77.4534	   14.6617	       2.4	6.86475e+06	   77.4059	   14.5587	       2.4	7.23225e+06	     77.35	   14.6101	       2.4	7.11595e+06	   77.4017	    14.662	       2.4	6.89853e+06	   77.4575	   14.6106	       2.4	6.99022e+06	
         R10	   2104	   77.5664	   14.6825	       2.4	6.84469e+06	   77.5823	   14.5733	       2.4	6.99234e+06	   77.4617	   14.5595	       2.4	7.16308e+06	   77.4534	   14.6617	       2.4	 6.9071e+06	   77.5743	   14.6279	       2.4	6.89858e+06	    77.522	   14.5664	       2.4	7.07385e+06	   77.4575	   14.6106	       2.4	7.01747e+06	   77.5099	   14.6721	       2.4	6.87139e+06	
         R10	   2105	    77.915	   14.9645	       2.4	6.94515e+06	   78.0552	   14.9869	       2.4	6.86634e+06	   78.1953	   14.8716	       2.4	6.79085e+06	   78.0041	   14.7897	       2.4	6.82899e+06	   77.9851	   14.9757	       2.4	6.90319e+06	   78.1253	   14.9292	       2.4	6.82859e+06	   78.0997	   14.8306	       2.4	6.80717e+06	   77.9596	   14.8771	       2.4	6.88688e+06	
         R10	   2106	    77.818	    14.869	       2.4	7.09059e+06	    77.915	   14.9645	       2.4	6.77689e+06	   78.0041	   14.7897	       2.4	6.73321e+06	   77.8458	   14.7537	       2.4	6.75426e+06	   77.8665	   14.9168	       2.4	6.93349e+06	   77.9596	   14.8771	       2.4	6.75493e+06	    77.925	   14.7717	       2.4	6.73864e+06	   77.8319	   14.8113	       2.4	 6.9188e+06	
         R10	   2107	   77.7082	   14.9019	       2.4	6.92781e+06	    77.746	   15.0322	       2.4	 6.9133e+06	    77.915	   14.9645	       2.4	6.74321e+06	    77.818	    14.869	       2.4	6.89324e+06	   77.7271	   14.9671	       2.4	6.91729e+06	   77.8305	   14.9984	       2.4	 6.8255e+06	   77.8665	   14.9168	       2.4	6.81368e+06	   77.7631	   14.8854	       2.4	 6.9101e+06	
         R10	   2108	   77.4697	    15.051	       2.4	6.86994e+06	   77.4489	   15.1257	       2.4	6.89439e+06	   77.5287	   15.1863	       2.4	6.88275e+06	   77.6009	   15.0587	       2.4	6.83016e+06	   77.4593	   15.0883	       2.4	6.87699e+06	   77.4888	    15.156	       2.4	6.88599e+06	   77.5648	   15.1225	       2.4	6.84881e+06	   77.5353	   15.0548	       2.4	6.84918e+06	
         R10	   2109	   77.5896	   14.9381	       2.4	6.89414e+06	   77.4662	   14.9585	       2.4	6.86746e+06	   77.4697	    15.051	       2.4	6.84607e+06	   77.6009	   15.0587	       2.4	6.83396e+06	   77.5279	   14.9483	       2.4	6.87701e+06	    77.468	   15.0047	       2.4	6.85291e+06	   77.5353	   15.0548	       2.4	6.83902e+06	   77.5953	   14.9984	       2.4	6.86192e+06	
         R10	   2110	   77.7082	   14.9019	       2.4	6.87752e+06	    77.818	    14.869	       2.4	6.71305e+06	   77.8458	   14.7537	       2.4	6.86189e+06	   77.6869	   14.7465	       2.4	6.91435e+06	   77.7631	   14.8854	       2.4	6.79272e+06	   77.8319	   14.8113	       2.4	6.78265e+06	   77.7664	   14.7501	       2.4	6.88601e+06	   77.6976	   14.8242	       2.4	6.89189e+06	
         R10	   2111	   77.5896	   14.9381	       2.4	6.80461e+06	   77.6009	   15.0587	       2.4	 6.8771e+06	    77.746	   15.0322	       2.4	6.81355e+06	   77.7082	   14.9019	       2.4	6.90781e+06	   77.5953	   14.9984	       2.4	6.83714e+06	   77.6734	   15.0454	       2.4	6.84346e+06	   77.7271	   14.9671	       2.4	6.85825e+06	   77.6489	     14.92	       2.4	6.85442e+06	
         R10	   2112	   77.5666	   14.8371	       2.4	7.03537e+06	   77.5896	   14.9381	       2.4	6.82541e+06	   77.7082	   14.9019	       2.4	6.81434e+06	   77.6869	   14.7465	       2.4	6.71525e+06	   77.5781	   14.8876	       2.4	 6.9303e+06	   77.6489	     14.92	       2.4	6.81623e+06	   77.6976	   14.8242	       2.4	6.75901e+06	   77.6267	   14.7918	       2.4	6.87515e+06	
         R10	   2113	   77.5664	   14.6825	       2.4	6.92159e+06	   77.4534	   14.6617	       2.4	6.98557e+06	   77.4446	   14.7637	       2.4	6.92361e+06	   77.5316	   14.7645	       2.4	6.78434e+06	   77.5099	   14.6721	       2.4	6.95196e+06	    77.449	   14.7127	       2.4	6.94951e+06	   77.4881	   14.7641	       2.4	6.84914e+06	    77.549	   14.7235	       2.4	6.84191e+06	
         R10	   2114	   77.5666	   14.8371	       2.4	6.95289e+06	   77.6869	   14.7465	       2.4	6.74556e+06	   77.5664	   14.6825	       2.4	6.73104e+06	   77.5316	   14.7645	       2.4	7.11456e+06	   77.6267	   14.7918	       2.4	6.84851e+06	   77.6266	   14.7145	       2.4	6.73249e+06	    77.549	   14.7235	       2.4	6.91839e+06	   77.5491	   14.8008	       2.4	7.03241e+06	
         R10	   2115	   77.4446	   14.7637	       2.4	6.96629e+06	   77.4524	   14.8633	       2.4	6.88501e+06	   77.5666	   14.8371	       2.4	6.81708e+06	   77.5316	   14.7645	       2.4	6.79519e+06	   77.4485	   14.8135	       2.4	6.92302e+06	   77.5095	   14.8502	       2.4	6.85037e+06	   77.5491	   14.8008	       2.4	6.80419e+06	   77.4881	   14.7641	       2.4	6.87825e+06	
         R10	   2116	   77.4489	   15.1257	       2.4	6.91064e+06	   77.4291	   15.2228	       2.4	6.89125e+06	   77.5287	   15.1863	       2.4	6.92356e+06	    77.439	   15.1742	       2.4	6.88935e+06	   77.4789	   15.2046	       2.4	6.90145e+06	   77.4888	    15.156	       2.4	6.91157e+06	       N/A	       N/A	       N/A	        N/A	       N/A	       N/A	       N/A	        N/A	
         R10	   2117	   77.5287	   15.1863	       2.4	6.91139e+06	   77.6539	   15.1867	       2.4	6.89333e+06	   77.6009	   15.0587	       2.4	6.83841e+06	   77.5913	   15.1865	       2.4	6.90062e+06	   77.6274	   15.1227	       2.4	6.85539e+06	   77.5648	   15.1225	       2.4	6.86488e+06	       N/A	       N/A	       N/A	        N/A	       N/A	       N/A	       N/A	        N/A	
         R10	   2118	   75.8605	   14.5518	       2.4	7.48996e+06	   75.8624	     14.45	       2.4	8.29603e+06	   75.7579	     14.45	       2.4	8.07254e+06	   75.7569	   14.5556	       2.4	 7.3254e+06	   75.8614	   14.5009	       2.4	7.87183e+06	   75.8101	     14.45	       2.4	8.18171e+06	   75.7574	   14.5028	       2.4	7.67484e+06	   75.8087	   14.5537	       2.4	7.40557e+06	
         R10	   2119	   75.9624	    14.547	       2.4	7.72932e+06	   75.9635	     14.45	       2.4	8.54671e+06	   75.8624	     14.45	       2.4	8.29233e+06	   75.8605	   14.5518	       2.4	7.52168e+06	    75.963	   14.4985	       2.4	8.12018e+06	   75.9129	     14.45	       2.4	8.41638e+06	   75.8614	   14.5009	       2.4	7.88643e+06	   75.9115	   14.5494	       2.4	7.62321e+06	
         R10	   2120	   76.0607	   14.5438	       2.4	7.99661e+06	   76.0613	     14.45	       2.4	 8.8124e+06	   75.9635	     14.45	       2.4	8.55547e+06	   75.9624	    14.547	       2.4	7.73446e+06	    76.061	   14.4969	       2.4	 8.3912e+06	   76.0124	     14.45	       2.4	8.68017e+06	    75.963	   14.4985	       2.4	 8.1279e+06	   76.0116	   14.5454	       2.4	 7.8625e+06	
         R10	   2121	   76.1548	    14.541	       2.4	8.30942e+06	   76.1557	     14.45	       2.4	9.08857e+06	   76.0613	     14.45	       2.4	8.81824e+06	   76.0607	   14.5438	       2.4	8.00501e+06	   76.1553	   14.4955	       2.4	8.69032e+06	   76.1085	     14.45	       2.4	8.94825e+06	    76.061	   14.4969	       2.4	8.39853e+06	   76.1077	   14.5424	       2.4	 8.1539e+06	
         R10	   2122	   76.2458	   14.5373	       2.4	8.66919e+06	   76.2468	     14.45	       2.4	9.38631e+06	   76.1557	     14.45	       2.4	9.09501e+06	   76.1548	    14.541	       2.4	8.32136e+06	   76.2463	   14.4937	       2.4	9.02295e+06	   76.2013	     14.45	       2.4	9.23305e+06	   76.1553	   14.4955	       2.4	8.69951e+06	   76.2003	   14.5392	       2.4	8.49207e+06	
         R10	   2123	   76.3339	   14.5342	       2.4	9.05142e+06	   76.3346	     14.45	       2.4	9.69039e+06	   76.2468	     14.45	       2.4	9.39189e+06	   76.2458	   14.5373	       2.4	8.68231e+06	   76.3343	   14.4921	       2.4	 9.3691e+06	   76.2907	     14.45	       2.4	9.53183e+06	   76.2463	   14.4937	       2.4	9.03278e+06	   76.2899	   14.5358	       2.4	8.86074e+06	
         R10	   2124	    76.418	   14.5316	       2.4	8.83861e+06	    76.419	     14.45	       2.4	1.06284e+07	   76.3346	     14.45	       2.4	9.68711e+06	   76.3339	   14.5342	       2.4	9.10259e+06	   76.4185	   14.4908	       2.4	9.64852e+06	   76.3768	     14.45	       2.4	1.01226e+07	   76.3343	   14.4921	       2.4	9.39155e+06	    76.376	   14.5329	       2.4	8.96552e+06	
         R10	   2125	      76.5	   14.5298	       2.4	 1.0909e+07	      76.5	     14.45	       2.4	1.11012e+07	    76.419	     14.45	       2.4	1.10505e+07	    76.418	   14.5316	       2.4	8.55699e+06	      76.5	   14.4899	       2.4	1.02895e+07	   76.4595	     14.45	       2.4	1.10177e+07	   76.4185	   14.4908	       2.4	9.75027e+06	    76.459	   14.5307	       2.4	9.57989e+06	
         R10	   2126	      76.5	   14.6048	       2.4	1.04032e+07	      76.5	   14.5298	       2.4	1.02591e+07	    76.418	   14.5316	       2.4	9.27115e+06	   76.4202	   14.6093	       2.4	9.26322e+06	      76.5	   14.5673	       2.4	1.03143e+07	    76.459	   14.5307	       2.4	9.62104e+06	   76.4191	   14.5705	       2.4	 9.2082e+06	   76.4601	   14.6071	       2.4	 9.8328e+06	
         R10	   2127	   76.4282	   14.6747	       2.4	9.76372e+06	      76.5	   14.6749	       2.4	1.06024e+07	      76.5	   14.6048	       2.4	1.03315e+07	   76.4202	   14.6093	       2.4	9.71309e+06	   76.4641	   14.6748	       2.4	 1.0182e+07	      76.5	   14.6398	       2.4	1.04666e+07	   76.4601	   14.6071	       2.4	1.00128e+07	   76.4242	    14.642	       2.4	9.73541e+06	
         R10	   2128	    76.436	   14.7385	       2.4	1.00616e+07	      76.5	   14.7403	       2.4	1.07865e+07	      76.5	   14.6749	       2.4	 1.0525e+07	   76.4282	   14.6747	       2.4	1.00094e+07	    76.468	   14.7394	       2.4	1.04226e+07	      76.5	   14.7076	       2.4	1.06556e+07	   76.4641	   14.6748	       2.4	1.02624e+07	   76.4321	   14.7066	       2.4	1.00346e+07	
         R10	   2129	   76.4423	   14.7999	       2.4	1.02788e+07	      76.5	   14.8009	       2.4	1.09269e+07	      76.5	   14.7403	       2.4	 1.0746e+07	    76.436	   14.7385	       2.4	1.01604e+07	   76.4712	   14.8004	       2.4	 1.0601e+07	      76.5	   14.7706	       2.4	1.08362e+07	    76.468	   14.7394	       2.4	1.04504e+07	   76.4392	   14.7692	       2.4	1.02193e+07	
         R10	   2130	   76.4465	   14.8556	       2.4	1.03981e+07	      76.5	   14.8567	       2.4	1.10477e+07	      76.5	   14.8009	       2.4	1.09101e+07	   76.4423	   14.7999	       2.4	1.03131e+07	   76.4732	   14.8561	       2.4	1.07212e+07	      76.5	   14.8288	       2.4	1.09787e+07	   76.4712	   14.8004	       2.4	1.06093e+07	   76.4444	   14.8277	       2.4	1.03553e+07	
         R10	   2131	    76.451	   14.9065	       2.4	1.04989e+07	      76.5	   14.9076	       2.4	1.11395e+07	      76.5	   14.8567	       2.4	1.10415e+07	   76.4465	   14.8556	       2.4	1.04097e+07	   76.4755	   14.9071	       2.4	1.08177e+07	      76.5	   14.8821	       2.4	1.10903e+07	   76.4732	   14.8561	       2.4	1.07238e+07	   76.4487	    14.881	       2.4	1.04541e+07	
         R10	   2132	   76.4561	   14.9524	       2.4	1.05999e+07	      76.5	   14.9538	       2.4	  1.121e+07	      76.5	   14.9076	       2.4	1.11363e+07	    76.451	   14.9065	       2.4	1.05023e+07	   76.4781	   14.9531	       2.4	1.09036e+07	      76.5	   14.9307	       2.4	1.11729e+07	   76.4755	   14.9071	       2.4	1.08177e+07	   76.4536	   14.9294	       2.4	1.05509e+07	
         R10	   2133	   76.4616	   14.9937	       2.4	1.07123e+07	      76.5	   14.9952	       2.4	1.12696e+07	      76.5	   14.9538	       2.4	 1.1209e+07	   76.4561	   14.9524	       2.4	1.05999e+07	   76.4808	   14.9944	       2.4	1.09898e+07	      76.5	   14.9745	       2.4	 1.1239e+07	   76.4781	   14.9531	       2.4	1.09031e+07	   76.4589	    14.973	       2.4	1.06559e+07	
         R10	   2134	   76.4668	   15.0305	       2.4	1.08328e+07	      76.5	   15.0317	       2.4	1.13286e+07	      76.5	   14.9952	       2.4	1.12697e+07	   76.4616	   14.9937	       2.4	1.07122e+07	   76.4834	   15.0311	       2.4	1.10795e+07	      76.5	   15.0135	       2.4	1.12989e+07	   76.4808	   14.9944	       2.4	1.09897e+07	   76.4642	   15.0121	       2.4	1.07723e+07	
         R10	   2135	   76.4713	   15.0623	       2.4	1.09599e+07	      76.5	   15.0635	       2.4	1.13964e+07	      76.5	   15.0317	       2.4	1.13286e+07	   76.4668	   15.0305	       2.4	1.08337e+07	   76.4856	   15.0629	       2.4	 1.1177e+07	      76.5	   15.0476	       2.4	1.13623e+07	   76.4834	   15.0311	       2.4	  1.108e+07	    76.469	   15.0464	       2.4	1.08966e+07	
         R10	   2136	   76.4753	   15.0894	       2.4	1.10969e+07	      76.5	   15.0905	       2.4	1.14745e+07	      76.5	   15.0635	       2.4	1.13962e+07	   76.4713	   15.0623	       2.4	1.09593e+07	   76.4877	   15.0899	       2.4	1.12844e+07	      76.5	    15.077	       2.4	1.14352e+07	   76.4856	   15.0629	       2.4	1.11765e+07	   76.4733	   15.0758	       2.4	1.10279e+07	
         R10	   2137	   76.4778	   15.1118	       2.4	1.12251e+07	      76.5	   15.1126	       2.4	1.15598e+07	      76.5	   15.0905	       2.4	1.14752e+07	   76.4753	   15.0894	       2.4	1.10961e+07	   76.4889	   15.1122	       2.4	 1.1391e+07	      76.5	   15.1016	       2.4	1.15174e+07	   76.4877	   15.0899	       2.4	1.12843e+07	   76.4766	   15.1006	       2.4	1.11604e+07	
         R10	   2138	    76.483	     15.13	       2.4	 1.1399e+07	      76.5	     15.13	       2.4	1.16516e+07	      76.5	   15.1126	       2.4	1.15619e+07	   76.4778	   15.1118	       2.4	1.12266e+07	   76.4915	     15.13	       2.4	1.15241e+07	      76.5	   15.1213	       2.4	1.16067e+07	   76.4889	   15.1122	       2.4	1.13927e+07	   76.4804	   15.1209	       2.4	1.13128e+07	
         R10	   2139	   76.4322	   15.1124	       2.4	1.03152e+07	    76.432	     15.13	       2.4	 1.0308e+07	    76.449	     15.13	       2.4	1.07037e+07	   76.4519	   15.1123	       2.4	1.07354e+07	   76.4321	   15.1212	       2.4	 1.0311e+07	   76.4405	     15.13	       2.4	1.05051e+07	   76.4504	   15.1211	       2.4	1.07189e+07	    76.442	   15.1124	       2.4	1.05245e+07	
         R10	   2140	   76.4152	   15.1121	       2.4	 9.9512e+06	    76.415	     15.13	       2.4	9.89573e+06	    76.432	     15.13	       2.4	1.03043e+07	   76.4322	   15.1124	       2.4	1.03134e+07	   76.4151	   15.1211	       2.4	9.92282e+06	   76.4235	     15.13	       2.4	1.00996e+07	   76.4321	   15.1212	       2.4	1.03083e+07	   76.4237	   15.1123	       2.4	1.01319e+07	
         R10	   2141	   76.3991	   15.1133	       2.4	9.59931e+06	    76.398	     15.13	       2.4	9.49824e+06	    76.415	     15.13	       2.4	 9.8943e+06	   76.4152	   15.1121	       2.4	9.94838e+06	   76.3985	   15.1217	       2.4	9.54824e+06	   76.4065	     15.13	       2.4	9.69601e+06	   76.4151	   15.1211	       2.4	9.92068e+06	   76.4072	   15.1127	       2.4	9.77357e+06	
         R10	   2142	   76.3812	   15.1108	       2.4	9.24463e+06	    76.381	     15.13	       2.4	9.12487e+06	    76.398	     15.13	       2.4	9.49714e+06	   76.3991	   15.1133	       2.4	9.59697e+06	   76.3811	   15.1204	       2.4	9.18416e+06	   76.3895	     15.13	       2.4	 9.3108e+06	   76.3985	   15.1217	       2.4	 9.5465e+06	   76.3901	   15.1121	       2.4	9.42069e+06	
         R10	   2143	   76.3644	   15.1138	       2.4	8.90938e+06	    76.364	     15.13	       2.4	8.78963e+06	    76.381	     15.13	       2.4	9.12493e+06	   76.3812	   15.1108	       2.4	9.24671e+06	   76.3642	   15.1219	       2.4	8.84915e+06	   76.3725	     15.13	       2.4	 8.9571e+06	   76.3811	   15.1204	       2.4	9.18521e+06	   76.3728	   15.1123	       2.4	9.07784e+06	
         R10	   2144	   76.3467	   15.1123	       2.4	8.61989e+06	    76.347	     15.13	       2.4	8.48991e+06	    76.364	     15.13	       2.4	8.78946e+06	   76.3644	   15.1138	       2.4	8.90911e+06	   76.3469	   15.1211	       2.4	8.55454e+06	   76.3555	     15.13	       2.4	8.63946e+06	   76.3642	   15.1219	       2.4	8.84893e+06	   76.3556	    15.113	       2.4	8.76435e+06	
         R10	   2145	   76.3303	   15.1113	       2.4	8.37313e+06	     76.33	     15.13	       2.4	8.23304e+06	    76.347	     15.13	       2.4	8.49017e+06	   76.3467	   15.1123	       2.4	8.61699e+06	   76.3301	   15.1207	       2.4	8.30274e+06	   76.3385	     15.13	       2.4	8.36136e+06	   76.3469	   15.1211	       2.4	8.55322e+06	   76.3385	   15.1118	       2.4	8.49486e+06	
         R10	   2146	   76.3136	   15.1461	       2.4	7.89304e+06	     76.33	    15.147	       2.4	8.09556e+06	     76.33	     15.13	       2.4	 8.2309e+06	   76.3134	   15.1309	       2.4	8.00892e+06	   76.3218	   15.1466	       2.4	7.99393e+06	     76.33	   15.1385	       2.4	8.16297e+06	   76.3217	   15.1304	       2.4	8.11961e+06	   76.3135	   15.1385	       2.4	7.95077e+06	
         R10	   2147	   76.3101	   15.1638	       2.4	7.71776e+06	     76.33	    15.164	       2.4	7.94158e+06	     76.33	    15.147	       2.4	8.09433e+06	   76.3136	   15.1461	       2.4	7.89153e+06	   76.3201	   15.1639	       2.4	7.82899e+06	     76.33	   15.1555	       2.4	8.01772e+06	   76.3218	   15.1466	       2.4	7.99256e+06	   76.3119	    15.155	       2.4	7.80436e+06	
         R10	   2148	   76.3128	   15.1815	       2.4	7.60424e+06	     76.33	    15.181	       2.4	7.78472e+06	     76.33	    15.164	       2.4	7.94289e+06	   76.3101	   15.1638	       2.4	7.71629e+06	   76.3214	   15.1812	       2.4	7.69384e+06	     76.33	   15.1725	       2.4	7.86361e+06	   76.3201	   15.1639	       2.4	 7.8289e+06	   76.3115	   15.1727	       2.4	7.66004e+06	
         R10	   2149	   76.3124	   15.1981	       2.4	7.47633e+06	     76.33	    15.198	       2.4	7.62925e+06	     76.33	    15.181	       2.4	7.78349e+06	   76.3128	   15.1815	       2.4	7.60672e+06	   76.3212	   15.1981	       2.4	7.55199e+06	     76.33	   15.1895	       2.4	7.70621e+06	   76.3214	   15.1812	       2.4	7.69449e+06	   76.3126	   15.1898	       2.4	7.54134e+06	
         R10	   2150	   76.3132	    15.214	       2.4	7.37813e+06	     76.33	    15.215	       2.4	7.48142e+06	     76.33	    15.198	       2.4	7.62794e+06	   76.3124	   15.1981	       2.4	7.47343e+06	   76.3216	   15.2145	       2.4	7.42909e+06	     76.33	   15.2065	       2.4	7.55453e+06	   76.3212	   15.1981	       2.4	7.54988e+06	   76.3128	   15.2061	       2.4	7.42567e+06	
         R10	   2151	   76.3111	   15.2321	       2.4	7.28207e+06	     76.33	    15.232	       2.4	7.36539e+06	     76.33	    15.215	       2.4	7.48028e+06	   76.3132	    15.214	       2.4	7.37499e+06	   76.3206	    15.232	       2.4	7.32287e+06	     76.33	   15.2235	       2.4	7.42267e+06	   76.3216	   15.2145	       2.4	7.42692e+06	   76.3122	    15.223	       2.4	7.32829e+06	
         R10	   2152	   76.3153	   15.2492	       2.4	7.26221e+06	     76.33	    15.249	       2.4	7.28966e+06	     76.33	    15.232	       2.4	7.36509e+06	   76.3111	   15.2321	       2.4	7.27448e+06	   76.3227	   15.2491	       2.4	7.27546e+06	     76.33	   15.2405	       2.4	 7.3272e+06	   76.3206	    15.232	       2.4	7.31888e+06	   76.3132	   15.2407	       2.4	7.26832e+06	
         R10	   2153	   76.3131	   15.2662	       2.4	7.27143e+06	     76.33	    15.266	       2.4	7.28868e+06	     76.33	    15.249	       2.4	7.29148e+06	   76.3153	   15.2492	       2.4	7.25792e+06	   76.3216	   15.2661	       2.4	7.27947e+06	     76.33	   15.2575	       2.4	7.28989e+06	   76.3227	   15.2491	       2.4	 7.2742e+06	   76.3142	   15.2577	       2.4	7.26451e+06	
         R10	   2154	   76.3115	   15.2822	       2.4	7.34115e+06	     76.33	    15.283	       2.4	7.36365e+06	     76.33	    15.266	       2.4	7.28754e+06	   76.3131	   15.2662	       2.4	7.27238e+06	   76.3207	   15.2826	       2.4	7.35171e+06	     76.33	   15.2745	       2.4	7.32547e+06	   76.3216	   15.2661	       2.4	7.27939e+06	   76.3123	   15.2742	       2.4	 7.3067e+06	
         R10	   2155	   76.3126	      15.3	       2.4	7.50627e+06	     76.33	      15.3	       2.4	7.52028e+06	     76.33	    15.283	       2.4	7.35719e+06	   76.3115	   15.2822	       2.4	7.33719e+06	   76.3213	      15.3	       2.4	7.51262e+06	     76.33	   15.2915	       2.4	7.43865e+06	   76.3207	   15.2826	       2.4	7.34648e+06	   76.3121	   15.2911	       2.4	7.42165e+06	
         R10	   2156	   76.2889	    15.276	       2.4	7.28639e+06	   76.2905	      15.3	       2.4	7.47255e+06	   76.3126	      15.3	       2.4	7.49976e+06	   76.3115	   15.2822	       2.4	7.33529e+06	   76.2897	    15.288	       2.4	7.37944e+06	   76.3016	      15.3	       2.4	 7.4853e+06	   76.3121	   15.2911	       2.4	7.41748e+06	   76.3002	   15.2791	       2.4	7.31008e+06	
         R10	   2157	   76.2623	   15.2713	       2.4	7.25348e+06	   76.2635	      15.3	       2.4	7.45262e+06	   76.2905	      15.3	       2.4	7.47052e+06	   76.2889	    15.276	       2.4	7.28731e+06	   76.2629	   15.2856	       2.4	7.35295e+06	    76.277	      15.3	       2.4	 7.4606e+06	   76.2897	    15.288	       2.4	7.37889e+06	   76.2756	   15.2736	       2.4	 7.2696e+06	
         R10	   2158	   76.2305	   15.2668	       2.4	7.22628e+06	   76.2317	      15.3	       2.4	7.43786e+06	   76.2635	      15.3	       2.4	7.44812e+06	   76.2623	   15.2713	       2.4	 7.2554e+06	   76.2311	   15.2834	       2.4	7.33173e+06	   76.2476	      15.3	       2.4	  7.442e+06	   76.2629	   15.2856	       2.4	7.35166e+06	   76.2464	    15.269	       2.4	   7.24e+06	
         R10	   2159	   76.1937	   15.2616	       2.4	 7.2033e+06	   76.1952	      15.3	       2.4	7.42402e+06	   76.2317	      15.3	       2.4	7.43272e+06	   76.2305	   15.2668	       2.4	7.22819e+06	   76.1944	   15.2808	       2.4	7.31283e+06	   76.2135	      15.3	       2.4	7.42739e+06	   76.2311	   15.2834	       2.4	7.33011e+06	   76.2121	   15.2642	       2.4	 7.2149e+06	
         R10	   2160	   76.1524	   15.2561	       2.4	7.18125e+06	   76.1538	      15.3	       2.4	7.41459e+06	   76.1952	      15.3	       2.4	7.42012e+06	   76.1937	   15.2616	       2.4	7.20475e+06	   76.1531	   15.2781	       2.4	7.29632e+06	   76.1745	      15.3	       2.4	7.41642e+06	   76.1944	   15.2808	       2.4	 7.3116e+06	    76.173	   15.2589	       2.4	7.19218e+06	
         R10	   2161	   76.1065	    15.251	       2.4	 7.1656e+06	   76.1076	      15.3	       2.4	7.40616e+06	   76.1538	      15.3	       2.4	 7.4103e+06	   76.1524	   15.2561	       2.4	7.18333e+06	   76.1071	   15.2755	       2.4	7.28325e+06	   76.1307	      15.3	       2.4	7.40736e+06	   76.1531	   15.2781	       2.4	 7.2952e+06	   76.1294	   15.2536	       2.4	7.17365e+06	
         R10	   2162	   76.0556	   15.2465	       2.4	7.15475e+06	   76.0567	      15.3	       2.4	7.39631e+06	   76.1076	      15.3	       2.4	 7.4024e+06	   76.1065	    15.251	       2.4	7.16663e+06	   76.0561	   15.2732	       2.4	 7.2717e+06	   76.0821	      15.3	       2.4	7.39852e+06	   76.1071	   15.2755	       2.4	7.28187e+06	    76.081	   15.2487	       2.4	7.15988e+06	
         R10	   2163	   75.9999	   15.2423	       2.4	7.14475e+06	   76.0009	      15.3	       2.4	 7.3849e+06	   76.0567	      15.3	       2.4	7.39364e+06	   76.0556	   15.2465	       2.4	7.15545e+06	   76.0004	   15.2712	       2.4	7.25977e+06	   76.0288	      15.3	       2.4	7.38848e+06	   76.0561	   15.2732	       2.4	 7.2707e+06	   76.0277	   15.2444	       2.4	7.14929e+06	
         R10	   2164	   75.9388	   15.2374	       2.4	7.13141e+06	   75.9403	      15.3	       2.4	7.37389e+06	   76.0009	      15.3	       2.4	7.38388e+06	   75.9999	   15.2423	       2.4	7.14439e+06	   75.9396	   15.2687	       2.4	7.24614e+06	   75.9706	      15.3	       2.4	7.37814e+06	   76.0004	   15.2712	       2.4	7.25907e+06	   75.9693	   15.2398	       2.4	7.13703e+06	
         R10	   2165	   75.8736	   15.2317	       2.4	7.11302e+06	   75.8749	      15.3	       2.4	7.36026e+06	   75.9403	      15.3	       2.4	7.36999e+06	   75.9388	   15.2374	       2.4	 7.1323e+06	   75.8743	   15.2658	       2.4	7.22859e+06	   75.9076	      15.3	       2.4	7.36441e+06	   75.9396	   15.2687	       2.4	 7.2446e+06	   75.9062	   15.2345	       2.4	7.12175e+06	
         R10	   2166	   75.8037	   15.2268	       2.4	 7.0975e+06	   75.8048	      15.3	       2.4	7.34325e+06	   75.8749	      15.3	       2.4	7.35483e+06	   75.8736	   15.2317	       2.4	7.11691e+06	   75.8042	   15.2634	       2.4	 7.2108e+06	   75.8399	      15.3	       2.4	7.34831e+06	   75.8743	   15.2658	       2.4	7.22777e+06	   75.8386	   15.2293	       2.4	7.10624e+06	
         R10	   2167	   75.7283	   15.2221	       2.4	7.08983e+06	   75.7298	      15.3	       2.4	7.31486e+06	   75.8048	      15.3	       2.4	7.33589e+06	   75.8037	   15.2268	       2.4	7.10198e+06	    75.729	   15.2611	       2.4	7.19139e+06	   75.7673	      15.3	       2.4	7.32452e+06	   75.8042	   15.2634	       2.4	7.20928e+06	    75.766	   15.2245	       2.4	7.09507e+06	
         R10	   2168	     75.65	    15.219	       2.4	7.07579e+06	     75.65	      15.3	       2.4	7.30646e+06	   75.7298	      15.3	       2.4	7.30151e+06	   75.7283	   15.2221	       2.4	7.09567e+06	     75.65	   15.2595	       2.4	7.17945e+06	   75.6899	      15.3	       2.4	7.30335e+06	    75.729	   15.2611	       2.4	7.18754e+06	   75.6891	   15.2206	       2.4	7.08473e+06	
         R10	   2169	     75.65	   15.1346	       2.4	6.96617e+06	     75.65	    15.219	       2.4	7.08526e+06	   75.7283	   15.2221	       2.4	7.08771e+06	   75.7318	   15.1407	       2.4	 6.9951e+06	     75.65	   15.1768	       2.4	7.01772e+06	   75.6891	   15.2206	       2.4	7.08568e+06	     75.73	   15.1814	       2.4	7.03299e+06	   75.6909	   15.1376	       2.4	 6.9793e+06	
         R10	   2170	   75.7377	   15.0479	       2.4	6.96751e+06	     75.65	   15.0468	       2.4	6.98023e+06	     75.65	   15.1346	       2.4	6.95937e+06	   75.7318	   15.1407	       2.4	6.97937e+06	   75.6938	   15.0474	       2.4	6.97269e+06	     75.65	   15.0907	       2.4	6.96473e+06	   75.6909	   15.1376	       2.4	6.96806e+06	   75.7347	   15.0943	       2.4	6.96735e+06	
         R10	   2171	   75.7416	   14.9563	       2.4	7.05651e+06	     75.65	   14.9557	       2.4	6.98586e+06	     75.65	   15.0468	       2.4	6.96964e+06	   75.7377	   15.0479	       2.4	6.94644e+06	   75.6958	    14.956	       2.4	7.01822e+06	     75.65	   15.0013	       2.4	6.97557e+06	   75.6938	   15.0474	       2.4	  6.957e+06	   75.7397	   15.0021	       2.4	6.99781e+06	
         R10	   2172	   75.7439	   14.8607	       2.4	7.13328e+06	     75.65	   14.8613	       2.4	7.11834e+06	     75.65	   14.9557	       2.4	6.95699e+06	   75.7416	   14.9563	       2.4	7.02552e+06	   75.6969	    14.861	       2.4	 7.1243e+06	     75.65	   14.9085	       2.4	7.03539e+06	   75.6958	    14.956	       2.4	6.98799e+06	   75.7428	   14.9085	       2.4	7.07837e+06	
         R10	   2173	   75.7483	   14.7612	       2.4	7.32161e+06	     75.65	   14.7635	       2.4	7.16775e+06	     75.65	   14.8613	       2.4	7.05815e+06	   75.7439	   14.8607	       2.4	7.07191e+06	   75.6992	   14.7623	       2.4	7.24107e+06	     75.65	   14.8124	       2.4	7.11178e+06	   75.6969	    14.861	       2.4	7.06355e+06	   75.7461	   14.8109	       2.4	7.19407e+06	
         R10	   2174	   75.7534	   14.6603	       2.4	7.47813e+06	     75.65	   14.6624	       2.4	7.31456e+06	     75.65	   14.7635	       2.4	7.07152e+06	   75.7483	   14.7612	       2.4	7.18956e+06	   75.7017	   14.6613	       2.4	7.39355e+06	     75.65	   14.7129	       2.4	7.18701e+06	   75.6992	   14.7623	       2.4	7.12727e+06	   75.7509	   14.7107	       2.4	7.32894e+06	
         R10	   2175	   75.7569	   14.5556	       2.4	7.28497e+06	   75.7579	     14.45	       2.4	8.06972e+06	     75.65	     14.45	       2.4	7.85781e+06	     75.65	   14.5579	       2.4	7.16896e+06	   75.7574	   14.5028	       2.4	7.65174e+06	   75.7039	     14.45	       2.4	7.96135e+06	     75.65	   14.5039	       2.4	7.48788e+06	   75.7034	   14.5567	       2.4	7.22551e+06	
         R10	   2176	   75.9682	   14.6323	       2.4	7.79092e+06	   75.9624	    14.547	       2.4	 8.2484e+06	   75.8605	   14.5518	       2.4	7.91455e+06	   75.8613	   14.6542	       2.4	7.53395e+06	   75.9653	   14.5896	       2.4	 8.0124e+06	   75.9115	   14.5494	       2.4	8.07792e+06	   75.8609	    14.603	       2.4	 7.7149e+06	   75.9148	   14.6433	       2.4	 7.6593e+06	
         R10	   2177	   76.0641	   14.6318	       2.4	8.09073e+06	   76.0607	   14.5438	       2.4	8.61236e+06	   75.9624	    14.547	       2.4	8.30223e+06	   75.9682	   14.6323	       2.4	7.74522e+06	   76.0624	   14.5878	       2.4	8.34784e+06	   76.0116	   14.5454	       2.4	8.45461e+06	   75.9653	   14.5896	       2.4	8.01662e+06	   76.0161	   14.6321	       2.4	7.91396e+06	
         R10	   2178	   76.1574	   14.6279	       2.4	8.48275e+06	   76.1548	    14.541	       2.4	8.98125e+06	   76.0607	   14.5438	       2.4	8.61434e+06	   76.0641	   14.6318	       2.4	8.10412e+06	   76.1561	   14.5844	       2.4	8.72988e+06	   76.1077	   14.5424	       2.4	 8.7947e+06	   76.0624	   14.5878	       2.4	8.35519e+06	   76.1108	   14.6299	       2.4	8.29054e+06	
         R10	   2179	   76.2482	   14.6172	       2.4	8.86702e+06	   76.2458	   14.5373	       2.4	9.40175e+06	   76.1548	    14.541	       2.4	8.96973e+06	   76.1574	   14.6279	       2.4	8.50281e+06	    76.247	   14.5773	       2.4	9.13214e+06	   76.2003	   14.5392	       2.4	9.18237e+06	   76.1561	   14.5844	       2.4	8.73377e+06	   76.2029	   14.6226	       2.4	8.68338e+06	
         R10	   2180	   76.3372	   14.6114	       2.4	9.17806e+06	   76.3339	   14.5342	       2.4	9.70778e+06	   76.2458	   14.5373	       2.4	  9.434e+06	   76.2482	   14.6172	       2.4	8.85565e+06	   76.3356	   14.5728	       2.4	9.43597e+06	   76.2899	   14.5358	       2.4	9.56889e+06	    76.247	   14.5773	       2.4	9.14253e+06	   76.2927	   14.6143	       2.4	9.01679e+06	
         R10	   2181	   76.4202	   14.6093	       2.4	9.30984e+06	    76.418	   14.5316	       2.4	9.92705e+06	   76.3339	   14.5342	       2.4	9.72099e+06	   76.3372	   14.6114	       2.4	9.14439e+06	   76.4191	   14.5705	       2.4	9.60276e+06	    76.376	   14.5329	       2.4	9.82343e+06	   76.3356	   14.5728	       2.4	9.42954e+06	   76.3787	   14.6104	       2.4	9.22367e+06	
         R10	   2182	   76.4282	   14.6747	       2.4	9.73641e+06	   76.4202	   14.6093	       2.4	9.77993e+06	   76.3372	   14.6114	       2.4	9.54956e+06	   76.3411	   14.6834	       2.4	9.29406e+06	   76.4242	    14.642	       2.4	9.75248e+06	   76.3787	   14.6104	       2.4	9.66294e+06	   76.3391	   14.6474	       2.4	9.41873e+06	   76.3846	   14.6791	       2.4	9.51129e+06	
         R10	   2183	   76.3828	   14.7456	       2.4	9.68053e+06	    76.436	   14.7385	       2.4	1.00609e+07	   76.4282	   14.6747	       2.4	9.99399e+06	   76.3411	   14.6834	       2.4	9.41499e+06	   76.4094	    14.742	       2.4	9.86904e+06	   76.4321	   14.7066	       2.4	1.00262e+07	   76.3846	   14.6791	       2.4	9.70245e+06	   76.3619	   14.7145	       2.4	9.54652e+06	
         R10	   2184	   76.3868	   14.8052	       2.4	9.76418e+06	   76.4423	   14.7999	       2.4	1.02825e+07	    76.436	   14.7385	       2.4	1.01573e+07	   76.3828	   14.7456	       2.4	9.74968e+06	   76.4145	   14.8025	       2.4	1.00222e+07	   76.4392	   14.7692	       2.4	1.02196e+07	   76.4094	    14.742	       2.4	9.95236e+06	   76.3848	   14.7754	       2.4	9.75668e+06	
         R10	   2185	   76.3929	   14.8603	       2.4	9.83612e+06	   76.4465	   14.8556	       2.4	1.04006e+07	   76.4423	   14.7999	       2.4	1.03172e+07	   76.3868	   14.8052	       2.4	9.78341e+06	   76.4197	   14.8579	       2.4	1.01172e+07	   76.4444	   14.8277	       2.4	1.03586e+07	   76.4145	   14.8025	       2.4	1.00493e+07	   76.3898	   14.8328	       2.4	9.80951e+06	
         R10	   2186	   76.4018	   14.9116	       2.4	9.92063e+06	    76.451	   14.9065	       2.4	1.05026e+07	   76.4465	   14.8556	       2.4	1.04129e+07	   76.3929	   14.8603	       2.4	 9.8428e+06	   76.4264	    14.909	       2.4	1.02106e+07	   76.4487	    14.881	       2.4	1.04575e+07	   76.4197	   14.8579	       2.4	1.01268e+07	   76.3974	    14.886	       2.4	9.88142e+06	
         R10	   2187	   76.4113	   14.9577	       2.4	1.00181e+07	   76.4561	   14.9524	       2.4	1.06043e+07	    76.451	   14.9065	       2.4	1.05067e+07	   76.4018	   14.9116	       2.4	9.92211e+06	   76.4337	    14.955	       2.4	1.03101e+07	   76.4536	   14.9294	       2.4	1.05553e+07	   76.4264	    14.909	       2.4	1.02134e+07	   76.4065	   14.9346	       2.4	9.96979e+06	
         R10	   2188	   76.4252	   14.9983	       2.4	1.01967e+07	   76.4616	   14.9937	       2.4	1.07164e+07	   76.4561	   14.9524	       2.4	1.06057e+07	   76.4113	   14.9577	       2.4	1.00169e+07	   76.4434	    14.996	       2.4	1.04555e+07	   76.4589	    14.973	       2.4	1.06608e+07	   76.4337	    14.955	       2.4	1.03102e+07	   76.4182	    14.978	       2.4	1.01065e+07	
         R10	   2189	   76.4352	   15.0348	       2.4	1.03547e+07	   76.4668	   15.0305	       2.4	1.08341e+07	   76.4616	   14.9937	       2.4	1.07149e+07	   76.4252	   14.9983	       2.4	1.01967e+07	    76.451	   15.0326	       2.4	1.05933e+07	   76.4642	   15.0121	       2.4	1.07743e+07	   76.4434	    14.996	       2.4	1.04548e+07	   76.4302	   15.0165	       2.4	1.02754e+07	
         R10	   2190	   76.4441	   15.0661	       2.4	1.05166e+07	   76.4713	   15.0623	       2.4	1.09621e+07	   76.4668	   15.0305	       2.4	1.08342e+07	   76.4352	   15.0348	       2.4	1.03526e+07	   76.4577	   15.0642	       2.4	1.07381e+07	    76.469	   15.0464	       2.4	1.08979e+07	    76.451	   15.0326	       2.4	1.05923e+07	   76.4397	   15.0505	       2.4	1.04343e+07	
         R10	   2191	   76.4554	   15.0933	       2.4	1.07625e+07	   76.4753	   15.0894	       2.4	1.10909e+07	   76.4713	   15.0623	       2.4	1.09644e+07	   76.4441	   15.0661	       2.4	1.05157e+07	   76.4653	   15.0913	       2.4	1.09257e+07	   76.4733	   15.0758	       2.4	1.10275e+07	   76.4577	   15.0642	       2.4	1.07388e+07	   76.4497	   15.0797	       2.4	 1.0639e+07	
         R10	   2192	   76.4519	   15.1123	       2.4	1.07507e+07	    76.449	     15.13	       2.4	1.07027e+07	    76.466	     15.13	       2.4	1.10964e+07	   76.4778	   15.1118	       2.4	1.12246e+07	   76.4504	   15.1211	       2.4	 1.0726e+07	   76.4575	     15.13	       2.4	1.08985e+07	   76.4719	   15.1209	       2.4	1.11589e+07	   76.4648	    15.112	       2.4	1.09855e+07	
         R10	   2193	    76.398	   15.0946	       2.4	9.64977e+06	   76.3991	   15.1133	       2.4	9.59998e+06	   76.4152	   15.1121	       2.4	9.94601e+06	    76.416	   15.0913	       2.4	1.00001e+07	   76.3985	    15.104	       2.4	9.62427e+06	   76.4072	   15.1127	       2.4	9.77271e+06	   76.4156	   15.1017	       2.4	9.97248e+06	    76.407	    15.093	       2.4	9.82469e+06	
         R10	   2194	   76.3589	   15.0907	       2.4	8.95229e+06	   76.3644	   15.1138	       2.4	8.90794e+06	   76.3812	   15.1108	       2.4	9.23912e+06	   76.3747	   15.0937	       2.4	9.20085e+06	   76.3617	   15.1022	       2.4	8.92948e+06	   76.3728	   15.1123	       2.4	9.07337e+06	    76.378	   15.1023	       2.4	9.21965e+06	   76.3668	   15.0922	       2.4	9.07649e+06	
         R10	   2195	   76.3328	    15.092	       2.4	8.53069e+06	   76.3303	   15.1113	       2.4	8.37076e+06	   76.3467	   15.1123	       2.4	8.62207e+06	   76.3589	   15.0907	       2.4	8.94646e+06	   76.3315	   15.1016	       2.4	8.45039e+06	   76.3385	   15.1118	       2.4	8.49624e+06	   76.3528	   15.1015	       2.4	8.78363e+06	   76.3459	   15.0913	       2.4	8.73831e+06	
         R10	   2196	   76.3134	   15.1309	       2.4	8.00679e+06	     76.33	     15.13	       2.4	8.23566e+06	   76.3303	   15.1113	       2.4	8.36801e+06	   76.3068	   15.1131	       2.4	8.05711e+06	   76.3217	   15.1304	       2.4	8.12092e+06	   76.3301	   15.1207	       2.4	8.30152e+06	   76.3185	   15.1122	       2.4	 8.2121e+06	   76.3101	    15.122	       2.4	8.03169e+06	
         R10	   2197	   76.2936	   15.1476	       2.4	7.67765e+06	   76.3136	   15.1461	       2.4	7.89328e+06	   76.3134	   15.1309	       2.4	8.00517e+06	   76.2915	   15.1308	       2.4	7.77229e+06	   76.3036	   15.1468	       2.4	7.78486e+06	   76.3135	   15.1385	       2.4	7.94902e+06	   76.3024	   15.1309	       2.4	 7.8882e+06	   76.2925	   15.1392	       2.4	 7.7248e+06	
         R10	   2198	    76.286	   15.1842	       2.4	7.38417e+06	   76.3128	   15.1815	       2.4	7.60331e+06	   76.3101	   15.1638	       2.4	7.71615e+06	   76.2945	   15.1691	       2.4	7.53619e+06	   76.2994	   15.1828	       2.4	7.49225e+06	   76.3115	   15.1727	       2.4	7.65957e+06	   76.3023	   15.1665	       2.4	7.62567e+06	   76.2902	   15.1766	       2.4	7.45977e+06	
         R10	   2199	    76.291	      15.2	       2.4	7.33268e+06	   76.3124	   15.1981	       2.4	7.47059e+06	   76.3128	   15.1815	       2.4	7.60403e+06	    76.286	   15.1842	       2.4	7.37838e+06	   76.3017	    15.199	       2.4	7.40066e+06	   76.3126	   15.1898	       2.4	7.53716e+06	   76.2994	   15.1828	       2.4	7.48974e+06	   76.2885	   15.1921	       2.4	7.35534e+06	
         R10	   2200	   76.2942	   15.2179	       2.4	7.27174e+06	   76.3132	    15.214	       2.4	7.37912e+06	   76.3124	   15.1981	       2.4	7.47098e+06	    76.291	      15.2	       2.4	 7.3358e+06	   76.3037	    15.216	       2.4	 7.3245e+06	   76.3128	   15.2061	       2.4	7.42494e+06	   76.3017	    15.199	       2.4	7.40246e+06	   76.2926	    15.209	       2.4	7.30365e+06	
         R10	   2201	   76.2932	   15.2523	       2.4	7.21595e+06	   76.2889	    15.276	       2.4	7.29398e+06	   76.3115	   15.2822	       2.4	7.34263e+06	   76.3131	   15.2662	       2.4	7.26837e+06	   76.2911	   15.2642	       2.4	7.25478e+06	   76.3002	   15.2791	       2.4	7.31754e+06	   76.3123	   15.2742	       2.4	7.30544e+06	   76.3032	   15.2593	       2.4	7.24179e+06	
         R10	   2202	   76.2654	   15.2448	       2.4	7.18098e+06	   76.2623	   15.2713	       2.4	7.26178e+06	   76.2889	    15.276	       2.4	7.29426e+06	   76.2932	   15.2523	       2.4	7.21918e+06	   76.2639	    15.258	       2.4	7.22119e+06	   76.2756	   15.2736	       2.4	7.27723e+06	   76.2911	   15.2642	       2.4	7.25655e+06	   76.2793	   15.2485	       2.4	7.19929e+06	
         R10	   2203	   76.2348	   15.2352	       2.4	7.14419e+06	   76.2305	   15.2668	       2.4	7.23553e+06	   76.2623	   15.2713	       2.4	7.26408e+06	   76.2654	   15.2448	       2.4	7.18148e+06	   76.2326	    15.251	       2.4	7.18946e+06	   76.2464	    15.269	       2.4	7.24896e+06	   76.2639	    15.258	       2.4	 7.2226e+06	   76.2501	     15.24	       2.4	7.16207e+06	
         R10	   2204	   76.1983	   15.2252	       2.4	7.10613e+06	   76.1937	   15.2616	       2.4	7.21139e+06	   76.2305	   15.2668	       2.4	7.23655e+06	   76.2348	   15.2352	       2.4	7.14442e+06	    76.196	   15.2434	       2.4	7.15804e+06	   76.2121	   15.2642	       2.4	7.22312e+06	   76.2326	    15.251	       2.4	7.19007e+06	   76.2165	   15.2302	       2.4	7.12439e+06	
         R10	   2205	   76.1577	   15.2113	       2.4	7.06746e+06	   76.1524	   15.2561	       2.4	7.18879e+06	   76.1937	   15.2616	       2.4	 7.2132e+06	   76.1983	   15.2252	       2.4	7.10628e+06	    76.155	   15.2337	       2.4	7.12666e+06	    76.173	   15.2589	       2.4	7.20017e+06	    76.196	   15.2434	       2.4	7.15901e+06	    76.178	   15.2182	       2.4	7.08597e+06	
         R10	   2206	   76.1116	   15.2018	       2.4	 7.0413e+06	   76.1065	    15.251	       2.4	 7.1726e+06	   76.1524	   15.2561	       2.4	7.18934e+06	   76.1577	   15.2113	       2.4	7.06773e+06	    76.109	   15.2264	       2.4	7.10483e+06	   76.1294	   15.2536	       2.4	7.18016e+06	    76.155	   15.2337	       2.4	7.12709e+06	   76.1346	   15.2065	       2.4	7.05353e+06	
         R10	   2207	   76.0603	   15.1929	       2.4	7.02177e+06	   76.0556	   15.2465	       2.4	   7.16e+06	   76.1065	    15.251	       2.4	7.17301e+06	   76.1116	   15.2018	       2.4	7.04256e+06	   76.0579	   15.2197	       2.4	7.08797e+06	    76.081	   15.2487	       2.4	 7.1657e+06	    76.109	   15.2264	       2.4	7.10566e+06	    76.086	   15.1974	       2.4	7.03115e+06	
         R10	   2208	   76.0047	   15.1864	       2.4	7.01433e+06	   75.9999	   15.2423	       2.4	 7.1493e+06	   76.0556	   15.2465	       2.4	7.16023e+06	   76.0603	   15.1929	       2.4	7.02629e+06	   76.0023	   15.2144	       2.4	7.07826e+06	   76.0277	   15.2444	       2.4	7.15395e+06	   76.0579	   15.2197	       2.4	7.09033e+06	   76.0325	   15.1896	       2.4	7.01929e+06	
         R10	   2209	   75.9432	   15.1789	       2.4	 7.0111e+06	   75.9388	   15.2374	       2.4	7.13509e+06	   75.9999	   15.2423	       2.4	7.15104e+06	   76.0047	   15.1864	       2.4	7.01515e+06	    75.941	   15.2081	       2.4	 7.0689e+06	   75.9693	   15.2398	       2.4	7.14216e+06	   76.0023	   15.2144	       2.4	7.07953e+06	    75.974	   15.1826	       2.4	7.01212e+06	
         R10	   2210	   75.8782	   15.1616	       2.4	6.98364e+06	   75.8736	   15.2317	       2.4	7.12292e+06	   75.9388	   15.2374	       2.4	7.13399e+06	   75.9432	   15.1789	       2.4	7.01446e+06	   75.8759	   15.1967	       2.4	 7.0474e+06	   75.9062	   15.2345	       2.4	7.12761e+06	    75.941	   15.2081	       2.4	7.06998e+06	   75.9107	   15.1702	       2.4	6.99762e+06	
         R10	   2211	   75.8076	   15.1515	       2.4	6.98907e+06	   75.8037	   15.2268	       2.4	7.10944e+06	   75.8736	   15.2317	       2.4	7.12838e+06	   75.8782	   15.1616	       2.4	 6.9877e+06	   75.8057	   15.1892	       2.4	7.04239e+06	   75.8386	   15.2293	       2.4	7.11797e+06	   75.8759	   15.1967	       2.4	7.05218e+06	   75.8429	   15.1566	       2.4	6.98725e+06	
         R10	   2212	   75.7318	   15.1407	       2.4	 6.9891e+06	   75.7283	   15.2221	       2.4	7.08095e+06	   75.8037	   15.2268	       2.4	7.11191e+06	   75.8076	   15.1515	       2.4	6.99138e+06	     75.73	   15.1814	       2.4	7.02677e+06	    75.766	   15.2245	       2.4	 7.0954e+06	   75.8057	   15.1892	       2.4	7.04476e+06	   75.7697	   15.1461	       2.4	6.98899e+06	
         R10	   2213	   75.7377	   15.0479	       2.4	6.99012e+06	   75.7318	   15.1407	       2.4	6.96823e+06	   75.8076	   15.1515	       2.4	6.98765e+06	    75.814	   15.0694	       2.4	6.96224e+06	   75.7347	   15.0943	       2.4	6.97253e+06	   75.7697	   15.1461	       2.4	6.97665e+06	   75.8108	   15.1104	       2.4	6.97009e+06	   75.7758	   15.0586	       2.4	6.97471e+06	
         R10	   2214	   75.8273	   14.9579	       2.4	7.07324e+06	   75.7416	   14.9563	       2.4	 7.0228e+06	   75.7377	   15.0479	       2.4	6.95065e+06	    75.814	   15.0694	       2.4	6.93296e+06	   75.7845	   14.9571	       2.4	7.04553e+06	   75.7397	   15.0021	       2.4	 6.9842e+06	   75.7758	   15.0586	       2.4	6.94071e+06	   75.8206	   15.0136	       2.4	6.99768e+06	
         R10	   2215	    75.832	   14.8637	       2.4	7.21806e+06	   75.7439	   14.8607	       2.4	7.16994e+06	   75.7416	   14.9563	       2.4	6.99152e+06	   75.8273	   14.9579	       2.4	7.04298e+06	   75.7879	   14.8622	       2.4	7.19202e+06	   75.7428	   14.9085	       2.4	7.07859e+06	   75.7845	   14.9571	       2.4	7.01452e+06	   75.8296	   14.9108	       2.4	7.12889e+06	
         R10	   2216	   75.8333	   14.7656	       2.4	 7.4275e+06	   75.7483	   14.7612	       2.4	7.29518e+06	   75.7439	   14.8607	       2.4	7.10375e+06	    75.832	   14.8637	       2.4	7.15573e+06	   75.7908	   14.7634	       2.4	7.35899e+06	   75.7461	   14.8109	       2.4	7.19777e+06	   75.7879	   14.8622	       2.4	 7.1277e+06	   75.8326	   14.8146	       2.4	7.28973e+06	
         R10	   2217	   75.7569	   14.5556	       2.4	7.67498e+06	     75.65	   14.5579	       2.4	7.50887e+06	     75.65	   14.6624	       2.4	7.13511e+06	   75.7534	   14.6603	       2.4	7.24942e+06	   75.7034	   14.5567	       2.4	7.59025e+06	     75.65	   14.6101	       2.4	7.30811e+06	   75.7017	   14.6613	       2.4	7.19002e+06	   75.7551	   14.6079	       2.4	7.45013e+06	
         R10	   2218	   75.8613	   14.6542	       2.4	7.49612e+06	   75.8605	   14.5518	       2.4	7.91469e+06	   75.7569	   14.5556	       2.4	7.71449e+06	   75.7534	   14.6603	       2.4	7.25887e+06	   75.8609	    14.603	       2.4	7.69701e+06	   75.8087	   14.5537	       2.4	7.81258e+06	   75.7551	   14.6079	       2.4	7.47378e+06	   75.8074	   14.6572	       2.4	7.37319e+06	
         R10	   2219	   76.0677	   14.7135	       2.4	8.03785e+06	   76.0641	   14.6318	       2.4	8.42202e+06	   75.9682	   14.6323	       2.4	8.08933e+06	   75.9804	   14.7134	       2.4	7.70601e+06	   76.0659	   14.6726	       2.4	  8.229e+06	   76.0161	   14.6321	       2.4	8.25241e+06	   75.9743	   14.6729	       2.4	 7.8952e+06	   76.0241	   14.7134	       2.4	7.86854e+06	
         R10	   2220	   76.1629	   14.7089	       2.4	 8.4458e+06	   76.1574	   14.6279	       2.4	8.80842e+06	   76.0641	   14.6318	       2.4	8.41265e+06	   76.0677	   14.7135	       2.4	8.03996e+06	   76.1602	   14.6684	       2.4	8.62634e+06	   76.1108	   14.6299	       2.4	8.60801e+06	   76.0659	   14.6726	       2.4	8.22536e+06	   76.1153	   14.7112	       2.4	8.24046e+06	
         R10	   2221	   76.2531	   14.6882	       2.4	8.92043e+06	   76.2482	   14.6172	       2.4	9.19506e+06	   76.1574	   14.6279	       2.4	8.79271e+06	   76.1629	   14.7089	       2.4	8.46596e+06	   76.2507	   14.6527	       2.4	9.05626e+06	   76.2029	   14.6226	       2.4	8.99228e+06	   76.1602	   14.6684	       2.4	8.62847e+06	    76.208	   14.6985	       2.4	8.69234e+06	
         R10	   2222	   76.3411	   14.6834	       2.4	 9.3032e+06	   76.3372	   14.6114	       2.4	9.55192e+06	   76.2482	   14.6172	       2.4	9.20823e+06	   76.2531	   14.6882	       2.4	8.90265e+06	   76.3391	   14.6474	       2.4	9.42539e+06	   76.2927	   14.6143	       2.4	9.37971e+06	   76.2507	   14.6527	       2.4	9.05425e+06	   76.2971	   14.6858	       2.4	9.10291e+06	
         R10	   2223	   76.3312	   14.8117	       2.4	9.29405e+06	   76.3868	   14.8052	       2.4	9.77247e+06	   76.3828	   14.7456	       2.4	9.72879e+06	   76.3218	   14.7583	       2.4	 9.3192e+06	    76.359	   14.8085	       2.4	9.53293e+06	   76.3848	   14.7754	       2.4	 9.7504e+06	   76.3523	   14.7519	       2.4	9.52349e+06	   76.3265	    14.785	       2.4	9.30624e+06	
         R10	   2224	   76.3408	    14.868	       2.4	9.32762e+06	   76.3929	   14.8603	       2.4	9.83532e+06	   76.3868	   14.8052	       2.4	 9.7883e+06	   76.3312	   14.8117	       2.4	9.31547e+06	   76.3668	   14.8642	       2.4	9.58108e+06	   76.3898	   14.8328	       2.4	9.81154e+06	    76.359	   14.8085	       2.4	9.55154e+06	    76.336	   14.8399	       2.4	9.32121e+06	
         R10	   2225	   76.3537	   14.9212	       2.4	9.37728e+06	   76.4018	   14.9116	       2.4	9.92009e+06	   76.3929	   14.8603	       2.4	9.84071e+06	   76.3408	    14.868	       2.4	9.33061e+06	   76.3778	   14.9164	       2.4	9.64821e+06	   76.3974	    14.886	       2.4	 9.8801e+06	   76.3668	   14.8642	       2.4	9.58529e+06	   76.3472	   14.8946	       2.4	9.35352e+06	
         R10	   2226	   76.3682	   14.9697	       2.4	9.46206e+06	   76.4113	   14.9577	       2.4	1.00173e+07	   76.4018	   14.9116	       2.4	9.92129e+06	   76.3537	   14.9212	       2.4	9.37672e+06	   76.3898	   14.9637	       2.4	9.73903e+06	   76.4065	   14.9346	       2.4	  9.969e+06	   76.3778	   14.9164	       2.4	9.64854e+06	    76.361	   14.9455	       2.4	9.41889e+06	
         R10	   2227	   76.3884	   15.0075	       2.4	9.66025e+06	   76.4252	   14.9983	       2.4	1.01972e+07	   76.4113	   14.9577	       2.4	1.00156e+07	   76.3682	   14.9697	       2.4	9.45735e+06	   76.4068	   15.0029	       2.4	9.92786e+06	   76.4182	    14.978	       2.4	1.01062e+07	   76.3898	   14.9637	       2.4	9.73581e+06	   76.3783	   14.9886	       2.4	 9.5585e+06	
         R10	   2228	   76.4014	    15.044	       2.4	9.80823e+06	   76.4352	   15.0348	       2.4	1.03488e+07	   76.4252	   14.9983	       2.4	1.01991e+07	   76.3884	   15.0075	       2.4	9.66624e+06	   76.4183	   15.0394	       2.4	1.00774e+07	   76.4302	   15.0165	       2.4	1.02737e+07	   76.4068	   15.0029	       2.4	9.93185e+06	   76.3949	   15.0257	       2.4	9.73677e+06	
         R10	   2229	   76.4207	   15.0714	       2.4	1.01086e+07	   76.4441	   15.0661	       2.4	1.05214e+07	   76.4352	   15.0348	       2.4	1.03501e+07	   76.4014	    15.044	       2.4	  9.808e+06	   76.4324	   15.0688	       2.4	1.03142e+07	   76.4397	   15.0505	       2.4	1.04355e+07	   76.4183	   15.0394	       2.4	1.00778e+07	   76.4111	   15.0577	       2.4	9.95823e+06	
         R10	   2230	   76.4519	   15.1123	       2.4	1.07417e+07	   76.4778	   15.1118	       2.4	1.12194e+07	   76.4753	   15.0894	       2.4	1.10943e+07	   76.4554	   15.0933	       2.4	1.07642e+07	   76.4648	    15.112	       2.4	1.09786e+07	   76.4766	   15.1006	       2.4	1.11567e+07	   76.4653	   15.0913	       2.4	1.09283e+07	   76.4536	   15.1028	       2.4	1.07523e+07	
         R10	   2231	   76.4343	   15.0948	       2.4	1.03635e+07	    76.416	   15.0913	       2.4	9.99442e+06	   76.4152	   15.1121	       2.4	9.94827e+06	   76.4322	   15.1124	       2.4	1.03142e+07	   76.4251	   15.0931	       2.4	1.01787e+07	   76.4156	   15.1017	       2.4	9.97069e+06	   76.4237	   15.1123	       2.4	1.01309e+07	   76.4332	   15.1036	       2.4	1.03383e+07	
         R10	   2232	   76.3747	   15.0937	       2.4	9.21669e+06	   76.3812	   15.1108	       2.4	9.24453e+06	    76.398	   15.0946	       2.4	9.64092e+06	   76.3856	   15.0731	       2.4	9.47266e+06	    76.378	   15.1023	       2.4	9.23034e+06	   76.3896	   15.1027	       2.4	9.44184e+06	   76.3918	   15.0838	       2.4	 9.5565e+06	   76.3802	   15.0834	       2.4	9.34386e+06	
         R10	   2233	   76.3068	   15.1131	       2.4	8.05437e+06	   76.3303	   15.1113	       2.4	8.37147e+06	   76.3328	    15.092	       2.4	8.53244e+06	   76.3017	   15.0857	       2.4	8.17352e+06	   76.3185	   15.1122	       2.4	8.21244e+06	   76.3315	   15.1016	       2.4	8.45159e+06	   76.3173	   15.0888	       2.4	 8.3525e+06	   76.3042	   15.0994	       2.4	8.11334e+06	
         R10	   2234	   76.2945	   15.1691	       2.4	7.53273e+06	   76.3101	   15.1638	       2.4	7.71875e+06	   76.2936	   15.1476	       2.4	 7.6755e+06	   76.2711	   15.1597	       2.4	7.42693e+06	   76.3023	   15.1665	       2.4	7.62521e+06	   76.3019	   15.1557	       2.4	7.69676e+06	   76.2824	   15.1537	       2.4	7.55013e+06	   76.2828	   15.1644	       2.4	7.47904e+06	
         R10	   2235	   76.2467	   15.2013	       2.4	7.16143e+06	   76.2348	   15.2352	       2.4	7.14385e+06	   76.2654	   15.2448	       2.4	7.18212e+06	   76.2726	   15.2202	       2.4	7.19124e+06	   76.2408	   15.2183	       2.4	7.15141e+06	   76.2501	     15.24	       2.4	7.16221e+06	    76.269	   15.2325	       2.4	 7.1862e+06	   76.2597	   15.2108	       2.4	7.17593e+06	
         R10	   2236	   76.2089	   15.1879	       2.4	7.10775e+06	   76.1983	   15.2252	       2.4	7.10346e+06	   76.2348	   15.2352	       2.4	7.14364e+06	   76.2467	   15.2013	       2.4	7.16424e+06	   76.2036	   15.2066	       2.4	7.10431e+06	   76.2165	   15.2302	       2.4	7.12267e+06	   76.2408	   15.2183	       2.4	7.15288e+06	   76.2278	   15.1946	       2.4	7.13486e+06	
         R10	   2237	   76.1697	   15.1683	       2.4	7.06212e+06	   76.1577	   15.2113	       2.4	7.06694e+06	   76.1983	   15.2252	       2.4	7.10365e+06	   76.2089	   15.1879	       2.4	7.10898e+06	   76.1637	   15.1898	       2.4	7.06283e+06	    76.178	   15.2182	       2.4	7.08439e+06	   76.2036	   15.2066	       2.4	7.10506e+06	   76.1893	   15.1781	       2.4	7.08451e+06	
         R10	   2238	   76.1212	   15.1537	       2.4	7.01698e+06	   76.1116	   15.2018	       2.4	7.04177e+06	   76.1577	   15.2113	       2.4	7.06703e+06	   76.1697	   15.1683	       2.4	7.06295e+06	   76.1164	   15.1778	       2.4	7.02733e+06	   76.1346	   15.2065	       2.4	7.05341e+06	   76.1637	   15.1898	       2.4	7.06331e+06	   76.1455	    15.161	       2.4	7.03858e+06	
         R10	   2239	   76.0681	   15.1408	       2.4	6.99073e+06	   76.0603	   15.1929	       2.4	7.01994e+06	   76.1116	   15.2018	       2.4	7.04387e+06	   76.1212	   15.1537	       2.4	7.01487e+06	   76.0642	   15.1668	       2.4	7.00286e+06	    76.086	   15.1974	       2.4	7.03088e+06	   76.1164	   15.1778	       2.4	7.02735e+06	   76.0946	   15.1472	       2.4	7.00139e+06	
         R10	   2240	    76.012	   15.1319	       2.4	6.97434e+06	   76.0047	   15.1864	       2.4	7.01712e+06	   76.0603	   15.1929	       2.4	7.02435e+06	   76.0681	   15.1408	       2.4	6.97643e+06	   76.0084	   15.1591	       2.4	6.99298e+06	   76.0325	   15.1896	       2.4	7.01975e+06	   76.0642	   15.1668	       2.4	6.99798e+06	   76.0401	   15.1364	       2.4	6.97419e+06	
         R10	   2241	   75.9538	    15.122	       2.4	6.96016e+06	   75.9432	   15.1789	       2.4	7.00119e+06	   76.0047	   15.1864	       2.4	7.01671e+06	    76.012	   15.1319	       2.4	  6.978e+06	   75.9485	   15.1504	       2.4	6.97749e+06	    75.974	   15.1826	       2.4	7.00788e+06	   76.0084	   15.1591	       2.4	6.99463e+06	   75.9829	    15.127	       2.4	6.96784e+06	
         R10	   2242	   75.8902	   15.1012	       2.4	6.97059e+06	   75.8782	   15.1616	       2.4	6.98578e+06	   75.9432	   15.1789	       2.4	7.00764e+06	   75.9538	    15.122	       2.4	 6.9609e+06	   75.8842	   15.1314	       2.4	6.97476e+06	   75.9107	   15.1702	       2.4	6.99527e+06	   75.9485	   15.1504	       2.4	6.98115e+06	    75.922	   15.1116	       2.4	6.96433e+06	
         R10	   2243	    75.814	   15.0694	       2.4	6.96722e+06	   75.8076	   15.1515	       2.4	6.98607e+06	   75.8782	   15.1616	       2.4	 6.9863e+06	   75.8902	   15.1012	       2.4	 6.9574e+06	   75.8108	   15.1104	       2.4	6.97165e+06	   75.8429	   15.1566	       2.4	6.98499e+06	   75.8842	   15.1314	       2.4	6.96844e+06	   75.8521	   15.0853	       2.4	6.96028e+06	
         R10	   2244	   75.9112	    14.868	       2.4	7.29582e+06	    75.832	   14.8637	       2.4	7.22764e+06	   75.8273	   14.9579	       2.4	 7.0319e+06	   75.9126	   14.9584	       2.4	7.11321e+06	   75.8716	   14.8658	       2.4	7.25994e+06	   75.8296	   14.9108	       2.4	7.12765e+06	   75.8699	   14.9581	       2.4	7.06975e+06	   75.9119	   14.9132	       2.4	7.20289e+06	
         R10	   2245	   75.9115	   14.7756	       2.4	7.45341e+06	   75.8333	   14.7656	       2.4	7.45415e+06	    75.832	   14.8637	       2.4	7.17319e+06	   75.9112	    14.868	       2.4	7.31719e+06	   75.8724	   14.7706	       2.4	 7.4519e+06	   75.8326	   14.8146	       2.4	 7.3125e+06	   75.8716	   14.8658	       2.4	7.24243e+06	   75.9113	   14.8218	       2.4	7.38467e+06	
         R10	   2246	   75.8613	   14.6542	       2.4	7.68692e+06	   75.7534	   14.6603	       2.4	7.48231e+06	   75.7483	   14.7612	       2.4	7.16765e+06	   75.8333	   14.7656	       2.4	7.34569e+06	   75.8074	   14.6572	       2.4	7.58182e+06	   75.7509	   14.7107	       2.4	7.31946e+06	   75.7908	   14.7634	       2.4	7.25326e+06	   75.8473	   14.7099	       2.4	7.51163e+06	
         R10	   2247	   76.0699	   14.7893	       2.4	7.86256e+06	   76.0677	   14.7135	       2.4	8.19314e+06	   75.9804	   14.7134	       2.4	7.88677e+06	   75.9829	   14.7932	       2.4	7.59185e+06	   76.0688	   14.7514	       2.4	 8.0273e+06	   76.0241	   14.7134	       2.4	8.03738e+06	   75.9816	   14.7533	       2.4	7.73835e+06	   76.0264	   14.7913	       2.4	7.72398e+06	
         R10	   2248	   76.1709	   14.7841	       2.4	 8.3371e+06	   76.1629	   14.7089	       2.4	  8.599e+06	   76.0677	   14.7135	       2.4	8.19297e+06	   76.0699	   14.7893	       2.4	7.87084e+06	   76.1669	   14.7465	       2.4	8.46778e+06	   76.1153	   14.7112	       2.4	8.39375e+06	   76.0688	   14.7514	       2.4	8.03137e+06	   76.1204	   14.7867	       2.4	8.10096e+06	
         R10	   2249	    76.261	   14.7508	       2.4	8.90546e+06	   76.2531	   14.6882	       2.4	9.04827e+06	   76.1629	   14.7089	       2.4	8.57338e+06	   76.1709	   14.7841	       2.4	 8.3567e+06	   76.2571	   14.7195	       2.4	8.97602e+06	    76.208	   14.6985	       2.4	8.80985e+06	   76.1669	   14.7465	       2.4	8.46471e+06	    76.216	   14.7674	       2.4	8.63067e+06	
         R10	   2250	   76.2905	    14.878	       2.4	8.86309e+06	   76.3408	    14.868	       2.4	9.32862e+06	   76.3312	   14.8117	       2.4	9.31901e+06	   76.2747	   14.8181	       2.4	8.90323e+06	   76.3156	    14.873	       2.4	9.09582e+06	    76.336	   14.8399	       2.4	9.32348e+06	   76.3029	   14.8149	       2.4	9.11107e+06	   76.2826	   14.8481	       2.4	8.88273e+06	
         R10	   2251	    76.308	   14.9337	       2.4	8.87872e+06	   76.3537	   14.9212	       2.4	9.37615e+06	   76.3408	    14.868	       2.4	9.33014e+06	   76.2905	    14.878	       2.4	8.87386e+06	   76.3308	   14.9275	       2.4	 9.1273e+06	   76.3472	   14.8946	       2.4	9.35272e+06	   76.3156	    14.873	       2.4	9.10195e+06	   76.2992	   14.9059	       2.4	8.87569e+06	
         R10	   2252	   76.3276	   14.9848	       2.4	 8.9355e+06	   76.3682	   14.9697	       2.4	9.45985e+06	   76.3537	   14.9212	       2.4	9.37502e+06	    76.308	   14.9337	       2.4	8.88145e+06	   76.3479	   14.9772	       2.4	9.19733e+06	    76.361	   14.9455	       2.4	9.41694e+06	   76.3308	   14.9275	       2.4	9.12808e+06	   76.3178	   14.9592	       2.4	8.90772e+06	
         R10	   2253	   76.3519	   15.0276	       2.4	9.10353e+06	   76.3884	   15.0075	       2.4	9.65901e+06	   76.3682	   14.9697	       2.4	9.45813e+06	   76.3276	   14.9848	       2.4	8.93719e+06	   76.3701	   15.0175	       2.4	9.38046e+06	   76.3783	   14.9886	       2.4	9.55826e+06	   76.3479	   14.9772	       2.4	9.19727e+06	   76.3398	   15.0062	       2.4	 9.0197e+06	
         R10	   2254	   76.4343	   15.0948	       2.4	1.03601e+07	   76.4322	   15.1124	       2.4	1.03185e+07	   76.4519	   15.1123	       2.4	1.07387e+07	   76.4554	   15.0933	       2.4	1.07592e+07	   76.4332	   15.1036	       2.4	1.03387e+07	    76.442	   15.1124	       2.4	1.05278e+07	   76.4536	   15.1028	       2.4	1.07483e+07	   76.4448	   15.0941	       2.4	1.05587e+07	
         R10	   2255	   76.3275	   15.0663	       2.4	8.60854e+06	   76.3328	    15.092	       2.4	8.53151e+06	   76.3589	   15.0907	       2.4	8.94957e+06	   76.3568	   15.0636	       2.4	 9.0266e+06	   76.3301	   15.0791	       2.4	8.56948e+06	   76.3459	   15.0913	       2.4	8.74022e+06	   76.3579	   15.0771	       2.4	8.98737e+06	   76.3421	    15.065	       2.4	8.81738e+06	
         R10	   2256	   76.2711	   15.1597	       2.4	7.42718e+06	   76.2936	   15.1476	       2.4	7.67303e+06	   76.2915	   15.1308	       2.4	7.77019e+06	   76.2676	   15.1294	       2.4	7.57444e+06	   76.2824	   15.1537	       2.4	7.54908e+06	   76.2925	   15.1392	       2.4	7.72141e+06	   76.2795	   15.1301	       2.4	7.67166e+06	   76.2694	   15.1446	       2.4	7.50008e+06	
         R10	   2257	   76.1848	   15.1276	       2.4	7.16887e+06	   76.1697	   15.1683	       2.4	7.06076e+06	   76.2089	   15.1879	       2.4	7.10478e+06	   76.2276	   15.1492	       2.4	7.24652e+06	   76.1772	   15.1479	       2.4	7.11302e+06	   76.1893	   15.1781	       2.4	 7.0817e+06	   76.2183	   15.1686	       2.4	7.17359e+06	   76.2062	   15.1384	       2.4	7.20622e+06	
         R10	   2258	   76.1337	    15.108	       2.4	7.08868e+06	   76.1212	   15.1537	       2.4	7.01855e+06	   76.1697	   15.1683	       2.4	7.06127e+06	   76.1848	   15.1276	       2.4	7.17089e+06	   76.1275	   15.1308	       2.4	7.05169e+06	   76.1455	    15.161	       2.4	7.03853e+06	   76.1772	   15.1479	       2.4	7.11421e+06	   76.1592	   15.1178	       2.4	7.12798e+06	
         R10	   2259	   76.0782	   15.0905	       2.4	7.03388e+06	   76.0681	   15.1408	       2.4	6.98698e+06	   76.1212	   15.1537	       2.4	7.01532e+06	   76.1337	    15.108	       2.4	7.09512e+06	   76.0731	   15.1157	       2.4	7.00816e+06	   76.0946	   15.1472	       2.4	6.99976e+06	   76.1275	   15.1308	       2.4	7.05328e+06	    76.106	   15.0993	       2.4	7.06284e+06	
         R10	   2260	   76.0206	   15.0747	       2.4	 6.9819e+06	    76.012	   15.1319	       2.4	6.96935e+06	   76.0681	   15.1408	       2.4	6.97147e+06	   76.0782	   15.0905	       2.4	7.05386e+06	   76.0163	   15.1033	       2.4	6.97339e+06	   76.0401	   15.1364	       2.4	 6.9691e+06	   76.0731	   15.1157	       2.4	7.01029e+06	   76.0494	   15.0826	       2.4	 7.0164e+06	
         R10	   2261	   75.9668	   15.0584	       2.4	7.03672e+06	   75.9538	    15.122	       2.4	6.94586e+06	    76.012	   15.1319	       2.4	6.98165e+06	   76.0206	   15.0747	       2.4	6.98767e+06	   75.9603	   15.0902	       2.4	6.98733e+06	   75.9829	    15.127	       2.4	6.96257e+06	   76.0163	   15.1033	       2.4	6.98255e+06	   75.9937	   15.0666	       2.4	7.01093e+06	
         R10	   2262	   75.9105	   15.0379	       2.4	 6.9921e+06	   75.8902	   15.1012	       2.4	6.96081e+06	   75.9538	    15.122	       2.4	6.93329e+06	   75.9668	   15.0584	       2.4	7.00986e+06	   75.9003	   15.0696	       2.4	6.97381e+06	    75.922	   15.1116	       2.4	6.94553e+06	   75.9603	   15.0902	       2.4	6.96796e+06	   75.9386	   15.0481	       2.4	6.99963e+06	
         R10	   2263	   75.9889	   14.8719	       2.4	7.43765e+06	   75.9112	    14.868	       2.4	7.29723e+06	   75.9126	   14.9584	       2.4	7.10701e+06	   75.9864	   14.9649	       2.4	7.15577e+06	     75.95	   14.8699	       2.4	7.36467e+06	   75.9119	   14.9132	       2.4	 7.2007e+06	   75.9495	   14.9616	       2.4	7.12976e+06	   75.9876	   14.9184	       2.4	7.29465e+06	
         R10	   2264	   76.3218	   14.7583	       2.4	9.26747e+06	   76.3411	   14.6834	       2.4	9.46709e+06	   76.2531	   14.6882	       2.4	9.08686e+06	    76.261	   14.7508	       2.4	8.86197e+06	   76.3314	   14.7208	       2.4	9.36653e+06	   76.2971	   14.6858	       2.4	9.27682e+06	   76.2571	   14.7195	       2.4	8.97387e+06	   76.2914	   14.7545	       2.4	9.06467e+06	
         R10	   2265	   76.2747	   14.8181	       2.4	8.87238e+06	   76.3312	   14.8117	       2.4	9.28961e+06	   76.3218	   14.7583	       2.4	9.32699e+06	    76.261	   14.7508	       2.4	8.93637e+06	   76.3029	   14.8149	       2.4	9.08096e+06	   76.3265	    14.785	       2.4	9.30796e+06	   76.2914	   14.7545	       2.4	9.13168e+06	   76.2679	   14.7845	       2.4	8.90404e+06	
         R10	   2266	    76.224	   14.8322	       2.4	8.51872e+06	   76.2747	   14.8181	       2.4	8.88608e+06	    76.261	   14.7508	       2.4	8.95042e+06	   76.1709	   14.7841	       2.4	8.37111e+06	   76.2493	   14.8252	       2.4	8.70223e+06	   76.2679	   14.7845	       2.4	8.91796e+06	    76.216	   14.7674	       2.4	8.66018e+06	   76.1975	   14.8082	       2.4	8.44478e+06	
         R10	   2267	    76.241	   14.8924	       2.4	8.44207e+06	   76.2905	    14.878	       2.4	8.86268e+06	   76.2747	   14.8181	       2.4	8.89036e+06	    76.224	   14.8322	       2.4	8.54445e+06	   76.2657	   14.8852	       2.4	8.65228e+06	   76.2826	   14.8481	       2.4	8.87608e+06	   76.2493	   14.8252	       2.4	8.71722e+06	   76.2325	   14.8623	       2.4	8.49268e+06	
         R10	   2268	   76.2635	    14.949	       2.4	8.42232e+06	    76.308	   14.9337	       2.4	8.87753e+06	   76.2905	    14.878	       2.4	8.87486e+06	    76.241	   14.8924	       2.4	8.44552e+06	   76.2858	   14.9414	       2.4	8.64975e+06	   76.2992	   14.9059	       2.4	8.87559e+06	   76.2657	   14.8852	       2.4	8.66006e+06	   76.2523	   14.9207	       2.4	8.43305e+06	
         R10	   2269	   76.2893	   15.0011	       2.4	8.46015e+06	   76.3276	   14.9848	       2.4	8.93317e+06	    76.308	   14.9337	       2.4	8.88024e+06	   76.2635	    14.949	       2.4	8.42267e+06	   76.3085	   14.9929	       2.4	8.69638e+06	   76.3178	   14.9592	       2.4	8.90597e+06	   76.2858	   14.9414	       2.4	8.65128e+06	   76.2764	   14.9751	       2.4	 8.4403e+06	
         R10	   2270	    76.416	   15.0913	       2.4	9.99955e+06	   76.4343	   15.0948	       2.4	1.03628e+07	   76.4441	   15.0661	       2.4	1.05217e+07	   76.4207	   15.0714	       2.4	1.01061e+07	   76.4251	   15.0931	       2.4	1.01808e+07	   76.4392	   15.0805	       2.4	1.04407e+07	   76.4324	   15.0688	       2.4	1.03132e+07	   76.4184	   15.0813	       2.4	 1.0052e+07	
         R10	   2271	   76.3856	   15.0731	       2.4	9.47718e+06	    76.398	   15.0946	       2.4	9.63288e+06	    76.416	   15.0913	       2.4	1.00167e+07	   76.4207	   15.0714	       2.4	1.01026e+07	   76.3918	   15.0838	       2.4	9.55487e+06	    76.407	    15.093	       2.4	9.82445e+06	   76.4184	   15.0813	       2.4	 1.0059e+07	   76.4032	   15.0722	       2.4	9.78893e+06	
         R10	   2272	    76.274	   15.1015	       2.4	7.79529e+06	   76.2676	   15.1294	       2.4	 7.5746e+06	   76.2915	   15.1308	       2.4	7.76601e+06	   76.3068	   15.1131	       2.4	8.04837e+06	   76.2708	   15.1154	       2.4	7.68425e+06	   76.2795	   15.1301	       2.4	7.66963e+06	   76.2991	    15.122	       2.4	7.90664e+06	   76.2904	   15.1073	       2.4	7.92091e+06	
         R10	   2273	    76.149	   15.0635	       2.4	7.26449e+06	   76.1337	    15.108	       2.4	 7.0842e+06	   76.1848	   15.1276	       2.4	7.17253e+06	   76.2033	   15.0893	       2.4	7.37154e+06	   76.1414	   15.0857	       2.4	7.17239e+06	   76.1592	   15.1178	       2.4	7.12656e+06	    76.194	   15.1085	       2.4	7.27032e+06	   76.1761	   15.0764	       2.4	 7.3158e+06	
         R10	   2274	   76.0876	    15.038	       2.4	7.16942e+06	   76.0782	   15.0905	       2.4	7.02679e+06	   76.1337	    15.108	       2.4	7.09204e+06	    76.149	   15.0635	       2.4	7.25392e+06	   76.0829	   15.0643	       2.4	7.09642e+06	    76.106	   15.0993	       2.4	7.05766e+06	   76.1414	   15.0857	       2.4	7.17099e+06	   76.1183	   15.0508	       2.4	7.20923e+06	
         R10	   2275	   76.0301	   15.0268	       2.4	7.14345e+06	   76.0206	   15.0747	       2.4	6.97486e+06	   76.0782	   15.0905	       2.4	 7.0567e+06	   76.0876	    15.038	       2.4	 7.1198e+06	   76.0253	   15.0508	       2.4	7.05656e+06	   76.0494	   15.0826	       2.4	7.01457e+06	   76.0829	   15.0643	       2.4	7.08625e+06	   76.0588	   15.0324	       2.4	7.12908e+06	
         R10	   2276	    75.814	   15.0694	       2.4	6.93115e+06	   75.8902	   15.1012	       2.4	6.95876e+06	   75.9105	   15.0379	       2.4	6.97873e+06	   75.8616	   15.0241	       2.4	7.02198e+06	   75.8521	   15.0853	       2.4	6.94286e+06	   75.9003	   15.0696	       2.4	6.96642e+06	    75.886	    15.031	       2.4	6.99966e+06	   75.8378	   15.0467	       2.4	6.97408e+06	
         R10	   2277	   76.0654	   14.8702	       2.4	7.66052e+06	   75.9889	   14.8719	       2.4	 7.4455e+06	   75.9864	   14.9649	       2.4	  7.142e+06	   76.0543	   14.9571	       2.4	7.34821e+06	   76.0271	   14.8711	       2.4	 7.5508e+06	   75.9876	   14.9184	       2.4	7.29193e+06	   76.0203	    14.961	       2.4	7.24278e+06	   76.0599	   14.9137	       2.4	7.50178e+06	
         R10	   2278	   76.1698	   14.8669	       2.4	8.07957e+06	    76.224	   14.8322	       2.4	 8.5271e+06	   76.1709	   14.7841	       2.4	 8.3945e+06	    76.143	   14.8439	       2.4	8.00416e+06	   76.1969	   14.8496	       2.4	8.30297e+06	   76.1975	   14.8082	       2.4	8.46066e+06	   76.1569	    14.814	       2.4	8.19862e+06	   76.1564	   14.8554	       2.4	8.04144e+06	
         R10	   2279	    76.191	   14.9116	       2.4	8.04256e+06	    76.241	   14.8924	       2.4	8.45241e+06	    76.224	   14.8322	       2.4	8.52418e+06	   76.1698	   14.8669	       2.4	8.10304e+06	    76.216	    14.902	       2.4	8.24693e+06	   76.2325	   14.8623	       2.4	 8.4876e+06	   76.1969	   14.8496	       2.4	8.31296e+06	   76.1804	   14.8893	       2.4	8.07251e+06	
         R10	   2280	   76.2182	   14.9669	       2.4	8.00805e+06	   76.2635	    14.949	       2.4	8.42217e+06	    76.241	   14.8924	       2.4	8.45645e+06	    76.191	   14.9116	       2.4	8.03776e+06	   76.2409	    14.958	       2.4	8.21469e+06	   76.2523	   14.9207	       2.4	8.43854e+06	    76.216	    14.902	       2.4	8.24634e+06	   76.2046	   14.9393	       2.4	8.02177e+06	
         R10	   2281	   76.2467	   15.0165	       2.4	7.99156e+06	   76.2893	   15.0011	       2.4	8.45348e+06	   76.2635	    14.949	       2.4	8.42145e+06	   76.2182	   14.9669	       2.4	8.00626e+06	    76.268	   15.0088	       2.4	8.22192e+06	   76.2764	   14.9751	       2.4	8.43632e+06	   76.2409	    14.958	       2.4	8.21342e+06	   76.2325	   14.9917	       2.4	7.99756e+06	
         R10	   2282	   76.3519	   15.0276	       2.4	9.09167e+06	   76.3276	   14.9848	       2.4	8.93369e+06	   76.2893	   15.0011	       2.4	8.45496e+06	   76.3097	   15.0406	       2.4	8.50599e+06	   76.3398	   15.0062	       2.4	  9.012e+06	   76.3085	   14.9929	       2.4	8.69404e+06	   76.2995	   15.0208	       2.4	 8.4796e+06	   76.3308	   15.0341	       2.4	8.79839e+06	
         R10	   2283	   76.2384	   15.1119	       2.4	7.46794e+06	   76.2033	   15.0893	       2.4	7.37387e+06	   76.1848	   15.1276	       2.4	7.16831e+06	   76.2276	   15.1492	       2.4	7.25209e+06	   76.2209	   15.1006	       2.4	7.41979e+06	    76.194	   15.1085	       2.4	 7.2693e+06	   76.2062	   15.1384	       2.4	7.20865e+06	    76.233	   15.1306	       2.4	 7.3586e+06	
         R10	   2284	   76.1729	    15.019	       2.4	7.51852e+06	    76.149	   15.0635	       2.4	7.25709e+06	   76.2033	   15.0893	       2.4	7.37054e+06	   76.2177	   15.0544	       2.4	 7.6099e+06	    76.161	   15.0413	       2.4	7.38591e+06	   76.1761	   15.0764	       2.4	7.31169e+06	   76.2105	   15.0718	       2.4	7.48914e+06	   76.1953	   15.0367	       2.4	7.56271e+06	
         R10	   2285	   76.1181	    14.993	       2.4	7.40996e+06	   76.0876	    15.038	       2.4	7.17922e+06	    76.149	   15.0635	       2.4	7.24823e+06	   76.1729	    15.019	       2.4	7.51015e+06	   76.1028	   15.0155	       2.4	7.29228e+06	   76.1183	   15.0508	       2.4	7.21128e+06	    76.161	   15.0413	       2.4	 7.3774e+06	   76.1455	    15.006	       2.4	7.45818e+06	
         R10	   2286	   76.1342	   14.9362	       2.4	7.64215e+06	    76.191	   14.9116	       2.4	8.05982e+06	   76.1698	   14.8669	       2.4	8.05128e+06	   76.1185	   14.9012	       2.4	7.80269e+06	   76.1626	   14.9239	       2.4	 7.8478e+06	   76.1804	   14.8893	       2.4	 8.0549e+06	   76.1442	   14.8841	       2.4	7.92625e+06	   76.1264	   14.9187	       2.4	7.72146e+06	
         R10	   2287	   76.3097	   15.0406	       2.4	8.49971e+06	   76.2893	   15.0011	       2.4	 8.4549e+06	   76.2467	   15.0165	       2.4	7.99765e+06	    76.268	   15.0572	       2.4	7.98046e+06	   76.2995	   15.0208	       2.4	8.47638e+06	    76.268	   15.0088	       2.4	8.22577e+06	   76.2573	   15.0369	       2.4	7.98795e+06	   76.2889	   15.0489	       2.4	8.23919e+06	
         R10	   2288	   76.3568	   15.0636	       2.4	9.02172e+06	   76.3856	   15.0731	       2.4	 9.5014e+06	   76.4014	    15.044	       2.4	9.79612e+06	   76.3519	   15.0276	       2.4	9.11046e+06	   76.3712	   15.0683	       2.4	 9.2614e+06	   76.3935	   15.0585	       2.4	9.64737e+06	   76.3766	   15.0358	       2.4	9.45317e+06	   76.3543	   15.0456	       2.4	9.06531e+06	
         R10	   2289	   76.3275	   15.0663	       2.4	8.59519e+06	   76.3568	   15.0636	       2.4	9.03128e+06	   76.3519	   15.0276	       2.4	9.11128e+06	   76.3097	   15.0406	       2.4	8.50214e+06	   76.3421	    15.065	       2.4	8.81303e+06	   76.3543	   15.0456	       2.4	9.07041e+06	   76.3308	   15.0341	       2.4	8.80617e+06	   76.3186	   15.0535	       2.4	8.54814e+06	
         R10	   2290	   76.3017	   15.0857	       2.4	8.16078e+06	   76.3275	   15.0663	       2.4	8.60873e+06	   76.3097	   15.0406	       2.4	8.49646e+06	    76.268	   15.0572	       2.4	7.97781e+06	   76.3146	    15.076	       2.4	8.38406e+06	   76.3186	   15.0535	       2.4	8.55212e+06	   76.2889	   15.0489	       2.4	8.23633e+06	   76.2849	   15.0714	       2.4	8.06822e+06	
         R10	   2291	    76.274	   15.1015	       2.4	 7.7838e+06	   76.3017	   15.0857	       2.4	8.16577e+06	    76.268	   15.0572	       2.4	7.97973e+06	   76.2488	   15.0817	       2.4	7.69455e+06	   76.2878	   15.0936	       2.4	7.97403e+06	   76.2849	   15.0714	       2.4	8.07169e+06	   76.2584	   15.0695	       2.4	7.83642e+06	   76.2614	   15.0916	       2.4	7.73848e+06	
         R10	   2292	   75.9126	   14.9584	       2.4	7.11572e+06	   75.8273	   14.9579	       2.4	7.04221e+06	   75.8616	   15.0241	       2.4	6.99162e+06	   75.9105	   15.0379	       2.4	6.97328e+06	   75.8699	   14.9581	       2.4	7.07652e+06	   75.8445	    14.991	       2.4	7.01582e+06	    75.886	    15.031	       2.4	6.98172e+06	   75.9115	   14.9981	       2.4	7.04189e+06	
         R10	   2293	   75.9864	   14.9649	       2.4	7.18154e+06	   75.9126	   14.9584	       2.4	7.11871e+06	   75.9105	   15.0379	       2.4	6.99323e+06	   75.9668	   15.0584	       2.4	6.97861e+06	   75.9495	   14.9616	       2.4	7.14786e+06	   75.9115	   14.9981	       2.4	7.05312e+06	   75.9386	   15.0481	       2.4	6.98504e+06	   75.9766	   15.0116	       2.4	7.07628e+06	
         R10	   2294	   75.9668	   15.0584	       2.4	6.99552e+06	   76.0206	   15.0747	       2.4	6.96373e+06	   76.0301	   15.0268	       2.4	7.09993e+06	   75.9864	   14.9649	       2.4	7.14871e+06	   75.9937	   15.0666	       2.4	6.97786e+06	   76.0253	   15.0508	       2.4	7.02909e+06	   76.0082	   14.9958	       2.4	7.12363e+06	   75.9766	   15.0116	       2.4	7.06875e+06	
         R10	   2295	   76.0543	   14.9571	       2.4	7.36073e+06	   75.9864	   14.9649	       2.4	 7.1321e+06	   76.0301	   15.0268	       2.4	 7.1566e+06	   76.0876	    15.038	       2.4	7.11776e+06	   76.0203	    14.961	       2.4	7.24455e+06	   76.0082	   14.9958	       2.4	7.14353e+06	   76.0588	   15.0324	       2.4	7.13523e+06	    76.071	   14.9976	       2.4	 7.2361e+06	
         R10	   2296	   75.9804	   14.7134	       2.4	7.76052e+06	   75.9682	   14.6323	       2.4	  8.036e+06	   75.8613	   14.6542	       2.4	7.69908e+06	   75.9173	   14.7128	       2.4	7.59965e+06	   75.9743	   14.6729	       2.4	7.89536e+06	   75.9148	   14.6433	       2.4	7.86316e+06	   75.8893	   14.6835	       2.4	7.64844e+06	   75.9489	   14.7131	       2.4	7.67858e+06	
         R10	   2297	   75.9115	   14.7756	       2.4	7.55353e+06	   75.9829	   14.7932	       2.4	7.55527e+06	   75.9804	   14.7134	       2.4	7.92493e+06	   75.9173	   14.7128	       2.4	7.61299e+06	   75.9472	   14.7844	       2.4	 7.5536e+06	   75.9816	   14.7533	       2.4	7.73909e+06	   75.9489	   14.7131	       2.4	7.76562e+06	   75.9144	   14.7442	       2.4	7.58326e+06	
         R10	   2298	   75.8613	   14.6542	       2.4	7.59811e+06	   75.8333	   14.7656	       2.4	7.30268e+06	   75.9115	   14.7756	       2.4	7.51386e+06	   75.9173	   14.7128	       2.4	7.73875e+06	   75.8473	   14.7099	       2.4	7.44371e+06	   75.8724	   14.7706	       2.4	7.40406e+06	   75.9144	   14.7442	       2.4	7.62609e+06	   75.8893	   14.6835	       2.4	7.66764e+06	
         R10	   2299	   75.9829	   14.7932	       2.4	7.69882e+06	   75.9115	   14.7756	       2.4	7.50067e+06	   75.9112	    14.868	       2.4	7.30058e+06	   75.9889	   14.8719	       2.4	7.38607e+06	   75.9472	   14.7844	       2.4	7.59742e+06	   75.9113	   14.8218	       2.4	7.40027e+06	     75.95	   14.8699	       2.4	7.34124e+06	   75.9859	   14.8326	       2.4	7.54182e+06	
         R10	   2300	   76.0699	   14.7893	       2.4	 7.9259e+06	   75.9829	   14.7932	       2.4	7.67839e+06	   75.9889	   14.8719	       2.4	7.40342e+06	   76.0654	   14.8702	       2.4	7.63997e+06	   76.0264	   14.7913	       2.4	 7.7994e+06	   75.9859	   14.8326	       2.4	7.54009e+06	   76.0271	   14.8711	       2.4	7.51911e+06	   76.0677	   14.8298	       2.4	 7.7821e+06	
         R10	   2301	    76.143	   14.8439	       2.4	8.03425e+06	   76.1709	   14.7841	       2.4	8.40072e+06	   76.0699	   14.7893	       2.4	7.93033e+06	   76.0654	   14.8702	       2.4	7.61603e+06	   76.1569	    14.814	       2.4	8.21599e+06	   76.1204	   14.7867	       2.4	8.16246e+06	   76.0677	   14.8298	       2.4	7.77272e+06	   76.1042	   14.8571	       2.4	7.82366e+06	
         R10	   2302	   76.1185	   14.9012	       2.4	 7.7969e+06	   76.1698	   14.8669	       2.4	8.05988e+06	    76.143	   14.8439	       2.4	8.06636e+06	   76.0654	   14.8702	       2.4	7.58351e+06	   76.1442	   14.8841	       2.4	7.92733e+06	   76.1564	   14.8554	       2.4	 8.0626e+06	   76.1042	   14.8571	       2.4	7.82243e+06	    76.092	   14.8857	       2.4	7.68926e+06	
         R10	   2303	   76.1185	   14.9012	       2.4	7.75884e+06	   76.0654	   14.8702	       2.4	7.58628e+06	   76.0543	   14.9571	       2.4	7.35138e+06	   76.1342	   14.9362	       2.4	7.58946e+06	    76.092	   14.8857	       2.4	7.67143e+06	   76.0599	   14.9137	       2.4	7.46727e+06	   76.0943	   14.9467	       2.4	7.46832e+06	   76.1264	   14.9187	       2.4	 7.6732e+06	
         R10	   2304	   76.2182	   14.9669	       2.4	8.00435e+06	    76.191	   14.9116	       2.4	8.05065e+06	   76.1342	   14.9362	       2.4	 7.6665e+06	   76.1763	   14.9747	       2.4	7.69986e+06	   76.2046	   14.9393	       2.4	8.02692e+06	   76.1626	   14.9239	       2.4	7.85675e+06	   76.1552	   14.9555	       2.4	 7.6816e+06	   76.1973	   14.9708	       2.4	7.85145e+06	
         R10	   2305	   76.1729	    15.019	       2.4	7.50162e+06	   76.2467	   15.0165	       2.4	7.98187e+06	   76.2182	   14.9669	       2.4	7.99836e+06	   76.1763	   14.9747	       2.4	7.71369e+06	   76.2098	   15.0178	       2.4	7.73896e+06	   76.2325	   14.9917	       2.4	 7.9889e+06	   76.1973	   14.9708	       2.4	7.85559e+06	   76.1746	   14.9969	       2.4	7.60648e+06	
         R10	   2306	   76.1342	   14.9362	       2.4	7.62173e+06	   76.1181	    14.993	       2.4	7.42981e+06	   76.1729	    15.019	       2.4	7.49696e+06	   76.1763	   14.9747	       2.4	7.72176e+06	   76.1261	   14.9646	       2.4	 7.5241e+06	   76.1455	    15.006	       2.4	7.46147e+06	   76.1746	   14.9969	       2.4	7.60836e+06	   76.1552	   14.9555	       2.4	7.67113e+06	
         R10	   2307	   76.2467	   15.0165	       2.4	7.98434e+06	   76.1729	    15.019	       2.4	7.50505e+06	   76.2177	   15.0544	       2.4	7.59579e+06	    76.268	   15.0572	       2.4	7.97422e+06	   76.2098	   15.0178	       2.4	7.74199e+06	   76.1953	   15.0367	       2.4	7.54898e+06	   76.2428	   15.0558	       2.4	7.78354e+06	   76.2573	   15.0369	       2.4	7.97829e+06	
         R10	   2308	   76.2488	   15.0817	       2.4	7.68406e+06	    76.268	   15.0572	       2.4	7.97027e+06	   76.2177	   15.0544	       2.4	7.60507e+06	   76.2033	   15.0893	       2.4	7.36942e+06	   76.2584	   15.0695	       2.4	7.82654e+06	   76.2428	   15.0558	       2.4	7.78631e+06	   76.2105	   15.0718	       2.4	  7.486e+06	    76.226	   15.0855	       2.4	7.52479e+06	
         R10	   2309	   76.2488	   15.0817	       2.4	7.67908e+06	   76.2033	   15.0893	       2.4	7.37502e+06	   76.2384	   15.1119	       2.4	7.45642e+06	    76.274	   15.1015	       2.4	7.79029e+06	    76.226	   15.0855	       2.4	7.52523e+06	   76.2209	   15.1006	       2.4	7.41457e+06	   76.2562	   15.1067	       2.4	7.62191e+06	   76.2614	   15.0916	       2.4	7.73403e+06	
         R10	   2310	   76.2676	   15.1294	       2.4	7.55218e+06	    76.274	   15.1015	       2.4	7.78749e+06	   76.2384	   15.1119	       2.4	7.45594e+06	   76.2276	   15.1492	       2.4	7.24871e+06	   76.2708	   15.1154	       2.4	7.66913e+06	   76.2562	   15.1067	       2.4	7.62034e+06	    76.233	   15.1306	       2.4	7.35087e+06	   76.2476	   15.1393	       2.4	 7.3977e+06	
         R10	   2311	   76.2467	   15.2013	       2.4	7.15843e+06	    76.286	   15.1842	       2.4	7.37549e+06	   76.2711	   15.1597	       2.4	7.42412e+06	   76.2501	   15.1708	       2.4	7.26486e+06	   76.2663	   15.1927	       2.4	7.26355e+06	   76.2785	   15.1719	       2.4	7.39945e+06	   76.2606	   15.1653	       2.4	 7.3436e+06	   76.2484	   15.1861	       2.4	7.21085e+06	
         R10	   2312	   76.2276	   15.1492	       2.4	7.24728e+06	   76.2089	   15.1879	       2.4	7.10284e+06	   76.2467	   15.2013	       2.4	7.16833e+06	   76.2501	   15.1708	       2.4	7.26681e+06	   76.2183	   15.1686	       2.4	7.17295e+06	   76.2278	   15.1946	       2.4	7.13439e+06	   76.2484	   15.1861	       2.4	7.21678e+06	   76.2388	     15.16	       2.4	7.25653e+06	
         R10	   2313	   76.2711	   15.1597	       2.4	7.43495e+06	   76.2676	   15.1294	       2.4	7.56086e+06	   76.2276	   15.1492	       2.4	7.24813e+06	   76.2501	   15.1708	       2.4	7.26148e+06	   76.2694	   15.1446	       2.4	7.49737e+06	   76.2476	   15.1393	       2.4	7.40171e+06	   76.2388	     15.16	       2.4	7.25427e+06	   76.2606	   15.1653	       2.4	7.34725e+06	
         R10	   2314	    76.291	      15.2	       2.4	7.33066e+06	    76.286	   15.1842	       2.4	7.37692e+06	   76.2467	   15.2013	       2.4	 7.1581e+06	   76.2726	   15.2202	       2.4	 7.2007e+06	   76.2885	   15.1921	       2.4	7.35372e+06	   76.2663	   15.1927	       2.4	7.26426e+06	   76.2597	   15.2108	       2.4	7.17894e+06	   76.2818	   15.2101	       2.4	7.26417e+06	
         R10	   2315	   76.2726	   15.2202	       2.4	7.20552e+06	   76.2654	   15.2448	       2.4	7.17908e+06	   76.2932	   15.2523	       2.4	7.23078e+06	   76.2879	    15.231	       2.4	7.21588e+06	    76.269	   15.2325	       2.4	 7.1917e+06	   76.2793	   15.2485	       2.4	7.20401e+06	   76.2906	   15.2416	       2.4	7.22331e+06	   76.2802	   15.2256	       2.4	7.21054e+06	
         R10	   2316	   76.2942	   15.2179	       2.4	7.27704e+06	    76.291	      15.2	       2.4	 7.3188e+06	   76.2726	   15.2202	       2.4	7.20598e+06	   76.2879	    15.231	       2.4	 7.2076e+06	   76.2926	    15.209	       2.4	7.29785e+06	   76.2818	   15.2101	       2.4	7.26103e+06	   76.2802	   15.2256	       2.4	 7.2066e+06	    76.291	   15.2244	       2.4	7.24196e+06	
         R10	   2317	   76.2932	   15.2523	       2.4	7.21498e+06	   76.3111	   15.2321	       2.4	7.27531e+06	   76.2942	   15.2179	       2.4	7.27063e+06	   76.2879	    15.231	       2.4	7.21569e+06	   76.3022	   15.2422	       2.4	7.24374e+06	   76.3027	    15.225	       2.4	7.27273e+06	    76.291	   15.2244	       2.4	7.24289e+06	   76.2906	   15.2416	       2.4	 7.2153e+06	
         R10	   2318	   76.3856	   15.0731	       2.4	9.48904e+06	   76.3568	   15.0636	       2.4	9.02925e+06	   76.3589	   15.0907	       2.4	8.94999e+06	   76.3747	   15.0937	       2.4	9.21286e+06	   76.3712	   15.0683	       2.4	9.25894e+06	   76.3579	   15.0771	       2.4	8.98899e+06	   76.3668	   15.0922	       2.4	9.08136e+06	   76.3802	   15.0834	       2.4	9.35017e+06	
         R10	   2319	    76.466	     15.13	       2.4	1.10886e+07	    76.483	     15.13	       2.4	1.13921e+07	   76.4778	   15.1118	       2.4	1.12043e+07	   76.4745	     15.13	       2.4	1.12391e+07	   76.4804	   15.1209	       2.4	1.12982e+07	   76.4719	   15.1209	       2.4	1.11448e+07	       N/A	       N/A	       N/A	        N/A	       N/A	       N/A	       N/A	        N/A	
         R10	   2320	   76.3812	   15.1108	       2.4	9.24231e+06	   76.3991	   15.1133	       2.4	 9.5967e+06	    76.398	   15.0946	       2.4	9.64246e+06	   76.3901	   15.1121	       2.4	9.41935e+06	   76.3985	    15.104	       2.4	9.61899e+06	   76.3896	   15.1027	       2.4	9.44133e+06	       N/A	       N/A	       N/A	        N/A	       N/A	       N/A	       N/A	        N/A	
         R10	   2321	   76.3467	   15.1123	       2.4	8.62236e+06	   76.3644	   15.1138	       2.4	8.90958e+06	   76.3589	   15.0907	       2.4	8.94679e+06	   76.3556	    15.113	       2.4	 8.7658e+06	   76.3617	   15.1022	       2.4	8.92757e+06	   76.3528	   15.1015	       2.4	8.78386e+06	       N/A	       N/A	       N/A	        N/A	       N/A	       N/A	       N/A	        N/A	
         R10	   2322	   76.3101	   15.1638	       2.4	7.72147e+06	   76.3136	   15.1461	       2.4	7.89389e+06	   76.2936	   15.1476	       2.4	7.67754e+06	   76.3119	    15.155	       2.4	7.80738e+06	   76.3036	   15.1468	       2.4	 7.7851e+06	   76.3019	   15.1557	       2.4	7.69904e+06	       N/A	       N/A	       N/A	        N/A	       N/A	       N/A	       N/A	        N/A	
         R10	   2323	   76.3111	   15.2321	       2.4	7.28639e+06	   76.3132	    15.214	       2.4	7.37848e+06	   76.2942	   15.2179	       2.4	7.27567e+06	   76.3122	    15.223	       2.4	7.33216e+06	   76.3037	    15.216	       2.4	7.32622e+06	   76.3027	    15.225	       2.4	7.28084e+06	       N/A	       N/A	       N/A	        N/A	       N/A	       N/A	       N/A	        N/A	
         R10	   2324	   76.2915	   15.1308	       2.4	  7.771e+06	   76.3134	   15.1309	       2.4	8.00481e+06	   76.3068	   15.1131	       2.4	8.05249e+06	   76.3024	   15.1309	       2.4	7.88737e+06	   76.3101	    15.122	       2.4	8.02837e+06	   76.2991	    15.122	       2.4	7.91115e+06	       N/A	       N/A	       N/A	        N/A	       N/A	       N/A	       N/A	        N/A	
         R10	   2325	    76.286	   15.1842	       2.4	7.38502e+06	   76.2945	   15.1691	       2.4	7.53927e+06	   76.2711	   15.1597	       2.4	7.43915e+06	   76.2902	   15.1766	       2.4	7.46169e+06	   76.2828	   15.1644	       2.4	7.48844e+06	   76.2785	   15.1719	       2.4	7.41155e+06	       N/A	       N/A	       N/A	        N/A	       N/A	       N/A	       N/A	        N/A	
         R10	   2326	   76.3218	   14.7583	       2.4	9.25893e+06	   76.3828	   14.7456	       2.4	9.69229e+06	   76.3411	   14.6834	       2.4	9.44816e+06	   76.3523	   14.7519	       2.4	9.47508e+06	   76.3619	   14.7145	       2.4	9.56942e+06	   76.3314	   14.7208	       2.4	9.35312e+06	       N/A	       N/A	       N/A	        N/A	       N/A	       N/A	       N/A	        N/A	
         R10	   2327	   76.4343	   15.0948	       2.4	1.03596e+07	   76.4554	   15.0933	       2.4	1.07575e+07	   76.4441	   15.0661	       2.4	1.05171e+07	   76.4448	   15.0941	       2.4	1.05577e+07	   76.4497	   15.0797	       2.4	1.06372e+07	   76.4392	   15.0805	       2.4	1.04368e+07	       N/A	       N/A	       N/A	        N/A	       N/A	       N/A	       N/A	        N/A	
         R10	   2328	   76.3017	   15.0857	       2.4	8.16356e+06	   76.3328	    15.092	       2.4	8.52562e+06	   76.3275	   15.0663	       2.4	8.60687e+06	   76.3173	   15.0888	       2.4	8.34409e+06	   76.3301	   15.0791	       2.4	8.56569e+06	   76.3146	    15.076	       2.4	8.38448e+06	       N/A	       N/A	       N/A	        N/A	       N/A	       N/A	       N/A	        N/A	
         R10	   2329	   76.3856	   15.0731	       2.4	 9.4952e+06	   76.4207	   15.0714	       2.4	1.00884e+07	   76.4014	    15.044	       2.4	9.77694e+06	   76.4032	   15.0722	       2.4	9.79087e+06	   76.4111	   15.0577	       2.4	9.93251e+06	   76.3935	   15.0585	       2.4	9.63443e+06	       N/A	       N/A	       N/A	        N/A	       N/A	       N/A	       N/A	        N/A	
         R10	   2330	    76.274	   15.1015	       2.4	7.78614e+06	   76.3068	   15.1131	       2.4	8.04797e+06	   76.3017	   15.0857	       2.4	8.16988e+06	   76.2904	   15.1073	       2.4	7.91615e+06	   76.3042	   15.0994	       2.4	8.10832e+06	   76.2878	   15.0936	       2.4	7.97711e+06	       N/A	       N/A	       N/A	        N/A	       N/A	       N/A	       N/A	        N/A	
         R10	   2331	   76.4014	    15.044	       2.4	9.76801e+06	   76.3884	   15.0075	       2.4	9.66114e+06	   76.3519	   15.0276	       2.4	9.10543e+06	   76.3949	   15.0257	       2.4	 9.7141e+06	   76.3701	   15.0175	       2.4	9.38233e+06	   76.3766	   15.0358	       2.4	 9.4366e+06	       N/A	       N/A	       N/A	        N/A	       N/A	       N/A	       N/A	        N/A	
         R10	   2332	   76.2932	   15.2523	       2.4	7.22569e+06	   76.3131	   15.2662	       2.4	  7.268e+06	   76.3153	   15.2492	       2.4	7.25946e+06	   76.3032	   15.2593	       2.4	7.24648e+06	   76.3142	   15.2577	       2.4	7.26358e+06	   76.3043	   15.2508	       2.4	7.24164e+06	       N/A	       N/A	       N/A	        N/A	       N/A	       N/A	       N/A	        N/A	
         R10	   2333	   76.1342	   14.9362	       2.4	7.60859e+06	   76.0543	   14.9571	       2.4	7.36976e+06	   76.1181	    14.993	       2.4	7.45249e+06	   76.0943	   14.9467	       2.4	7.48702e+06	   76.0862	   14.9751	       2.4	7.41034e+06	   76.1261	   14.9646	       2.4	7.52934e+06	       N/A	       N/A	       N/A	        N/A	       N/A	       N/A	       N/A	        N/A	
         R10	   2334	   76.0543	   14.9571	       2.4	7.27118e+06	   76.0876	    15.038	       2.4	7.16736e+06	   76.1181	    14.993	       2.4	7.42319e+06	    76.071	   14.9976	       2.4	7.21583e+06	   76.1028	   15.0155	       2.4	7.29359e+06	   76.0862	   14.9751	       2.4	7.34517e+06	       N/A	       N/A	       N/A	        N/A	       N/A	       N/A	       N/A	        N/A	
         R10	   2335	   76.3111	   15.2321	       2.4	7.27583e+06	   76.2932	   15.2523	       2.4	7.21997e+06	   76.3153	   15.2492	       2.4	7.26587e+06	   76.3022	   15.2422	       2.4	7.24648e+06	   76.3043	   15.2508	       2.4	7.24186e+06	   76.3132	   15.2407	       2.4	7.27082e+06	       N/A	       N/A	       N/A	        N/A	       N/A	       N/A	       N/A	        N/A	
         R10	   2336	    75.814	   15.0694	       2.4	6.93124e+06	   75.8616	   15.0241	       2.4	7.01642e+06	   75.8273	   14.9579	       2.4	7.06036e+06	   75.8378	   15.0467	       2.4	6.97245e+06	   75.8445	    14.991	       2.4	7.03709e+06	   75.8206	   15.0136	       2.4	6.99165e+06	       N/A	       N/A	       N/A	        N/A	       N/A	       N/A	       N/A	        N/A	
         R10	   2337	   76.6688	   14.5306	       2.4	8.67056e+06	   76.6654	     14.45	       2.4	9.27852e+06	    76.581	     14.45	       2.4	1.01337e+07	    76.583	   14.5278	       2.4	8.36898e+06	   76.6671	   14.4903	       2.4	8.96889e+06	   76.6232	     14.45	       2.4	9.66556e+06	    76.582	   14.4889	       2.4	9.15413e+06	   76.6259	   14.5292	       2.4	8.51481e+06	
         R10	   2338	    76.756	   14.5333	       2.4	8.26308e+06	   76.7532	     14.45	       2.4	9.07156e+06	   76.6654	     14.45	       2.4	9.28025e+06	   76.6688	   14.5306	       2.4	 8.6132e+06	   76.7546	   14.4916	       2.4	8.65947e+06	   76.7093	     14.45	       2.4	9.16614e+06	   76.6671	   14.4903	       2.4	8.94345e+06	   76.7124	   14.5319	       2.4	8.43069e+06	
         R10	   2339	    76.848	   14.5367	       2.4	7.95007e+06	   76.8443	     14.45	       2.4	8.79844e+06	   76.7532	     14.45	       2.4	9.05734e+06	    76.756	   14.5333	       2.4	8.25194e+06	   76.8461	   14.4934	       2.4	 8.3622e+06	   76.7987	     14.45	       2.4	 8.9199e+06	   76.7546	   14.4916	       2.4	8.64615e+06	    76.802	    14.535	       2.4	8.09744e+06	
         R10	   2340	   76.9416	   14.5403	       2.4	7.68576e+06	   76.9387	     14.45	       2.4	8.55249e+06	   76.8443	     14.45	       2.4	8.79157e+06	    76.848	   14.5367	       2.4	7.95762e+06	   76.9402	   14.4951	       2.4	8.10259e+06	   76.8915	     14.45	       2.4	8.66667e+06	   76.8461	   14.4934	       2.4	8.36269e+06	   76.8948	   14.5385	       2.4	7.81798e+06	
         R10	   2341	     77.04	   14.5438	       2.4	7.45294e+06	   77.0365	     14.45	       2.4	 8.3115e+06	   76.9387	     14.45	       2.4	8.54629e+06	   76.9416	   14.5403	       2.4	7.68937e+06	   77.0383	   14.4969	       2.4	7.86174e+06	   76.9876	     14.45	       2.4	 8.4249e+06	   76.9402	   14.4951	       2.4	 8.1015e+06	   76.9908	    14.542	       2.4	7.56767e+06	
         R10	   2342	   77.1416	   14.5484	       2.4	7.26221e+06	   77.1376	     14.45	       2.4	8.08038e+06	   77.0365	     14.45	       2.4	8.30819e+06	     77.04	   14.5438	       2.4	7.46506e+06	   77.1396	   14.4992	       2.4	7.64704e+06	   77.0871	     14.45	       2.4	8.19099e+06	   77.0383	   14.4969	       2.4	7.86619e+06	   77.0908	   14.5461	       2.4	7.36053e+06	
         R10	   2343	   77.2456	   14.5528	       2.4	7.10732e+06	   77.2421	     14.45	       2.4	7.87097e+06	   77.1376	     14.45	       2.4	8.07966e+06	   77.1416	   14.5484	       2.4	7.27199e+06	   77.2439	   14.5014	       2.4	7.46156e+06	   77.1899	     14.45	       2.4	7.97247e+06	   77.1396	   14.4992	       2.4	 7.6519e+06	   77.1936	   14.5506	       2.4	7.18672e+06	
         R10	   2344	     77.35	   14.5579	       2.4	6.97988e+06	     77.35	     14.45	       2.4	7.67505e+06	   77.2421	     14.45	       2.4	7.86887e+06	   77.2456	   14.5528	       2.4	7.12043e+06	     77.35	   14.5039	       2.4	7.29704e+06	   77.2961	     14.45	       2.4	7.76921e+06	   77.2439	   14.5014	       2.4	7.46773e+06	   77.2978	   14.5553	       2.4	7.04733e+06	
         R10	   2345	     77.35	   14.6624	       2.4	 6.9616e+06	     77.35	   14.5579	       2.4	7.27693e+06	   77.2456	   14.5528	       2.4	7.47709e+06	   77.2452	   14.6541	       2.4	7.07963e+06	     77.35	   14.6101	       2.4	7.10445e+06	   77.2978	   14.5553	       2.4	7.37386e+06	   77.2454	   14.6034	       2.4	7.26479e+06	   77.2976	   14.6582	       2.4	7.01736e+06	
         R10	   2346	   77.2398	   14.7588	       2.4	7.03664e+06	     77.35	   14.7635	       2.4	6.90662e+06	     77.35	   14.6624	       2.4	7.11713e+06	   77.2452	   14.6541	       2.4	7.24722e+06	   77.2949	   14.7612	       2.4	 6.9671e+06	     77.35	   14.7129	       2.4	7.00545e+06	   77.2976	   14.6582	       2.4	 7.1793e+06	   77.2425	   14.7064	       2.4	7.13685e+06	
         R10	   2347	   77.2648	   14.8626	       2.4	6.92677e+06	     77.35	   14.8613	       2.4	6.86861e+06	     77.35	   14.7635	       2.4	6.99825e+06	   77.2398	   14.7588	       2.4	7.11034e+06	   77.3074	    14.862	       2.4	6.89493e+06	     77.35	   14.8124	       2.4	6.93111e+06	   77.2949	   14.7612	       2.4	7.05085e+06	   77.2523	   14.8107	       2.4	7.01567e+06	
         R10	   2348	   77.2651	   14.9563	       2.4	6.83793e+06	     77.35	   14.9557	       2.4	6.82607e+06	     77.35	   14.8613	       2.4	 6.9173e+06	   77.2648	   14.8626	       2.4	6.95648e+06	   77.3075	    14.956	       2.4	 6.8301e+06	     77.35	   14.9085	       2.4	6.87035e+06	   77.3074	    14.862	       2.4	6.93469e+06	   77.2649	   14.9094	       2.4	6.89549e+06	
         R10	   2349	   77.2667	   15.0442	       2.4	6.78687e+06	     77.35	   15.0468	       2.4	6.82182e+06	     77.35	   14.9557	       2.4	6.84602e+06	   77.2651	   14.9563	       2.4	6.86394e+06	   77.3083	   15.0455	       2.4	6.80328e+06	     77.35	   15.0013	       2.4	6.83168e+06	   77.3075	    14.956	       2.4	6.85311e+06	   77.2659	   15.0002	       2.4	6.82255e+06	
         R10	   2350	   77.2696	   15.1314	       2.4	6.82621e+06	     77.35	   15.1346	       2.4	6.83356e+06	     77.35	   15.0468	       2.4	6.84259e+06	   77.2667	   15.0442	       2.4	6.80159e+06	   77.3098	    15.133	       2.4	 6.8286e+06	     77.35	   15.0907	       2.4	6.83258e+06	   77.3083	   15.0455	       2.4	6.82112e+06	   77.2682	   15.0878	       2.4	  6.809e+06	
         R10	   2351	   77.2718	   15.2169	       2.4	6.94177e+06	     77.35	    15.219	       2.4	6.95062e+06	     77.35	   15.1346	       2.4	6.84405e+06	   77.2696	   15.1314	       2.4	6.82613e+06	   77.3109	    15.218	       2.4	6.94523e+06	     77.35	   15.1768	       2.4	6.88928e+06	   77.3098	    15.133	       2.4	6.83413e+06	   77.2707	   15.1741	       2.4	6.87526e+06	
         R10	   2352	   77.2702	      15.3	       2.4	7.18039e+06	     77.35	      15.3	       2.4	7.16573e+06	     77.35	    15.219	       2.4	6.94728e+06	   77.2718	   15.2169	       2.4	6.93865e+06	   77.3101	      15.3	       2.4	7.17209e+06	     77.35	   15.2595	       2.4	7.04409e+06	   77.3109	    15.218	       2.4	6.94199e+06	    77.271	   15.2585	       2.4	7.04693e+06	
         R10	   2353	   77.1952	      15.3	       2.4	7.18659e+06	   77.2702	      15.3	       2.4	7.17148e+06	   77.2718	   15.2169	       2.4	6.94032e+06	   77.1965	   15.2182	       2.4	6.93376e+06	   77.2327	      15.3	       2.4	7.17805e+06	    77.271	   15.2585	       2.4	7.04321e+06	   77.2341	   15.2176	       2.4	6.93614e+06	   77.1959	   15.2591	       2.4	7.04803e+06	
         R10	   2354	   77.1288	   15.2245	       2.4	6.92984e+06	   77.1251	      15.3	       2.4	  7.195e+06	   77.1952	      15.3	       2.4	7.18739e+06	   77.1965	   15.2182	       2.4	6.92983e+06	    77.127	   15.2622	       2.4	 7.0526e+06	   77.1601	      15.3	       2.4	7.19027e+06	   77.1959	   15.2591	       2.4	7.04643e+06	   77.1627	   15.2213	       2.4	6.92886e+06	
         R10	   2355	   77.0643	   15.2363	       2.4	6.95246e+06	   77.0597	      15.3	       2.4	7.20731e+06	   77.1251	      15.3	       2.4	7.20049e+06	   77.1288	   15.2245	       2.4	6.92867e+06	    77.062	   15.2682	       2.4	7.07332e+06	   77.0924	      15.3	       2.4	7.20307e+06	    77.127	   15.2622	       2.4	 7.0547e+06	   77.0966	   15.2304	       2.4	6.93937e+06	
         R10	   2356	   77.0023	    15.244	       2.4	6.96771e+06	   76.9991	      15.3	       2.4	 7.2043e+06	   77.0597	      15.3	       2.4	7.20311e+06	   77.0643	   15.2363	       2.4	6.94686e+06	   77.0007	    15.272	       2.4	7.08104e+06	   77.0294	      15.3	       2.4	  7.203e+06	    77.062	   15.2682	       2.4	7.06847e+06	   77.0333	   15.2402	       2.4	6.95613e+06	
         R10	   2357	   76.9467	   15.2467	       2.4	6.96426e+06	   76.9433	      15.3	       2.4	    7.2e+06	   76.9991	      15.3	       2.4	7.20096e+06	   77.0023	    15.244	       2.4	6.96498e+06	    76.945	   15.2733	       2.4	7.07816e+06	   76.9712	      15.3	       2.4	7.19963e+06	   77.0007	    15.272	       2.4	7.07805e+06	   76.9745	   15.2454	       2.4	6.96376e+06	
         R10	   2358	   76.8962	   15.2505	       2.4	6.96203e+06	   76.8924	      15.3	       2.4	7.19856e+06	   76.9433	      15.3	       2.4	7.20489e+06	   76.9467	   15.2467	       2.4	6.96013e+06	   76.8943	   15.2752	       2.4	7.07746e+06	   76.9179	      15.3	       2.4	7.20085e+06	    76.945	   15.2733	       2.4	7.07857e+06	   76.9214	   15.2486	       2.4	6.96023e+06	
         R10	   2359	   76.8503	   15.2554	       2.4	6.96834e+06	   76.8462	      15.3	       2.4	7.19758e+06	   76.8924	      15.3	       2.4	7.20205e+06	   76.8962	   15.2505	       2.4	6.96044e+06	   76.8483	   15.2777	       2.4	7.08117e+06	   76.8693	      15.3	       2.4	 7.1989e+06	   76.8943	   15.2752	       2.4	7.07841e+06	   76.8733	   15.2529	       2.4	6.96352e+06	
         R10	   2360	   76.8092	   15.2609	       2.4	6.97996e+06	   76.8048	      15.3	       2.4	7.19676e+06	   76.8462	      15.3	       2.4	7.20132e+06	   76.8503	   15.2554	       2.4	6.96634e+06	    76.807	   15.2804	       2.4	7.08741e+06	   76.8255	      15.3	       2.4	7.19809e+06	   76.8483	   15.2777	       2.4	7.08204e+06	   76.8297	   15.2581	       2.4	6.97227e+06	
         R10	   2361	   76.7727	   15.2663	       2.4	6.99622e+06	   76.7683	      15.3	       2.4	7.19976e+06	   76.8048	      15.3	       2.4	7.20009e+06	   76.8092	   15.2609	       2.4	6.97862e+06	   76.7705	   15.2831	       2.4	7.09757e+06	   76.7865	      15.3	       2.4	7.19892e+06	    76.807	   15.2804	       2.4	7.08839e+06	   76.7909	   15.2636	       2.4	6.98654e+06	
         R10	   2362	   76.7408	   15.2715	       2.4	7.01688e+06	   76.7365	      15.3	       2.4	7.20548e+06	   76.7683	      15.3	       2.4	7.20233e+06	   76.7727	   15.2663	       2.4	6.99483e+06	   76.7387	   15.2857	       2.4	7.11103e+06	   76.7524	      15.3	       2.4	7.20287e+06	   76.7705	   15.2831	       2.4	7.09815e+06	   76.7567	   15.2689	       2.4	7.00498e+06	
         R10	   2363	   76.7136	    15.276	       2.4	7.03716e+06	   76.7095	      15.3	       2.4	7.21975e+06	   76.7365	      15.3	       2.4	7.20923e+06	   76.7408	   15.2715	       2.4	7.01522e+06	   76.7115	    15.288	       2.4	7.12837e+06	    76.723	      15.3	       2.4	7.21346e+06	   76.7387	   15.2857	       2.4	7.11207e+06	   76.7272	   15.2737	       2.4	7.02534e+06	
         R10	   2364	   76.6897	   15.2769	       2.4	7.04548e+06	   76.6874	      15.3	       2.4	7.23259e+06	   76.7095	      15.3	       2.4	 7.2192e+06	   76.7136	    15.276	       2.4	 7.0392e+06	   76.6885	   15.2884	       2.4	7.13897e+06	   76.6984	      15.3	       2.4	7.22504e+06	   76.7115	    15.288	       2.4	7.12909e+06	   76.7016	   15.2765	       2.4	7.04143e+06	
         R10	   2365	     76.67	    15.283	       2.4	 7.0873e+06	     76.67	      15.3	       2.4	7.26217e+06	   76.6874	      15.3	       2.4	7.23306e+06	   76.6897	   15.2769	       2.4	7.04514e+06	     76.67	   15.2915	       2.4	7.17465e+06	   76.6787	      15.3	       2.4	 7.2469e+06	   76.6885	   15.2884	       2.4	7.13901e+06	   76.6798	   15.2799	       2.4	7.06543e+06	
         R10	   2366	   76.6889	   15.2345	       2.4	7.00671e+06	     76.67	    15.232	       2.4	7.08514e+06	     76.67	    15.249	       2.4	7.02505e+06	   76.6896	   15.2534	       2.4	6.98438e+06	   76.6794	   15.2333	       2.4	7.04484e+06	     76.67	   15.2405	       2.4	 7.0549e+06	   76.6798	   15.2512	       2.4	7.00366e+06	   76.6892	    15.244	       2.4	6.99536e+06	
         R10	   2367	   76.6886	   15.2158	       2.4	7.08207e+06	     76.67	    15.215	       2.4	7.19793e+06	     76.67	    15.232	       2.4	 7.0869e+06	   76.6889	   15.2345	       2.4	7.00882e+06	   76.6793	   15.2154	       2.4	7.13899e+06	     76.67	   15.2235	       2.4	7.14224e+06	   76.6794	   15.2333	       2.4	7.04679e+06	   76.6888	   15.2252	       2.4	7.04523e+06	
         R10	   2368	   76.6865	   15.2003	       2.4	7.18982e+06	     76.67	    15.198	       2.4	7.33661e+06	     76.67	    15.215	       2.4	7.19991e+06	   76.6886	   15.2158	       2.4	7.08458e+06	   76.6782	   15.1991	       2.4	7.26241e+06	     76.67	   15.2065	       2.4	7.26809e+06	   76.6793	   15.2154	       2.4	7.14124e+06	   76.6875	    15.208	       2.4	7.13696e+06	
         R10	   2369	   76.6932	   15.1804	       2.4	7.27456e+06	     76.67	    15.181	       2.4	7.48955e+06	     76.67	    15.198	       2.4	7.33823e+06	   76.6865	   15.2003	       2.4	7.19211e+06	   76.6816	   15.1807	       2.4	7.38079e+06	     76.67	   15.1895	       2.4	 7.4137e+06	   76.6782	   15.1991	       2.4	7.26437e+06	   76.6898	   15.1904	       2.4	7.23317e+06	
         R10	   2370	   76.6876	   15.1648	       2.4	 7.4405e+06	     76.67	    15.164	       2.4	7.64184e+06	     76.67	    15.181	       2.4	7.48843e+06	   76.6932	   15.1804	       2.4	7.27559e+06	   76.6788	   15.1644	       2.4	7.54054e+06	     76.67	   15.1725	       2.4	7.56491e+06	   76.6816	   15.1807	       2.4	7.38074e+06	   76.6904	   15.1726	       2.4	7.35767e+06	
         R10	   2371	   76.6876	   15.1464	       2.4	7.58051e+06	     76.67	    15.147	       2.4	7.79029e+06	     76.67	    15.164	       2.4	7.64198e+06	   76.6876	   15.1648	       2.4	7.44307e+06	   76.6788	   15.1467	       2.4	7.68488e+06	     76.67	   15.1555	       2.4	7.71587e+06	   76.6788	   15.1644	       2.4	7.54193e+06	   76.6876	   15.1556	       2.4	7.51152e+06	
         R10	   2372	   76.6921	   15.1262	       2.4	7.68645e+06	     76.67	     15.13	       2.4	 7.9215e+06	     76.67	    15.147	       2.4	7.79378e+06	   76.6876	   15.1464	       2.4	7.58016e+06	   76.6811	   15.1281	       2.4	7.80342e+06	     76.67	   15.1385	       2.4	7.85737e+06	   76.6788	   15.1467	       2.4	7.68643e+06	   76.6898	   15.1363	       2.4	7.63293e+06	
         R10	   2373	   76.6545	    15.113	       2.4	8.27763e+06	    76.653	     15.13	       2.4	8.17594e+06	     76.67	     15.13	       2.4	7.92658e+06	   76.6693	   15.1129	       2.4	 8.0579e+06	   76.6537	   15.1215	       2.4	8.22648e+06	   76.6615	     15.13	       2.4	8.05094e+06	   76.6697	   15.1214	       2.4	7.99194e+06	   76.6619	   15.1129	       2.4	8.16762e+06	
         R10	   2374	    76.635	   15.1034	       2.4	8.66254e+06	    76.636	     15.13	       2.4	8.46903e+06	    76.653	     15.13	       2.4	 8.1741e+06	   76.6545	    15.113	       2.4	8.28076e+06	   76.6355	   15.1167	       2.4	 8.5648e+06	   76.6445	     15.13	       2.4	 8.3213e+06	   76.6537	   15.1215	       2.4	8.22709e+06	   76.6447	   15.1082	       2.4	8.47123e+06	
         R10	   2375	   76.6175	   15.1082	       2.4	8.95913e+06	    76.619	     15.13	       2.4	8.79477e+06	    76.636	     15.13	       2.4	8.46815e+06	    76.635	   15.1034	       2.4	8.65852e+06	   76.6182	   15.1191	       2.4	8.87611e+06	   76.6275	     15.13	       2.4	8.63122e+06	   76.6355	   15.1167	       2.4	8.56239e+06	   76.6262	   15.1058	       2.4	8.80873e+06	
         R10	   2376	    76.601	   15.1096	       2.4	9.27312e+06	    76.602	     15.13	       2.4	9.16052e+06	    76.619	     15.13	       2.4	8.79673e+06	   76.6175	   15.1082	       2.4	  8.956e+06	   76.6015	   15.1198	       2.4	9.21601e+06	   76.6105	     15.13	       2.4	8.97841e+06	   76.6182	   15.1191	       2.4	8.87556e+06	   76.6092	   15.1089	       2.4	9.11443e+06	
         R10	   2377	   76.5864	   15.1134	       2.4	9.57229e+06	    76.585	     15.13	       2.4	 9.5469e+06	    76.602	     15.13	       2.4	9.16012e+06	    76.601	   15.1096	       2.4	9.27211e+06	   76.5857	   15.1217	       2.4	9.55908e+06	   76.5935	     15.13	       2.4	9.35324e+06	   76.6015	   15.1198	       2.4	9.21529e+06	   76.5937	   15.1115	       2.4	9.42211e+06	
         R10	   2378	   76.5671	   15.1111	       2.4	9.99097e+06	    76.568	     15.13	       2.4	9.95445e+06	    76.585	     15.13	       2.4	9.55042e+06	   76.5864	   15.1134	       2.4	9.57071e+06	   76.5676	   15.1206	       2.4	  9.972e+06	   76.5765	     15.13	       2.4	9.75199e+06	   76.5857	   15.1217	       2.4	9.56006e+06	   76.5768	   15.1123	       2.4	9.78026e+06	
         R10	   2379	   76.5509	   15.1161	       2.4	1.03337e+07	    76.551	     15.13	       2.4	1.03563e+07	    76.568	     15.13	       2.4	9.95433e+06	   76.5671	   15.1111	       2.4	9.99608e+06	    76.551	   15.1231	       2.4	1.03447e+07	   76.5595	     15.13	       2.4	1.01546e+07	   76.5676	   15.1206	       2.4	9.97447e+06	   76.5591	   15.1136	       2.4	1.01646e+07	
         R10	   2380	    76.534	   15.1112	       2.4	1.06594e+07	    76.534	     15.13	       2.4	 1.0729e+07	    76.551	     15.13	       2.4	1.03592e+07	   76.5509	   15.1161	       2.4	1.03368e+07	    76.534	   15.1206	       2.4	1.06937e+07	   76.5425	     15.13	       2.4	1.05432e+07	    76.551	   15.1231	       2.4	1.03477e+07	   76.5425	   15.1137	       2.4	1.04969e+07	
         R10	   2381	   76.5194	   15.1085	       2.4	1.09065e+07	    76.517	     15.13	       2.4	1.10496e+07	    76.534	     15.13	       2.4	1.07288e+07	    76.534	   15.1112	       2.4	1.06661e+07	   76.5182	   15.1193	       2.4	1.09779e+07	   76.5255	     15.13	       2.4	 1.0888e+07	    76.534	   15.1206	       2.4	1.06969e+07	   76.5267	   15.1098	       2.4	1.07856e+07	
         R10	   2382	      76.5	   15.1126	       2.4	 1.1224e+07	      76.5	     15.13	       2.4	 1.1306e+07	    76.517	     15.13	       2.4	1.10518e+07	   76.5194	   15.1085	       2.4	1.09105e+07	      76.5	   15.1213	       2.4	1.12649e+07	   76.5085	     15.13	       2.4	1.11777e+07	   76.5182	   15.1193	       2.4	 1.0981e+07	   76.5097	   15.1106	       2.4	1.10663e+07	
         R10	   2383	   76.5242	   15.0858	       2.4	1.07555e+07	      76.5	   15.0905	       2.4	  1.114e+07	      76.5	   15.1126	       2.4	1.12228e+07	   76.5194	   15.1085	       2.4	1.09109e+07	   76.5121	   15.0881	       2.4	1.09468e+07	      76.5	   15.1016	       2.4	1.11813e+07	   76.5097	   15.1106	       2.4	1.10659e+07	   76.5218	   15.0972	       2.4	1.08331e+07	
         R10	   2384	   76.5286	   15.0591	       2.4	1.06231e+07	      76.5	   15.0635	       2.4	1.10678e+07	      76.5	   15.0905	       2.4	1.11388e+07	   76.5242	   15.0858	       2.4	1.07578e+07	   76.5143	   15.0613	       2.4	1.08445e+07	      76.5	    15.077	       2.4	1.11031e+07	   76.5121	   15.0881	       2.4	1.09473e+07	   76.5264	   15.0725	       2.4	1.06903e+07	
         R10	   2385	   76.5336	   15.0271	       2.4	1.04977e+07	      76.5	   15.0317	       2.4	1.10051e+07	      76.5	   15.0635	       2.4	1.10671e+07	   76.5286	   15.0591	       2.4	1.06235e+07	   76.5168	   15.0294	       2.4	1.07504e+07	      76.5	   15.0476	       2.4	1.10359e+07	   76.5143	   15.0613	       2.4	1.08443e+07	   76.5311	   15.0431	       2.4	1.05603e+07	
         R10	   2386	   76.5391	   14.9908	       2.4	1.03798e+07	      76.5	   14.9952	       2.4	1.09495e+07	      76.5	   15.0317	       2.4	1.10046e+07	   76.5336	   15.0271	       2.4	1.04979e+07	   76.5196	    14.993	       2.4	1.06636e+07	      76.5	   15.0135	       2.4	1.09768e+07	   76.5168	   15.0294	       2.4	1.07503e+07	   76.5363	    15.009	       2.4	1.04386e+07	
         R10	   2387	   76.5446	   14.9497	       2.4	1.02736e+07	      76.5	   14.9538	       2.4	1.08936e+07	      76.5	   14.9952	       2.4	1.09489e+07	   76.5391	   14.9908	       2.4	1.03795e+07	   76.5223	   14.9517	       2.4	1.05824e+07	      76.5	   14.9745	       2.4	 1.0921e+07	   76.5196	    14.993	       2.4	1.06631e+07	   76.5419	   14.9703	       2.4	1.03263e+07	
         R10	   2388	   76.5495	   14.9038	       2.4	1.01839e+07	      76.5	   14.9076	       2.4	1.08252e+07	      76.5	   14.9538	       2.4	1.08929e+07	   76.5446	   14.9497	       2.4	1.02735e+07	   76.5247	   14.9057	       2.4	1.05032e+07	      76.5	   14.9307	       2.4	1.08588e+07	   76.5223	   14.9517	       2.4	 1.0582e+07	   76.5471	   14.9267	       2.4	1.02285e+07	
         R10	   2389	   76.5535	   14.8532	       2.4	1.01016e+07	      76.5	   14.8567	       2.4	1.07373e+07	      76.5	   14.9076	       2.4	1.08246e+07	   76.5495	   14.9038	       2.4	 1.0181e+07	   76.5267	   14.8549	       2.4	1.04179e+07	      76.5	   14.8821	       2.4	1.07807e+07	   76.5247	   14.9057	       2.4	1.05014e+07	   76.5515	   14.8785	       2.4	1.01411e+07	
         R10	   2390	   76.5569	   14.7973	       2.4	1.00174e+07	      76.5	   14.8009	       2.4	1.06163e+07	      76.5	   14.8567	       2.4	1.07365e+07	   76.5535	   14.8532	       2.4	1.00894e+07	   76.5285	   14.7991	       2.4	 1.0315e+07	      76.5	   14.8288	       2.4	1.06762e+07	   76.5267	   14.8549	       2.4	1.04115e+07	   76.5552	   14.8253	       2.4	1.00531e+07	
         R10	   2391	   76.5606	   14.7368	       2.4	9.90365e+06	      76.5	   14.7403	       2.4	1.04742e+07	      76.5	   14.8009	       2.4	1.06117e+07	   76.5569	   14.7973	       2.4	9.97911e+06	   76.5303	   14.7386	       2.4	1.01869e+07	      76.5	   14.7706	       2.4	1.05427e+07	   76.5285	   14.7991	       2.4	1.02939e+07	   76.5588	   14.7671	       2.4	9.94107e+06	
         R10	   2392	   76.5687	   14.6702	       2.4	9.72873e+06	      76.5	   14.6749	       2.4	1.02903e+07	      76.5	   14.7403	       2.4	1.04606e+07	   76.5606	   14.7368	       2.4	9.80297e+06	   76.5344	   14.6726	       2.4	1.00067e+07	      76.5	   14.7076	       2.4	1.03752e+07	   76.5303	   14.7386	       2.4	1.01304e+07	   76.5647	   14.7035	       2.4	9.76531e+06	
         R10	   2393	   76.5786	   14.6007	       2.4	9.45062e+06	      76.5	   14.6048	       2.4	1.01935e+07	      76.5	   14.6749	       2.4	1.02816e+07	   76.5687	   14.6702	       2.4	 9.4463e+06	   76.5393	   14.6027	       2.4	9.81495e+06	      76.5	   14.6398	       2.4	1.02372e+07	   76.5344	   14.6726	       2.4	9.86331e+06	   76.5737	   14.6355	       2.4	 9.4457e+06	
         R10	   2394	    76.583	   14.5278	       2.4	8.01555e+06	    76.581	     14.45	       2.4	1.06255e+07	      76.5	     14.45	       2.4	1.01983e+07	      76.5	   14.5298	       2.4	1.10178e+07	    76.582	   14.4889	       2.4	9.26806e+06	   76.5405	     14.45	       2.4	1.03323e+07	      76.5	   14.4899	       2.4	9.82143e+06	   76.5415	   14.5288	       2.4	9.34846e+06	
         R10	   2395	   76.7597	    14.611	       2.4	8.44187e+06	    76.756	   14.5333	       2.4	9.06882e+06	   76.6688	   14.5306	       2.4	9.26252e+06	   76.6677	   14.6112	       2.4	8.82191e+06	   76.7578	   14.5721	       2.4	8.75244e+06	   76.7124	   14.5319	       2.4	9.16359e+06	   76.6683	   14.5709	       2.4	 9.0356e+06	   76.7137	   14.6111	       2.4	8.63171e+06	
         R10	   2396	   76.8478	   14.6216	       2.4	 8.1633e+06	    76.848	   14.5367	       2.4	8.61453e+06	    76.756	   14.5333	       2.4	9.02755e+06	   76.7597	    14.611	       2.4	8.47144e+06	   76.8479	   14.5792	       2.4	8.38549e+06	    76.802	    14.535	       2.4	8.81703e+06	   76.7578	   14.5721	       2.4	 8.7459e+06	   76.8037	   14.6163	       2.4	8.31589e+06	
         R10	   2397	    76.939	   14.6275	       2.4	7.80487e+06	   76.9416	   14.5403	       2.4	8.29094e+06	    76.848	   14.5367	       2.4	8.63505e+06	   76.8478	   14.6216	       2.4	8.13719e+06	   76.9403	   14.5839	       2.4	8.04277e+06	   76.8948	   14.5385	       2.4	8.45947e+06	   76.8479	   14.5792	       2.4	8.38279e+06	   76.8934	   14.6246	       2.4	7.96817e+06	
         R10	   2398	   77.0371	   14.6324	       2.4	7.49802e+06	     77.04	   14.5438	       2.4	7.98153e+06	   76.9416	   14.5403	       2.4	8.30053e+06	    76.939	   14.6275	       2.4	7.79284e+06	   77.0386	   14.5881	       2.4	7.73205e+06	   76.9908	    14.542	       2.4	8.13745e+06	   76.9403	   14.5839	       2.4	8.04137e+06	   76.9881	   14.6299	       2.4	7.64186e+06	
         R10	   2399	   77.1408	   14.6425	       2.4	7.26555e+06	   77.1416	   14.5484	       2.4	7.69552e+06	     77.04	   14.5438	       2.4	7.98176e+06	   77.0371	   14.6324	       2.4	7.50427e+06	   77.1412	   14.5954	       2.4	7.46993e+06	   77.0908	   14.5461	       2.4	7.83518e+06	   77.0386	   14.5881	       2.4	7.73489e+06	    77.089	   14.6374	       2.4	7.38104e+06	
         R10	   2400	   77.2452	   14.6541	       2.4	7.08339e+06	   77.2456	   14.5528	       2.4	7.45991e+06	   77.1416	   14.5484	       2.4	7.70693e+06	   77.1408	   14.6425	       2.4	7.26724e+06	   77.2454	   14.6034	       2.4	7.25833e+06	   77.1936	   14.5506	       2.4	7.57983e+06	   77.1412	   14.5954	       2.4	7.47623e+06	    77.193	   14.6483	       2.4	7.17169e+06	
         R10	   2401	   77.2398	   14.7588	       2.4	7.05108e+06	   77.2452	   14.6541	       2.4	7.21638e+06	   77.1408	   14.6425	       2.4	7.46305e+06	   77.1292	   14.7239	       2.4	7.23149e+06	   77.2425	   14.7064	       2.4	 7.1286e+06	    77.193	   14.6483	       2.4	7.33484e+06	    77.135	   14.6832	       2.4	7.34271e+06	   77.1845	   14.7413	       2.4	7.13702e+06	
         R10	   2402	   77.1789	   14.9612	       2.4	6.86489e+06	   77.2651	   14.9563	       2.4	6.82484e+06	   77.2648	   14.8626	       2.4	6.98063e+06	    77.177	   14.8792	       2.4	6.93483e+06	    77.222	   14.9587	       2.4	6.84241e+06	   77.2649	   14.9094	       2.4	6.90129e+06	   77.2209	   14.8709	       2.4	6.95582e+06	    77.178	   14.9202	       2.4	6.89853e+06	
         R10	   2403	   77.1855	   15.0468	       2.4	6.78453e+06	   77.2667	   15.0442	       2.4	6.80354e+06	   77.2651	   14.9563	       2.4	6.85089e+06	   77.1789	   14.9612	       2.4	6.86219e+06	   77.2261	   15.0455	       2.4	6.79247e+06	   77.2659	   15.0002	       2.4	6.82457e+06	    77.222	   14.9587	       2.4	 6.8546e+06	   77.1822	    15.004	       2.4	6.82053e+06	
         R10	   2404	    77.192	   15.1331	       2.4	  6.807e+06	   77.2696	   15.1314	       2.4	6.82561e+06	   77.2667	   15.0442	       2.4	6.81331e+06	   77.1855	   15.0468	       2.4	6.78297e+06	   77.2308	   15.1322	       2.4	6.81511e+06	   77.2682	   15.0878	       2.4	6.81436e+06	   77.2261	   15.0455	       2.4	6.79677e+06	   77.1887	     15.09	       2.4	 6.7898e+06	
         R10	   2405	   77.1965	   15.2182	       2.4	6.93135e+06	   77.2718	   15.2169	       2.4	6.93683e+06	   77.2696	   15.1314	       2.4	 6.8267e+06	    77.192	   15.1331	       2.4	 6.8075e+06	   77.2341	   15.2176	       2.4	6.93317e+06	   77.2707	   15.1741	       2.4	6.87304e+06	   77.2308	   15.1322	       2.4	6.81593e+06	   77.1942	   15.1757	       2.4	6.86103e+06	
         R10	   2406	   77.1288	   15.2245	       2.4	 6.9357e+06	   77.1965	   15.2182	       2.4	6.93021e+06	    77.192	   15.1331	       2.4	6.81115e+06	   77.1201	   15.1387	       2.4	6.79036e+06	   77.1627	   15.2213	       2.4	6.93199e+06	   77.1942	   15.1757	       2.4	6.86221e+06	   77.1561	   15.1359	       2.4	6.79963e+06	   77.1245	   15.1816	       2.4	6.85522e+06	
         R10	   2407	   77.0529	   15.1829	       2.4	6.83514e+06	   77.0643	   15.2363	       2.4	6.94222e+06	   77.1288	   15.2245	       2.4	6.93779e+06	   77.1201	   15.1387	       2.4	6.78929e+06	   77.0586	   15.2096	       2.4	 6.8846e+06	   77.0966	   15.2304	       2.4	6.93892e+06	   77.1245	   15.1816	       2.4	 6.8557e+06	   77.0865	   15.1608	       2.4	6.80893e+06	
         R10	   2408	   76.9976	    15.186	       2.4	6.81539e+06	   77.0023	    15.244	       2.4	6.98261e+06	   77.0643	   15.2363	       2.4	6.94903e+06	   77.0529	   15.1829	       2.4	6.85486e+06	   76.9999	    15.215	       2.4	 6.8952e+06	   77.0333	   15.2402	       2.4	6.96449e+06	   77.0586	   15.2096	       2.4	6.89789e+06	   77.0252	   15.1845	       2.4	6.83449e+06	
         R10	   2409	   76.9421	   15.1936	       2.4	6.81976e+06	   76.9467	   15.2467	       2.4	6.96701e+06	   77.0023	    15.244	       2.4	6.96906e+06	   76.9976	    15.186	       2.4	6.81889e+06	   76.9444	   15.2201	       2.4	6.89048e+06	   76.9745	   15.2454	       2.4	6.96719e+06	   76.9999	    15.215	       2.4	6.88998e+06	   76.9699	   15.1898	       2.4	6.81822e+06	
         R10	   2410	   76.8917	   15.2015	       2.4	6.82934e+06	   76.8962	   15.2505	       2.4	6.96821e+06	   76.9467	   15.2467	       2.4	6.96524e+06	   76.9421	   15.1936	       2.4	6.82282e+06	   76.8939	    15.226	       2.4	6.89659e+06	   76.9214	   15.2486	       2.4	6.96587e+06	   76.9444	   15.2201	       2.4	6.89105e+06	   76.9169	   15.1976	       2.4	6.82505e+06	
         R10	   2411	   76.8462	   15.2119	       2.4	6.84824e+06	   76.8503	   15.2554	       2.4	6.97453e+06	   76.8962	   15.2505	       2.4	6.96717e+06	   76.8917	   15.2015	       2.4	6.82927e+06	   76.8483	   15.2336	       2.4	6.90995e+06	   76.8733	   15.2529	       2.4	6.96999e+06	   76.8939	    15.226	       2.4	6.89601e+06	    76.869	   15.2067	       2.4	6.83773e+06	
         R10	   2412	   76.8046	   15.2233	       2.4	6.87354e+06	   76.8092	   15.2609	       2.4	6.98816e+06	   76.8503	   15.2554	       2.4	6.97378e+06	   76.8462	   15.2119	       2.4	6.84796e+06	   76.8069	   15.2421	       2.4	6.93002e+06	   76.8297	   15.2581	       2.4	6.98009e+06	   76.8483	   15.2336	       2.4	6.90942e+06	   76.8254	   15.2176	       2.4	6.85977e+06	
         R10	   2413	   76.7697	   15.2334	       2.4	6.90239e+06	   76.7727	   15.2663	       2.4	7.00306e+06	   76.8092	   15.2609	       2.4	6.98669e+06	   76.8046	   15.2233	       2.4	6.87398e+06	   76.7712	   15.2498	       2.4	6.95228e+06	   76.7909	   15.2636	       2.4	6.99401e+06	   76.8069	   15.2421	       2.4	6.92949e+06	   76.7872	   15.2283	       2.4	6.88734e+06	
         R10	   2414	   76.7375	   15.2429	       2.4	6.93279e+06	   76.7408	   15.2715	       2.4	7.02252e+06	   76.7727	   15.2663	       2.4	 7.0021e+06	   76.7697	   15.2334	       2.4	6.90231e+06	   76.7392	   15.2572	       2.4	6.97742e+06	   76.7567	   15.2689	       2.4	7.01145e+06	   76.7712	   15.2498	       2.4	6.95174e+06	   76.7536	   15.2381	       2.4	6.91668e+06	
         R10	   2415	   76.7103	    15.256	       2.4	6.97143e+06	   76.7136	    15.276	       2.4	 7.0504e+06	   76.7408	   15.2715	       2.4	7.02149e+06	   76.7375	   15.2429	       2.4	 6.9317e+06	   76.7119	    15.266	       2.4	7.01082e+06	   76.7272	   15.2737	       2.4	7.03507e+06	   76.7392	   15.2572	       2.4	6.97635e+06	   76.7239	   15.2495	       2.4	6.95093e+06	
         R10	   2416	   76.6896	   15.2534	       2.4	6.97854e+06	     76.67	    15.249	       2.4	 7.0196e+06	     76.67	    15.266	       2.4	7.01486e+06	   76.6897	   15.2769	       2.4	7.05436e+06	   76.6798	   15.2512	       2.4	6.99795e+06	     76.67	   15.2575	       2.4	7.01705e+06	   76.6798	   15.2714	       2.4	7.03357e+06	   76.6896	   15.2651	       2.4	7.01633e+06	
         R10	   2417	   76.7091	   15.1987	       2.4	7.07148e+06	   76.6865	   15.2003	       2.4	7.18757e+06	   76.6886	   15.2158	       2.4	7.08652e+06	   76.7114	   15.2154	       2.4	6.99319e+06	   76.6978	   15.1995	       2.4	7.12844e+06	   76.6875	    15.208	       2.4	7.13683e+06	      76.7	   15.2156	       2.4	7.03868e+06	   76.7103	    15.207	       2.4	7.03207e+06	
         R10	   2418	   76.7123	   15.1552	       2.4	7.29091e+06	   76.6876	   15.1648	       2.4	7.44505e+06	   76.6932	   15.1804	       2.4	7.27799e+06	   76.7113	   15.1734	       2.4	7.19431e+06	      76.7	     15.16	       2.4	7.36698e+06	   76.6904	   15.1726	       2.4	7.36119e+06	   76.7023	   15.1769	       2.4	7.23559e+06	   76.7118	   15.1643	       2.4	7.24236e+06	
         R10	   2419	   76.7107	   15.1303	       2.4	7.46256e+06	   76.6921	   15.1262	       2.4	7.68302e+06	   76.6876	   15.1464	       2.4	7.57687e+06	   76.7123	   15.1552	       2.4	7.29273e+06	   76.7014	   15.1282	       2.4	7.57224e+06	   76.6898	   15.1363	       2.4	7.62959e+06	      76.7	   15.1508	       2.4	7.43359e+06	   76.7115	   15.1427	       2.4	7.37713e+06	
         R10	   2420	   76.6693	   15.1129	       2.4	8.06211e+06	     76.67	     15.13	       2.4	7.91987e+06	   76.6921	   15.1262	       2.4	7.68305e+06	   76.6904	   15.1041	       2.4	7.84596e+06	   76.6697	   15.1214	       2.4	7.99068e+06	   76.6811	   15.1281	       2.4	7.80091e+06	   76.6913	   15.1151	       2.4	7.76405e+06	   76.6799	   15.1085	       2.4	 7.9536e+06	
         R10	   2421	   76.6523	   15.0878	       2.4	 8.4626e+06	   76.6545	    15.113	       2.4	8.28035e+06	   76.6693	   15.1129	       2.4	8.05916e+06	   76.6693	   15.0868	       2.4	8.23502e+06	   76.6534	   15.1004	       2.4	8.37078e+06	   76.6619	   15.1129	       2.4	8.16961e+06	   76.6693	   15.0998	       2.4	8.14638e+06	   76.6608	   15.0873	       2.4	 8.3486e+06	
         R10	   2422	   76.6127	   15.0814	       2.4	9.14395e+06	   76.6175	   15.1082	       2.4	8.95841e+06	    76.635	   15.1034	       2.4	8.65356e+06	    76.627	   15.0821	       2.4	 8.9262e+06	   76.6151	   15.0948	       2.4	9.05027e+06	   76.6262	   15.1058	       2.4	8.80586e+06	    76.631	   15.0928	       2.4	8.78892e+06	   76.6199	   15.0817	       2.4	9.03497e+06	
         R10	   2423	   76.5956	   15.0879	       2.4	9.45174e+06	    76.601	   15.1096	       2.4	9.27479e+06	   76.6175	   15.1082	       2.4	8.95416e+06	   76.6127	   15.0814	       2.4	9.15653e+06	   76.5983	   15.0988	       2.4	9.36233e+06	   76.6092	   15.1089	       2.4	9.11436e+06	   76.6151	   15.0948	       2.4	 9.0543e+06	   76.6042	   15.0846	       2.4	9.30407e+06	
         R10	   2424	   76.5803	    15.096	       2.4	9.72275e+06	   76.5864	   15.1134	       2.4	9.57517e+06	    76.601	   15.1096	       2.4	9.27519e+06	   76.5956	   15.0879	       2.4	9.45364e+06	   76.5833	   15.1047	       2.4	9.64823e+06	   76.5937	   15.1115	       2.4	9.42507e+06	   76.5983	   15.0988	       2.4	9.36347e+06	   76.5879	   15.0919	       2.4	9.58817e+06	
         R10	   2425	   76.5482	   15.0886	       2.4	1.03478e+07	   76.5242	   15.0858	       2.4	1.07576e+07	   76.5194	   15.1085	       2.4	1.09113e+07	    76.534	   15.1112	       2.4	 1.0661e+07	   76.5362	   15.0872	       2.4	1.05514e+07	   76.5218	   15.0972	       2.4	1.08344e+07	   76.5267	   15.1098	       2.4	1.07854e+07	   76.5411	   15.0999	       2.4	1.05044e+07	
         R10	   2426	   76.5564	   15.0612	       2.4	1.01726e+07	   76.5286	   15.0591	       2.4	1.06267e+07	   76.5242	   15.0858	       2.4	1.07537e+07	   76.5482	   15.0886	       2.4	1.03494e+07	   76.5425	   15.0602	       2.4	1.03986e+07	   76.5264	   15.0725	       2.4	  1.069e+07	   76.5362	   15.0872	       2.4	1.05503e+07	   76.5523	   15.0749	       2.4	1.02608e+07	
         R10	   2427	   76.5679	   15.0314	       2.4	9.97747e+06	   76.5336	   15.0271	       2.4	1.04996e+07	   76.5286	   15.0591	       2.4	1.06274e+07	   76.5564	   15.0612	       2.4	1.01697e+07	   76.5507	   15.0293	       2.4	1.02374e+07	   76.5311	   15.0431	       2.4	1.05633e+07	   76.5425	   15.0602	       2.4	1.03975e+07	   76.5621	   15.0463	       2.4	1.00734e+07	
         R10	   2428	   76.5782	   14.9966	       2.4	9.82842e+06	   76.5391	   14.9908	       2.4	 1.0382e+07	   76.5336	   15.0271	       2.4	1.04992e+07	   76.5679	   15.0314	       2.4	 9.9794e+06	   76.5587	   14.9937	       2.4	1.01042e+07	   76.5363	    15.009	       2.4	1.04404e+07	   76.5507	   15.0293	       2.4	1.02382e+07	    76.573	    15.014	       2.4	9.90364e+06	
         R10	   2429	   76.5886	   14.9548	       2.4	9.70672e+06	   76.5446	   14.9497	       2.4	1.02782e+07	   76.5391	   14.9908	       2.4	1.03825e+07	   76.5782	   14.9966	       2.4	9.83008e+06	   76.5666	   14.9523	       2.4	9.99155e+06	   76.5419	   14.9703	       2.4	1.03301e+07	   76.5587	   14.9937	       2.4	1.01052e+07	   76.5834	   14.9757	       2.4	9.76806e+06	
         R10	   2430	   76.5985	   14.9083	       2.4	9.61008e+06	   76.5495	   14.9038	       2.4	1.01895e+07	   76.5446	   14.9497	       2.4	1.02779e+07	   76.5886	   14.9548	       2.4	9.70724e+06	    76.574	   14.9061	       2.4	9.89893e+06	   76.5471	   14.9267	       2.4	1.02334e+07	   76.5666	   14.9523	       2.4	9.99168e+06	   76.5935	   14.9316	       2.4	9.65833e+06	
         R10	   2431	   76.6062	   14.8578	       2.4	9.54341e+06	   76.5535	   14.8532	       2.4	  1.011e+07	   76.5495	   14.9038	       2.4	1.01863e+07	   76.5985	   14.9083	       2.4	9.60857e+06	   76.5798	   14.8555	       2.4	9.82593e+06	   76.5515	   14.8785	       2.4	1.01479e+07	    76.574	   14.9061	       2.4	9.89661e+06	   76.6023	    14.883	       2.4	9.57567e+06	
         R10	   2432	   76.6114	    14.803	       2.4	9.50091e+06	   76.5569	   14.7973	       2.4	 1.0016e+07	   76.5535	   14.8532	       2.4	1.00983e+07	   76.6062	   14.8578	       2.4	9.53692e+06	   76.5842	   14.8002	       2.4	9.75762e+06	   76.5552	   14.8253	       2.4	1.00569e+07	   76.5798	   14.8555	       2.4	9.81677e+06	   76.6088	   14.8304	       2.4	9.51864e+06	
         R10	   2433	   76.6176	    14.744	       2.4	9.41238e+06	   76.5606	   14.7368	       2.4	9.90314e+06	   76.5569	   14.7973	       2.4	9.98153e+06	   76.6114	    14.803	       2.4	  9.482e+06	   76.5891	   14.7404	       2.4	9.65691e+06	   76.5588	   14.7671	       2.4	9.94201e+06	   76.5842	   14.8002	       2.4	9.73079e+06	   76.6145	   14.7735	       2.4	9.44702e+06	
         R10	   2434	   76.6286	   14.6811	       2.4	9.27031e+06	   76.5687	   14.6702	       2.4	9.70863e+06	   76.5606	   14.7368	       2.4	9.81709e+06	   76.6176	    14.744	       2.4	9.36885e+06	   76.5986	   14.6756	       2.4	9.48761e+06	   76.5647	   14.7035	       2.4	 9.7623e+06	   76.5891	   14.7404	       2.4	 9.5918e+06	   76.6231	   14.7126	       2.4	9.31886e+06	
         R10	   2435	    76.583	   14.5278	       2.4	8.76711e+06	      76.5	   14.5298	       2.4	 1.0289e+07	      76.5	   14.6048	       2.4	1.00477e+07	   76.5786	   14.6007	       2.4	8.88175e+06	   76.5415	   14.5288	       2.4	9.36243e+06	      76.5	   14.5673	       2.4	1.01518e+07	   76.5393	   14.6027	       2.4	9.46397e+06	   76.5808	   14.5643	       2.4	8.75669e+06	
         R10	   2436	   76.6677	   14.6112	       2.4	8.80535e+06	   76.6688	   14.5306	       2.4	9.26132e+06	    76.583	   14.5278	       2.4	9.57057e+06	   76.5786	   14.6007	       2.4	8.99143e+06	   76.6683	   14.5709	       2.4	9.03002e+06	   76.6259	   14.5292	       2.4	9.41504e+06	   76.5808	   14.5643	       2.4	9.26293e+06	   76.6232	   14.6059	       2.4	8.89453e+06	
         R10	   2437	   76.8447	   14.7012	       2.4	8.12985e+06	   76.8478	   14.6216	       2.4	 8.4589e+06	   76.7597	    14.611	       2.4	8.81377e+06	   76.7659	    14.686	       2.4	8.49703e+06	   76.8462	   14.6614	       2.4	8.29305e+06	   76.8037	   14.6163	       2.4	8.63463e+06	   76.7628	   14.6485	       2.4	8.65355e+06	   76.8053	   14.6936	       2.4	8.31252e+06	
         R10	   2438	   76.9338	   14.7093	       2.4	7.74761e+06	    76.939	   14.6275	       2.4	8.10034e+06	   76.8478	   14.6216	       2.4	8.45545e+06	   76.8447	   14.7012	       2.4	 8.1112e+06	   76.9364	   14.6684	       2.4	 7.9224e+06	   76.8934	   14.6246	       2.4	8.27533e+06	   76.8462	   14.6614	       2.4	8.28212e+06	   76.8893	   14.7053	       2.4	7.92693e+06	
         R10	   2439	   77.0285	   14.7151	       2.4	7.44979e+06	   77.0371	   14.6324	       2.4	7.76468e+06	    76.939	   14.6275	       2.4	8.09698e+06	   76.9338	   14.7093	       2.4	 7.7467e+06	   77.0328	   14.6738	       2.4	7.60474e+06	   76.9881	   14.6299	       2.4	 7.9273e+06	   76.9364	   14.6684	       2.4	7.92038e+06	   76.9811	   14.7122	       2.4	7.59455e+06	
         R10	   2440	   77.1292	   14.7239	       2.4	7.19778e+06	   77.1408	   14.6425	       2.4	7.49534e+06	   77.0371	   14.6324	       2.4	7.75508e+06	   77.0285	   14.7151	       2.4	7.45725e+06	    77.135	   14.6832	       2.4	7.34222e+06	    77.089	   14.6374	       2.4	 7.6218e+06	   77.0328	   14.6738	       2.4	7.60372e+06	   77.0788	   14.7195	       2.4	 7.3223e+06	
         R10	   2441	   77.1057	   14.8022	       2.4	7.13808e+06	   77.1292	   14.7239	       2.4	7.32204e+06	   77.0285	   14.7151	       2.4	7.57484e+06	   77.0172	    14.793	       2.4	7.33888e+06	   77.1175	   14.7631	       2.4	7.22911e+06	   77.0788	   14.7195	       2.4	7.44428e+06	   77.0228	   14.7541	       2.4	7.45617e+06	   77.0615	   14.7976	       2.4	7.23444e+06	
         R10	   2442	   77.1158	   15.0527	       2.4	6.76921e+06	   77.1855	   15.0468	       2.4	6.79345e+06	   77.1789	   14.9612	       2.4	6.85067e+06	   77.0921	   14.9639	       2.4	6.88119e+06	   77.1507	   15.0498	       2.4	 6.7801e+06	   77.1822	    15.004	       2.4	6.81943e+06	   77.1355	   14.9625	       2.4	6.86325e+06	    77.104	   15.0083	       2.4	6.82117e+06	
         R10	   2443	   77.1201	   15.1387	       2.4	6.78716e+06	    77.192	   15.1331	       2.4	6.80496e+06	   77.1855	   15.0468	       2.4	6.79632e+06	   77.1158	   15.0527	       2.4	6.77816e+06	   77.1561	   15.1359	       2.4	6.79498e+06	   77.1887	     15.09	       2.4	6.79538e+06	   77.1507	   15.0498	       2.4	6.78587e+06	    77.118	   15.0957	       2.4	6.77746e+06	
         R10	   2444	   76.9916	   15.1303	       2.4	6.76337e+06	   76.9976	    15.186	       2.4	6.80874e+06	   77.0529	   15.1829	       2.4	 6.8385e+06	   77.0471	   15.1168	       2.4	6.75038e+06	   76.9946	   15.1582	       2.4	6.78304e+06	   77.0252	   15.1845	       2.4	6.82293e+06	     77.05	   15.1498	       2.4	6.79055e+06	   77.0194	   15.1236	       2.4	6.75567e+06	
         R10	   2445	   76.9343	   15.1412	       2.4	6.76994e+06	   76.9421	   15.1936	       2.4	6.82099e+06	   76.9976	    15.186	       2.4	6.82445e+06	   76.9916	   15.1303	       2.4	6.76736e+06	   76.9382	   15.1674	       2.4	6.79288e+06	   76.9699	   15.1898	       2.4	6.82165e+06	   76.9946	   15.1582	       2.4	6.79298e+06	    76.963	   15.1358	       2.4	6.76729e+06	
         R10	   2446	   76.8825	   15.1537	       2.4	6.79118e+06	   76.8917	   15.2015	       2.4	6.82858e+06	   76.9421	   15.1936	       2.4	6.82218e+06	   76.9343	   15.1412	       2.4	6.77068e+06	   76.8871	   15.1776	       2.4	6.80774e+06	   76.9169	   15.1976	       2.4	6.82436e+06	   76.9382	   15.1674	       2.4	6.79388e+06	   76.9084	   15.1475	       2.4	6.77955e+06	
         R10	   2447	   76.8353	    15.168	       2.4	6.82339e+06	   76.8462	   15.2119	       2.4	6.84755e+06	   76.8917	   15.2015	       2.4	6.82913e+06	   76.8825	   15.1537	       2.4	6.79234e+06	   76.8408	   15.1899	       2.4	6.83366e+06	    76.869	   15.2067	       2.4	6.83732e+06	   76.8871	   15.1776	       2.4	6.80861e+06	   76.8589	   15.1608	       2.4	6.80651e+06	
         R10	   2448	   76.7991	   15.1855	       2.4	6.85741e+06	   76.8046	   15.2233	       2.4	6.87488e+06	   76.8462	   15.2119	       2.4	 6.8473e+06	   76.8353	    15.168	       2.4	6.82434e+06	   76.8018	   15.2044	       2.4	6.86498e+06	   76.8254	   15.2176	       2.4	6.86008e+06	   76.8408	   15.1899	       2.4	  6.834e+06	   76.8172	   15.1767	       2.4	6.83991e+06	
         R10	   2449	   76.7613	   15.1982	       2.4	6.90712e+06	   76.7697	   15.2334	       2.4	6.89855e+06	   76.8046	   15.2233	       2.4	6.87409e+06	   76.7991	   15.1855	       2.4	6.85607e+06	   76.7655	   15.2158	       2.4	6.90175e+06	   76.7872	   15.2283	       2.4	6.88549e+06	   76.8018	   15.2044	       2.4	6.86393e+06	   76.7802	   15.1918	       2.4	6.88039e+06	
         R10	   2450	   76.7326	   15.2166	       2.4	6.93821e+06	   76.7375	   15.2429	       2.4	6.93413e+06	   76.7697	   15.2334	       2.4	6.89996e+06	   76.7613	   15.1982	       2.4	6.90587e+06	    76.735	   15.2298	       2.4	6.93566e+06	   76.7536	   15.2381	       2.4	6.91617e+06	   76.7655	   15.2158	       2.4	6.90181e+06	   76.7469	   15.2074	       2.4	6.92135e+06	
         R10	   2451	   76.6896	   15.2534	       2.4	6.98365e+06	   76.6897	   15.2769	       2.4	7.05175e+06	   76.7136	    15.276	       2.4	7.04581e+06	   76.7103	    15.256	       2.4	6.97305e+06	   76.6896	   15.2651	       2.4	7.01759e+06	   76.7016	   15.2765	       2.4	7.04789e+06	   76.7119	    15.266	       2.4	7.00933e+06	   76.6999	   15.2547	       2.4	6.97753e+06	
         R10	   2452	   76.7084	   15.2345	       2.4	6.96515e+06	   76.7114	   15.2154	       2.4	6.99726e+06	   76.6886	   15.2158	       2.4	7.08469e+06	   76.6889	   15.2345	       2.4	 7.0096e+06	   76.7099	   15.2249	       2.4	6.98109e+06	      76.7	   15.2156	       2.4	7.03984e+06	   76.6888	   15.2252	       2.4	7.04693e+06	   76.6986	   15.2345	       2.4	 6.9866e+06	
         R10	   2453	   76.7113	   15.1734	       2.4	7.18761e+06	   76.6932	   15.1804	       2.4	7.27477e+06	   76.7091	   15.1987	       2.4	7.06599e+06	   76.7315	   15.1828	       2.4	7.03965e+06	   76.7023	   15.1769	       2.4	7.23065e+06	   76.7012	   15.1896	       2.4	7.16919e+06	   76.7203	   15.1907	       2.4	7.05222e+06	   76.7214	   15.1781	       2.4	7.11254e+06	
         R10	   2454	   76.6904	   15.1041	       2.4	7.84919e+06	   76.6921	   15.1262	       2.4	7.68413e+06	   76.7107	   15.1303	       2.4	7.46459e+06	   76.7203	   15.0992	       2.4	7.57027e+06	   76.6913	   15.1151	       2.4	7.76623e+06	   76.7014	   15.1282	       2.4	7.57383e+06	   76.7155	   15.1147	       2.4	7.51665e+06	   76.7053	   15.1017	       2.4	7.70893e+06	
         R10	   2455	    76.627	   15.0821	       2.4	8.89784e+06	    76.635	   15.1034	       2.4	8.65976e+06	   76.6523	   15.0878	       2.4	8.47424e+06	   76.6412	   15.0571	       2.4	 8.7712e+06	    76.631	   15.0928	       2.4	8.77797e+06	   76.6436	   15.0956	       2.4	8.56669e+06	   76.6468	   15.0724	       2.4	8.62161e+06	   76.6341	   15.0696	       2.4	8.83413e+06	
         R10	   2456	   76.6033	   15.0451	       2.4	 9.4053e+06	   76.5679	   15.0314	       2.4	9.97775e+06	   76.5564	   15.0612	       2.4	1.01747e+07	   76.5799	   15.0691	       2.4	9.75871e+06	   76.5856	   15.0382	       2.4	9.69016e+06	   76.5621	   15.0463	       2.4	1.00761e+07	   76.5681	   15.0652	       2.4	9.96579e+06	   76.5916	   15.0571	       2.4	9.58195e+06	
         R10	   2457	   76.6164	    15.008	       2.4	 9.2788e+06	   76.5782	   14.9966	       2.4	 9.8301e+06	   76.5679	   15.0314	       2.4	9.97491e+06	   76.6033	   15.0451	       2.4	 9.4106e+06	   76.5973	   15.0023	       2.4	9.55362e+06	    76.573	    15.014	       2.4	9.90222e+06	   76.5856	   15.0382	       2.4	9.69152e+06	   76.6098	   15.0265	       2.4	9.34419e+06	
         R10	   2458	   76.6316	   14.9656	       2.4	 9.1572e+06	   76.5886	   14.9548	       2.4	9.70575e+06	   76.5782	   14.9966	       2.4	9.82988e+06	   76.6164	    15.008	       2.4	9.27658e+06	   76.6101	   14.9602	       2.4	9.43095e+06	   76.5834	   14.9757	       2.4	9.76748e+06	   76.5973	   15.0023	       2.4	9.55242e+06	    76.624	   14.9868	       2.4	9.21637e+06	
         R10	   2459	   76.6473	   14.9172	       2.4	9.06273e+06	   76.5985	   14.9083	       2.4	9.61055e+06	   76.5886	   14.9548	       2.4	9.70577e+06	   76.6316	   14.9656	       2.4	 9.1585e+06	   76.6229	   14.9128	       2.4	9.33629e+06	   76.5935	   14.9316	       2.4	9.65784e+06	   76.6101	   14.9602	       2.4	9.43159e+06	   76.6395	   14.9414	       2.4	9.11011e+06	
         R10	   2460	   76.6615	   14.8663	       2.4	8.99934e+06	   76.6062	   14.8578	       2.4	9.54708e+06	   76.5985	   14.9083	       2.4	9.60906e+06	   76.6473	   14.9172	       2.4	9.06588e+06	   76.6338	    14.862	       2.4	9.27293e+06	   76.6023	    14.883	       2.4	9.57776e+06	   76.6229	   14.9128	       2.4	9.33709e+06	   76.6544	   14.8918	       2.4	 9.0322e+06	
         R10	   2461	   76.6748	    14.812	       2.4	8.95083e+06	   76.6114	    14.803	       2.4	9.50326e+06	   76.6062	   14.8578	       2.4	9.54105e+06	   76.6615	   14.8663	       2.4	9.00215e+06	   76.6431	   14.8075	       2.4	9.22679e+06	   76.6088	   14.8304	       2.4	9.52188e+06	   76.6338	    14.862	       2.4	9.27128e+06	   76.6681	   14.8392	       2.4	8.97621e+06	
         R10	   2462	   76.6757	   14.7637	       2.4	8.98817e+06	   76.6176	    14.744	       2.4	9.41112e+06	   76.6114	    14.803	       2.4	9.48491e+06	   76.6748	    14.812	       2.4	8.95709e+06	   76.6467	   14.7539	       2.4	9.19923e+06	   76.6145	   14.7735	       2.4	9.44785e+06	   76.6431	   14.8075	       2.4	9.22058e+06	   76.6752	   14.7878	       2.4	8.97242e+06	
         R10	   2463	   76.6863	   14.7056	       2.4	8.99772e+06	   76.6286	   14.6811	       2.4	9.21761e+06	   76.6176	    14.744	       2.4	9.38911e+06	   76.6757	   14.7637	       2.4	8.97996e+06	   76.6574	   14.6933	       2.4	9.10761e+06	   76.6231	   14.7126	       2.4	9.30247e+06	   76.6467	   14.7539	       2.4	9.18369e+06	    76.681	   14.7346	       2.4	8.98873e+06	
         R10	   2464	   76.6677	   14.6112	       2.4	9.08296e+06	   76.5786	   14.6007	       2.4	9.37347e+06	   76.5687	   14.6702	       2.4	9.46386e+06	   76.6286	   14.6811	       2.4	9.16144e+06	   76.6232	   14.6059	       2.4	9.22721e+06	   76.5737	   14.6355	       2.4	9.41038e+06	   76.5986	   14.6756	       2.4	9.30815e+06	   76.6481	   14.6461	       2.4	9.11912e+06	
         R10	   2465	   76.9275	   14.7863	       2.4	7.61079e+06	   76.9338	   14.7093	       2.4	7.88942e+06	   76.8447	   14.7012	       2.4	8.26184e+06	   76.8382	   14.7779	       2.4	7.99739e+06	   76.9307	   14.7478	       2.4	7.74951e+06	   76.8893	   14.7053	       2.4	8.07331e+06	   76.8414	   14.7395	       2.4	8.12916e+06	   76.8828	   14.7821	       2.4	7.80145e+06	
         R10	   2466	   77.0172	    14.793	       2.4	7.33208e+06	   77.0285	   14.7151	       2.4	7.57552e+06	   76.9338	   14.7093	       2.4	7.89491e+06	   76.9275	   14.7863	       2.4	7.61212e+06	   77.0228	   14.7541	       2.4	7.45319e+06	   76.9811	   14.7122	       2.4	7.73148e+06	   76.9307	   14.7478	       2.4	7.75293e+06	   76.9724	   14.7897	       2.4	7.46854e+06	
         R10	   2467	   77.0111	   14.8643	       2.4	 7.1833e+06	   77.0172	    14.793	       2.4	7.38778e+06	   76.9275	   14.7863	       2.4	7.68328e+06	   76.9239	   14.8531	       2.4	7.43131e+06	   77.0141	   14.8286	       2.4	7.28497e+06	   76.9724	   14.7897	       2.4	7.53179e+06	   76.9257	   14.8197	       2.4	7.55663e+06	   76.9675	   14.8587	       2.4	7.30366e+06	
         R10	   2468	   77.0952	   14.8803	       2.4	7.00482e+06	   77.1057	   14.8022	       2.4	7.19504e+06	   77.0172	    14.793	       2.4	7.39053e+06	   77.0111	   14.8643	       2.4	 7.1901e+06	   77.1005	   14.8413	       2.4	7.09901e+06	   77.0615	   14.7976	       2.4	7.28941e+06	   77.0141	   14.8286	       2.4	7.28977e+06	   77.0531	   14.8723	       2.4	7.09295e+06	
         R10	   2469	   77.0485	   15.0634	       2.4	6.74729e+06	   77.1158	   15.0527	       2.4	6.78043e+06	   77.0921	   14.9639	       2.4	6.86536e+06	   77.0268	   15.0065	       2.4	 6.8652e+06	   77.0822	    15.058	       2.4	6.76214e+06	    77.104	   15.0083	       2.4	6.81865e+06	   77.0595	   14.9852	       2.4	6.86379e+06	   77.0376	   15.0349	       2.4	6.80403e+06	
         R10	   2470	   76.9231	   15.0918	       2.4	6.80903e+06	   76.9343	   15.1412	       2.4	6.76825e+06	   76.9916	   15.1303	       2.4	6.76279e+06	    76.983	   15.0773	       2.4	 6.7771e+06	   76.9287	   15.1165	       2.4	6.78639e+06	    76.963	   15.1358	       2.4	6.76415e+06	   76.9873	   15.1038	       2.4	6.76765e+06	    76.953	   15.0846	       2.4	6.79129e+06	
         R10	   2471	   76.8701	   15.1075	       2.4	6.84924e+06	   76.8825	   15.1537	       2.4	6.78943e+06	   76.9343	   15.1412	       2.4	6.76976e+06	   76.9231	   15.0918	       2.4	 6.8037e+06	   76.8763	   15.1306	       2.4	6.81718e+06	   76.9084	   15.1475	       2.4	6.77822e+06	   76.9287	   15.1165	       2.4	6.78452e+06	   76.8966	   15.0996	       2.4	6.82482e+06	
         R10	   2472	   76.8208	   15.1271	       2.4	6.90945e+06	   76.8353	    15.168	       2.4	6.82241e+06	   76.8825	   15.1537	       2.4	6.78966e+06	   76.8701	   15.1075	       2.4	6.84571e+06	   76.8281	   15.1475	       2.4	6.86398e+06	   76.8589	   15.1608	       2.4	6.80467e+06	   76.8763	   15.1306	       2.4	6.81557e+06	   76.8454	   15.1173	       2.4	6.87584e+06	
         R10	   2473	   76.7787	   15.1479	       2.4	6.97413e+06	   76.7991	   15.1855	       2.4	6.85395e+06	   76.8353	    15.168	       2.4	6.82281e+06	   76.8208	   15.1271	       2.4	6.90497e+06	   76.7889	   15.1667	       2.4	6.91181e+06	   76.8172	   15.1767	       2.4	6.83741e+06	   76.8281	   15.1475	       2.4	  6.862e+06	   76.7997	   15.1375	       2.4	6.93806e+06	
         R10	   2474	   76.7084	   15.2345	       2.4	6.96362e+06	   76.6889	   15.2345	       2.4	 7.0062e+06	   76.6896	   15.2534	       2.4	6.98505e+06	   76.7103	    15.256	       2.4	6.97491e+06	   76.6986	   15.2345	       2.4	6.98415e+06	   76.6892	    15.244	       2.4	6.99544e+06	   76.6999	   15.2547	       2.4	6.97913e+06	   76.7093	   15.2453	       2.4	6.96902e+06	
         R10	   2475	   76.7384	   15.1254	       2.4	7.28075e+06	   76.7107	   15.1303	       2.4	7.46122e+06	   76.7123	   15.1552	       2.4	7.29837e+06	   76.7404	   15.1548	       2.4	7.10744e+06	   76.7245	   15.1278	       2.4	7.37013e+06	   76.7115	   15.1427	       2.4	7.37927e+06	   76.7264	    15.155	       2.4	7.20158e+06	   76.7394	   15.1401	       2.4	7.19318e+06	
         R10	   2476	   76.6412	   15.0571	       2.4	8.78403e+06	   76.6523	   15.0878	       2.4	 8.4792e+06	   76.6693	   15.0868	       2.4	8.21819e+06	    76.675	   15.0633	       2.4	8.27202e+06	   76.6468	   15.0724	       2.4	8.63062e+06	   76.6608	   15.0873	       2.4	8.34854e+06	   76.6722	   15.0751	       2.4	8.24473e+06	   76.6581	   15.0602	       2.4	8.52763e+06	
         R10	   2477	   76.6721	   14.9788	       2.4	 8.6476e+06	   76.6316	   14.9656	       2.4	 9.1541e+06	   76.6164	    15.008	       2.4	9.27613e+06	   76.6535	   15.0194	       2.4	8.74104e+06	   76.6519	   14.9722	       2.4	8.90057e+06	    76.624	   14.9868	       2.4	9.21458e+06	   76.6349	   15.0137	       2.4	9.00816e+06	   76.6628	   14.9991	       2.4	8.69364e+06	
         R10	   2478	   76.6936	   14.9292	       2.4	8.57238e+06	   76.6473	   14.9172	       2.4	9.05912e+06	   76.6316	   14.9656	       2.4	 9.1568e+06	   76.6721	   14.9788	       2.4	8.64885e+06	   76.6705	   14.9232	       2.4	8.81561e+06	   76.6395	   14.9414	       2.4	9.10744e+06	   76.6519	   14.9722	       2.4	8.90255e+06	   76.6829	    14.954	       2.4	8.60991e+06	
         R10	   2479	   76.7189	   14.8781	       2.4	8.48382e+06	   76.6615	   14.8663	       2.4	9.00442e+06	   76.6473	   14.9172	       2.4	9.06388e+06	   76.6936	   14.9292	       2.4	8.56958e+06	   76.6902	   14.8722	       2.4	8.74407e+06	   76.6544	   14.8918	       2.4	9.03377e+06	   76.6705	   14.9232	       2.4	8.81661e+06	   76.7063	   14.9036	       2.4	8.52617e+06	
         R10	   2480	   76.7437	   14.8233	       2.4	8.46057e+06	   76.6748	    14.812	       2.4	8.93715e+06	   76.6615	   14.8663	       2.4	9.01007e+06	   76.7189	   14.8781	       2.4	8.47696e+06	   76.7092	   14.8177	       2.4	8.69884e+06	   76.6681	   14.8392	       2.4	8.97331e+06	   76.6902	   14.8722	       2.4	8.74345e+06	   76.7313	   14.8507	       2.4	8.46836e+06	
         R10	   2481	   76.7552	    14.762	       2.4	8.49955e+06	   76.6757	   14.7637	       2.4	9.00508e+06	   76.6748	    14.812	       2.4	 8.9536e+06	   76.7437	   14.8233	       2.4	8.42861e+06	   76.7155	   14.7628	       2.4	8.75227e+06	   76.6752	   14.7878	       2.4	8.97917e+06	   76.7092	   14.8177	       2.4	8.69103e+06	   76.7495	   14.7926	       2.4	8.46369e+06	
         R10	   2482	   76.9239	   14.8531	       2.4	7.43687e+06	   76.9275	   14.7863	       2.4	7.68255e+06	   76.8382	   14.7779	       2.4	8.06237e+06	   76.8295	   14.8509	       2.4	7.82667e+06	   76.9257	   14.8197	       2.4	7.55907e+06	   76.8828	   14.7821	       2.4	7.87005e+06	   76.8338	   14.8144	       2.4	7.94406e+06	   76.8767	    14.852	       2.4	7.62843e+06	
         R10	   2483	   77.0061	   14.9266	       2.4	7.03175e+06	   77.0111	   14.8643	       2.4	7.20968e+06	   76.9239	   14.8531	       2.4	7.46693e+06	   76.9271	   14.9155	       2.4	7.23647e+06	   77.0086	   14.8954	       2.4	7.11993e+06	   76.9675	   14.8587	       2.4	7.33463e+06	   76.9255	   14.8843	       2.4	7.35069e+06	   76.9666	   14.9211	       2.4	7.13051e+06	
         R10	   2484	   77.0471	   15.1168	       2.4	6.78371e+06	   77.1201	   15.1387	       2.4	6.77696e+06	   77.1158	   15.0527	       2.4	6.79781e+06	   77.0485	   15.0634	       2.4	6.75766e+06	   77.0836	   15.1278	       2.4	6.77899e+06	    77.118	   15.0957	       2.4	6.78226e+06	   77.0822	    15.058	       2.4	6.77606e+06	   77.0478	   15.0901	       2.4	6.76841e+06	
         R10	   2485	    76.983	   15.0773	       2.4	6.79098e+06	   76.9916	   15.1303	       2.4	6.76421e+06	   77.0471	   15.1168	       2.4	  6.756e+06	   77.0485	   15.0634	       2.4	6.76674e+06	   76.9873	   15.1038	       2.4	6.77529e+06	   77.0194	   15.1236	       2.4	6.75885e+06	   77.0478	   15.0901	       2.4	6.75961e+06	   77.0157	   15.0704	       2.4	6.77714e+06	
         R10	   2486	   76.9642	    15.027	       2.4	 6.8601e+06	    76.983	   15.0773	       2.4	6.79489e+06	   77.0485	   15.0634	       2.4	6.76125e+06	   77.0268	   15.0065	       2.4	 6.8693e+06	   76.9736	   15.0522	       2.4	6.82552e+06	   77.0157	   15.0704	       2.4	 6.7762e+06	   77.0376	   15.0349	       2.4	6.81252e+06	   76.9955	   15.0167	       2.4	6.86286e+06	
         R10	   2487	   76.9048	   15.0406	       2.4	6.92697e+06	   76.9231	   15.0918	       2.4	6.80357e+06	    76.983	   15.0773	       2.4	6.77893e+06	   76.9642	    15.027	       2.4	6.86316e+06	   76.9139	   15.0662	       2.4	 6.8629e+06	    76.953	   15.0846	       2.4	6.78956e+06	   76.9736	   15.0522	       2.4	6.81911e+06	   76.9345	   15.0338	       2.4	6.89314e+06	
         R10	   2488	   76.8531	   15.0589	       2.4	6.99949e+06	   76.8701	   15.1075	       2.4	6.84643e+06	   76.9231	   15.0918	       2.4	6.79936e+06	   76.9048	   15.0406	       2.4	6.93507e+06	   76.8616	   15.0832	       2.4	 6.9206e+06	   76.8966	   15.0996	       2.4	6.82121e+06	   76.9139	   15.0662	       2.4	6.86474e+06	   76.8789	   15.0498	       2.4	6.96562e+06	
         R10	   2489	   76.8054	    15.084	       2.4	7.09172e+06	   76.8208	   15.1271	       2.4	6.90717e+06	   76.8701	   15.1075	       2.4	6.84281e+06	   76.8531	   15.0589	       2.4	7.01041e+06	   76.8131	   15.1056	       2.4	6.99735e+06	   76.8454	   15.1173	       2.4	6.87325e+06	   76.8616	   15.0832	       2.4	 6.9242e+06	   76.8292	   15.0715	       2.4	7.04926e+06	
         R10	   2490	   76.7114	   15.2154	       2.4	6.99645e+06	   76.7084	   15.2345	       2.4	6.96119e+06	   76.7375	   15.2429	       2.4	6.93362e+06	   76.7326	   15.2166	       2.4	6.93832e+06	   76.7099	   15.2249	       2.4	6.97869e+06	   76.7229	   15.2387	       2.4	6.94573e+06	    76.735	   15.2298	       2.4	6.93546e+06	    76.722	    15.216	       2.4	6.96648e+06	
         R10	   2491	   76.7315	   15.1828	       2.4	7.03531e+06	   76.7091	   15.1987	       2.4	7.07169e+06	   76.7114	   15.2154	       2.4	6.99674e+06	   76.7326	   15.2166	       2.4	6.93884e+06	   76.7203	   15.1907	       2.4	7.05295e+06	   76.7103	    15.207	       2.4	7.03391e+06	    76.722	    15.216	       2.4	6.96707e+06	   76.7321	   15.1997	       2.4	6.98628e+06	
         R10	   2492	    76.702	   15.0739	       2.4	7.90148e+06	    76.675	   15.0633	       2.4	8.27769e+06	   76.6693	   15.0868	       2.4	8.22597e+06	   76.6904	   15.1041	       2.4	7.84707e+06	   76.6885	   15.0686	       2.4	8.08914e+06	   76.6722	   15.0751	       2.4	8.25134e+06	   76.6799	   15.0954	       2.4	8.03586e+06	   76.6962	    15.089	       2.4	7.87347e+06	
         R10	   2493	   76.7388	   14.9473	       2.4	8.11093e+06	   76.6936	   14.9292	       2.4	8.57098e+06	   76.6721	   14.9788	       2.4	8.64524e+06	   76.7118	   14.9952	       2.4	8.16734e+06	   76.7162	   14.9382	       2.4	8.34069e+06	   76.6829	    14.954	       2.4	8.60739e+06	    76.692	    14.987	       2.4	8.40596e+06	   76.7253	   14.9713	       2.4	8.13817e+06	
         R10	   2494	   76.7723	   14.9025	       2.4	8.02429e+06	   76.7189	   14.8781	       2.4	8.48395e+06	   76.6936	   14.9292	       2.4	8.56656e+06	   76.7388	   14.9473	       2.4	8.10764e+06	   76.7456	   14.8903	       2.4	8.25373e+06	   76.7063	   14.9036	       2.4	8.52475e+06	   76.7162	   14.9382	       2.4	8.33684e+06	   76.7555	   14.9249	       2.4	8.06524e+06	
         R10	   2495	   76.8631	   14.9233	       2.4	7.43777e+06	   76.9271	   14.9155	       2.4	7.24076e+06	   76.9239	   14.8531	       2.4	7.46847e+06	   76.8295	   14.8509	       2.4	7.86427e+06	   76.8951	   14.9194	       2.4	7.33747e+06	   76.9255	   14.8843	       2.4	7.35373e+06	   76.8767	    14.852	       2.4	7.66308e+06	   76.8463	   14.8871	       2.4	7.64892e+06	
         R10	   2496	   76.8306	   15.0076	       2.4	7.28905e+06	   76.8531	   15.0589	       2.4	6.99485e+06	   76.9048	   15.0406	       2.4	6.92658e+06	   76.8843	    14.987	       2.4	7.13172e+06	   76.8418	   15.0332	       2.4	7.13948e+06	   76.8789	   15.0498	       2.4	6.95902e+06	   76.8945	   15.0138	       2.4	7.02695e+06	   76.8574	   14.9973	       2.4	 7.2088e+06	
         R10	   2497	   76.7846	   15.0466	       2.4	7.36041e+06	   76.8054	    15.084	       2.4	7.08713e+06	   76.8531	   15.0589	       2.4	7.00571e+06	   76.8306	   15.0076	       2.4	7.27083e+06	    76.795	   15.0653	       2.4	7.22218e+06	   76.8292	   15.0715	       2.4	7.04467e+06	   76.8418	   15.0332	       2.4	7.13591e+06	   76.8076	   15.0271	       2.4	7.31406e+06	
         R10	   2498	   76.7787	   15.1479	       2.4	6.98105e+06	   76.8208	   15.1271	       2.4	6.90201e+06	   76.8054	    15.084	       2.4	7.09367e+06	   76.7681	   15.1072	       2.4	 7.1793e+06	   76.7997	   15.1375	       2.4	   6.94e+06	   76.8131	   15.1056	       2.4	6.99572e+06	   76.7868	   15.0956	       2.4	7.13521e+06	   76.7734	   15.1275	       2.4	7.07843e+06	
         R10	   2499	   76.6919	   15.0303	       2.4	8.22575e+06	   76.7118	   14.9952	       2.4	8.16914e+06	   76.6721	   14.9788	       2.4	8.64659e+06	   76.6535	   15.0194	       2.4	8.74166e+06	   76.7019	   15.0128	       2.4	8.19678e+06	    76.692	    14.987	       2.4	8.40753e+06	   76.6628	   14.9991	       2.4	8.69342e+06	   76.6727	   15.0249	       2.4	8.48333e+06	
         R10	   2500	   76.7735	   14.9755	       2.4	7.74356e+06	   76.7388	   14.9473	       2.4	8.11193e+06	   76.7118	   14.9952	       2.4	8.16941e+06	    76.751	   15.0168	       2.4	7.72317e+06	   76.7561	   14.9614	       2.4	7.92714e+06	   76.7253	   14.9713	       2.4	8.13971e+06	   76.7314	    15.006	       2.4	7.94554e+06	   76.7622	   14.9962	       2.4	7.73242e+06	
         R10	   2501	   76.8126	   14.9392	       2.4	7.62229e+06	   76.7723	   14.9025	       2.4	8.03213e+06	   76.7388	   14.9473	       2.4	8.11126e+06	   76.7735	   14.9755	       2.4	7.74742e+06	   76.7924	   14.9209	       2.4	7.82638e+06	   76.7555	   14.9249	       2.4	8.07085e+06	   76.7561	   14.9614	       2.4	7.92872e+06	    76.793	   14.9574	       2.4	7.68424e+06	
         R10	   2502	   76.9409	   14.9756	       2.4	7.02301e+06	   76.8843	    14.987	       2.4	7.14396e+06	   76.9048	   15.0406	       2.4	6.92166e+06	   76.9642	    15.027	       2.4	6.87132e+06	   76.9126	   14.9813	       2.4	7.08177e+06	   76.8945	   15.0138	       2.4	7.03048e+06	   76.9345	   15.0338	       2.4	6.89455e+06	   76.9525	   15.0013	       2.4	6.94528e+06	
         R10	   2503	   76.7681	   15.1072	       2.4	7.18067e+06	   76.8054	    15.084	       2.4	7.09252e+06	   76.7846	   15.0466	       2.4	7.35518e+06	   76.7508	   15.0732	       2.4	7.45763e+06	   76.7868	   15.0956	       2.4	7.13536e+06	    76.795	   15.0653	       2.4	7.22224e+06	   76.7677	   15.0599	       2.4	7.40532e+06	   76.7595	   15.0902	       2.4	7.31775e+06	
         R10	   2504	   76.7404	   15.1548	       2.4	7.11902e+06	   76.7315	   15.1828	       2.4	7.02605e+06	   76.7613	   15.1982	       2.4	6.90526e+06	   76.7787	   15.1479	       2.4	6.97763e+06	    76.736	   15.1688	       2.4	7.07204e+06	   76.7464	   15.1905	       2.4	6.96368e+06	     76.77	    15.173	       2.4	6.93991e+06	   76.7595	   15.1513	       2.4	 7.0467e+06	
         R10	   2505	   76.7384	   15.1254	       2.4	7.28225e+06	   76.7404	   15.1548	       2.4	7.10904e+06	   76.7787	   15.1479	       2.4	6.97568e+06	   76.7681	   15.1072	       2.4	7.17423e+06	   76.7394	   15.1401	       2.4	7.19481e+06	   76.7595	   15.1513	       2.4	7.04063e+06	   76.7734	   15.1275	       2.4	7.07318e+06	   76.7533	   15.1163	       2.4	 7.2273e+06	
         R10	   2506	   76.7203	   15.0992	       2.4	7.56761e+06	   76.7384	   15.1254	       2.4	7.27417e+06	   76.7681	   15.1072	       2.4	7.17931e+06	   76.7508	   15.0732	       2.4	7.45724e+06	   76.7293	   15.1123	       2.4	7.41979e+06	   76.7533	   15.1163	       2.4	7.22579e+06	   76.7595	   15.0902	       2.4	7.31686e+06	   76.7355	   15.0862	       2.4	7.51134e+06	
         R10	   2507	    76.702	   15.0739	       2.4	7.89841e+06	   76.7203	   15.0992	       2.4	7.56599e+06	   76.7508	   15.0732	       2.4	7.45503e+06	   76.7254	   15.0464	       2.4	 7.8051e+06	   76.7111	   15.0865	       2.4	7.73134e+06	   76.7355	   15.0862	       2.4	7.50946e+06	   76.7381	   15.0598	       2.4	7.62904e+06	   76.7137	   15.0602	       2.4	7.85098e+06	
         R10	   2508	   76.6677	   14.6112	       2.4	9.18528e+06	   76.6286	   14.6811	       2.4	9.18124e+06	   76.6863	   14.7056	       2.4	8.96637e+06	   76.7076	   14.6719	       2.4	8.70228e+06	   76.6481	   14.6461	       2.4	9.18081e+06	   76.6574	   14.6933	       2.4	9.07323e+06	    76.697	   14.6887	       2.4	8.83418e+06	   76.6877	   14.6415	       2.4	8.94322e+06	
         R10	   2509	   76.7659	    14.686	       2.4	8.50043e+06	   76.7597	    14.611	       2.4	8.81821e+06	   76.6677	   14.6112	       2.4	9.19407e+06	   76.7076	   14.6719	       2.4	8.77326e+06	   76.7628	   14.6485	       2.4	8.65732e+06	   76.7137	   14.6111	       2.4	9.00556e+06	   76.6877	   14.6415	       2.4	8.98188e+06	   76.7368	   14.6789	       2.4	8.63651e+06	
         R10	   2510	   76.6863	   14.7056	       2.4	8.98267e+06	   76.7552	    14.762	       2.4	8.50603e+06	   76.7659	    14.686	       2.4	8.62618e+06	   76.7076	   14.6719	       2.4	8.84636e+06	   76.7208	   14.7338	       2.4	8.74355e+06	   76.7606	    14.724	       2.4	8.56529e+06	   76.7368	   14.6789	       2.4	8.73625e+06	    76.697	   14.6887	       2.4	 8.9145e+06	
         R10	   2511	   76.8447	   14.7012	       2.4	8.25123e+06	   76.7659	    14.686	       2.4	8.62515e+06	   76.7552	    14.762	       2.4	8.47249e+06	   76.8382	   14.7779	       2.4	8.00325e+06	   76.8053	   14.6936	       2.4	8.43736e+06	   76.7606	    14.724	       2.4	8.54829e+06	   76.7967	   14.7699	       2.4	8.23695e+06	   76.8414	   14.7395	       2.4	8.12666e+06	
         R10	   2512	   76.8382	   14.7779	       2.4	 8.0542e+06	   76.7552	    14.762	       2.4	8.53264e+06	   76.7437	   14.8233	       2.4	8.42052e+06	   76.8295	   14.8509	       2.4	7.85152e+06	   76.7967	   14.7699	       2.4	8.29247e+06	   76.7495	   14.7926	       2.4	8.47621e+06	   76.7866	   14.8371	       2.4	 8.1351e+06	   76.8338	   14.8144	       2.4	 7.9524e+06	
         R10	   2513	   76.7437	   14.8233	       2.4	8.43856e+06	   76.7189	   14.8781	       2.4	8.48359e+06	   76.7723	   14.9025	       2.4	8.01883e+06	   76.8295	   14.8509	       2.4	7.85323e+06	   76.7313	   14.8507	       2.4	 8.4607e+06	   76.7456	   14.8903	       2.4	8.25087e+06	   76.8009	   14.8767	       2.4	7.93551e+06	   76.7866	   14.8371	       2.4	8.14478e+06	
         R10	   2514	   76.8295	   14.8509	       2.4	7.85475e+06	   76.7723	   14.9025	       2.4	8.03073e+06	   76.8126	   14.9392	       2.4	    7.6e+06	   76.8631	   14.9233	       2.4	7.44594e+06	   76.8009	   14.8767	       2.4	7.94208e+06	   76.7924	   14.9209	       2.4	7.81454e+06	   76.8378	   14.9313	       2.4	7.52175e+06	   76.8463	   14.8871	       2.4	7.64839e+06	
         R10	   2515	    77.177	   14.8792	       2.4	 6.9416e+06	   77.2648	   14.8626	       2.4	6.90809e+06	   77.2398	   14.7588	       2.4	7.01487e+06	   77.1725	   14.8151	       2.4	 7.1396e+06	   77.2209	   14.8709	       2.4	 6.9217e+06	   77.2523	   14.8107	       2.4	6.95785e+06	   77.2062	    14.787	       2.4	 7.0771e+06	   77.1748	   14.8472	       2.4	7.04044e+06	
         R10	   2516	   77.1057	   14.8022	       2.4	7.18508e+06	   77.0952	   14.8803	       2.4	7.00959e+06	    77.177	   14.8792	       2.4	6.96395e+06	   77.1725	   14.8151	       2.4	7.07494e+06	   77.1005	   14.8413	       2.4	7.09642e+06	   77.1361	   14.8797	       2.4	6.98483e+06	   77.1748	   14.8472	       2.4	7.01903e+06	   77.1391	   14.8087	       2.4	7.12667e+06	
         R10	   2517	   77.2398	   14.7588	       2.4	7.07108e+06	   77.1292	   14.7239	       2.4	7.29563e+06	   77.1057	   14.8022	       2.4	7.16146e+06	   77.1725	   14.8151	       2.4	7.07529e+06	   77.1845	   14.7413	       2.4	7.17792e+06	   77.1175	   14.7631	       2.4	7.22756e+06	   77.1391	   14.8087	       2.4	7.11614e+06	   77.2062	    14.787	       2.4	7.07288e+06	
         R10	   2518	   77.1789	   14.9612	       2.4	6.84495e+06	    77.177	   14.8792	       2.4	6.96895e+06	   77.0952	   14.8803	       2.4	7.05285e+06	   77.0921	   14.9639	       2.4	6.86963e+06	    77.178	   14.9202	       2.4	6.90581e+06	   77.1361	   14.8797	       2.4	7.00766e+06	   77.0937	   14.9221	       2.4	6.95968e+06	   77.1355	   14.9625	       2.4	6.85476e+06	
         R10	   2519	   77.0952	   14.8803	       2.4	7.01749e+06	   77.0111	   14.8643	       2.4	7.20297e+06	   77.0061	   14.9266	       2.4	7.02902e+06	   77.0921	   14.9639	       2.4	6.87789e+06	   77.0531	   14.8723	       2.4	7.10612e+06	   77.0086	   14.8954	       2.4	7.11485e+06	   77.0491	   14.9452	       2.4	6.94978e+06	   77.0937	   14.9221	       2.4	6.94646e+06	
         R10	   2520	   77.0268	   15.0065	       2.4	6.85842e+06	   77.0921	   14.9639	       2.4	6.86783e+06	   77.0061	   14.9266	       2.4	 7.0349e+06	   76.9946	   14.9699	       2.4	 6.9682e+06	   77.0595	   14.9852	       2.4	6.86209e+06	   77.0491	   14.9452	       2.4	6.94701e+06	   77.0003	   14.9483	       2.4	 7.0011e+06	   77.0107	   14.9882	       2.4	6.91168e+06	
         R10	   2521	   76.9409	   14.9756	       2.4	7.01949e+06	   76.9642	    15.027	       2.4	6.86572e+06	   77.0268	   15.0065	       2.4	6.85541e+06	   76.9946	   14.9699	       2.4	6.95605e+06	   76.9525	   15.0013	       2.4	6.94066e+06	   76.9955	   15.0167	       2.4	6.85884e+06	   77.0107	   14.9882	       2.4	 6.9042e+06	   76.9678	   14.9728	       2.4	6.98646e+06	
         R10	   2522	   77.0061	   14.9266	       2.4	7.04037e+06	   76.9271	   14.9155	       2.4	7.24399e+06	   76.9409	   14.9756	       2.4	 7.0293e+06	   76.9946	   14.9699	       2.4	6.94105e+06	   76.9666	   14.9211	       2.4	7.13867e+06	    76.934	   14.9456	       2.4	7.13523e+06	   76.9678	   14.9728	       2.4	6.98378e+06	   77.0003	   14.9483	       2.4	6.99004e+06	
         R10	   2523	   76.8843	    14.987	       2.4	7.13114e+06	   76.9409	   14.9756	       2.4	7.02948e+06	   76.9271	   14.9155	       2.4	7.25486e+06	   76.8631	   14.9233	       2.4	7.45154e+06	   76.9126	   14.9813	       2.4	7.07856e+06	    76.934	   14.9456	       2.4	7.14048e+06	   76.8951	   14.9194	       2.4	7.35143e+06	   76.8737	   14.9552	       2.4	7.28904e+06	
         R10	   2524	   76.8306	   15.0076	       2.4	7.28897e+06	   76.8843	    14.987	       2.4	7.12442e+06	   76.8631	   14.9233	       2.4	7.48874e+06	   76.8126	   14.9392	       2.4	 7.6169e+06	   76.8574	   14.9973	       2.4	7.20523e+06	   76.8737	   14.9552	       2.4	7.30425e+06	   76.8378	   14.9313	       2.4	7.55155e+06	   76.8216	   14.9734	       2.4	7.45064e+06	
         R10	   2525	   76.8306	   15.0076	       2.4	7.26841e+06	   76.7735	   14.9755	       2.4	7.72064e+06	    76.751	   15.0168	       2.4	7.72921e+06	   76.7846	   15.0466	       2.4	7.35537e+06	    76.802	   14.9916	       2.4	7.49216e+06	   76.7622	   14.9962	       2.4	7.72406e+06	   76.7678	   15.0317	       2.4	7.54095e+06	   76.8076	   15.0271	       2.4	7.31049e+06	
         R10	   2526	   76.7508	   15.0732	       2.4	7.45562e+06	   76.7846	   15.0466	       2.4	7.35251e+06	    76.751	   15.0168	       2.4	7.72351e+06	   76.7254	   15.0464	       2.4	7.80476e+06	   76.7677	   15.0599	       2.4	7.40304e+06	   76.7678	   15.0317	       2.4	7.53667e+06	   76.7382	   15.0316	       2.4	7.76341e+06	   76.7381	   15.0598	       2.4	7.62918e+06	
         R10	   2527	   76.7254	   15.0464	       2.4	7.80261e+06	    76.751	   15.0168	       2.4	7.72243e+06	   76.7118	   14.9952	       2.4	8.16809e+06	   76.6919	   15.0303	       2.4	8.22803e+06	   76.7382	   15.0316	       2.4	7.76177e+06	   76.7314	    15.006	       2.4	7.94453e+06	   76.7019	   15.0128	       2.4	8.19741e+06	   76.7087	   15.0384	       2.4	8.01471e+06	
         R10	   2528	    76.702	   15.0739	       2.4	7.89594e+06	   76.7254	   15.0464	       2.4	 7.8026e+06	   76.6919	   15.0303	       2.4	8.22919e+06	    76.675	   15.0633	       2.4	8.27315e+06	   76.7137	   15.0602	       2.4	7.84856e+06	   76.7087	   15.0384	       2.4	8.01528e+06	   76.6835	   15.0468	       2.4	8.25042e+06	   76.6885	   15.0686	       2.4	8.08408e+06	
         R10	   2529	    76.675	   15.0633	       2.4	8.27717e+06	   76.6919	   15.0303	       2.4	8.22761e+06	   76.6535	   15.0194	       2.4	8.74282e+06	   76.6412	   15.0571	       2.4	8.77255e+06	   76.6835	   15.0468	       2.4	8.25162e+06	   76.6727	   15.0249	       2.4	8.48484e+06	   76.6473	   15.0383	       2.4	8.75682e+06	   76.6581	   15.0602	       2.4	8.52444e+06	
         R10	   2530	   76.6535	   15.0194	       2.4	8.74031e+06	   76.6164	    15.008	       2.4	9.27754e+06	   76.6033	   15.0451	       2.4	9.38979e+06	   76.6412	   15.0571	       2.4	8.78633e+06	   76.6349	   15.0137	       2.4	9.00852e+06	   76.6098	   15.0265	       2.4	9.33314e+06	   76.6222	   15.0511	       2.4	9.08723e+06	   76.6473	   15.0383	       2.4	8.76242e+06	
         R10	   2531	   76.6127	   15.0814	       2.4	9.18046e+06	    76.627	   15.0821	       2.4	8.88391e+06	   76.6412	   15.0571	       2.4	8.77822e+06	   76.6033	   15.0451	       2.4	9.41733e+06	   76.6199	   15.0817	       2.4	9.03209e+06	   76.6341	   15.0696	       2.4	8.83078e+06	   76.6222	   15.0511	       2.4	9.09674e+06	    76.608	   15.0632	       2.4	9.29726e+06	
         R10	   2532	   76.5956	   15.0879	       2.4	9.44813e+06	   76.6127	   15.0814	       2.4	9.16517e+06	   76.6033	   15.0451	       2.4	9.38636e+06	   76.5799	   15.0691	       2.4	 9.7683e+06	   76.6042	   15.0846	       2.4	 9.3066e+06	    76.608	   15.0632	       2.4	9.27386e+06	   76.5916	   15.0571	       2.4	9.57725e+06	   76.5877	   15.0785	       2.4	9.60709e+06	
         R10	   2533	   76.5799	   15.0691	       2.4	9.76669e+06	   76.5564	   15.0612	       2.4	1.01707e+07	   76.5482	   15.0886	       2.4	 1.0332e+07	     76.57	   15.0857	       2.4	9.94495e+06	   76.5681	   15.0652	       2.4	9.96772e+06	   76.5523	   15.0749	       2.4	1.02511e+07	   76.5591	   15.0872	       2.4	1.01381e+07	   76.5749	   15.0774	       2.4	9.85579e+06	
         R10	   2534	   76.5803	    15.096	       2.4	9.71812e+06	   76.5956	   15.0879	       2.4	9.44741e+06	   76.5799	   15.0691	       2.4	9.76879e+06	     76.57	   15.0857	       2.4	9.94832e+06	   76.5879	   15.0919	       2.4	9.58274e+06	   76.5877	   15.0785	       2.4	9.60699e+06	   76.5749	   15.0774	       2.4	9.85847e+06	   76.5751	   15.0908	       2.4	9.83272e+06	
         R10	   2535	   76.5482	   15.0886	       2.4	1.03516e+07	   76.5671	   15.1111	       2.4	9.99645e+06	   76.5803	    15.096	       2.4	9.72158e+06	     76.57	   15.0857	       2.4	9.95269e+06	   76.5577	   15.0999	       2.4	1.01716e+07	   76.5737	   15.1036	       2.4	9.85899e+06	   76.5751	   15.0908	       2.4	9.83658e+06	   76.5591	   15.0872	       2.4	1.01516e+07	
         R10	   2536	   76.7315	   15.1828	       2.4	 7.0398e+06	   76.7404	   15.1548	       2.4	7.11225e+06	   76.7123	   15.1552	       2.4	7.29628e+06	   76.7113	   15.1734	       2.4	7.18865e+06	    76.736	   15.1688	       2.4	7.07563e+06	   76.7264	    15.155	       2.4	7.20303e+06	   76.7118	   15.1643	       2.4	7.24219e+06	   76.7214	   15.1781	       2.4	7.11319e+06	
         R10	   2537	     76.67	    15.266	       2.4	 7.0235e+06	     76.67	    15.283	       2.4	7.09558e+06	   76.6897	   15.2769	       2.4	7.05989e+06	     76.67	   15.2745	       2.4	7.05944e+06	   76.6798	   15.2799	       2.4	7.07697e+06	   76.6798	   15.2714	       2.4	7.04072e+06	       N/A	       N/A	       N/A	        N/A	       N/A	       N/A	       N/A	        N/A	
         R10	   2538	   76.6932	   15.1804	       2.4	7.27343e+06	   76.6865	   15.2003	       2.4	7.19423e+06	   76.7091	   15.1987	       2.4	7.07046e+06	   76.6898	   15.1904	       2.4	7.23366e+06	   76.6978	   15.1995	       2.4	7.13121e+06	   76.7012	   15.1896	       2.4	7.17063e+06	       N/A	       N/A	       N/A	        N/A	       N/A	       N/A	       N/A	        N/A	
         R10	   2539	   76.6876	   15.1464	       2.4	7.57808e+06	   76.6876	   15.1648	       2.4	7.44826e+06	   76.7123	   15.1552	       2.4	7.29313e+06	   76.6876	   15.1556	       2.4	7.51288e+06	      76.7	     15.16	       2.4	7.36974e+06	      76.7	   15.1508	       2.4	7.43429e+06	       N/A	       N/A	       N/A	        N/A	       N/A	       N/A	       N/A	        N/A	
         R10	   2540	    76.635	   15.1034	       2.4	8.65577e+06	   76.6545	    15.113	       2.4	8.28021e+06	   76.6523	   15.0878	       2.4	 8.4645e+06	   76.6447	   15.1082	       2.4	8.46761e+06	   76.6534	   15.1004	       2.4	8.37164e+06	   76.6436	   15.0956	       2.4	8.55983e+06	       N/A	       N/A	       N/A	        N/A	       N/A	       N/A	       N/A	        N/A	
         R10	   2541	   76.5671	   15.1111	       2.4	9.98837e+06	   76.5864	   15.1134	       2.4	9.57338e+06	   76.5803	    15.096	       2.4	9.72072e+06	   76.5768	   15.1123	       2.4	9.78025e+06	   76.5833	   15.1047	       2.4	9.64626e+06	   76.5737	   15.1036	       2.4	9.85446e+06	       N/A	       N/A	       N/A	        N/A	       N/A	       N/A	       N/A	        N/A	
         R10	   2542	   76.6693	   15.0868	       2.4	8.22415e+06	   76.6693	   15.1129	       2.4	8.06456e+06	   76.6904	   15.1041	       2.4	7.84355e+06	   76.6693	   15.0998	       2.4	8.14367e+06	   76.6799	   15.1085	       2.4	7.95363e+06	   76.6799	   15.0954	       2.4	8.03313e+06	       N/A	       N/A	       N/A	        N/A	       N/A	       N/A	       N/A	        N/A	
         R10	   2543	   77.0471	   15.1168	       2.4	6.78527e+06	   77.0529	   15.1829	       2.4	6.82615e+06	   77.1201	   15.1387	       2.4	6.77679e+06	     77.05	   15.1498	       2.4	6.80205e+06	   77.0865	   15.1608	       2.4	6.79861e+06	   77.0836	   15.1278	       2.4	6.77923e+06	       N/A	       N/A	       N/A	        N/A	       N/A	       N/A	       N/A	        N/A	
         R10	   2544	   76.7084	   15.2345	       2.4	6.96511e+06	   76.7103	    15.256	       2.4	6.97189e+06	   76.7375	   15.2429	       2.4	6.93844e+06	   76.7093	   15.2453	       2.4	6.96828e+06	   76.7239	   15.2495	       2.4	6.95453e+06	   76.7229	   15.2387	       2.4	6.95021e+06	       N/A	       N/A	       N/A	        N/A	       N/A	       N/A	       N/A	        N/A	
         R10	   2545	   76.7203	   15.0992	       2.4	7.56949e+06	   76.7107	   15.1303	       2.4	7.46446e+06	   76.7384	   15.1254	       2.4	7.27546e+06	   76.7155	   15.1147	       2.4	 7.5162e+06	   76.7245	   15.1278	       2.4	7.36907e+06	   76.7293	   15.1123	       2.4	7.42128e+06	       N/A	       N/A	       N/A	        N/A	       N/A	       N/A	       N/A	        N/A	
         R10	   2546	   76.6863	   14.7056	       2.4	 8.9507e+06	   76.6757	   14.7637	       2.4	8.98817e+06	   76.7552	    14.762	       2.4	8.47205e+06	    76.681	   14.7346	       2.4	8.96926e+06	   76.7155	   14.7628	       2.4	8.73007e+06	   76.7208	   14.7338	       2.4	8.71109e+06	       N/A	       N/A	       N/A	        N/A	       N/A	       N/A	       N/A	        N/A	
         R10	   2547	   76.7315	   15.1828	       2.4	7.02843e+06	   76.7326	   15.2166	       2.4	6.94024e+06	   76.7613	   15.1982	       2.4	6.91055e+06	   76.7321	   15.1997	       2.4	6.98354e+06	   76.7469	   15.2074	       2.4	6.92469e+06	   76.7464	   15.1905	       2.4	6.96745e+06	       N/A	       N/A	       N/A	        N/A	       N/A	       N/A	       N/A	        N/A	
         R10	   2548	    76.702	   15.0739	       2.4	7.90087e+06	   76.6904	   15.1041	       2.4	7.84192e+06	   76.7203	   15.0992	       2.4	7.56782e+06	   76.6962	    15.089	       2.4	7.87063e+06	   76.7053	   15.1017	       2.4	7.70409e+06	   76.7111	   15.0865	       2.4	7.73344e+06	       N/A	       N/A	       N/A	        N/A	       N/A	       N/A	       N/A	        N/A	
         R10	   2549	   76.7613	   15.1982	       2.4	 6.9151e+06	   76.7991	   15.1855	       2.4	6.85587e+06	   76.7787	   15.1479	       2.4	6.96571e+06	   76.7802	   15.1918	       2.4	6.88428e+06	   76.7889	   15.1667	       2.4	6.90855e+06	     76.77	    15.173	       2.4	6.93895e+06	       N/A	       N/A	       N/A	        N/A	       N/A	       N/A	       N/A	        N/A	
         R10	   2550	   76.5482	   15.0886	       2.4	1.03424e+07	    76.534	   15.1112	       2.4	1.06617e+07	   76.5509	   15.1161	       2.4	1.03337e+07	   76.5411	   15.0999	       2.4	 1.0502e+07	   76.5425	   15.1137	       2.4	1.04967e+07	   76.5496	   15.1024	       2.4	1.03368e+07	       N/A	       N/A	       N/A	        N/A	       N/A	       N/A	       N/A	        N/A	
         R10	   2551	   76.8126	   14.9392	       2.4	7.62579e+06	   76.7735	   14.9755	       2.4	7.72065e+06	   76.8306	   15.0076	       2.4	 7.2772e+06	    76.793	   14.9574	       2.4	7.67254e+06	    76.802	   14.9916	       2.4	 7.4969e+06	   76.8216	   14.9734	       2.4	7.44952e+06	       N/A	       N/A	       N/A	        N/A	       N/A	       N/A	       N/A	        N/A	
         R10	   2552	   76.5671	   15.1111	       2.4	9.99619e+06	   76.5482	   15.0886	       2.4	1.03548e+07	   76.5509	   15.1161	       2.4	1.03254e+07	   76.5577	   15.0999	       2.4	 1.0173e+07	   76.5496	   15.1024	       2.4	1.03389e+07	   76.5591	   15.1136	       2.4	1.01605e+07	       N/A	       N/A	       N/A	        N/A	       N/A	       N/A	       N/A	        N/A	
         R10	   2553	      76.5	   14.5579	       1.6	1.81554e+07	      76.5	     14.45	       1.6	1.76089e+07	      76.5	     14.45	   1.70151	1.74824e+07	      76.5	   14.5531	   1.70068	1.80332e+07	      76.5	   14.5039	       1.6	1.78819e+07	      76.5	     14.45	   1.65076	1.75456e+07	      76.5	   14.5015	    1.7011	1.77575e+07	      76.5	   14.5555	   1.65034	1.80942e+07	
         R10	   2554	      76.5	   14.5531	   1.70068	1.80339e+07	      76.5	     14.45	   1.70151	1.74813e+07	      76.5	     14.45	   1.79987	1.73354e+07	      76.5	   14.5501	   1.79864	1.78723e+07	      76.5	   14.5015	    1.7011	1.77573e+07	      76.5	     14.45	   1.75069	1.74083e+07	      76.5	   14.5001	   1.79925	1.76036e+07	      76.5	   14.5516	   1.74966	1.79531e+07	
         R10	   2555	      76.5	   14.5501	   1.79864	1.78723e+07	      76.5	     14.45	   1.79987	1.73366e+07	      76.5	     14.45	   1.89507	1.71504e+07	      76.5	   14.5449	   1.89329	1.76751e+07	      76.5	   14.5001	   1.79925	1.76041e+07	      76.5	     14.45	   1.84747	1.72434e+07	      76.5	   14.4975	   1.89418	1.74123e+07	      76.5	   14.5475	   1.84597	1.77737e+07	
         R10	   2556	      76.5	   14.5449	   1.89329	1.76765e+07	      76.5	     14.45	   1.89507	1.71515e+07	      76.5	     14.45	   1.98711	1.69238e+07	      76.5	   14.5399	   1.98623	1.74323e+07	      76.5	   14.4975	   1.89418	1.74136e+07	      76.5	     14.45	   1.94109	1.70376e+07	      76.5	   14.4949	   1.98667	1.71774e+07	      76.5	   14.5424	   1.93976	1.75544e+07	
         R10	   2557	      76.5	   14.5399	   1.98623	1.74357e+07	      76.5	     14.45	   1.98711	1.69236e+07	      76.5	     14.45	     2.076	1.66396e+07	      76.5	   14.5363	   2.07504	 1.7142e+07	      76.5	   14.4949	   1.98667	 1.7179e+07	      76.5	     14.45	   2.03156	1.67815e+07	      76.5	   14.4932	   2.07552	1.68898e+07	      76.5	   14.5381	   2.03063	1.72888e+07	
         R10	   2558	      76.5	   14.5363	   2.07504	1.71521e+07	      76.5	     14.45	     2.076	1.66378e+07	      76.5	     14.45	   2.16173	1.63019e+07	      76.5	    14.533	   2.16098	1.67913e+07	      76.5	   14.4932	   2.07552	 1.6894e+07	      76.5	     14.45	   2.11887	1.64695e+07	      76.5	   14.4915	   2.16136	1.65449e+07	      76.5	   14.5347	   2.11801	1.69716e+07	
         R10	   2559	      76.5	    14.533	   2.16098	1.68338e+07	      76.5	     14.45	   2.16173	1.62919e+07	      76.5	     14.45	   2.24431	1.59929e+07	      76.5	   14.5303	   2.24354	1.63769e+07	      76.5	   14.4915	   2.16136	 1.6561e+07	      76.5	     14.45	   2.20302	1.61409e+07	      76.5	   14.4902	   2.24393	1.61838e+07	      76.5	   14.5317	   2.20226	1.66045e+07	
         R10	   2560	      76.5	   14.5303	   2.24354	 1.6384e+07	      76.5	     14.45	   2.24431	1.59405e+07	      76.5	     14.45	   2.32373	1.60622e+07	      76.5	   14.5279	   2.32291	1.52729e+07	      76.5	   14.4902	   2.24393	1.61611e+07	      76.5	     14.45	   2.28402	1.59938e+07	      76.5	   14.4889	   2.32332	1.56531e+07	      76.5	   14.5291	   2.28323	1.58282e+07	
         R10	   2561	      76.5	   14.5279	   2.32291	1.50422e+07	      76.5	     14.45	   2.32373	1.63558e+07	      76.5	     14.45	       2.4	 1.4938e+07	      76.5	   14.5298	       2.4	1.38899e+07	      76.5	   14.4889	   2.32332	  1.569e+07	      76.5	     14.45	   2.36187	1.56145e+07	      76.5	   14.4899	       2.4	 1.4201e+07	      76.5	   14.5288	   2.36146	1.44236e+07	
         R10	   2562	      76.5	   14.6033	   2.32376	1.60369e+07	      76.5	   14.5279	   2.32291	1.46117e+07	      76.5	   14.5298	       2.4	1.55891e+07	      76.5	   14.6048	       2.4	1.57891e+07	      76.5	   14.5656	   2.32334	1.53037e+07	      76.5	   14.5288	   2.36146	1.50513e+07	      76.5	   14.5673	       2.4	1.56844e+07	      76.5	    14.604	   2.36188	1.59122e+07	
         R10	   2563	      76.5	   14.6033	   2.32376	1.58529e+07	      76.5	   14.6048	       2.4	1.58167e+07	      76.5	   14.6749	       2.4	1.61805e+07	      76.5	   14.6738	   2.32961	1.64119e+07	      76.5	    14.604	   2.36188	1.58338e+07	      76.5	   14.6398	       2.4	 1.5998e+07	      76.5	   14.6744	   2.36481	1.62955e+07	      76.5	   14.6386	   2.32669	1.61324e+07	
         R10	   2564	      76.5	   14.6738	   2.32961	1.62823e+07	      76.5	   14.6749	       2.4	1.61935e+07	      76.5	   14.7403	       2.4	1.64698e+07	      76.5	    14.739	   2.33508	1.67026e+07	      76.5	   14.6744	   2.36481	 1.6237e+07	      76.5	   14.7076	       2.4	1.63314e+07	      76.5	   14.7397	   2.36754	 1.6586e+07	      76.5	   14.7064	   2.33235	1.64923e+07	
         R10	   2565	      76.5	    14.739	   2.33508	 1.6652e+07	      76.5	   14.7403	       2.4	1.64444e+07	      76.5	   14.8009	       2.4	1.67097e+07	      76.5	   14.7996	   2.34071	1.69343e+07	      76.5	   14.7397	   2.36754	1.65479e+07	      76.5	   14.7706	       2.4	1.65768e+07	      76.5	   14.8003	   2.37036	1.68218e+07	      76.5	   14.7693	    2.3379	1.67931e+07	
         R10	   2566	      76.5	   14.7996	   2.34071	1.69109e+07	      76.5	   14.8009	       2.4	1.66915e+07	      76.5	   14.8567	       2.4	1.69457e+07	      76.5	   14.8554	   2.34606	1.71586e+07	      76.5	   14.8003	   2.37036	 1.6801e+07	      76.5	   14.8288	       2.4	1.68185e+07	      76.5	    14.856	   2.37303	 1.7052e+07	      76.5	   14.8275	   2.34339	1.70346e+07	
         R10	   2567	      76.5	   14.8554	   2.34606	1.71502e+07	      76.5	   14.8567	       2.4	1.69326e+07	      76.5	   14.9076	       2.4	1.71859e+07	      76.5	   14.9065	    2.3511	1.73857e+07	      76.5	    14.856	   2.37303	1.70413e+07	      76.5	   14.8821	       2.4	1.70591e+07	      76.5	   14.9071	   2.37555	1.72857e+07	      76.5	   14.8809	   2.34858	1.72678e+07	
         R10	   2568	      76.5	   14.9065	    2.3511	1.73826e+07	      76.5	   14.9076	       2.4	1.71808e+07	      76.5	   14.9538	       2.4	1.74368e+07	      76.5	   14.9524	    2.3561	1.76187e+07	      76.5	   14.9071	   2.37555	1.72816e+07	      76.5	   14.9307	       2.4	1.73087e+07	      76.5	   14.9531	   2.37805	1.75276e+07	      76.5	   14.9295	    2.3536	1.75006e+07	
         R10	   2569	      76.5	   14.9524	    2.3561	1.76169e+07	      76.5	   14.9538	       2.4	1.74392e+07	      76.5	   14.9952	       2.4	1.76998e+07	      76.5	   14.9937	   2.36165	1.78597e+07	      76.5	   14.9531	   2.37805	1.75279e+07	      76.5	   14.9745	       2.4	1.75694e+07	      76.5	   14.9944	   2.38083	1.77796e+07	      76.5	    14.973	   2.35888	1.77382e+07	
         R10	   2570	      76.5	   14.9937	   2.36165	1.78574e+07	      76.5	   14.9952	       2.4	1.77081e+07	      76.5	   15.0317	       2.4	1.79758e+07	      76.5	   15.0305	   2.36678	1.81135e+07	      76.5	   14.9944	   2.38083	1.77826e+07	      76.5	   15.0135	       2.4	1.78418e+07	      76.5	   15.0311	   2.38339	1.80445e+07	      76.5	   15.0121	   2.36421	1.79854e+07	
         R10	   2571	      76.5	   15.0305	   2.36678	1.81114e+07	      76.5	   15.0317	       2.4	1.79853e+07	      76.5	   15.0635	       2.4	1.82597e+07	      76.5	   15.0623	    2.3713	1.83738e+07	      76.5	   15.0311	   2.38339	1.80482e+07	      76.5	   15.0476	       2.4	1.81225e+07	      76.5	   15.0629	   2.38565	1.83166e+07	      76.5	   15.0464	   2.36904	1.82426e+07	
         R10	   2572	      76.5	   15.0623	    2.3713	1.83725e+07	      76.5	   15.0635	       2.4	1.82684e+07	      76.5	   15.0905	       2.4	1.85421e+07	      76.5	   15.0894	   2.37531	1.86353e+07	      76.5	   15.0629	   2.38565	1.83203e+07	      76.5	    15.077	       2.4	1.84052e+07	      76.5	   15.0899	   2.38766	1.85885e+07	      76.5	   15.0758	    2.3733	1.85039e+07	
         R10	   2573	      76.5	   15.0894	   2.37531	1.86335e+07	      76.5	   15.0905	       2.4	1.85492e+07	      76.5	   15.1126	       2.4	1.88103e+07	      76.5	   15.1118	   2.37781	1.88943e+07	      76.5	   15.0899	   2.38766	1.85912e+07	      76.5	   15.1016	       2.4	1.86797e+07	      76.5	   15.1122	    2.3889	1.88521e+07	      76.5	   15.1006	   2.37656	1.87639e+07	
         R10	   2574	      76.5	   15.1118	   2.37781	 1.8892e+07	      76.5	   15.1126	       2.4	1.88192e+07	      76.5	     15.13	       2.4	1.90492e+07	      76.5	     15.13	     2.383	1.91202e+07	      76.5	   15.1122	    2.3889	1.88555e+07	      76.5	   15.1213	       2.4	1.89342e+07	      76.5	     15.13	    2.3915	1.90846e+07	      76.5	   15.1209	    2.3804	1.90061e+07	
         R10	   2575	      76.5	   15.1123	   2.35187	1.90209e+07	      76.5	     15.13	     2.349	1.92846e+07	      76.5	     15.13	     2.332	1.93542e+07	      76.5	   15.1124	   2.33216	1.91045e+07	      76.5	   15.1211	   2.35044	1.91528e+07	      76.5	     15.13	    2.3405	1.93193e+07	      76.5	   15.1212	   2.33208	1.92293e+07	      76.5	   15.1123	   2.34201	1.90625e+07	
         R10	   2576	      76.5	   15.1124	   2.33216	1.91048e+07	      76.5	     15.13	     2.332	1.93545e+07	      76.5	     15.13	     2.315	1.94036e+07	      76.5	   15.1121	    2.3152	1.91559e+07	      76.5	   15.1212	   2.33208	1.92297e+07	      76.5	     15.13	    2.3235	1.93789e+07	      76.5	   15.1211	    2.3151	1.92797e+07	      76.5	   15.1123	   2.32368	1.91302e+07	
         R10	   2577	      76.5	   15.1121	    2.3152	1.91554e+07	      76.5	     15.13	     2.315	1.94039e+07	      76.5	     15.13	     2.298	1.94298e+07	      76.5	   15.1133	   2.29909	1.92087e+07	      76.5	   15.1211	    2.3151	1.92796e+07	      76.5	     15.13	    2.3065	1.94167e+07	      76.5	   15.1217	   2.29855	1.93192e+07	      76.5	   15.1127	   2.30715	1.91819e+07	
         R10	   2578	      76.5	   15.1133	   2.29909	1.92084e+07	      76.5	     15.13	     2.298	1.94296e+07	      76.5	     15.13	     2.281	1.94327e+07	      76.5	   15.1108	   2.28118	1.91976e+07	      76.5	   15.1217	   2.29855	1.93189e+07	      76.5	     15.13	    2.2895	 1.9431e+07	      76.5	   15.1204	   2.28109	 1.9315e+07	      76.5	   15.1121	   2.29014	1.92028e+07	
         R10	   2579	      76.5	   15.1108	   2.28118	1.91975e+07	      76.5	     15.13	     2.281	1.94328e+07	      76.5	     15.13	     2.264	1.94151e+07	      76.5	   15.1138	   2.26445	1.92358e+07	      76.5	   15.1204	   2.28109	 1.9315e+07	      76.5	     15.13	    2.2725	1.94238e+07	      76.5	   15.1219	   2.26422	1.93254e+07	      76.5	   15.1123	   2.27282	1.92165e+07	
         R10	   2580	      76.5	   15.1138	   2.26445	1.92366e+07	      76.5	     15.13	     2.264	1.94138e+07	      76.5	     15.13	     2.247	1.93835e+07	      76.5	   15.1123	   2.24672	1.92014e+07	      76.5	   15.1219	   2.26422	1.93251e+07	      76.5	     15.13	    2.2555	1.93985e+07	      76.5	   15.1211	   2.24686	1.92924e+07	      76.5	    15.113	   2.25558	1.92189e+07	
         R10	   2581	      76.5	   15.1123	   2.24672	1.92054e+07	      76.5	     15.13	     2.247	1.93825e+07	      76.5	     15.13	      2.23	1.93379e+07	      76.5	   15.1113	   2.23027	 1.9171e+07	      76.5	   15.1211	   2.24686	1.92939e+07	      76.5	     15.13	    2.2385	1.93601e+07	      76.5	   15.1206	   2.23013	1.92543e+07	      76.5	   15.1118	   2.23849	1.91881e+07	
         R10	   2582	      76.5	   15.1309	   2.21336	1.92931e+07	      76.5	     15.13	      2.23	1.93375e+07	      76.5	    15.147	      2.23	 1.9488e+07	      76.5	   15.1461	   2.21359	1.94078e+07	      76.5	   15.1304	   2.22168	1.93152e+07	      76.5	   15.1385	      2.23	1.94126e+07	      76.5	   15.1465	   2.22179	1.94478e+07	      76.5	   15.1385	   2.21348	1.93503e+07	
         R10	   2583	      76.5	   15.1461	   2.21359	1.94116e+07	      76.5	    15.147	      2.23	1.94878e+07	      76.5	    15.164	      2.23	1.96353e+07	      76.5	   15.1633	   2.21037	 1.9515e+07	      76.5	   15.1465	   2.22179	1.94496e+07	      76.5	   15.1555	      2.23	1.95613e+07	      76.5	   15.1636	   2.22018	 1.9575e+07	      76.5	   15.1547	   2.21198	 1.9463e+07	
         R10	   2584	      76.5	   15.1633	   2.21037	1.95164e+07	      76.5	    15.164	      2.23	1.96353e+07	      76.5	    15.181	      2.23	1.97725e+07	      76.5	   15.1818	   2.21267	1.96491e+07	      76.5	   15.1636	   2.22018	1.95758e+07	      76.5	   15.1725	      2.23	1.97036e+07	      76.5	   15.1814	   2.22133	1.97107e+07	      76.5	   15.1725	   2.21152	1.95825e+07	
         R10	   2585	      76.5	   15.1818	   2.21267	 1.9649e+07	      76.5	    15.181	      2.23	1.97735e+07	      76.5	    15.198	      2.23	1.98921e+07	      76.5	   15.1974	   2.21173	1.97252e+07	      76.5	   15.1814	   2.22133	1.97111e+07	      76.5	   15.1895	      2.23	1.98324e+07	      76.5	   15.1977	   2.22086	1.98086e+07	      76.5	   15.1896	    2.2122	1.96868e+07	
         R10	   2586	      76.5	   15.1974	   2.21173	1.97247e+07	      76.5	    15.198	      2.23	1.98929e+07	      76.5	    15.215	      2.23	1.99853e+07	      76.5	   15.2149	   2.21232	1.97991e+07	      76.5	   15.1977	   2.22086	1.98088e+07	      76.5	   15.2065	      2.23	1.99386e+07	      76.5	   15.2149	   2.22116	1.98922e+07	      76.5	   15.2061	   2.21202	1.97615e+07	
         R10	   2587	      76.5	   15.2149	   2.21232	1.97998e+07	      76.5	    15.215	      2.23	1.99862e+07	      76.5	    15.232	      2.23	2.00432e+07	      76.5	   15.2321	   2.21232	1.98333e+07	      76.5	   15.2149	   2.22116	 1.9893e+07	      76.5	   15.2235	      2.23	2.00141e+07	      76.5	   15.2321	   2.22116	1.99383e+07	      76.5	   15.2235	   2.21232	 1.9816e+07	
         R10	   2588	      76.5	   15.2321	   2.21232	 1.9835e+07	      76.5	    15.232	      2.23	2.00434e+07	      76.5	    15.249	      2.23	2.00557e+07	      76.5	   15.2487	    2.2124	 1.9832e+07	      76.5	   15.2321	   2.22116	1.99392e+07	      76.5	   15.2405	      2.23	2.00488e+07	      76.5	   15.2489	    2.2212	1.99438e+07	      76.5	   15.2404	   2.21236	 1.9833e+07	
         R10	   2589	      76.5	   15.2487	    2.2124	1.98327e+07	      76.5	    15.249	      2.23	2.00559e+07	      76.5	    15.266	      2.23	2.00211e+07	      76.5	   15.2656	   2.21273	 1.9796e+07	      76.5	   15.2489	    2.2212	1.99443e+07	      76.5	   15.2575	      2.23	2.00378e+07	      76.5	   15.2658	   2.22137	1.99085e+07	      76.5	   15.2571	   2.21257	1.98138e+07	
         R10	   2590	      76.5	   15.2656	   2.21273	 1.9797e+07	      76.5	    15.266	      2.23	2.00204e+07	      76.5	    15.283	      2.23	1.99356e+07	      76.5	   15.2829	   2.21176	1.97022e+07	      76.5	   15.2658	   2.22137	1.99087e+07	      76.5	   15.2745	      2.23	1.99773e+07	      76.5	    15.283	   2.22088	1.98188e+07	      76.5	   15.2743	   2.21224	1.97491e+07	
         R10	   2591	      76.5	   15.2829	   2.21176	1.97031e+07	      76.5	    15.283	      2.23	1.99343e+07	      76.5	      15.3	      2.23	1.98083e+07	      76.5	      15.3	   2.21268	1.95976e+07	      76.5	    15.283	   2.22088	1.98187e+07	      76.5	   15.2915	      2.23	1.98707e+07	      76.5	      15.3	   2.22134	1.97029e+07	      76.5	   15.2915	   2.21222	1.96498e+07	
         R10	   2592	      76.5	   15.2829	   2.21176	1.97017e+07	      76.5	      15.3	   2.21268	1.95999e+07	      76.5	      15.3	   2.19016	1.93632e+07	      76.5	   15.2774	   2.18927	1.94912e+07	      76.5	   15.2915	   2.21222	1.96503e+07	      76.5	      15.3	   2.20142	1.94814e+07	      76.5	   15.2887	   2.18971	1.94265e+07	      76.5	   15.2801	   2.20051	1.95963e+07	
         R10	   2593	      76.5	   15.2774	   2.18927	1.94889e+07	      76.5	      15.3	   2.19016	1.93638e+07	      76.5	      15.3	   2.16246	 1.9135e+07	      76.5	   15.2691	   2.16218	1.92836e+07	      76.5	   15.2887	   2.18971	1.94256e+07	      76.5	      15.3	   2.17631	1.92493e+07	      76.5	   15.2846	   2.16232	1.92084e+07	      76.5	   15.2732	   2.17572	 1.9386e+07	
         R10	   2594	      76.5	   15.2691	   2.16218	1.92816e+07	      76.5	      15.3	   2.16246	1.91304e+07	      76.5	      15.3	   2.12957	1.89025e+07	      76.5	   15.2647	   2.12826	1.90498e+07	      76.5	   15.2846	   2.16232	 1.9205e+07	      76.5	      15.3	   2.14601	1.90163e+07	      76.5	   15.2824	   2.12892	1.89753e+07	      76.5	   15.2669	   2.14522	1.91655e+07	
         R10	   2595	      76.5	   15.2647	   2.12826	 1.9049e+07	      76.5	      15.3	   2.12957	1.89057e+07	      76.5	      15.3	   2.09149	1.86914e+07	      76.5	    15.259	   2.09001	1.88471e+07	      76.5	   15.2824	   2.12892	1.89765e+07	      76.5	      15.3	   2.11053	1.87984e+07	      76.5	   15.2795	   2.09075	1.87685e+07	      76.5	   15.2619	   2.10914	1.89479e+07	
         R10	   2596	      76.5	    15.259	   2.09001	1.88455e+07	      76.5	      15.3	   2.09149	1.86961e+07	      76.5	      15.3	   2.04821	1.85028e+07	      76.5	   15.2536	     2.047	1.86656e+07	      76.5	   15.2795	   2.09075	  1.877e+07	      76.5	      15.3	   2.06985	1.85993e+07	      76.5	   15.2768	   2.04761	1.85834e+07	      76.5	   15.2563	   2.06851	1.87554e+07	
         R10	   2597	      76.5	   15.2536	     2.047	1.86642e+07	      76.5	      15.3	   2.04821	1.85075e+07	      76.5	      15.3	   1.99975	1.83371e+07	      76.5	   15.2487	   1.99859	1.85044e+07	      76.5	   15.2768	   2.04761	1.85852e+07	      76.5	      15.3	   2.02398	1.84222e+07	      76.5	   15.2744	   1.99917	1.84202e+07	      76.5	   15.2512	    2.0228	1.85842e+07	
         R10	   2598	      76.5	   15.2487	   1.99859	1.85035e+07	      76.5	      15.3	   1.99975	 1.8342e+07	      76.5	      15.3	    1.9461	1.81919e+07	      76.5	   15.2443	     1.945	1.83651e+07	      76.5	   15.2744	   1.99917	1.84221e+07	      76.5	      15.3	   1.97293	1.82668e+07	      76.5	   15.2721	   1.94555	 1.8278e+07	      76.5	   15.2465	   1.97179	1.84342e+07	
         R10	   2599	      76.5	   15.2443	     1.945	1.83644e+07	      76.5	      15.3	    1.9461	1.81992e+07	      76.5	      15.3	   1.88726	1.80641e+07	      76.5	   15.2389	   1.88567	1.82504e+07	      76.5	   15.2721	   1.94555	1.82813e+07	      76.5	      15.3	   1.91668	1.81315e+07	      76.5	   15.2695	   1.88647	1.81569e+07	      76.5	   15.2416	   1.91533	1.83073e+07	
         R10	   2600	      76.5	   15.2389	   1.88567	1.82448e+07	      76.5	      15.3	   1.88726	1.80807e+07	      76.5	      15.3	   1.82323	1.79465e+07	      76.5	   15.2328	   1.82175	1.81522e+07	      76.5	   15.2695	   1.88647	1.81624e+07	      76.5	      15.3	   1.85525	1.80134e+07	      76.5	   15.2664	   1.82249	1.80491e+07	      76.5	   15.2359	   1.85371	1.81984e+07	
         R10	   2601	      76.5	   15.2328	   1.82175	1.81494e+07	      76.5	      15.3	   1.82323	1.79931e+07	      76.5	      15.3	   1.75401	1.78104e+07	      76.5	   15.2276	   1.75287	1.80949e+07	      76.5	   15.2664	   1.82249	1.80711e+07	      76.5	      15.3	   1.78862	1.79016e+07	      76.5	   15.2638	   1.75344	1.79525e+07	      76.5	   15.2302	   1.78731	1.81221e+07	
         R10	   2602	      76.5	   15.2276	   1.75287	1.80531e+07	      76.5	      15.3	   1.75401	1.78934e+07	      76.5	      15.3	    1.6796	 1.7576e+07	      76.5	   15.2225	   1.67799	1.80601e+07	      76.5	   15.2638	   1.75344	1.79731e+07	      76.5	      15.3	    1.7168	1.77343e+07	      76.5	   15.2612	    1.6788	1.78178e+07	      76.5	    15.225	   1.71543	 1.8056e+07	
         R10	   2603	      76.5	   15.2225	   1.67799	 1.7784e+07	      76.5	      15.3	    1.6796	1.84243e+07	      76.5	      15.3	       1.6	1.67348e+07	      76.5	    15.219	       1.6	1.78378e+07	      76.5	   15.2612	    1.6788	 1.8104e+07	      76.5	      15.3	    1.6398	1.75718e+07	      76.5	   15.2595	       1.6	1.72841e+07	      76.5	   15.2207	     1.639	1.78102e+07	
         R10	   2604	      76.5	   15.1413	    1.6818	1.80931e+07	      76.5	   15.2225	   1.67799	1.77407e+07	      76.5	    15.219	       1.6	1.79601e+07	      76.5	   15.1346	       1.6	1.80707e+07	      76.5	   15.1819	    1.6799	1.79166e+07	      76.5	   15.2207	     1.639	1.78488e+07	      76.5	   15.1768	       1.6	1.80151e+07	      76.5	   15.1379	    1.6409	1.80816e+07	
         R10	   2605	      76.5	   15.1413	    1.6818	1.81228e+07	      76.5	   15.1346	       1.6	1.81074e+07	      76.5	   15.0468	       1.6	1.82214e+07	      76.5	   15.0481	   1.68773	1.82199e+07	      76.5	   15.1379	    1.6409	1.81148e+07	      76.5	   15.0907	       1.6	1.81644e+07	      76.5	   15.0475	   1.64387	1.82206e+07	      76.5	   15.0947	   1.68477	1.81712e+07	
         R10	   2606	      76.5	   15.0481	   1.68773	1.82437e+07	      76.5	   15.0468	       1.6	1.82523e+07	      76.5	   14.9557	       1.6	1.82653e+07	      76.5	   14.9566	   1.69136	1.82566e+07	      76.5	   15.0475	   1.64387	1.82479e+07	      76.5	   15.0013	       1.6	1.82588e+07	      76.5	   14.9562	   1.64568	 1.8261e+07	      76.5	   15.0024	   1.68955	1.82501e+07	
         R10	   2607	      76.5	   14.9566	   1.69136	1.82922e+07	      76.5	   14.9557	       1.6	1.83137e+07	      76.5	   14.8613	       1.6	1.82486e+07	      76.5	   14.8605	   1.69349	 1.8204e+07	      76.5	   14.9562	   1.64568	1.83029e+07	      76.5	   14.9085	       1.6	1.82811e+07	      76.5	   14.8609	   1.64674	1.82263e+07	      76.5	   14.9086	   1.69243	1.82481e+07	
         R10	   2608	      76.5	   14.8605	   1.69349	1.82658e+07	      76.5	   14.8613	       1.6	1.83212e+07	      76.5	   14.7635	       1.6	1.81753e+07	      76.5	   14.7622	   1.69713	1.80867e+07	      76.5	   14.8609	   1.64674	1.82935e+07	      76.5	   14.8124	       1.6	1.82482e+07	      76.5	   14.7629	   1.64856	 1.8131e+07	      76.5	   14.8114	   1.69531	1.81762e+07	
         R10	   2609	      76.5	   14.7622	   1.69713	1.81935e+07	      76.5	   14.7635	       1.6	 1.8288e+07	      76.5	   14.6624	       1.6	1.80386e+07	      76.5	   14.6597	   1.70105	1.79304e+07	      76.5	   14.7629	   1.64856	1.82407e+07	      76.5	   14.7129	       1.6	1.81632e+07	      76.5	    14.661	   1.65053	1.79845e+07	      76.5	    14.711	   1.69909	1.80618e+07	
         R10	   2610	      76.5	   14.6597	   1.70105	1.81043e+07	      76.5	   14.6624	       1.6	1.82248e+07	      76.5	   14.5579	       1.6	1.78524e+07	      76.5	   14.5531	   1.70068	1.77317e+07	      76.5	    14.661	   1.65053	1.81645e+07	      76.5	   14.6101	       1.6	1.80385e+07	      76.5	   14.5555	   1.65034	 1.7792e+07	      76.5	   14.6064	   1.70087	1.79178e+07	
         R10	   2611	      76.5	   14.6597	   1.79821	1.79552e+07	      76.5	   14.6597	   1.70105	1.80993e+07	      76.5	   14.5531	   1.70068	1.77319e+07	      76.5	   14.5501	   1.79864	1.75758e+07	      76.5	   14.6597	   1.74963	1.80272e+07	      76.5	   14.6064	   1.70087	1.79154e+07	      76.5	   14.5516	   1.74966	1.76538e+07	      76.5	   14.6049	   1.79842	1.77653e+07	
         R10	   2612	      76.5	   14.6597	   1.79821	 1.7956e+07	      76.5	   14.5501	   1.79864	1.75755e+07	      76.5	   14.5449	   1.89329	1.73731e+07	      76.5	   14.6441	   1.89462	1.77491e+07	      76.5	   14.6049	   1.79842	1.77655e+07	      76.5	   14.5475	   1.84597	1.74743e+07	      76.5	   14.5945	   1.89396	1.75608e+07	      76.5	   14.6519	   1.84641	1.78525e+07	
         R10	   2613	      76.5	   14.6441	   1.89462	1.77464e+07	      76.5	   14.5449	   1.89329	1.73745e+07	      76.5	   14.5399	   1.98623	1.71187e+07	      76.5	   14.6317	   1.98615	1.75075e+07	      76.5	   14.5945	   1.89396	1.75601e+07	      76.5	   14.5424	   1.93976	1.72466e+07	      76.5	   14.5858	   1.98619	1.73127e+07	      76.5	   14.6379	   1.94038	1.76269e+07	
         R10	   2614	      76.5	   14.6317	   1.98615	1.75037e+07	      76.5	   14.5399	   1.98623	1.71218e+07	      76.5	   14.5363	   2.07504	1.68209e+07	      76.5	   14.6211	   2.07811	1.72016e+07	      76.5	   14.5858	   1.98619	1.73123e+07	      76.5	   14.5381	   2.03063	1.69713e+07	      76.5	   14.5787	   2.07657	1.70107e+07	      76.5	   14.6264	   2.03213	1.73526e+07	
         R10	   2615	      76.5	   14.6211	   2.07811	1.71975e+07	      76.5	   14.5363	   2.07504	1.68345e+07	      76.5	    14.533	   2.16098	1.64784e+07	      76.5	   14.6115	   2.16357	1.68264e+07	      76.5	   14.5787	   2.07657	1.70154e+07	      76.5	   14.5347	   2.11801	1.66564e+07	      76.5	   14.5723	   2.16228	1.66515e+07	      76.5	   14.6163	   2.12084	1.70119e+07	
         R10	   2616	      76.5	   14.6115	   2.16357	1.68231e+07	      76.5	    14.533	   2.16098	1.65187e+07	      76.5	   14.5303	   2.24354	 1.5974e+07	      76.5	   14.6092	   2.24623	 1.6345e+07	      76.5	   14.5723	   2.16228	1.66702e+07	      76.5	   14.5317	   2.20226	1.62455e+07	      76.5	   14.5698	   2.24488	1.61549e+07	      76.5	   14.6104	    2.2049	1.65838e+07	
         R10	   2617	      76.5	   14.6092	   2.24623	1.63724e+07	      76.5	   14.5303	   2.24354	1.59112e+07	      76.5	   14.5279	   2.32291	1.51488e+07	      76.5	   14.6033	   2.32376	1.60306e+07	      76.5	   14.5698	   2.24488	1.61388e+07	      76.5	   14.5291	   2.28323	1.55298e+07	      76.5	   14.5656	   2.32334	 1.5585e+07	      76.5	   14.6063	     2.285	1.62009e+07	
         R10	   2618	      76.5	   14.6806	   2.24987	1.66337e+07	      76.5	   14.6092	   2.24623	1.62987e+07	      76.5	   14.6033	   2.32376	1.56843e+07	      76.5	   14.6738	   2.32961	1.64428e+07	      76.5	   14.6449	   2.24805	1.64651e+07	      76.5	   14.6063	     2.285	1.59909e+07	      76.5	   14.6386	   2.32669	1.60627e+07	      76.5	   14.6772	   2.28974	1.65376e+07	
         R10	   2619	      76.5	   14.6806	   2.24987	1.65742e+07	      76.5	   14.6738	   2.32961	1.63168e+07	      76.5	    14.739	   2.33508	1.66902e+07	      76.5	   14.7448	    2.2646	1.69249e+07	      76.5	   14.6772	   2.28974	1.64449e+07	      76.5	   14.7064	   2.33235	1.65034e+07	      76.5	   14.7419	   2.29984	1.68073e+07	      76.5	   14.7127	   2.25723	1.67492e+07	
         R10	   2620	      76.5	   14.7448	    2.2646	1.68982e+07	      76.5	    14.739	   2.33508	1.66321e+07	      76.5	   14.7996	   2.34071	1.69374e+07	      76.5	    14.805	   2.27666	1.71581e+07	      76.5	   14.7419	   2.29984	1.67649e+07	      76.5	   14.7693	    2.3379	1.67846e+07	      76.5	   14.8023	   2.30869	1.70475e+07	      76.5	   14.7749	   2.27063	1.70281e+07	
         R10	   2621	      76.5	    14.805	   2.27666	1.71445e+07	      76.5	   14.7996	   2.34071	1.69131e+07	      76.5	   14.8554	   2.34606	1.71578e+07	      76.5	     14.86	   2.29241	1.73669e+07	      76.5	   14.8023	   2.30869	1.70286e+07	      76.5	   14.8275	   2.34339	1.70353e+07	      76.5	   14.8577	   2.31923	1.72622e+07	      76.5	   14.8325	   2.28453	1.72557e+07	
         R10	   2622	      76.5	     14.86	   2.29241	1.73596e+07	      76.5	   14.8554	   2.34606	1.71487e+07	      76.5	   14.9065	    2.3511	 1.7386e+07	      76.5	   14.9118	   2.30242	1.75934e+07	      76.5	   14.8577	   2.31923	 1.7254e+07	      76.5	   14.8809	   2.34858	1.72673e+07	      76.5	   14.9091	   2.32676	1.74896e+07	      76.5	   14.8859	   2.29741	1.74765e+07	
         R10	   2623	      76.5	   14.9118	   2.30242	1.75898e+07	      76.5	   14.9065	    2.3511	 1.7383e+07	      76.5	   14.9524	    2.3561	1.76191e+07	      76.5	   14.9576	   2.31146	1.78211e+07	      76.5	   14.9091	   2.32676	1.74863e+07	      76.5	   14.9295	    2.3536	 1.7501e+07	      76.5	    14.955	   2.33378	1.77199e+07	      76.5	   14.9347	   2.30694	1.77054e+07	
         R10	   2624	      76.5	   14.9576	   2.31146	1.78205e+07	      76.5	   14.9524	    2.3561	1.76171e+07	      76.5	   14.9937	   2.36165	1.78599e+07	      76.5	   14.9983	   2.32526	1.80361e+07	      76.5	    14.955	   2.33378	1.77186e+07	      76.5	    14.973	   2.35888	1.77384e+07	      76.5	    14.996	   2.34346	1.79479e+07	      76.5	    14.978	   2.31836	1.79283e+07	
         R10	   2625	      76.5	   14.9983	   2.32526	1.80362e+07	      76.5	   14.9937	   2.36165	 1.7858e+07	      76.5	   15.0305	   2.36678	1.81143e+07	      76.5	   15.0348	   2.33522	1.82773e+07	      76.5	    14.996	   2.34346	 1.7947e+07	      76.5	   15.0121	   2.36421	1.79861e+07	      76.5	   15.0326	     2.351	1.81957e+07	      76.5	   15.0165	   2.33024	1.81567e+07	
         R10	   2626	      76.5	   15.0348	   2.33522	1.82781e+07	      76.5	   15.0305	   2.36678	1.81123e+07	      76.5	   15.0623	    2.3713	1.83747e+07	      76.5	   15.0661	   2.34409	1.85262e+07	      76.5	   15.0326	     2.351	 1.8195e+07	      76.5	   15.0464	   2.36904	1.82435e+07	      76.5	   15.0642	   2.35769	1.84503e+07	      76.5	   15.0505	   2.33965	1.84021e+07	
         R10	   2627	      76.5	   15.0661	   2.34409	1.85275e+07	      76.5	   15.0623	    2.3713	1.83731e+07	      76.5	   15.0894	   2.37531	 1.8637e+07	      76.5	   15.0933	   2.35536	 1.8768e+07	      76.5	   15.0642	   2.35769	1.84501e+07	      76.5	   15.0758	    2.3733	 1.8505e+07	      76.5	   15.0913	   2.36534	1.87024e+07	      76.5	   15.0797	   2.34973	1.86477e+07	
         R10	   2628	      76.5	   15.1118	   2.37781	1.88941e+07	      76.5	     15.13	     2.366	1.92025e+07	      76.5	     15.13	     2.349	1.92843e+07	      76.5	   15.1123	   2.35187	1.90207e+07	      76.5	   15.1209	    2.3719	1.90482e+07	      76.5	     15.13	    2.3575	1.92432e+07	      76.5	   15.1211	   2.35044	1.91524e+07	      76.5	    15.112	   2.36484	1.89571e+07	
         R10	   2629	      76.5	   15.0913	   2.31601	1.89003e+07	      76.5	   15.1121	    2.3152	1.91561e+07	      76.5	   15.1133	   2.29909	1.92059e+07	      76.5	   15.0946	   2.29801	1.89871e+07	      76.5	   15.1017	   2.31561	1.90282e+07	      76.5	   15.1127	   2.30715	1.91809e+07	      76.5	    15.104	   2.29855	1.90965e+07	      76.5	    15.093	   2.30701	1.89436e+07	
         R10	   2630	      76.5	   15.0937	   2.27473	1.90145e+07	      76.5	   15.1108	   2.28118	1.91979e+07	      76.5	   15.1138	   2.26445	1.92325e+07	      76.5	   15.0906	   2.25894	1.89949e+07	      76.5	   15.1023	   2.27796	1.91062e+07	      76.5	   15.1123	   2.27282	1.92151e+07	      76.5	   15.1022	    2.2617	1.91137e+07	      76.5	   15.0922	   2.26684	1.90046e+07	
         R10	   2631	      76.5	   15.0906	   2.25894	1.90003e+07	      76.5	   15.1123	   2.24672	1.92065e+07	      76.5	   15.1113	   2.23027	1.91727e+07	      76.5	   15.0919	   2.23276	1.90101e+07	      76.5	   15.1015	   2.25283	1.91031e+07	      76.5	   15.1118	   2.23849	1.91895e+07	      76.5	   15.1016	   2.23152	1.90913e+07	      76.5	   15.0913	   2.24585	 1.9005e+07	
         R10	   2632	      76.5	   15.1131	   2.20651	1.91398e+07	      76.5	   15.1113	   2.23027	1.91737e+07	      76.5	     15.13	      2.23	1.93364e+07	      76.5	   15.1309	   2.21336	1.92898e+07	      76.5	   15.1122	   2.21839	1.91566e+07	      76.5	   15.1206	   2.23013	1.92549e+07	      76.5	   15.1304	   2.22168	 1.9313e+07	      76.5	    15.122	   2.20994	1.92148e+07	
         R10	   2633	      76.5	   15.1308	   2.19114	1.92127e+07	      76.5	   15.1309	   2.21336	1.92928e+07	      76.5	   15.1461	   2.21359	1.94089e+07	      76.5	   15.1476	   2.19343	1.93309e+07	      76.5	   15.1309	   2.20225	1.92526e+07	      76.5	   15.1385	   2.21348	1.93507e+07	      76.5	   15.1469	   2.20351	1.93698e+07	      76.5	   15.1392	   2.19229	1.92717e+07	
         R10	   2634	      76.5	   15.1954	   2.19232	 1.9559e+07	      76.5	   15.1974	   2.21173	1.97251e+07	      76.5	   15.2149	   2.21232	1.97985e+07	      76.5	   15.2153	   2.19317	1.96193e+07	      76.5	   15.1964	   2.20202	 1.9642e+07	      76.5	   15.2061	   2.21202	1.97614e+07	      76.5	   15.2151	   2.20274	1.97089e+07	      76.5	   15.2054	   2.19274	1.95886e+07	
         R10	   2635	      76.5	   15.2153	   2.19317	1.96188e+07	      76.5	   15.2149	   2.21232	1.97995e+07	      76.5	   15.2321	   2.21232	1.98334e+07	      76.5	   15.2333	   2.19208	1.96269e+07	      76.5	   15.2151	   2.20274	1.97091e+07	      76.5	   15.2235	   2.21232	1.98159e+07	      76.5	   15.2327	    2.2022	1.97301e+07	      76.5	   15.2243	   2.19262	1.96224e+07	
         R10	   2636	      76.5	   15.2333	   2.19208	1.96223e+07	      76.5	   15.2321	   2.21232	1.98345e+07	      76.5	   15.2487	    2.2124	1.98317e+07	      76.5	   15.2507	   2.19032	1.95909e+07	      76.5	   15.2327	    2.2022	1.97284e+07	      76.5	   15.2404	   2.21236	1.98326e+07	      76.5	   15.2497	   2.20136	1.97113e+07	      76.5	    15.242	    2.1912	1.96062e+07	
         R10	   2637	      76.5	   15.2319	    2.1331	1.91567e+07	      76.5	   15.2647	   2.12826	1.90485e+07	      76.5	    15.259	   2.09001	1.88485e+07	      76.5	   15.2171	   2.09553	1.89579e+07	      76.5	   15.2483	   2.13068	1.91019e+07	      76.5	   15.2619	   2.10914	1.89483e+07	      76.5	   15.2381	   2.09277	1.89024e+07	      76.5	   15.2245	   2.11431	1.90571e+07	
         R10	   2638	      76.5	   15.2171	   2.09553	1.89579e+07	      76.5	    15.259	   2.09001	1.88468e+07	      76.5	   15.2536	     2.047	1.86666e+07	      76.5	    15.207	   2.05248	1.87733e+07	      76.5	   15.2381	   2.09277	1.89015e+07	      76.5	   15.2563	   2.06851	1.87566e+07	      76.5	   15.2303	   2.04974	1.87193e+07	      76.5	   15.2121	     2.074	1.88655e+07	
         R10	   2639	      76.5	    15.207	   2.05248	 1.8774e+07	      76.5	   15.2536	     2.047	1.86652e+07	      76.5	   15.2487	   1.99859	1.85053e+07	      76.5	   15.1974	   2.00372	1.86134e+07	      76.5	   15.2303	   2.04974	1.87189e+07	      76.5	   15.2512	    2.0228	1.85851e+07	      76.5	   15.2231	   2.00115	1.85588e+07	      76.5	   15.2022	    2.0281	1.86937e+07	
         R10	   2640	      76.5	   15.1974	   2.00372	 1.8614e+07	      76.5	   15.2487	   1.99859	1.85044e+07	      76.5	   15.2443	     1.945	1.83664e+07	      76.5	   15.1905	   1.95018	1.84763e+07	      76.5	   15.2231	   2.00115	1.85587e+07	      76.5	   15.2465	   1.97179	1.84353e+07	      76.5	   15.2174	   1.94759	1.84209e+07	      76.5	    15.194	   1.97695	1.85451e+07	
         R10	   2641	      76.5	   15.1905	   1.95018	1.84767e+07	      76.5	   15.2443	     1.945	1.83652e+07	      76.5	   15.2389	   1.88567	1.82467e+07	      76.5	   15.1824	   1.89035	1.83629e+07	      76.5	   15.2174	   1.94759	1.84205e+07	      76.5	   15.2416	   1.91533	1.83059e+07	      76.5	   15.2107	   1.88801	1.83046e+07	      76.5	   15.1864	   1.92026	1.84197e+07	
         R10	   2642	      76.5	   15.1824	   1.89035	1.83656e+07	      76.5	   15.2389	   1.88567	 1.8242e+07	      76.5	   15.2328	   1.82175	1.81639e+07	      76.5	    15.164	    1.8267	1.82768e+07	      76.5	   15.2107	   1.88801	1.83035e+07	      76.5	   15.2359	   1.85371	1.82028e+07	      76.5	   15.1984	   1.82422	1.82201e+07	      76.5	   15.1732	   1.85853	1.83211e+07	
         R10	   2643	      76.5	    15.164	    1.8267	1.82805e+07	      76.5	   15.2328	   1.82175	1.81561e+07	      76.5	   15.2276	   1.75287	1.80709e+07	      76.5	    15.153	   1.75706	1.82044e+07	      76.5	   15.1984	   1.82422	 1.8218e+07	      76.5	   15.2302	   1.78731	1.81134e+07	      76.5	   15.1903	   1.75496	1.81375e+07	      76.5	   15.1585	   1.79188	1.82424e+07	
         R10	   2644	      76.5	    15.153	   1.75706	1.82129e+07	      76.5	   15.2276	   1.75287	1.80425e+07	      76.5	   15.2225	   1.67799	1.80464e+07	      76.5	   15.1413	    1.6818	1.80435e+07	      76.5	   15.1903	   1.75496	1.81275e+07	      76.5	    15.225	   1.71543	1.80444e+07	      76.5	   15.1819	    1.6799	1.80447e+07	      76.5	   15.1471	   1.71943	1.81281e+07	
         R10	   2645	      76.5	   15.0711	   1.76391	1.82623e+07	      76.5	    15.153	   1.75706	1.82052e+07	      76.5	   15.1413	    1.6818	1.80944e+07	      76.5	   15.0481	   1.68773	1.82334e+07	      76.5	   15.1121	   1.76049	1.82336e+07	      76.5	   15.1471	   1.71943	1.81497e+07	      76.5	   15.0947	   1.68477	1.81638e+07	      76.5	   15.0596	   1.72582	1.82478e+07	
         R10	   2646	      76.5	   15.0711	   1.76391	1.82774e+07	      76.5	   15.0481	   1.68773	1.82518e+07	      76.5	   14.9566	   1.69136	1.82527e+07	      76.5	   14.9593	    1.7763	1.82641e+07	      76.5	   15.0596	   1.72582	1.82645e+07	      76.5	   15.0024	   1.68955	1.82522e+07	      76.5	    14.958	   1.73383	1.82584e+07	      76.5	   15.0152	   1.77011	1.82706e+07	
         R10	   2647	      76.5	   14.9593	    1.7763	1.82915e+07	      76.5	   14.9566	   1.69136	1.82873e+07	      76.5	   14.8605	   1.69349	1.82056e+07	      76.5	   14.8634	   1.77819	1.81579e+07	      76.5	    14.958	   1.73383	1.82894e+07	      76.5	   14.9086	   1.69243	1.82464e+07	      76.5	   14.8619	   1.73584	1.81817e+07	      76.5	   14.9113	   1.77725	1.82246e+07	
         R10	   2648	      76.5	   14.8634	   1.77819	1.82222e+07	      76.5	   14.8605	   1.69349	1.82669e+07	      76.5	   14.7622	   1.69713	1.80897e+07	      76.5	   14.7621	    1.7898	1.79877e+07	      76.5	   14.8619	   1.73584	1.82445e+07	      76.5	   14.8114	   1.69531	1.81783e+07	      76.5	   14.7622	   1.74346	1.80387e+07	      76.5	   14.8128	     1.784	1.81049e+07	
         R10	   2649	      76.5	   14.7621	    1.7898	 1.8101e+07	      76.5	   14.7622	   1.69713	1.81967e+07	      76.5	   14.6597	   1.70105	1.79265e+07	      76.5	   14.6597	   1.79821	 1.7786e+07	      76.5	   14.7622	   1.74346	1.81488e+07	      76.5	    14.711	   1.69909	1.80615e+07	      76.5	   14.6597	   1.74963	1.78562e+07	      76.5	   14.7109	     1.794	1.79434e+07	
         R10	   2650	      76.5	   14.7634	   1.88522	1.79418e+07	      76.5	   14.7621	    1.7898	1.81036e+07	      76.5	   14.6597	   1.79821	1.77837e+07	      76.5	   14.6441	   1.89462	1.76077e+07	      76.5	   14.7628	   1.83751	1.80227e+07	      76.5	   14.7109	     1.794	1.79436e+07	      76.5	   14.6519	   1.84641	1.76957e+07	      76.5	   14.7038	   1.88992	1.77746e+07	
         R10	   2651	      76.5	   14.7634	   1.88522	1.79483e+07	      76.5	   14.6441	   1.89462	1.76043e+07	      76.5	   14.6317	   1.98615	1.73364e+07	      76.5	   14.7145	   1.99244	1.76508e+07	      76.5	   14.7038	   1.88992	1.77761e+07	      76.5	   14.6379	   1.94038	1.74703e+07	      76.5	   14.6731	    1.9893	1.74935e+07	      76.5	   14.7389	   1.93883	1.77995e+07	
         R10	   2652	      76.5	   14.7145	   1.99244	1.76518e+07	      76.5	   14.6317	   1.98615	 1.7333e+07	      76.5	   14.6211	   2.07811	1.70354e+07	      76.5	   14.7024	   2.08626	1.73479e+07	      76.5	   14.6731	    1.9893	1.74922e+07	      76.5	   14.6264	   2.03213	1.71842e+07	      76.5	   14.6617	   2.08218	1.71913e+07	      76.5	   14.7084	   2.03935	1.74997e+07	
         R10	   2653	      76.5	   14.7024	   2.08626	1.73486e+07	      76.5	   14.6211	   2.07811	 1.7026e+07	      76.5	   14.6115	   2.16357	1.66685e+07	      76.5	   14.6902	   2.16923	1.70277e+07	      76.5	   14.6617	   2.08218	 1.7187e+07	      76.5	   14.6163	   2.12084	1.68472e+07	      76.5	   14.6509	    2.1664	1.68474e+07	      76.5	   14.6963	   2.12774	 1.7188e+07	
         R10	   2654	      76.5	   14.6902	   2.16923	1.70212e+07	      76.5	   14.6115	   2.16357	1.66458e+07	      76.5	   14.6092	   2.24623	1.62658e+07	      76.5	   14.6806	   2.24987	1.66597e+07	      76.5	   14.6509	    2.1664	1.68326e+07	      76.5	   14.6104	    2.2049	1.64555e+07	      76.5	   14.6449	   2.24805	 1.6462e+07	      76.5	   14.6854	   2.20955	1.68403e+07	
         R10	   2655	      76.5	   14.7616	   2.18263	 1.7258e+07	      76.5	   14.6902	   2.16923	1.69373e+07	      76.5	   14.6806	   2.24987	1.66135e+07	      76.5	   14.7448	    2.2646	1.69166e+07	      76.5	   14.7259	   2.17593	1.70974e+07	      76.5	   14.6854	   2.20955	1.67752e+07	      76.5	   14.7127	   2.25723	1.67647e+07	      76.5	   14.7532	   2.22361	1.70871e+07	
         R10	   2656	      76.5	   14.7616	   2.18263	1.72114e+07	      76.5	   14.7448	    2.2646	1.68853e+07	      76.5	    14.805	   2.27666	1.71589e+07	      76.5	   14.8179	   2.21186	1.74161e+07	      76.5	   14.7532	   2.22361	1.70481e+07	      76.5	   14.7749	   2.27063	 1.7022e+07	      76.5	   14.8114	   2.24426	1.72874e+07	      76.5	   14.7897	   2.19725	1.73136e+07	
         R10	   2657	      76.5	   14.8179	   2.21186	1.73889e+07	      76.5	    14.805	   2.27666	1.71456e+07	      76.5	     14.86	   2.29241	1.73648e+07	      76.5	   14.8708	   2.24242	1.75744e+07	      76.5	   14.8114	   2.24426	1.72671e+07	      76.5	   14.8325	   2.28453	1.72552e+07	      76.5	   14.8654	   2.26741	1.74695e+07	      76.5	   14.8443	   2.22714	1.74816e+07	
         R10	   2658	      76.5	   14.8708	   2.24242	1.75633e+07	      76.5	     14.86	   2.29241	1.73576e+07	      76.5	   14.9118	   2.30242	1.75937e+07	      76.5	   14.9218	    2.2558	1.77936e+07	      76.5	   14.8654	   2.26741	1.74603e+07	      76.5	   14.8859	   2.29741	1.74756e+07	      76.5	   14.9168	   2.27911	1.76935e+07	      76.5	   14.8963	   2.24911	1.76784e+07	
         R10	   2659	      76.5	   14.9218	    2.2558	1.77893e+07	      76.5	   14.9118	   2.30242	1.75901e+07	      76.5	   14.9576	   2.31146	1.78213e+07	      76.5	   14.9694	   2.26912	1.80298e+07	      76.5	   14.9168	   2.27911	1.76895e+07	      76.5	   14.9347	   2.30694	1.77057e+07	      76.5	   14.9635	   2.29029	1.79254e+07	      76.5	   14.9456	   2.26246	1.79095e+07	
         R10	   2660	      76.5	   14.9694	   2.26912	 1.8029e+07	      76.5	   14.9576	   2.31146	1.78203e+07	      76.5	   14.9983	   2.32526	1.80366e+07	      76.5	   15.0074	   2.28863	1.82277e+07	      76.5	   14.9635	   2.29029	1.79245e+07	      76.5	    14.978	   2.31836	1.79284e+07	      76.5	   15.0029	   2.30694	 1.8132e+07	      76.5	   14.9884	   2.27887	1.81283e+07	
         R10	   2661	      76.5	   15.0074	   2.28863	1.82268e+07	      76.5	   14.9983	   2.32526	1.80363e+07	      76.5	   15.0348	   2.33522	1.82784e+07	      76.5	    15.044	    2.3014	1.84762e+07	      76.5	   15.0029	   2.30694	1.81314e+07	      76.5	   15.0165	   2.33024	1.81573e+07	      76.5	   15.0394	   2.31831	1.83771e+07	      76.5	   15.0257	   2.29501	1.83515e+07	
         R10	   2662	      76.5	    15.044	    2.3014	1.84772e+07	      76.5	   15.0348	   2.33522	1.82794e+07	      76.5	   15.0661	   2.34409	 1.8525e+07	      76.5	   15.0714	   2.32072	1.86705e+07	      76.5	   15.0394	   2.31831	1.83781e+07	      76.5	   15.0505	   2.33965	1.84021e+07	      76.5	   15.0688	    2.3324	1.85976e+07	      76.5	   15.0577	   2.31106	1.85738e+07	
         R10	   2663	      76.5	   15.0933	   2.35536	1.87696e+07	      76.5	   15.0894	   2.37531	1.86361e+07	      76.5	   15.1118	   2.37781	1.88955e+07	      76.5	   15.1123	   2.35187	1.90197e+07	      76.5	   15.0913	   2.36534	1.87027e+07	      76.5	   15.1006	   2.37656	1.87658e+07	      76.5	    15.112	   2.36484	1.89573e+07	      76.5	   15.1028	   2.35362	1.88946e+07	
         R10	   2664	      76.5	   15.1124	   2.33216	1.91047e+07	      76.5	   15.1121	    2.3152	1.91562e+07	      76.5	   15.0913	   2.31601	1.88987e+07	      76.5	   15.0948	   2.33426	1.88759e+07	      76.5	   15.1123	   2.32368	1.91303e+07	      76.5	   15.1017	   2.31561	1.90274e+07	      76.5	   15.0931	   2.32514	1.88871e+07	      76.5	   15.1036	   2.33321	1.89903e+07	
         R10	   2665	      76.5	    15.073	   2.28565	1.87844e+07	      76.5	   15.0946	   2.29801	1.89867e+07	      76.5	   15.1108	   2.28118	1.91998e+07	      76.5	   15.0937	   2.27473	1.90118e+07	      76.5	   15.0838	   2.29183	1.88855e+07	      76.5	   15.1027	    2.2896	 1.9093e+07	      76.5	   15.1023	   2.27796	1.91058e+07	      76.5	   15.0834	   2.28019	 1.8898e+07	
         R10	   2666	      76.5	   15.0869	   2.20514	1.89438e+07	      76.5	   15.0919	   2.23276	1.90044e+07	      76.5	   15.1113	   2.23027	1.91746e+07	      76.5	   15.1131	   2.20651	1.91372e+07	      76.5	   15.0894	   2.21895	 1.8974e+07	      76.5	   15.1016	   2.23152	1.90894e+07	      76.5	   15.1122	   2.21839	1.91558e+07	      76.5	      15.1	   2.20582	1.90404e+07	
         R10	   2667	      76.5	   15.1244	    2.1682	1.91031e+07	      76.5	   15.1308	   2.19114	1.92102e+07	      76.5	   15.1476	   2.19343	1.93292e+07	      76.5	   15.1611	   2.16594	1.92665e+07	      76.5	   15.1276	   2.17967	1.91566e+07	      76.5	   15.1392	   2.19229	1.92695e+07	      76.5	   15.1544	   2.17968	1.92975e+07	      76.5	   15.1428	   2.16707	1.91841e+07	
         R10	   2668	      76.5	   15.1611	   2.16594	1.92598e+07	      76.5	   15.1476	   2.19343	 1.9328e+07	      76.5	   15.1633	   2.21037	1.95167e+07	      76.5	   15.1738	   2.19361	1.94701e+07	      76.5	   15.1544	   2.17968	1.92936e+07	      76.5	   15.1555	    2.2019	1.94223e+07	      76.5	   15.1685	   2.20199	1.94931e+07	      76.5	   15.1675	   2.17977	 1.9365e+07	
         R10	   2669	      76.5	   15.1738	   2.19361	1.94785e+07	      76.5	   15.1818	   2.21267	1.96458e+07	      76.5	   15.1974	   2.21173	1.97241e+07	      76.5	   15.1954	   2.19232	1.95578e+07	      76.5	   15.1778	   2.20314	1.95621e+07	      76.5	   15.1896	    2.2122	1.96847e+07	      76.5	   15.1964	   2.20202	 1.9641e+07	      76.5	   15.1846	   2.19296	1.95177e+07	
         R10	   2670	      76.5	   15.2691	   2.16218	1.92829e+07	      76.5	   15.2647	   2.12826	 1.9049e+07	      76.5	   15.2319	    2.1331	1.91582e+07	      76.5	   15.2384	   2.16571	1.93869e+07	      76.5	   15.2669	   2.14522	1.91658e+07	      76.5	   15.2483	   2.13068	1.91029e+07	      76.5	   15.2352	    2.1494	1.92725e+07	      76.5	   15.2537	   2.16395	 1.9334e+07	
         R10	   2671	      76.5	   15.1969	   2.14345	1.92281e+07	      76.5	   15.2319	    2.1331	1.91588e+07	      76.5	   15.2171	   2.09553	1.89585e+07	      76.5	   15.1773	   2.10902	1.90179e+07	      76.5	   15.2144	   2.13827	1.91926e+07	      76.5	   15.2245	   2.11431	1.90584e+07	      76.5	   15.1972	   2.10227	1.89874e+07	      76.5	   15.1871	   2.12623	1.91228e+07	
         R10	   2672	      76.5	   15.1773	   2.10902	1.90174e+07	      76.5	   15.2171	   2.09553	1.89576e+07	      76.5	    15.207	   2.05248	1.87742e+07	      76.5	   15.1616	   2.06269	1.88162e+07	      76.5	   15.1972	   2.10227	1.89868e+07	      76.5	   15.2121	     2.074	1.88658e+07	      76.5	   15.1843	   2.05758	1.87946e+07	      76.5	   15.1695	   2.08585	1.89167e+07	
         R10	   2673	      76.5	   15.1616	   2.06269	1.88156e+07	      76.5	    15.207	   2.05248	1.87744e+07	      76.5	   15.1974	   2.00372	1.86132e+07	      76.5	   15.1479	   2.01192	1.86531e+07	      76.5	   15.1843	   2.05758	1.87944e+07	      76.5	   15.2022	    2.0281	1.86937e+07	      76.5	   15.1727	   2.00782	1.86327e+07	      76.5	   15.1548	    2.0373	1.87343e+07	
         R10	   2674	      76.5	   15.1479	   2.01192	1.86538e+07	      76.5	   15.1974	   2.00372	1.86137e+07	      76.5	   15.1905	   1.95018	1.84761e+07	      76.5	   15.1384	   1.95792	 1.8526e+07	      76.5	   15.1727	   2.00782	1.86333e+07	      76.5	    15.194	   1.97695	1.85448e+07	      76.5	   15.1644	   1.95405	1.85007e+07	      76.5	   15.1432	   1.98492	1.85899e+07	
         R10	   2675	      76.5	   15.1384	   1.95792	1.85266e+07	      76.5	   15.1905	   1.95018	1.84772e+07	      76.5	   15.1824	   1.89035	1.83602e+07	      76.5	   15.1278	   1.90144	1.84233e+07	      76.5	   15.1644	   1.95405	1.85016e+07	      76.5	   15.1864	   1.92026	1.84186e+07	      76.5	   15.1551	   1.89589	1.83915e+07	      76.5	   15.1331	   1.92968	 1.8475e+07	
         R10	   2676	      76.5	   15.1278	   1.90144	1.84221e+07	      76.5	   15.1824	   1.89035	 1.8364e+07	      76.5	    15.164	    1.8267	 1.8282e+07	      76.5	   15.1058	   1.83945	1.83379e+07	      76.5	   15.1551	   1.89589	1.83928e+07	      76.5	   15.1732	   1.85853	1.83229e+07	      76.5	   15.1349	   1.83307	1.83098e+07	      76.5	   15.1168	   1.87044	1.83799e+07	
         R10	   2677	      76.5	   15.1058	   1.83945	1.83357e+07	      76.5	    15.164	    1.8267	1.82862e+07	      76.5	    15.153	   1.75706	 1.8191e+07	      76.5	   15.0711	   1.76391	1.82658e+07	      76.5	   15.1349	   1.83307	1.83108e+07	      76.5	   15.1585	   1.79188	1.82385e+07	      76.5	   15.1121	   1.76049	1.82282e+07	      76.5	   15.0884	   1.80168	1.83006e+07	
         R10	   2678	      76.5	   14.9596	   1.85831	1.82935e+07	      76.5	   14.9593	    1.7763	1.82889e+07	      76.5	   14.8634	   1.77819	1.81556e+07	      76.5	   14.8687	   1.85117	1.81316e+07	      76.5	   14.9595	   1.81731	1.82912e+07	      76.5	   14.9113	   1.77725	1.82222e+07	      76.5	    14.866	   1.81468	1.81436e+07	      76.5	   14.9142	   1.85474	1.82125e+07	
         R10	   2679	      76.5	   14.8687	   1.85117	1.81691e+07	      76.5	   14.8634	   1.77819	1.82237e+07	      76.5	   14.7621	    1.7898	1.79952e+07	      76.5	   14.7634	   1.88522	1.78848e+07	      76.5	    14.866	   1.81468	1.81964e+07	      76.5	   14.8128	     1.784	1.81094e+07	      76.5	   14.7628	   1.83751	1.79399e+07	      76.5	    14.816	    1.8682	1.80269e+07	
         R10	   2680	      76.5	   14.8766	   1.91355	 1.8125e+07	      76.5	   14.8687	   1.85117	1.81762e+07	      76.5	   14.7634	   1.88522	1.78802e+07	      76.5	   14.8284	   1.94764	1.79751e+07	      76.5	   14.8727	   1.88236	1.81506e+07	      76.5	    14.816	    1.8682	1.80282e+07	      76.5	   14.7959	   1.91643	1.79276e+07	      76.5	   14.8525	   1.93059	  1.805e+07	
         R10	   2681	      76.5	   14.8284	   1.94764	1.79818e+07	      76.5	   14.7634	   1.88522	1.78977e+07	      76.5	   14.7145	   1.99244	1.75585e+07	      76.5	   14.7913	   2.01569	 1.7784e+07	      76.5	   14.7959	   1.91643	1.79397e+07	      76.5	   14.7389	   1.93883	 1.7728e+07	      76.5	   14.7529	   2.00406	1.76712e+07	      76.5	   14.8098	   1.98166	1.78829e+07	
         R10	   2682	      76.5	   14.7913	   2.01569	1.77899e+07	      76.5	   14.7145	   1.99244	 1.7547e+07	      76.5	   14.7024	   2.08626	1.72679e+07	      76.5	    14.782	   2.10044	1.75625e+07	      76.5	   14.7529	   2.00406	1.76684e+07	      76.5	   14.7084	   2.03935	1.74074e+07	      76.5	   14.7422	   2.09335	 1.7415e+07	      76.5	   14.7866	   2.05806	 1.7676e+07	
         R10	   2683	      76.5	    14.782	   2.10044	1.75625e+07	      76.5	   14.7024	   2.08626	1.72721e+07	      76.5	   14.6902	   2.16923	 1.6939e+07	      76.5	   14.7616	   2.18263	 1.7255e+07	      76.5	   14.7422	   2.09335	1.74171e+07	      76.5	   14.6963	   2.12774	1.71055e+07	      76.5	   14.7259	   2.17593	1.70968e+07	      76.5	   14.7718	   2.14154	1.74086e+07	
         R10	   2684	      76.5	    14.782	   2.10044	 1.7524e+07	      76.5	   14.7616	   2.18263	1.72127e+07	      76.5	   14.8179	   2.21186	 1.7413e+07	      76.5	   14.8422	   2.16452	1.76392e+07	      76.5	   14.7718	   2.14154	1.73682e+07	      76.5	   14.7897	   2.19725	1.73127e+07	      76.5	     14.83	   2.18819	 1.7526e+07	      76.5	   14.8121	   2.13248	1.75813e+07	
         R10	   2685	      76.5	   14.8422	   2.16452	1.76232e+07	      76.5	   14.8179	   2.21186	1.73918e+07	      76.5	   14.8708	   2.24242	1.75734e+07	      76.5	   14.8892	   2.19668	1.77793e+07	      76.5	     14.83	   2.18819	1.75074e+07	      76.5	   14.8443	   2.22714	1.74825e+07	      76.5	     14.88	   2.21955	1.76762e+07	      76.5	   14.8657	    2.1806	1.77012e+07	
         R10	   2686	      76.5	   14.8892	   2.19668	1.77724e+07	      76.5	   14.8708	   2.24242	1.75627e+07	      76.5	   14.9218	    2.2558	 1.7794e+07	      76.5	   14.9354	    2.2119	1.79794e+07	      76.5	     14.88	   2.21955	1.76675e+07	      76.5	   14.8963	   2.24911	1.76783e+07	      76.5	   14.9286	   2.23385	1.78865e+07	      76.5	   14.9123	   2.20429	1.78759e+07	
         R10	   2687	      76.5	   14.9354	    2.2119	1.79745e+07	      76.5	   14.9218	    2.2558	 1.7789e+07	      76.5	   14.9694	   2.26912	1.80311e+07	      76.5	   14.9834	   2.22896	1.82159e+07	      76.5	   14.9286	   2.23385	1.78816e+07	      76.5	   14.9456	   2.26246	  1.791e+07	      76.5	   14.9764	   2.24904	1.81233e+07	      76.5	   14.9594	   2.22043	1.80952e+07	
         R10	   2688	      76.5	   14.9834	   2.22896	1.82126e+07	      76.5	   14.9694	   2.26912	1.80301e+07	      76.5	   15.0074	   2.28863	1.82272e+07	      76.5	   15.0271	    2.2523	1.84657e+07	      76.5	   14.9764	   2.24904	1.81212e+07	      76.5	   14.9884	   2.27887	1.81286e+07	      76.5	   15.0172	   2.27046	1.83462e+07	      76.5	   15.0052	   2.24063	1.83391e+07	
         R10	   2689	      76.5	   15.0933	   2.35536	1.87712e+07	      76.5	   15.1123	   2.35187	1.90216e+07	      76.5	   15.1124	   2.33216	1.91045e+07	      76.5	   15.0948	   2.33426	1.88775e+07	      76.5	   15.1028	   2.35362	1.88964e+07	      76.5	   15.1123	   2.34201	1.90629e+07	      76.5	   15.1036	   2.33321	 1.8991e+07	      76.5	   15.0941	   2.34481	1.88242e+07	
         R10	   2690	      76.5	   15.0633	   2.25669	1.87499e+07	      76.5	   15.0906	   2.25894	1.89967e+07	      76.5	   15.0919	   2.23276	1.90052e+07	      76.5	    15.066	   2.22964	1.87932e+07	      76.5	    15.077	   2.25782	1.88732e+07	      76.5	   15.0913	   2.24585	1.90007e+07	      76.5	   15.0789	    2.2312	1.88991e+07	      76.5	   15.0646	   2.24316	1.87714e+07	
         R10	   2691	      76.5	   15.1131	   2.20651	1.91368e+07	      76.5	   15.1308	   2.19114	1.92203e+07	      76.5	   15.1244	    2.1682	 1.9096e+07	      76.5	   15.1012	   2.18021	1.89969e+07	      76.5	    15.122	   2.19883	1.91782e+07	      76.5	   15.1276	   2.17967	1.91581e+07	      76.5	   15.1128	   2.17421	1.90461e+07	      76.5	   15.1071	   2.19336	1.90668e+07	
         R10	   2692	      76.5	     15.21	   2.17099	1.94323e+07	      76.5	   15.2384	   2.16571	1.93879e+07	      76.5	   15.2319	    2.1331	1.91594e+07	      76.5	   15.1969	   2.14345	1.92247e+07	      76.5	   15.2242	   2.16835	1.94092e+07	      76.5	   15.2352	    2.1494	1.92736e+07	      76.5	   15.2144	   2.13827	1.91911e+07	      76.5	   15.2034	   2.15722	1.93284e+07	
         R10	   2693	      76.5	   15.1429	    2.1235	1.90065e+07	      76.5	   15.1773	   2.10902	1.90175e+07	      76.5	   15.1616	   2.06269	 1.8815e+07	      76.5	   15.1199	   2.07511	1.87889e+07	      76.5	   15.1601	   2.11626	1.90114e+07	      76.5	   15.1695	   2.08585	1.89162e+07	      76.5	   15.1408	    2.0689	1.88015e+07	      76.5	   15.1314	    2.0993	1.88977e+07	
         R10	   2694	      76.5	   15.1199	   2.07511	1.87916e+07	      76.5	   15.1616	   2.06269	1.88152e+07	      76.5	   15.1479	   2.01192	1.86526e+07	      76.5	   15.1006	   2.02256	1.86301e+07	      76.5	   15.1408	    2.0689	 1.8803e+07	      76.5	   15.1548	    2.0373	1.87339e+07	      76.5	   15.1243	   2.01724	 1.8641e+07	      76.5	   15.1102	   2.04883	1.87109e+07	
         R10	   2695	      76.5	   15.1006	   2.02256	1.86312e+07	      76.5	   15.1479	   2.01192	1.86535e+07	      76.5	   15.1384	   1.95792	1.85254e+07	      76.5	   15.0818	   1.96592	1.85088e+07	      76.5	   15.1243	   2.01724	 1.8642e+07	      76.5	   15.1432	   1.98492	1.85894e+07	      76.5	   15.1101	   1.96192	1.85167e+07	      76.5	   15.0912	   1.99424	  1.857e+07	
         R10	   2696	      76.5	   15.0818	   1.96592	1.85046e+07	      76.5	   15.1384	   1.95792	1.85264e+07	      76.5	   15.1278	   1.90144	1.84242e+07	      76.5	   15.0639	   1.91478	1.84266e+07	      76.5	   15.1101	   1.96192	1.85152e+07	      76.5	   15.1331	   1.92968	1.84753e+07	      76.5	   15.0958	   1.90811	1.84251e+07	      76.5	   15.0728	   1.94035	1.84656e+07	
         R10	   2697	      76.5	   15.0639	   1.91478	1.84283e+07	      76.5	   15.1278	   1.90144	1.84228e+07	      76.5	   15.1058	   1.83945	1.83434e+07	      76.5	   15.0422	   1.85988	1.83503e+07	      76.5	   15.0958	   1.90811	1.84253e+07	      76.5	   15.1168	   1.87044	1.83831e+07	      76.5	    15.074	   1.84966	1.83467e+07	      76.5	   15.0531	   1.88733	1.83893e+07	
         R10	   2698	      76.5	    14.958	   1.92774	1.82818e+07	      76.5	   14.9596	   1.85831	1.82894e+07	      76.5	   14.8687	   1.85117	1.81303e+07	      76.5	   14.8766	   1.91355	1.81136e+07	      76.5	   14.9588	   1.89303	1.82856e+07	      76.5	   14.9142	   1.85474	1.82098e+07	      76.5	   14.8727	   1.88236	1.81219e+07	      76.5	   14.9173	   1.92064	1.81976e+07	
         R10	   2699	      76.5	    14.896	   1.99215	1.81129e+07	      76.5	   14.8284	   1.94764	1.79581e+07	      76.5	   14.7913	   2.01569	1.77359e+07	      76.5	   14.8618	   2.04206	1.79565e+07	      76.5	   14.8622	   1.96989	1.80355e+07	      76.5	   14.8098	   1.98166	1.78469e+07	      76.5	   14.8265	   2.02887	1.78462e+07	      76.5	   14.8789	    2.0171	1.80346e+07	
         R10	   2700	      76.5	   14.8758	   2.12489	1.78621e+07	      76.5	   14.8422	   2.16452	1.76274e+07	      76.5	   14.8892	   2.19668	1.77781e+07	      76.5	   14.9105	   2.15303	1.79676e+07	      76.5	    14.859	    2.1447	1.77447e+07	      76.5	   14.8657	    2.1806	1.77027e+07	      76.5	   14.8999	   2.17486	1.78728e+07	      76.5	   14.8932	   2.13896	1.79148e+07	
         R10	   2701	      76.5	   14.9105	   2.15303	1.79666e+07	      76.5	   14.8892	   2.19668	1.77726e+07	      76.5	   14.9354	    2.2119	1.79796e+07	      76.5	   14.9515	   2.17036	1.81382e+07	      76.5	   14.8999	   2.17486	1.78695e+07	      76.5	   14.9123	   2.20429	1.78761e+07	      76.5	   14.9435	   2.19113	1.80588e+07	      76.5	    14.931	   2.16169	1.80524e+07	
         R10	   2702	      76.5	   14.9515	   2.17036	1.81368e+07	      76.5	   14.9354	    2.2119	1.79745e+07	      76.5	   14.9834	   2.22896	1.82166e+07	      76.5	   15.0004	    2.1907	1.83772e+07	      76.5	   14.9435	   2.19113	1.80555e+07	      76.5	   14.9594	   2.22043	1.80955e+07	      76.5	   14.9919	   2.20983	1.82967e+07	      76.5	    14.976	   2.18053	 1.8257e+07	
         R10	   2703	      76.5	   15.0714	   2.32072	1.86701e+07	      76.5	   15.0661	   2.34409	1.85247e+07	      76.5	   15.0948	   2.33426	1.88765e+07	      76.5	   15.0913	   2.31601	1.89024e+07	      76.5	   15.0688	    2.3324	1.85973e+07	      76.5	   15.0805	   2.33918	1.87005e+07	      76.5	   15.0931	   2.32514	1.88893e+07	      76.5	   15.0813	   2.31836	1.87862e+07	
         R10	   2704	      76.5	   15.0714	   2.32072	1.86789e+07	      76.5	   15.0913	   2.31601	1.88951e+07	      76.5	   15.0946	   2.29801	1.89858e+07	      76.5	    15.073	   2.28565	1.87885e+07	      76.5	   15.0813	   2.31836	 1.8787e+07	      76.5	    15.093	   2.30701	1.89403e+07	      76.5	   15.0838	   2.29183	1.88871e+07	      76.5	   15.0722	   2.30318	1.87333e+07	
         R10	   2705	      76.5	   15.0775	   2.09398	1.87132e+07	      76.5	   15.1199	   2.07511	1.87924e+07	      76.5	   15.1006	   2.02256	1.86321e+07	      76.5	   15.0505	     2.037	1.85473e+07	      76.5	   15.0987	   2.08454	1.87523e+07	      76.5	   15.1102	   2.04883	1.87123e+07	      76.5	   15.0755	   2.02978	1.85894e+07	      76.5	    15.064	   2.06549	1.86302e+07	
         R10	   2706	      76.5	   15.0505	     2.037	1.85471e+07	      76.5	   15.1006	   2.02256	1.86322e+07	      76.5	   15.0818	   1.96592	1.85084e+07	      76.5	   15.0209	   1.98149	1.84253e+07	      76.5	   15.0755	   2.02978	1.85893e+07	      76.5	   15.0912	   1.99424	1.85703e+07	      76.5	   15.0513	    1.9737	1.84666e+07	      76.5	   15.0357	   2.00924	1.84862e+07	
         R10	   2707	      76.5	    15.028	   1.81319	1.82983e+07	      76.5	   15.0422	   1.85988	1.83553e+07	      76.5	   15.1058	   1.83945	1.83433e+07	      76.5	   15.0711	   1.76391	1.82763e+07	      76.5	   15.0351	   1.83654	1.83268e+07	      76.5	    15.074	   1.84966	1.83491e+07	      76.5	   15.0884	   1.80168	1.83097e+07	      76.5	   15.0496	   1.78855	1.82873e+07	
         R10	   2708	      76.5	   14.9494	   2.02135	1.82527e+07	      76.5	    14.896	   1.99215	1.80994e+07	      76.5	   14.8618	   2.04206	1.79372e+07	      76.5	   14.9054	    2.0767	1.80622e+07	      76.5	   14.9227	   2.00675	 1.8176e+07	      76.5	   14.8789	    2.0171	1.80182e+07	      76.5	   14.8836	   2.05938	1.79997e+07	      76.5	   14.9274	   2.04902	1.81572e+07	
         R10	   2709	      76.5	    14.782	   2.10044	 1.7525e+07	      76.5	   14.8422	   2.16452	1.76378e+07	      76.5	   14.8758	   2.12489	1.78603e+07	      76.5	   14.8424	   2.09177	1.77941e+07	      76.5	   14.8121	   2.13248	1.75812e+07	      76.5	    14.859	    2.1447	 1.7749e+07	      76.5	   14.8591	   2.10833	1.78272e+07	      76.5	   14.8122	   2.09611	1.76595e+07	
         R10	   2710	      76.5	   14.9333	   2.11033	1.81287e+07	      76.5	   14.9105	   2.15303	1.79658e+07	      76.5	   14.9515	   2.17036	1.81375e+07	      76.5	   14.9699	   2.12938	1.82754e+07	      76.5	   14.9219	   2.13168	1.80471e+07	      76.5	    14.931	   2.16169	1.80516e+07	      76.5	   14.9607	   2.14987	1.82063e+07	      76.5	   14.9516	   2.11985	 1.8202e+07	
         R10	   2711	      76.5	   14.9699	   2.12938	1.82717e+07	      76.5	   14.9515	   2.17036	1.81371e+07	      76.5	   15.0004	    2.1907	1.83784e+07	      76.5	   15.0133	   2.14932	1.84773e+07	      76.5	   14.9607	   2.14987	1.82042e+07	      76.5	    14.976	   2.18053	1.82577e+07	      76.5	   15.0069	   2.17001	1.84276e+07	      76.5	   14.9916	   2.13935	1.83745e+07	
         R10	   2712	      76.5	   15.0385	   2.21271	1.85981e+07	      76.5	   15.0004	    2.1907	1.83807e+07	      76.5	   14.9834	   2.22896	1.82131e+07	      76.5	   15.0271	    2.2523	1.84663e+07	      76.5	   15.0195	    2.2017	1.84894e+07	      76.5	   14.9919	   2.20983	1.82967e+07	      76.5	   15.0052	   2.24063	1.83397e+07	      76.5	   15.0328	    2.2325	1.85319e+07	
         R10	   2713	      76.5	   15.0647	   2.19087	1.87784e+07	      76.5	   15.0869	   2.20514	1.89441e+07	      76.5	   15.1012	   2.18021	1.89995e+07	      76.5	    15.081	   2.15874	 1.8844e+07	      76.5	   15.0758	     2.198	1.88612e+07	      76.5	    15.094	   2.19267	1.89715e+07	      76.5	   15.0911	   2.16947	1.89217e+07	      76.5	   15.0729	    2.1748	1.88109e+07	
         R10	   2714	      76.5	    15.081	   2.15874	1.88491e+07	      76.5	   15.1012	   2.18021	1.89955e+07	      76.5	   15.1244	    2.1682	1.90952e+07	      76.5	   15.1125	    2.1369	1.89437e+07	      76.5	   15.0911	   2.16947	1.89223e+07	      76.5	   15.1128	   2.17421	1.90451e+07	      76.5	   15.1185	   2.15255	1.90195e+07	      76.5	   15.0968	   2.14782	1.88959e+07	
         R10	   2715	      76.5	   15.0326	   2.10637	1.85562e+07	      76.5	   15.0775	   2.09398	1.87099e+07	      76.5	   15.0505	     2.037	1.85467e+07	      76.5	   15.0086	   2.05308	1.84351e+07	      76.5	   15.0551	   2.10017	1.86327e+07	      76.5	    15.064	   2.06549	1.86283e+07	      76.5	   15.0295	   2.04504	1.84908e+07	      76.5	   15.0206	   2.07972	1.84956e+07	
         R10	   2716	      76.5	    14.953	   2.07287	1.82458e+07	      76.5	   14.9333	   2.11033	1.81256e+07	      76.5	   14.9699	   2.12938	1.82765e+07	      76.5	   14.9835	   2.09094	 1.8346e+07	      76.5	   14.9431	    2.0916	1.81856e+07	      76.5	   14.9516	   2.11985	 1.8201e+07	      76.5	   14.9767	   2.11016	1.83111e+07	      76.5	   14.9682	   2.08191	1.82959e+07	
         R10	   2717	      76.5	   15.0271	    2.2523	1.84663e+07	      76.5	    15.044	    2.3014	1.84789e+07	      76.5	    15.073	   2.28565	1.87875e+07	      76.5	   15.0633	   2.25669	1.87455e+07	      76.5	   15.0355	   2.27685	1.84722e+07	      76.5	   15.0585	   2.29353	 1.8633e+07	      76.5	   15.0681	   2.27117	1.87663e+07	      76.5	   15.0452	    2.2545	1.86059e+07	
         R10	   2718	      76.5	   15.0385	   2.21271	1.86049e+07	      76.5	   15.0271	    2.2523	1.84639e+07	      76.5	   15.0633	   2.25669	1.87462e+07	      76.5	    15.066	   2.22964	1.87915e+07	      76.5	   15.0328	    2.2325	1.85341e+07	      76.5	   15.0452	    2.2545	 1.8605e+07	      76.5	   15.0646	   2.24316	1.87687e+07	      76.5	   15.0523	   2.22117	1.86982e+07	
         R10	   2719	      76.5	   15.0385	   2.21271	1.86015e+07	      76.5	    15.066	   2.22964	1.87923e+07	      76.5	   15.0869	   2.20514	1.89455e+07	      76.5	   15.0647	   2.19087	1.87782e+07	      76.5	   15.0523	   2.22117	1.86969e+07	      76.5	   15.0764	   2.21739	1.88686e+07	      76.5	   15.0758	     2.198	1.88618e+07	      76.5	   15.0516	   2.20179	1.86896e+07	
         R10	   2720	      76.5	   15.0441	    2.1749	1.86495e+07	      76.5	   15.0647	   2.19087	1.87779e+07	      76.5	    15.081	   2.15874	1.88408e+07	      76.5	   15.0573	   2.14375	1.87008e+07	      76.5	   15.0544	   2.18288	1.87137e+07	      76.5	   15.0729	    2.1748	1.88091e+07	      76.5	   15.0692	   2.15124	1.87708e+07	      76.5	   15.0507	   2.15932	1.86749e+07	
         R10	   2721	      76.5	   14.9054	    2.0767	1.80602e+07	      76.5	   14.8618	   2.04206	1.79293e+07	      76.5	   14.8424	   2.09177	1.77864e+07	      76.5	   14.8758	   2.12489	1.78617e+07	      76.5	   14.8836	   2.05938	1.79948e+07	      76.5	   14.8521	   2.06691	1.78578e+07	      76.5	   14.8591	   2.10833	 1.7824e+07	      76.5	   14.8906	   2.10079	1.79609e+07	
         R10	   2722	      76.5	   14.9054	    2.0767	1.80519e+07	      76.5	   14.8758	   2.12489	1.78665e+07	      76.5	   14.9105	   2.15303	1.79655e+07	      76.5	   14.9333	   2.11033	1.81338e+07	      76.5	   14.8906	   2.10079	1.79591e+07	      76.5	   14.8932	   2.13896	 1.7916e+07	      76.5	   14.9219	   2.13168	1.80495e+07	      76.5	   14.9193	   2.09351	1.80928e+07	
         R10	   2723	      76.5	   14.9494	   2.02135	1.82504e+07	      76.5	   14.9054	    2.0767	 1.8054e+07	      76.5	   14.9333	   2.11033	1.81296e+07	      76.5	    14.953	   2.07287	1.82458e+07	      76.5	   14.9274	   2.04902	 1.8152e+07	      76.5	   14.9193	   2.09351	1.80918e+07	      76.5	   14.9431	    2.0916	1.81876e+07	      76.5	   14.9512	   2.04711	1.82481e+07	
         R10	   2724	      76.5	   15.0004	    2.1907	1.83766e+07	      76.5	   15.0385	   2.21271	1.85968e+07	      76.5	   15.0647	   2.19087	1.87828e+07	      76.5	   15.0441	    2.1749	1.86424e+07	      76.5	   15.0195	    2.2017	1.84867e+07	      76.5	   15.0516	   2.20179	1.86895e+07	      76.5	   15.0544	   2.18288	1.87126e+07	      76.5	   15.0223	    2.1828	1.85093e+07	
         R10	   2725	      76.5	   15.0133	   2.14932	1.84773e+07	      76.5	   15.0004	    2.1907	1.83846e+07	      76.5	   15.0441	    2.1749	1.86462e+07	      76.5	   15.0573	   2.14375	1.87027e+07	      76.5	   15.0069	   2.17001	1.84308e+07	      76.5	   15.0223	    2.1828	1.85152e+07	      76.5	   15.0507	   2.15932	1.86742e+07	      76.5	   15.0353	   2.14653	1.85898e+07	
         R10	   2726	      76.5	   15.0937	   2.27473	1.90158e+07	      76.5	   15.0906	   2.25894	1.89945e+07	      76.5	   15.0633	   2.25669	1.87469e+07	      76.5	    15.073	   2.28565	1.87893e+07	      76.5	   15.0922	   2.26684	1.90051e+07	      76.5	    15.077	   2.25782	1.88707e+07	      76.5	   15.0681	   2.27117	 1.8768e+07	      76.5	   15.0834	   2.28019	1.89024e+07	
         R10	   2727	      76.5	   14.7913	   2.01569	1.77342e+07	      76.5	    14.782	   2.10044	1.75261e+07	      76.5	   14.8424	   2.09177	1.77936e+07	      76.5	   14.8618	   2.04206	1.79595e+07	      76.5	   14.7866	   2.05806	  1.763e+07	      76.5	   14.8122	   2.09611	1.76598e+07	      76.5	   14.8521	   2.06691	1.78764e+07	      76.5	   14.8265	   2.02887	1.78468e+07	
         R10	   2728	      76.5	   15.0422	   1.85988	1.83638e+07	      76.5	    15.028	   1.81319	1.83103e+07	      76.5	   14.9593	    1.7763	1.82567e+07	      76.5	   14.9596	   1.85831	1.82675e+07	      76.5	   15.0351	   1.83654	1.83371e+07	      76.5	   14.9937	   1.79475	1.82835e+07	      76.5	   14.9595	   1.81731	1.82621e+07	      76.5	   15.0009	    1.8591	1.83155e+07	
         R10	   2729	      76.5	   15.0639	   1.91478	1.84301e+07	      76.5	   15.0422	   1.85988	1.83599e+07	      76.5	   14.9596	   1.85831	1.82703e+07	      76.5	    14.958	   1.92774	1.82903e+07	      76.5	   15.0531	   1.88733	 1.8395e+07	      76.5	   15.0009	    1.8591	1.83149e+07	      76.5	   14.9588	   1.89303	1.82802e+07	      76.5	   15.0109	   1.92126	1.83598e+07	
         R10	   2730	      76.5	    14.958	   1.92774	1.82876e+07	      76.5	   14.8766	   1.91355	  1.812e+07	      76.5	   14.8284	   1.94764	1.79658e+07	      76.5	    14.896	   1.99215	1.81076e+07	      76.5	   14.9173	   1.92064	1.82038e+07	      76.5	   14.8525	   1.93059	1.80428e+07	      76.5	   14.8622	   1.96989	1.80367e+07	      76.5	    14.927	   1.95994	1.81975e+07	
         R10	   2731	      76.5	   15.2638	   2.19664	1.96199e+07	      76.5	   15.2507	   2.19032	1.95836e+07	      76.5	   15.2487	    2.2124	1.98342e+07	      76.5	   15.2656	   2.21273	1.97955e+07	      76.5	   15.2573	   2.19348	1.96015e+07	      76.5	   15.2497	   2.20136	1.97089e+07	      76.5	   15.2571	   2.21257	1.98143e+07	      76.5	   15.2647	   2.20469	1.97077e+07	
         R10	   2732	      76.5	   15.2638	   2.19664	1.96163e+07	      76.5	   15.2656	   2.21273	1.97978e+07	      76.5	   15.2829	   2.21176	1.97028e+07	      76.5	   15.2774	   2.18927	1.94885e+07	      76.5	   15.2647	   2.20469	 1.9707e+07	      76.5	   15.2743	   2.21224	1.97498e+07	      76.5	   15.2801	   2.20051	1.95955e+07	      76.5	   15.2706	   2.19295	1.95522e+07	
         R10	   2733	      76.5	   15.2638	   2.19664	1.96293e+07	      76.5	   15.2774	   2.18927	1.94828e+07	      76.5	   15.2691	   2.16218	1.92764e+07	      76.5	   15.2507	   2.19032	1.95889e+07	      76.5	   15.2706	   2.19295	1.95558e+07	      76.5	   15.2732	   2.17572	1.93794e+07	      76.5	   15.2599	   2.17625	1.94324e+07	      76.5	   15.2573	   2.19348	1.96088e+07	
         R10	   2734	      76.5	   15.2333	   2.19208	1.96247e+07	      76.5	   15.2507	   2.19032	1.95893e+07	      76.5	   15.2691	   2.16218	1.92844e+07	      76.5	   15.2384	   2.16571	1.93936e+07	      76.5	    15.242	    2.1912	1.96066e+07	      76.5	   15.2599	   2.17625	1.94367e+07	      76.5	   15.2537	   2.16395	1.93381e+07	      76.5	   15.2359	   2.17889	1.95091e+07	
         R10	   2735	      76.5	   15.2153	   2.19317	1.96183e+07	      76.5	   15.2333	   2.19208	1.96215e+07	      76.5	   15.2384	   2.16571	 1.9389e+07	      76.5	     15.21	   2.17099	1.94319e+07	      76.5	   15.2243	   2.19262	1.96194e+07	      76.5	   15.2359	   2.17889	1.95052e+07	      76.5	   15.2242	   2.16835	1.94096e+07	      76.5	   15.2127	   2.18208	1.95251e+07	
         R10	   2736	      76.5	   15.1893	   2.17712	1.94264e+07	      76.5	   15.1954	   2.19232	1.95568e+07	      76.5	   15.2153	   2.19317	1.96197e+07	      76.5	     15.21	   2.17099	1.94277e+07	      76.5	   15.1923	   2.18472	1.94916e+07	      76.5	   15.2054	   2.19274	1.95878e+07	      76.5	   15.2127	   2.18208	1.95237e+07	      76.5	   15.1996	   2.17406	1.94266e+07	
         R10	   2737	      76.5	   15.1893	   2.17712	1.94306e+07	      76.5	     15.21	   2.17099	1.94229e+07	      76.5	   15.1969	   2.14345	1.92332e+07	      76.5	   15.1611	   2.16594	1.92698e+07	      76.5	   15.1996	   2.17406	1.94263e+07	      76.5	   15.2034	   2.15722	 1.9328e+07	      76.5	    15.179	   2.15469	1.92504e+07	      76.5	   15.1752	   2.17153	1.93498e+07	
         R10	   2738	      76.5	   15.1893	   2.17712	1.94336e+07	      76.5	   15.1611	   2.16594	1.92503e+07	      76.5	   15.1738	   2.19361	 1.9475e+07	      76.5	   15.1954	   2.19232	1.95586e+07	      76.5	   15.1752	   2.17153	1.93415e+07	      76.5	   15.1675	   2.17977	1.93626e+07	      76.5	   15.1846	   2.19296	1.95163e+07	      76.5	   15.1923	   2.18472	1.94961e+07	
         R10	   2739	      76.5	   15.1429	    2.1235	1.90086e+07	      76.5	   15.1611	   2.16594	1.92606e+07	      76.5	   15.1969	   2.14345	1.92286e+07	      76.5	   15.1773	   2.10902	 1.9018e+07	      76.5	    15.152	   2.14472	1.91346e+07	      76.5	    15.179	   2.15469	1.92435e+07	      76.5	   15.1871	   2.12623	1.91231e+07	      76.5	   15.1601	   2.11626	1.90127e+07	
         R10	   2740	      76.5	   15.1125	    2.1369	1.89422e+07	      76.5	   15.1244	    2.1682	1.90993e+07	      76.5	   15.1611	   2.16594	1.92604e+07	      76.5	   15.1429	    2.1235	1.90038e+07	      76.5	   15.1185	   2.15255	1.90207e+07	      76.5	   15.1428	   2.16707	1.91792e+07	      76.5	    15.152	   2.14472	1.91321e+07	      76.5	   15.1277	    2.1302	1.89726e+07	
         R10	   2741	      76.5	   15.0775	   2.09398	1.87135e+07	      76.5	   15.1125	    2.1369	1.89412e+07	      76.5	   15.1429	    2.1235	1.90045e+07	      76.5	   15.1199	   2.07511	1.87909e+07	      76.5	    15.095	   2.11544	1.88273e+07	      76.5	   15.1277	    2.1302	1.89724e+07	      76.5	   15.1314	    2.0993	1.88977e+07	      76.5	   15.0987	   2.08454	1.87517e+07	
         R10	   2742	      76.5	   15.0573	   2.14375	1.87009e+07	      76.5	    15.081	   2.15874	 1.8846e+07	      76.5	   15.1125	    2.1369	1.89438e+07	      76.5	   15.0775	   2.09398	1.87116e+07	      76.5	   15.0692	   2.15124	1.87734e+07	      76.5	   15.0968	   2.14782	1.88944e+07	      76.5	    15.095	   2.11544	1.88277e+07	      76.5	   15.0674	   2.11886	1.87059e+07	
         R10	   2743	      76.5	   15.0133	   2.14932	 1.8478e+07	      76.5	   15.0573	   2.14375	1.87087e+07	      76.5	   15.0775	   2.09398	1.87173e+07	      76.5	   15.0326	   2.10637	1.85677e+07	      76.5	   15.0353	   2.14653	1.85931e+07	      76.5	   15.0674	   2.11886	1.87126e+07	      76.5	   15.0551	   2.10017	1.86421e+07	      76.5	    15.023	   2.12785	1.85225e+07	
         R10	   2744	      76.5	   14.9835	   2.09094	1.83517e+07	      76.5	   14.9699	   2.12938	1.82724e+07	      76.5	   15.0133	   2.14932	1.84748e+07	      76.5	   15.0326	   2.10637	1.85559e+07	      76.5	   14.9767	   2.11016	1.83119e+07	      76.5	   14.9916	   2.13935	1.83736e+07	      76.5	    15.023	   2.12785	1.85151e+07	      76.5	   15.0081	   2.09865	1.84537e+07	
         R10	   2745	      76.5	   14.9494	   2.02135	1.82405e+07	      76.5	    14.953	   2.07287	1.82397e+07	      76.5	   14.9835	   2.09094	1.83497e+07	      76.5	   15.0086	   2.05308	1.84406e+07	      76.5	   14.9512	   2.04711	  1.824e+07	      76.5	   14.9682	   2.08191	1.82947e+07	      76.5	   14.9961	   2.07201	 1.8395e+07	      76.5	    14.979	   2.03721	1.83405e+07	
         R10	   2746	      76.5	   14.9494	   2.02135	 1.8256e+07	      76.5	   15.0086	   2.05308	1.84346e+07	      76.5	   15.0505	     2.037	1.85474e+07	      76.5	   15.0209	   1.98149	1.84286e+07	      76.5	    14.979	   2.03721	1.83452e+07	      76.5	   15.0295	   2.04504	1.84908e+07	      76.5	   15.0357	   2.00924	 1.8488e+07	      76.5	   14.9852	   2.00142	1.83419e+07	
         R10	   2747	      76.5	   15.0209	   1.98149	1.84298e+07	      76.5	    14.958	   1.92774	1.82885e+07	      76.5	    14.896	   1.99215	1.81052e+07	      76.5	   14.9494	   2.02135	1.82593e+07	      76.5	   14.9894	   1.95461	1.83591e+07	      76.5	    14.927	   1.95994	1.81966e+07	      76.5	   14.9227	   2.00675	1.81823e+07	      76.5	   14.9852	   2.00142	1.83442e+07	
         R10	   2748	      76.5	   15.0818	   1.96592	1.85126e+07	      76.5	   15.0639	   1.91478	1.84335e+07	      76.5	    14.958	   1.92774	1.82809e+07	      76.5	   15.0209	   1.98149	1.84244e+07	      76.5	   15.0728	   1.94035	 1.8473e+07	      76.5	   15.0109	   1.92126	1.83568e+07	      76.5	   14.9894	   1.95461	1.83526e+07	      76.5	   15.0513	    1.9737	1.84682e+07	
         R10	   2749	      76.5	   15.1118	   2.37781	1.88934e+07	      76.5	     15.13	     2.383	1.91223e+07	      76.5	     15.13	     2.366	1.92038e+07	      76.5	   15.1209	    2.3804	1.90078e+07	      76.5	     15.13	    2.3745	1.91629e+07	      76.5	   15.1209	    2.3719	1.90485e+07	       N/A	       N/A	       N/A	        N/A	       N/A	       N/A	       N/A	        N/A	
         R10	   2750	      76.5	   15.0946	   2.29801	1.89867e+07	      76.5	   15.1133	   2.29909	1.92061e+07	      76.5	   15.1108	   2.28118	1.92033e+07	      76.5	    15.104	   2.29855	1.90964e+07	      76.5	   15.1121	   2.29014	1.92046e+07	      76.5	   15.1027	    2.2896	1.90948e+07	       N/A	       N/A	       N/A	        N/A	       N/A	       N/A	       N/A	        N/A	
         R10	   2751	      76.5	   15.0906	   2.25894	 1.8996e+07	      76.5	   15.1138	   2.26445	1.92319e+07	      76.5	   15.1123	   2.24672	1.92079e+07	      76.5	   15.1022	    2.2617	1.91139e+07	      76.5	    15.113	   2.25558	1.92198e+07	      76.5	   15.1015	   2.25283	1.91016e+07	       N/A	       N/A	       N/A	        N/A	       N/A	       N/A	       N/A	        N/A	
         R10	   2752	      76.5	   15.1476	   2.19343	1.93212e+07	      76.5	   15.1461	   2.21359	1.94135e+07	      76.5	   15.1633	   2.21037	1.95127e+07	      76.5	   15.1469	   2.20351	1.93672e+07	      76.5	   15.1547	   2.21198	1.94628e+07	      76.5	   15.1555	    2.2019	1.94169e+07	       N/A	       N/A	       N/A	        N/A	       N/A	       N/A	       N/A	        N/A	
         R10	   2753	      76.5	   15.1131	   2.20651	1.91372e+07	      76.5	   15.1309	   2.21336	1.92896e+07	      76.5	   15.1308	   2.19114	1.92183e+07	      76.5	    15.122	   2.20994	1.92134e+07	      76.5	   15.1309	   2.20225	1.92539e+07	      76.5	    15.122	   2.19883	1.91775e+07	       N/A	       N/A	       N/A	        N/A	       N/A	       N/A	       N/A	        N/A	
         R10	   2754	      76.5	   15.1738	   2.19361	1.94735e+07	      76.5	   15.1633	   2.21037	1.95181e+07	      76.5	   15.1818	   2.21267	1.96468e+07	      76.5	   15.1685	   2.20199	1.94956e+07	      76.5	   15.1725	   2.21152	1.95822e+07	      76.5	   15.1778	   2.20314	1.95602e+07	       N/A	       N/A	       N/A	        N/A	       N/A	       N/A	       N/A	        N/A	
         R10	   2755	      76.5	   15.0661	   2.34409	1.85233e+07	      76.5	   15.0933	   2.35536	1.87694e+07	      76.5	   15.0948	   2.33426	1.88756e+07	      76.5	   15.0797	   2.34973	1.86463e+07	      76.5	   15.0941	   2.34481	1.88224e+07	      76.5	   15.0805	   2.33918	1.86994e+07	       N/A	       N/A	       N/A	        N/A	       N/A	       N/A	       N/A	        N/A	
         R10	   2756	      76.5	    15.066	   2.22964	1.87936e+07	      76.5	   15.0919	   2.23276	1.90052e+07	      76.5	   15.0869	   2.20514	1.89487e+07	      76.5	   15.0789	    2.2312	1.88993e+07	      76.5	   15.0894	   2.21895	1.89768e+07	      76.5	   15.0764	   2.21739	1.88708e+07	       N/A	       N/A	       N/A	        N/A	       N/A	       N/A	       N/A	        N/A	
         R10	   2757	      76.5	   15.0869	   2.20514	1.89458e+07	      76.5	   15.1131	   2.20651	1.91334e+07	      76.5	   15.1012	   2.18021	1.89981e+07	      76.5	      15.1	   2.20582	1.90394e+07	      76.5	   15.1071	   2.19336	1.90657e+07	      76.5	    15.094	   2.19267	1.89716e+07	       N/A	       N/A	       N/A	        N/A	       N/A	       N/A	       N/A	        N/A	
         R10	   2758	      76.5	    15.044	    2.3014	1.84747e+07	      76.5	   15.0714	   2.32072	1.86724e+07	      76.5	    15.073	   2.28565	  1.879e+07	      76.5	   15.0577	   2.31106	1.85735e+07	      76.5	   15.0722	   2.30318	1.87309e+07	      76.5	   15.0585	   2.29353	1.86322e+07	       N/A	       N/A	       N/A	        N/A	       N/A	       N/A	       N/A	        N/A	
         R10	   2759	      76.5	   15.0271	    2.2523	1.84709e+07	      76.5	   15.0074	   2.28863	1.82242e+07	      76.5	    15.044	    2.3014	1.84794e+07	      76.5	   15.0172	   2.27046	1.83473e+07	      76.5	   15.0257	   2.29501	1.83518e+07	      76.5	   15.0355	   2.27685	1.84748e+07	       N/A	       N/A	       N/A	        N/A	       N/A	       N/A	       N/A	        N/A	
         R10	   2760	      76.5	   14.9593	    1.7763	 1.8259e+07	      76.5	    15.028	   1.81319	1.83155e+07	      76.5	   15.0711	   1.76391	1.82914e+07	      76.5	   14.9937	   1.79475	1.82871e+07	      76.5	   15.0496	   1.78855	1.83034e+07	      76.5	   15.0152	   1.77011	1.82749e+07	       N/A	       N/A	       N/A	        N/A	       N/A	       N/A	       N/A	        N/A	
         R10	   2761	      76.5	   14.9835	   2.09094	 1.8351e+07	      76.5	   15.0326	   2.10637	 1.8552e+07	      76.5	   15.0086	   2.05308	1.84349e+07	      76.5	   15.0081	   2.09865	1.84515e+07	      76.5	   15.0206	   2.07972	1.84934e+07	      76.5	   14.9961	   2.07201	1.83928e+07	       N/A	       N/A	       N/A	        N/A	       N/A	       N/A	       N/A	        N/A	
         R10	   2762	    74.375	   16.1121	   3.19011	6.60853e+06	    74.375	   15.9164	   2.99973	6.60075e+06	   74.0696	   15.9164	   2.99973	6.05344e+06	   74.0696	   16.1892	   3.26518	 5.6197e+06	    74.375	   16.0142	   3.09492	6.52303e+06	   74.2223	   15.9164	   2.99973	6.26152e+06	   74.0696	   16.0528	   3.13245	5.76529e+06	   74.2223	   16.1506	   3.22765	6.05234e+06	
         R10	   2763	   74.0485	   16.5328	   3.59945	6.73381e+06	    74.375	   16.5328	   3.59945	7.36193e+06	    74.375	   16.3175	   3.39002	6.24242e+06	   74.0696	   16.1892	   3.26518	8.18245e+06	   74.2117	   16.5328	   3.59945	7.04228e+06	    74.375	   16.4251	   3.49474	6.76052e+06	   74.2223	   16.2534	    3.3276	7.11066e+06	   74.0591	    16.361	   3.43232	7.41573e+06	
         R10	   2764	   73.0071	   15.9164	   2.99973	6.01766e+06	     72.25	   15.9164	   2.99973	5.39153e+06	     72.25	   16.5328	   3.59945	5.95192e+06	    72.986	   16.5328	   3.59945	7.21957e+06	   72.6286	   15.9164	   2.99973	5.58018e+06	     72.25	   16.2246	   3.29959	5.66962e+06	    72.618	   16.5328	   3.59945	6.48085e+06	   72.9966	   16.2246	   3.29959	6.34814e+06	
         R10	   2765	   73.6137	   15.9164	   2.99973	6.03297e+06	   73.0071	   15.9164	   2.99973	5.75177e+06	    72.986	   16.5328	   3.59945	6.72587e+06	   73.5855	   16.5328	   3.59945	  7.299e+06	   73.3104	   15.9164	   2.99973	5.70782e+06	   72.9966	   16.2246	   3.29959	 5.8736e+06	   73.2857	   16.5328	   3.59945	7.00133e+06	   73.5996	   16.2246	   3.29959	6.14023e+06	
         R10	   2766	   74.0696	   16.1892	   3.26518	7.35879e+06	   74.0696	   15.9164	   2.99973	6.54532e+06	   73.6137	   15.9164	   2.99973	6.21324e+06	   73.5855	   16.5328	   3.59945	6.47464e+06	   74.0696	   16.0528	   3.13245	 6.8409e+06	   73.8416	   15.9164	   2.99973	6.37439e+06	   73.5996	   16.2246	   3.29959	5.57992e+06	   73.8275	    16.361	   3.43232	6.46853e+06	
         R10	   2767	    74.375	   16.3175	   3.39002	 5.3429e+06	    74.375	   16.1121	   3.19011	7.01533e+06	   74.0696	   16.1892	   3.26518	6.43287e+06	    74.375	   16.2148	   3.29007	6.13588e+06	   74.2223	   16.1506	   3.22765	6.63922e+06	   74.2223	   16.2534	    3.3276	5.73486e+06	       N/A	       N/A	       N/A	        N/A	       N/A	       N/A	       N/A	        N/A	
         R10	   2768	   74.0696	   16.1892	   3.26518	7.71049e+06	   73.5855	   16.5328	   3.59945	6.39689e+06	   74.0485	   16.5328	   3.59945	6.90034e+06	   73.8275	    16.361	   3.43232	6.97867e+06	    73.817	   16.5328	   3.59945	6.61776e+06	   74.0591	    16.361	   3.43232	7.27711e+06	       N/A	       N/A	       N/A	        N/A	       N/A	       N/A	       N/A	        N/A	
         R10	   2769	   74.3446	    16.797	   3.85656	5.65238e+06	    74.375	   16.5328	   3.59945	6.46932e+06	   74.0485	   16.5328	   3.59945	5.75231e+06	   74.0184	   16.8145	   3.87357	7.54499e+06	   74.3598	   16.6649	   3.72801	  6.059e+06	   74.2117	   16.5328	   3.59945	6.08383e+06	   74.0334	   16.6736	   3.73651	6.55558e+06	   74.1815	   16.8058	   3.86507	6.57931e+06	
         R10	   2770	   74.6753	   16.7879	   3.84768	5.41515e+06	   74.6785	   16.5328	   3.59945	7.09222e+06	    74.375	   16.5328	   3.59945	6.59913e+06	   74.3446	    16.797	   3.85656	6.55853e+06	   74.6769	   16.6603	   3.72356	6.24106e+06	   74.5267	   16.5328	   3.59945	6.83837e+06	   74.3598	   16.6649	   3.72801	 6.5638e+06	   74.5099	   16.7925	   3.85212	5.98386e+06	
         R10	   2771	   74.9673	   16.7688	   3.82913	6.38403e+06	   74.9651	   16.5328	   3.59945	7.22709e+06	   74.6785	   16.5328	   3.59945	7.20799e+06	   74.6753	   16.7879	   3.84768	6.45795e+06	   74.9662	   16.6508	   3.71429	6.79792e+06	   74.8218	   16.5328	   3.59945	7.20811e+06	   74.6769	   16.6603	   3.72356	6.78766e+06	   74.8213	   16.7784	    3.8384	6.40845e+06	
         R10	   2772	   75.2379	   16.7333	    3.7946	6.74609e+06	   75.2349	   16.5328	   3.59945	 7.2861e+06	   74.9651	   16.5328	   3.59945	7.17726e+06	   74.9673	   16.7688	   3.82913	6.91669e+06	   75.2364	   16.6331	   3.69702	 6.9946e+06	      75.1	   16.5328	   3.59945	7.22558e+06	   74.9662	   16.6508	   3.71429	7.02839e+06	   75.1026	   16.7511	   3.81186	6.79976e+06	
         R10	   2773	   75.4796	   16.7024	   3.76446	6.41753e+06	   75.4879	   16.5328	   3.59945	 7.6135e+06	   75.2349	   16.5328	   3.59945	7.30169e+06	   75.2379	   16.7333	    3.7946	6.86743e+06	   75.4838	   16.6176	   3.68196	7.01368e+06	   75.3614	   16.5328	   3.59945	7.45556e+06	   75.2364	   16.6331	   3.69702	7.08258e+06	   75.3588	   16.7178	   3.77953	6.64057e+06	
         R10	   2774	    75.733	   16.7007	   3.76283	6.91504e+06	    75.724	   16.5328	   3.59945	7.80855e+06	   75.4879	   16.5328	   3.59945	7.65318e+06	   75.4796	   16.7024	   3.76446	7.00164e+06	   75.7285	   16.6167	   3.68114	7.35656e+06	   75.6059	   16.5328	   3.59945	7.72968e+06	   75.4838	   16.6176	   3.68196	 7.3251e+06	   75.6063	   16.7015	   3.76364	6.95798e+06	
         R10	   2775	   75.9241	   16.6955	   3.75775	6.92897e+06	   75.9433	   16.5328	   3.59945	 7.9429e+06	    75.724	   16.5328	   3.59945	7.79571e+06	    75.733	   16.7007	   3.76283	7.09749e+06	   75.9337	   16.6141	    3.6786	7.42754e+06	   75.8336	   16.5328	   3.59945	7.86845e+06	   75.7285	   16.6167	   3.68114	7.44446e+06	   75.8286	   16.6981	   3.76029	7.00868e+06	
         R10	   2776	   76.1481	   16.6929	   3.75529	7.27349e+06	   76.1457	   16.5328	   3.59945	7.80147e+06	   75.9433	   16.5328	   3.59945	7.99761e+06	   75.9241	   16.6955	   3.75775	7.17832e+06	   76.1469	   16.6129	   3.67737	7.53614e+06	   76.0445	   16.5328	   3.59945	7.89039e+06	   75.9337	   16.6141	    3.6786	7.57759e+06	   76.0361	   16.6942	   3.75652	7.22514e+06	
         R10	   2777	   76.3357	   16.6565	   3.71986	 7.5613e+06	   76.3313	   16.5328	   3.59945	7.66907e+06	   76.1457	   16.5328	   3.59945	7.78923e+06	   76.1481	   16.6929	   3.75529	7.42758e+06	   76.3335	   16.5946	   3.65965	7.57607e+06	   76.2385	   16.5328	   3.59945	7.68893e+06	   76.1469	   16.6129	   3.67737	7.60445e+06	   76.2419	   16.6747	   3.73757	7.47408e+06	
         R10	   2778	      76.5	   16.6578	   3.72114	9.03934e+06	      76.5	   16.5328	   3.59945	7.62246e+06	   76.3313	   16.5328	   3.59945	  7.892e+06	   76.3357	   16.6565	   3.71986	 7.1449e+06	      76.5	   16.5953	    3.6603	7.84724e+06	   76.4156	   16.5328	   3.59945	7.65457e+06	   76.3335	   16.5946	   3.65965	7.48721e+06	   76.4179	   16.6572	    3.7205	7.98555e+06	
         R10	   2779	      76.5	   16.8023	   3.86166	8.84375e+06	      76.5	   16.6578	   3.72114	8.40906e+06	   76.3357	   16.6565	   3.71986	7.66048e+06	   76.3234	   16.8088	   3.86804	7.11052e+06	      76.5	   16.7301	    3.7914	8.50982e+06	   76.4179	   16.6572	    3.7205	7.83629e+06	   76.3296	   16.7327	   3.79395	7.36017e+06	   76.4117	   16.8055	   3.86485	7.96347e+06	
         R10	   2780	   76.2556	   16.9647	   4.01974	7.58235e+06	      76.5	    16.966	   4.02101	8.76332e+06	      76.5	   16.8023	   3.86166	8.57124e+06	   76.3234	   16.8088	   3.86804	 7.8521e+06	   76.3778	   16.9654	   4.02037	8.16307e+06	      76.5	   16.8841	   3.94133	8.47471e+06	   76.4117	   16.8055	   3.86485	8.09034e+06	   76.2895	   16.8868	   3.94389	 7.7083e+06	
         R10	   2781	   76.2494	   17.1492	   4.19918	 8.6143e+06	      76.5	   17.1492	   4.19918	 1.0133e+07	      76.5	    16.966	   4.02101	8.51848e+06	   76.2556	   16.9647	   4.01974	 7.9965e+06	   76.3747	   17.1492	   4.19918	9.36359e+06	      76.5	   17.0576	   4.11009	8.82694e+06	   76.3778	   16.9654	   4.02037	8.04965e+06	   76.2525	   17.0569	   4.10946	8.24038e+06	
         R10	   2782	   75.9434	   17.1492	   4.19918	8.26061e+06	   76.2494	   17.1492	   4.19918	8.50613e+06	   76.2556	   16.9647	   4.01974	7.64972e+06	   75.9919	   16.9323	   3.98814	7.47158e+06	   76.0964	   17.1492	   4.19918	8.36426e+06	   76.2525	   17.0569	   4.10946	8.01942e+06	   76.1238	   16.9485	   4.00394	7.55425e+06	   75.9677	   17.0407	   4.09366	7.78615e+06	
         R10	   2783	   75.5991	   16.8917	   3.94867	7.22202e+06	    75.582	   17.1492	   4.19918	8.06896e+06	   75.9434	   17.1492	   4.19918	8.27133e+06	   75.9919	   16.9323	   3.98814	7.38103e+06	   75.5905	   17.0204	   4.07392	7.57653e+06	   75.7627	   17.1492	   4.19918	8.16604e+06	   75.9677	   17.0407	   4.09366	7.75337e+06	   75.7955	    16.912	    3.9684	 7.2984e+06	
         R10	   2784	    72.986	   16.5328	   3.59945	5.56984e+06	     72.25	   16.5328	   3.59945	5.62431e+06	     72.25	   17.1492	   4.19918	5.40424e+06	   72.9439	   17.1492	   4.19918	 7.2872e+06	    72.618	   16.5328	   3.59945	5.56856e+06	     72.25	    16.841	   3.89931	5.35565e+06	   72.5969	   17.1492	   4.19918	5.77759e+06	   72.9649	    16.841	   3.89931	6.22695e+06	
         R10	   2785	   73.5855	   16.5328	   3.59945	 5.7456e+06	    72.986	   16.5328	   3.59945	5.09126e+06	   72.9439	   17.1492	   4.19918	6.88608e+06	   73.5823	   17.1492	   4.19918	7.46639e+06	   73.2857	   16.5328	   3.59945	5.36067e+06	   72.9649	    16.841	   3.89931	5.78903e+06	   73.2631	   17.1492	   4.19918	7.14966e+06	   73.5839	    16.841	   3.89931	6.41497e+06	
         R10	   2786	   74.0184	   16.8145	   3.87357	7.40901e+06	   74.0485	   16.5328	   3.59945	6.20306e+06	   73.5855	   16.5328	   3.59945	5.70864e+06	   73.5823	   17.1492	   4.19918	7.18779e+06	   74.0334	   16.6736	   3.73651	6.67903e+06	    73.817	   16.5328	   3.59945	5.95462e+06	   73.5839	    16.841	   3.89931	6.21884e+06	   73.8004	   16.9818	   4.03637	7.26627e+06	
         R10	   2787	   74.3446	    16.797	   3.85656	 6.5199e+06	   74.0184	   16.8145	   3.87357	6.99995e+06	   73.5823	   17.1492	   4.19918	6.92388e+06	   74.1653	   17.1492	   4.19918	7.83049e+06	   74.1815	   16.8058	   3.86507	  6.732e+06	   73.8004	   16.9818	   4.03637	6.82253e+06	   73.8738	   17.1492	   4.19918	7.35571e+06	    74.255	   16.9731	   4.02787	7.15606e+06	
         R10	   2788	   74.6753	   16.7879	   3.84768	5.96739e+06	   74.3446	    16.797	   3.85656	6.77496e+06	   74.1653	   17.1492	   4.19918	7.70422e+06	    74.693	   17.1492	   4.19918	7.92514e+06	   74.5099	   16.7925	   3.85212	6.36362e+06	    74.255	   16.9731	   4.02787	7.14095e+06	   74.4292	   17.1492	   4.19918	7.81002e+06	   74.6841	   16.9685	   4.02343	6.90083e+06	
         R10	   2789	   75.9919	   16.9323	   3.98814	7.09268e+06	   76.2556	   16.9647	   4.01974	7.10623e+06	   76.3234	   16.8088	   3.86804	8.34813e+06	   76.1481	   16.6929	   3.75529	7.31823e+06	   76.1238	   16.9485	   4.00394	7.09344e+06	   76.2895	   16.8868	   3.94389	7.71804e+06	   76.2357	   16.7509	   3.81166	7.82688e+06	     76.07	   16.8126	   3.87171	7.18312e+06	
         R10	   2790	   75.9919	   16.9323	   3.98814	7.00183e+06	   75.9241	   16.6955	   3.75775	7.28938e+06	    75.733	   16.7007	   3.76283	7.28281e+06	   75.5991	   16.8917	   3.94867	6.85325e+06	    75.958	   16.8139	   3.87295	 7.1386e+06	   75.8286	   16.6981	   3.76029	7.28604e+06	   75.6661	   16.7962	   3.85575	7.04446e+06	   75.7955	    16.912	    3.9684	6.92199e+06	
         R10	   2791	   75.1652	   17.1492	   4.19918	7.47524e+06	    75.582	   17.1492	   4.19918	 8.1002e+06	   75.5991	   16.8917	   3.94867	7.28779e+06	   75.3243	   16.9148	   3.97114	7.44231e+06	   75.3736	   17.1492	   4.19918	7.78367e+06	   75.5905	   17.0204	   4.07392	 7.6331e+06	   75.4617	   16.9032	    3.9599	 7.3533e+06	   75.2448	    17.032	   4.08516	7.43311e+06	
         R10	   2792	   75.2379	   16.7333	    3.7946	7.04465e+06	   74.9673	   16.7688	   3.82913	7.55004e+06	   75.1652	   17.1492	   4.19918	 7.6299e+06	   75.3243	   16.9148	   3.97114	7.86014e+06	   75.1026	   16.7511	   3.81186	7.26254e+06	   75.0662	    16.959	   4.01415	 7.5749e+06	   75.2448	    17.032	   4.08516	7.73729e+06	   75.2811	   16.8241	   3.88287	7.42002e+06	
         R10	   2793	   75.5991	   16.8917	   3.94867	7.07359e+06	   75.4796	   16.7024	   3.76446	6.36286e+06	   75.2379	   16.7333	    3.7946	6.98833e+06	   75.3243	   16.9148	   3.97114	7.30994e+06	   75.5394	    16.797	   3.85656	6.71055e+06	   75.3588	   16.7178	   3.77953	 6.6729e+06	   75.2811	   16.8241	   3.88287	7.10785e+06	   75.4617	   16.9032	    3.9599	7.16911e+06	
         R10	   2794	    74.693	   17.1492	   4.19918	7.75982e+06	   75.1652	   17.1492	   4.19918	7.35426e+06	   74.9673	   16.7688	   3.82913	6.67404e+06	   74.6753	   16.7879	   3.84768	6.56995e+06	   74.9291	   17.1492	   4.19918	7.54469e+06	   75.0662	    16.959	   4.01415	6.98815e+06	   74.8213	   16.7784	    3.8384	 6.6147e+06	   74.6841	   16.9685	   4.02343	7.08895e+06	
         R10	   2795	   76.3234	   16.8088	   3.86804	7.05459e+06	   76.3357	   16.6565	   3.71986	7.82522e+06	   76.1481	   16.6929	   3.75529	7.55544e+06	   76.3296	   16.7327	   3.79395	7.43424e+06	   76.2419	   16.6747	   3.73757	7.68185e+06	   76.2357	   16.7509	   3.81166	7.27874e+06	       N/A	       N/A	       N/A	        N/A	       N/A	       N/A	       N/A	        N/A	
         R10	   2796	   76.1481	   16.6929	   3.75529	7.42757e+06	   75.9241	   16.6955	   3.75775	7.47196e+06	   75.9919	   16.9323	   3.98814	7.19331e+06	   76.0361	   16.6942	   3.75652	7.44686e+06	    75.958	   16.8139	   3.87295	7.32525e+06	     76.07	   16.8126	   3.87171	7.29244e+06	       N/A	       N/A	       N/A	        N/A	       N/A	       N/A	       N/A	        N/A	
         R10	   2797	   75.4796	   16.7024	   3.76446	7.13885e+06	   75.5991	   16.8917	   3.94867	6.82255e+06	    75.733	   16.7007	   3.76283	7.15086e+06	   75.5394	    16.797	   3.85656	6.96998e+06	   75.6661	   16.7962	   3.85575	6.96922e+06	   75.6063	   16.7015	   3.76364	7.14398e+06	       N/A	       N/A	       N/A	        N/A	       N/A	       N/A	       N/A	        N/A	
         R10	   2798	   76.6767	   15.9793	   3.06093	5.83559e+06	   76.6732	   15.9164	   2.99973	5.82106e+06	   76.5855	   15.9164	   2.99973	5.94181e+06	   76.5806	   15.9761	    3.0578	5.99035e+06	   76.6749	   15.9478	   3.03033	5.82346e+06	   76.6293	   15.9164	   2.99973	5.73564e+06	   76.5831	   15.9462	   3.02876	5.45735e+06	   76.6287	   15.9777	   3.05936	5.84404e+06	
         R10	   2799	   76.7578	   15.9845	   3.06595	6.10344e+06	   76.7631	   15.9164	   2.99973	  6.344e+06	   76.6732	   15.9164	   2.99973	5.90126e+06	   76.6767	   15.9793	   3.06093	5.84708e+06	   76.7605	   15.9504	   3.03284	6.21819e+06	   76.7182	   15.9164	   2.99973	 6.1157e+06	   76.6749	   15.9478	   3.03033	5.86898e+06	   76.7173	   15.9819	   3.06344	5.97033e+06	
         R10	   2800	   76.8561	   15.9854	   3.06692	6.17637e+06	   76.8553	   15.9164	   2.99973	6.69409e+06	   76.7631	   15.9164	   2.99973	6.33274e+06	   76.7578	   15.9845	   3.06595	6.06202e+06	   76.8557	   15.9509	   3.03332	6.42775e+06	   76.8092	   15.9164	   2.99973	6.51088e+06	   76.7605	   15.9504	   3.03284	6.19202e+06	   76.8069	    15.985	   3.06644	 6.1191e+06	
         R10	   2801	     76.95	   15.9878	   3.06923	6.31031e+06	   76.9498	   15.9164	   2.99973	6.87617e+06	   76.8553	   15.9164	   2.99973	6.67033e+06	   76.8561	   15.9854	   3.06692	6.18861e+06	   76.9499	   15.9521	   3.03448	6.58431e+06	   76.9026	   15.9164	   2.99973	6.77313e+06	   76.8557	   15.9509	   3.03332	6.42246e+06	    76.903	   15.9866	   3.06808	6.24945e+06	
         R10	   2802	   77.0393	   15.9835	   3.06505	6.37378e+06	   77.0465	   15.9164	   2.99973	7.03131e+06	   76.9498	   15.9164	   2.99973	6.88604e+06	     76.95	   15.9878	   3.06923	6.27523e+06	   77.0429	     15.95	   3.03239	6.69205e+06	   76.9981	   15.9164	   2.99973	6.95863e+06	   76.9499	   15.9521	   3.03448	6.57301e+06	   76.9946	   15.9857	   3.06714	6.32436e+06	
         R10	   2803	   77.1435	   15.9995	   3.08058	6.50387e+06	   77.1454	   15.9164	   2.99973	6.98848e+06	   77.0465	   15.9164	   2.99973	6.97207e+06	   77.0393	   15.9835	   3.06505	6.47439e+06	   77.1444	   15.9579	   3.04015	6.73872e+06	   77.0959	   15.9164	   2.99973	6.97983e+06	   77.0429	     15.95	   3.03239	6.71165e+06	   77.0914	   15.9915	   3.07281	6.48875e+06	
         R10	   2804	   77.2435	   15.9837	   3.06518	6.42381e+06	   77.2466	   15.9164	   2.99973	 7.1383e+06	   77.1454	   15.9164	   2.99973	7.05523e+06	   77.1435	   15.9995	   3.08058	6.42953e+06	    77.245	     15.95	   3.03246	6.77322e+06	    77.196	   15.9164	   2.99973	 7.0965e+06	   77.1444	   15.9579	   3.04015	6.73706e+06	   77.1935	   15.9916	   3.07288	6.42624e+06	
         R10	   2805	   77.3512	   15.9919	   3.07316	6.52025e+06	     77.35	   15.9164	   2.99973	7.04153e+06	   77.2466	   15.9164	   2.99973	7.07889e+06	   77.2435	   15.9837	   3.06518	6.51122e+06	   77.3506	   15.9541	   3.03644	6.77226e+06	   77.2983	   15.9164	   2.99973	7.05952e+06	    77.245	     15.95	   3.03246	6.78512e+06	   77.2973	   15.9878	   3.06917	6.51516e+06	
         R10	   2806	   77.4387	   15.9944	    3.0756	6.49568e+06	   77.4514	   15.9164	   2.99973	7.01719e+06	     77.35	   15.9164	   2.99973	7.05481e+06	   77.3512	   15.9919	   3.07316	6.45251e+06	    77.445	   15.9554	   3.03766	 6.7487e+06	   77.4007	   15.9164	   2.99973	7.03541e+06	   77.3506	   15.9541	   3.03644	6.74614e+06	   77.3949	   15.9931	   3.07438	6.47362e+06	
         R10	   2807	     77.57	   16.0187	    3.0993	6.44581e+06	   77.5694	   15.9164	   2.99973	6.88088e+06	   77.4514	   15.9164	   2.99973	 6.9723e+06	   77.4387	   15.9944	    3.0756	6.56125e+06	   77.5697	   15.9676	   3.04951	6.65889e+06	   77.5104	   15.9164	   2.99973	6.92513e+06	    77.445	   15.9554	   3.03766	6.75667e+06	   77.5043	   16.0065	   3.08745	6.50293e+06	
         R10	   2808	   77.7132	   16.0212	   3.10175	6.35073e+06	   77.7039	   15.9164	   2.99973	6.84699e+06	   77.5694	   15.9164	   2.99973	6.91979e+06	     77.57	   16.0187	    3.0993	6.39232e+06	   77.7085	   15.9688	   3.05074	6.59398e+06	   77.6366	   15.9164	   2.99973	6.88223e+06	   77.5697	   15.9676	   3.04951	  6.651e+06	   77.6416	     16.02	   3.10052	6.37055e+06	
         R10	   2809	   77.8593	   16.0353	   3.11538	6.33688e+06	    77.855	   15.9164	   2.99973	6.71696e+06	   77.7039	   15.9164	   2.99973	6.81982e+06	   77.7132	   16.0212	   3.10175	6.37057e+06	   77.8572	   15.9758	   3.05755	6.52371e+06	   77.7794	   15.9164	   2.99973	6.76638e+06	   77.7085	   15.9688	   3.05074	6.58759e+06	   77.7863	   16.0282	   3.10856	6.35319e+06	
         R10	   2810	   78.0265	   16.0473	   3.12714	  6.218e+06	   78.0226	   15.9164	   2.99973	6.60698e+06	    77.855	   15.9164	   2.99973	6.72428e+06	   77.8593	   16.0353	   3.11538	6.23536e+06	   78.0246	   15.9819	   3.06343	6.41072e+06	   77.9388	   15.9164	   2.99973	6.66299e+06	   77.8572	   15.9758	   3.05755	6.47501e+06	   77.9429	   16.0413	   3.12126	6.22615e+06	
         R10	   2811	   78.2116	   16.0584	   3.13794	6.16095e+06	   78.2069	   15.9164	   2.99973	6.48855e+06	   78.0226	   15.9164	   2.99973	6.60094e+06	   78.0265	   16.0473	   3.12714	6.18106e+06	   78.2092	   15.9874	   3.06883	6.32394e+06	   78.1147	   15.9164	   2.99973	6.54155e+06	   78.0246	   15.9819	   3.06343	6.38538e+06	    78.119	   16.0529	   3.13254	6.17073e+06	
         R10	   2812	   78.4116	   16.0662	   3.14548	6.08839e+06	   78.4076	   15.9164	   2.99973	6.37988e+06	   78.2069	   15.9164	   2.99973	6.48824e+06	   78.2116	   16.0584	   3.13794	6.05514e+06	   78.4096	   15.9913	    3.0726	6.23401e+06	   78.3073	   15.9164	   2.99973	6.43006e+06	   78.2092	   15.9874	   3.06883	6.26683e+06	   78.3116	   16.0623	   3.14171	6.07165e+06	
         R10	   2813	    78.625	   16.0631	   3.14252	6.06983e+06	    78.625	   15.9164	   2.99973	6.25851e+06	   78.4076	   15.9164	   2.99973	6.37074e+06	   78.4116	   16.0662	   3.14548	5.93655e+06	    78.625	   15.9898	   3.07112	6.16324e+06	   78.5163	   15.9164	   2.99973	6.30869e+06	   78.4096	   15.9913	    3.0726	 6.1485e+06	   78.5183	   16.0647	     3.144	  6.003e+06	
         R10	   2814	    78.625	   16.2148	   3.29007	5.71436e+06	    78.625	   16.0631	   3.14252	6.05924e+06	   78.4116	   16.0662	   3.14548	5.95728e+06	   78.4053	   16.2172	   3.29245	6.05735e+06	    78.625	    16.139	   3.21629	5.87571e+06	   78.5183	   16.0647	     3.144	6.00821e+06	   78.4085	   16.1417	   3.21897	5.99627e+06	   78.5152	    16.216	   3.29126	5.88572e+06	
         R10	   2815	   78.3977	   16.3742	   3.44516	6.11504e+06	    78.625	   16.3713	   3.44238	7.04848e+06	    78.625	   16.2148	   3.29007	5.78873e+06	   78.4053	   16.2172	   3.29245	6.06845e+06	   78.5113	   16.3728	   3.44377	6.43051e+06	    78.625	   16.2931	   3.36622	6.35371e+06	   78.5152	    16.216	   3.29126	5.92696e+06	   78.4015	   16.2957	    3.3688	5.98002e+06	
         R10	   2816	   78.3725	   16.5328	   3.59945	7.94829e+06	    78.625	   16.5328	   3.59945	7.99606e+06	    78.625	   16.3713	   3.44238	6.93501e+06	   78.3977	   16.3742	   3.44516	6.10576e+06	   78.4987	   16.5328	   3.59945	7.96943e+06	    78.625	   16.4521	   3.52092	 7.2948e+06	   78.5113	   16.3728	   3.44377	6.39092e+06	   78.3851	   16.4535	    3.5223	6.92477e+06	
         R10	   2817	   78.1288	   16.5328	   3.59945	7.87494e+06	   78.3725	   16.5328	   3.59945	7.85832e+06	   78.3977	   16.3742	   3.44516	6.86116e+06	   78.1625	   16.3665	   3.43771	6.17188e+06	   78.2507	   16.5328	   3.59945	7.86439e+06	   78.3851	   16.4535	    3.5223	 7.2544e+06	   78.2801	   16.3704	   3.44143	6.46577e+06	   78.1457	   16.4497	   3.51858	6.92773e+06	
         R10	   2818	   77.9129	   16.3628	    3.4341	6.29542e+06	   77.8941	   16.5328	   3.59945	7.75364e+06	   78.1288	   16.5328	   3.59945	7.80333e+06	   78.1625	   16.3665	   3.43771	6.63929e+06	   77.9035	   16.4478	   3.51678	6.94426e+06	   78.0115	   16.5328	   3.59945	7.77735e+06	   78.1457	   16.4497	   3.51858	7.12587e+06	   78.0377	   16.3647	   3.43591	 6.4512e+06	
         R10	   2819	   77.6643	    16.387	   3.45762	6.57674e+06	   77.6683	   16.5328	   3.59945	7.63661e+06	   77.8941	   16.5328	   3.59945	7.71051e+06	   77.9129	   16.3628	    3.4341	6.59152e+06	   77.6663	   16.4599	   3.52853	7.04955e+06	   77.7812	   16.5328	   3.59945	7.67274e+06	   77.9035	   16.4478	   3.51678	7.05658e+06	   77.7886	   16.3749	   3.44586	6.57792e+06	
         R10	   2820	   77.4547	   16.3892	   3.45977	6.46585e+06	   77.4513	   16.5328	   3.59945	7.57588e+06	   77.6683	   16.5328	   3.59945	7.62806e+06	   77.6643	    16.387	   3.45762	 6.7119e+06	    77.453	    16.461	   3.52961	6.96557e+06	   77.5598	   16.5328	   3.59945	7.60127e+06	   77.6663	   16.4599	   3.52853	7.09459e+06	   77.5595	   16.3881	   3.45869	 6.5836e+06	
         R10	   2821	   77.2466	   16.3956	   3.46601	 6.4453e+06	   77.2433	   16.5328	   3.59945	7.36791e+06	   77.4513	   16.5328	   3.59945	7.55229e+06	   77.4547	   16.3892	   3.45977	6.69448e+06	   77.2449	   16.4642	   3.53273	6.86184e+06	   77.3473	   16.5328	   3.59945	 7.4594e+06	    77.453	    16.461	   3.52961	7.04816e+06	   77.3506	   16.3924	   3.46289	6.56691e+06	
         R10	   2822	   77.0472	   16.4011	   3.47137	6.34474e+06	   77.0441	   16.5328	   3.59945	7.08957e+06	   77.2433	   16.5328	   3.59945	7.35499e+06	   77.2466	   16.3956	   3.46601	6.65362e+06	   77.0456	   16.4669	   3.53541	6.68037e+06	   77.1437	   16.5328	   3.59945	7.22096e+06	   77.2449	   16.4642	   3.53273	6.94494e+06	   77.1469	   16.3984	   3.46869	6.49638e+06	
         R10	   2823	   76.8568	   16.4059	   3.47606	6.30238e+06	   76.8539	   16.5328	   3.59945	6.64195e+06	   77.0441	   16.5328	   3.59945	7.06989e+06	   77.0472	   16.4011	   3.47137	6.49305e+06	   76.8553	   16.4694	   3.53775	6.44793e+06	    76.949	   16.5328	   3.59945	6.85154e+06	   77.0456	   16.4669	   3.53541	 6.7332e+06	    76.952	   16.4035	   3.47371	6.39433e+06	
         R10	   2824	   76.6763	   16.4115	   3.48147	6.29597e+06	   76.6725	   16.5328	   3.59945	6.32223e+06	   76.8539	   16.5328	   3.59945	6.64575e+06	   76.8568	   16.4059	   3.47606	6.35844e+06	   76.6744	   16.4721	   3.54046	 6.2713e+06	   76.7632	   16.5328	   3.59945	6.48087e+06	   76.8553	   16.4694	   3.53775	6.47157e+06	   76.7665	   16.4087	   3.47876	6.31512e+06	
         R10	   2825	      76.5	   16.4164	   3.48621	5.58814e+06	      76.5	   16.5328	   3.59945	7.26102e+06	   76.6725	   16.5328	   3.59945	6.47799e+06	   76.6763	   16.4115	   3.48147	6.83335e+06	      76.5	   16.4746	   3.54283	5.88526e+06	   76.5862	   16.5328	   3.59945	6.84445e+06	   76.6744	   16.4721	   3.54046	6.61237e+06	   76.5882	   16.4139	   3.48384	6.00759e+06	
         R10	   2826	      76.5	   16.3094	   3.38216	6.43738e+06	      76.5	   16.4164	   3.48621	5.95893e+06	   76.6763	   16.4115	   3.48147	 6.2425e+06	   76.6715	    16.302	   3.37488	 6.2278e+06	      76.5	   16.3629	   3.43418	6.15187e+06	   76.5882	   16.4139	   3.48384	6.09486e+06	   76.6739	   16.3567	   3.42817	6.22895e+06	   76.5857	   16.3057	   3.37852	6.29614e+06	
         R10	   2827	   76.6499	   16.2119	   3.28724	6.21099e+06	      76.5	   16.2119	    3.2873	7.06675e+06	      76.5	   16.3094	   3.38216	6.64682e+06	   76.6715	    16.302	   3.37488	5.89566e+06	    76.575	   16.2119	   3.28727	6.61481e+06	      76.5	   16.2607	   3.33473	6.85484e+06	   76.5857	   16.3057	   3.37852	6.27083e+06	   76.6607	   16.2569	   3.33106	6.04202e+06	
         R10	   2828	   76.6286	   16.1273	   3.20497	6.36616e+06	      76.5	   16.1239	   3.20162	7.36864e+06	      76.5	   16.2119	    3.2873	 7.1166e+06	   76.6499	   16.2119	   3.28724	6.03987e+06	   76.5643	   16.1256	    3.2033	6.84432e+06	      76.5	   16.1679	   3.24446	7.24144e+06	    76.575	   16.2119	   3.28727	6.57154e+06	   76.6393	   16.1696	    3.2461	6.19803e+06	
         R10	   2829	   76.6181	    16.048	   3.12782	6.28309e+06	      76.5	   16.0453	   3.12513	7.63521e+06	      76.5	   16.1239	   3.20162	7.40576e+06	   76.6286	   16.1273	   3.20497	6.27507e+06	    76.559	   16.0467	   3.12648	6.91599e+06	      76.5	   16.0846	   3.16338	 7.5204e+06	   76.5643	   16.1256	    3.2033	6.83133e+06	   76.6234	   16.0877	   3.16639	6.26669e+06	
         R10	   2830	   76.5806	   15.9761	    3.0578	5.13666e+06	   76.5855	   15.9164	   2.99973	 6.5395e+06	      76.5	   15.9164	   2.99973	7.34751e+06	      76.5	   15.9761	   3.05784	1.24673e+07	   76.5831	   15.9462	   3.02876	5.32887e+06	   76.5427	   15.9164	   2.99973	6.71266e+06	      76.5	   15.9462	   3.02878	7.21414e+06	   76.5403	   15.9761	   3.05782	8.64157e+06	
         R10	   2831	   76.8532	   16.0665	   3.14573	6.12443e+06	   76.8561	   15.9854	   3.06692	6.48483e+06	   76.7578	   15.9845	   3.06595	6.37174e+06	   76.7481	   16.0563	   3.13583	5.99073e+06	   76.8546	   16.0259	   3.10633	6.29676e+06	   76.8069	    15.985	   3.06644	6.42821e+06	    76.753	   16.0204	   3.10089	6.16985e+06	   76.8006	   16.0614	   3.14078	6.05461e+06	
         R10	   2832	   76.9469	   16.0703	   3.14944	6.13612e+06	     76.95	   15.9878	   3.06923	6.54628e+06	   76.8561	   15.9854	   3.06692	6.49626e+06	   76.8532	   16.0665	   3.14573	 6.0584e+06	   76.9485	    16.029	   3.10933	6.33753e+06	    76.903	   15.9866	   3.06808	6.52094e+06	   76.8546	   16.0259	   3.10633	6.27093e+06	      76.9	   16.0684	   3.14759	6.09663e+06	
         R10	   2833	   77.0479	   16.0607	   3.14012	6.20463e+06	   77.0393	   15.9835	   3.06505	 6.6682e+06	     76.95	   15.9878	   3.06923	 6.5888e+06	   76.9469	   16.0703	   3.14944	6.14521e+06	   77.0436	   16.0221	   3.10259	6.43439e+06	   76.9946	   15.9857	   3.06714	6.62831e+06	   76.9485	    16.029	   3.10933	6.36395e+06	   76.9974	   16.0655	   3.14478	6.17466e+06	
         R10	   2834	    77.272	   16.0799	   3.15886	6.22807e+06	   77.2435	   15.9837	   3.06518	6.67618e+06	   77.1435	   15.9995	   3.08058	6.63335e+06	   77.1658	    16.059	   3.13845	6.41313e+06	   77.2577	   16.0318	   3.11202	 6.4508e+06	   77.1935	   15.9916	   3.07288	6.65469e+06	   77.1546	   16.0292	   3.10951	6.52239e+06	   77.2189	   16.0694	   3.14865	6.32037e+06	
         R10	   2835	   77.4292	   16.0811	   3.16002	6.22091e+06	   77.4387	   15.9944	    3.0756	6.68399e+06	   77.3512	   15.9919	   3.07316	6.64425e+06	    77.272	   16.0799	   3.15886	6.33168e+06	   77.4339	   16.0377	   3.11781	6.44865e+06	   77.3949	   15.9931	   3.07438	6.66366e+06	   77.3116	   16.0359	   3.11601	6.48593e+06	   77.3506	   16.0805	   3.15944	6.27567e+06	
         R10	   2836	   77.7091	   16.1248	   3.20247	6.11997e+06	   77.7132	   16.0212	   3.10175	6.50775e+06	     77.57	   16.0187	    3.0993	 6.5021e+06	   77.5839	   16.1238	   3.20154	6.26368e+06	   77.7111	    16.073	   3.15211	6.31207e+06	   77.6416	     16.02	   3.10052	6.50462e+06	   77.5769	   16.0713	   3.15042	6.37834e+06	   77.6465	   16.1243	   3.20201	6.19151e+06	
         R10	   2837	   77.8382	   16.1579	   3.23474	6.17326e+06	   77.8593	   16.0353	   3.11538	6.37643e+06	   77.7132	   16.0212	   3.10175	6.43235e+06	   77.7091	   16.1248	   3.20247	6.18785e+06	   77.8488	   16.0966	   3.17506	6.27372e+06	   77.7863	   16.0282	   3.10856	6.40336e+06	   77.7111	    16.073	   3.15211	6.30457e+06	   77.7737	   16.1413	   3.21861	6.18014e+06	
         R10	   2838	   78.0052	    16.192	    3.2679	6.00467e+06	   78.0265	   16.0473	   3.12714	6.25181e+06	   77.8593	   16.0353	   3.11538	6.28602e+06	   77.8382	   16.1579	   3.23474	6.13752e+06	   78.0159	   16.1197	   3.19752	6.12012e+06	   77.9429	   16.0413	   3.12126	6.26809e+06	   77.8488	   16.0966	   3.17506	6.20973e+06	   77.9217	    16.175	   3.25132	6.06943e+06	
         R10	   2839	   78.1868	   16.2113	   3.28666	6.01812e+06	   78.2116	   16.0584	   3.13794	6.19685e+06	   78.0265	   16.0473	   3.12714	6.21419e+06	   78.0052	    16.192	    3.2679	6.03135e+06	   78.1992	   16.1349	    3.2123	 6.0977e+06	    78.119	   16.0529	   3.13254	6.20538e+06	   78.0159	   16.1197	   3.19752	6.11474e+06	    78.096	   16.2017	   3.27728	6.02442e+06	
         R10	   2840	   78.4053	   16.2172	   3.29245	5.88237e+06	   78.4116	   16.0662	   3.14548	6.11288e+06	   78.2116	   16.0584	   3.13794	6.08575e+06	   78.1868	   16.2113	   3.28666	6.03335e+06	   78.4085	   16.1417	   3.21897	5.98357e+06	   78.3116	   16.0623	   3.14171	6.09922e+06	   78.1992	   16.1349	    3.2123	6.05086e+06	   78.2961	   16.2143	   3.28956	5.95706e+06	
         R10	   2841	   78.1625	   16.3665	   3.43771	6.16363e+06	   78.3977	   16.3742	   3.44516	6.84594e+06	   78.4053	   16.2172	   3.29245	5.93709e+06	   78.1868	   16.2113	   3.28666	6.05324e+06	   78.2801	   16.3704	   3.44143	 6.4469e+06	   78.4015	   16.2957	    3.3688	6.33462e+06	   78.2961	   16.2143	   3.28956	5.99451e+06	   78.1746	   16.2889	   3.36219	6.04372e+06	
         R10	   2842	   77.9129	   16.3628	    3.4341	6.13685e+06	   78.1625	   16.3665	   3.43771	6.68244e+06	   78.1868	   16.2113	   3.28666	6.05938e+06	   78.0052	    16.192	    3.2679	5.98072e+06	   78.0377	   16.3647	   3.43591	 6.3855e+06	   78.1746	   16.2889	   3.36219	6.31855e+06	    78.096	   16.2017	   3.27728	6.01709e+06	   77.9591	   16.2774	     3.351	6.00543e+06	
         R10	   2843	   77.4485	   16.2641	   3.33806	6.26413e+06	   77.4547	   16.3892	   3.45977	 6.3437e+06	   77.6643	    16.387	   3.45762	6.49427e+06	   77.6469	   16.2526	   3.32682	 6.3079e+06	   77.4516	   16.3267	   3.39891	6.25931e+06	   77.5595	   16.3881	   3.45869	6.41316e+06	   77.6556	   16.3198	   3.39222	6.37244e+06	   77.5477	   16.2583	   3.33244	6.28424e+06	
         R10	   2844	   77.2555	   16.2784	   3.35192	6.25813e+06	   77.2466	   16.3956	   3.46601	6.23934e+06	   77.4547	   16.3892	   3.45977	 6.5265e+06	   77.4485	   16.2641	   3.33806	6.29079e+06	   77.2511	    16.337	   3.40897	6.21553e+06	   77.3506	   16.3924	   3.46289	6.37942e+06	   77.4516	   16.3267	   3.39891	6.38308e+06	    77.352	   16.2712	   3.34499	6.27411e+06	
         R10	   2845	   77.0309	   16.2805	   3.35405	6.15963e+06	   77.0472	   16.4011	   3.47137	6.16458e+06	   77.2466	   16.3956	   3.46601	6.43919e+06	   77.2555	   16.2784	   3.35192	6.18418e+06	    77.039	   16.3408	   3.41271	6.13261e+06	   77.1469	   16.3984	   3.46869	6.29804e+06	   77.2511	    16.337	   3.40897	6.29071e+06	   77.1432	   16.2795	   3.35298	6.17157e+06	
         R10	   2846	   76.8482	   16.2901	   3.36329	6.00076e+06	   76.8568	   16.4059	   3.47606	6.00909e+06	   77.0472	   16.4011	   3.47137	6.29129e+06	   77.0309	   16.2805	   3.35405	6.11155e+06	   76.8525	    16.348	   3.41968	5.98717e+06	    76.952	   16.4035	   3.47371	6.14304e+06	    77.039	   16.3408	   3.41271	6.18319e+06	   76.9395	   16.2853	   3.35867	6.05421e+06	
         R10	   2847	   76.6715	    16.302	   3.37488	6.26996e+06	   76.6763	   16.4115	   3.48147	 5.8827e+06	   76.8568	   16.4059	   3.47606	6.01488e+06	   76.8482	   16.2901	   3.36329	5.99181e+06	   76.6739	   16.3567	   3.42817	 6.0682e+06	   76.7665	   16.4087	   3.47876	 5.9283e+06	   76.8525	    16.348	   3.41968	5.99115e+06	   76.7598	    16.296	   3.36909	6.12617e+06	
         R10	   2848	   76.6499	   16.2119	   3.28724	6.31323e+06	   76.6715	    16.302	   3.37488	5.87486e+06	   76.8482	   16.2901	   3.36329	5.82996e+06	   76.8266	   16.1845	   3.26056	5.95157e+06	   76.6607	   16.2569	   3.33106	6.08779e+06	   76.7598	    16.296	   3.36909	5.83774e+06	   76.8374	   16.2373	   3.31193	5.88258e+06	   76.7383	   16.1982	    3.2739	   6.12e+06	
         R10	   2849	   76.7329	   16.1186	    3.1965	6.06517e+06	   76.6286	   16.1273	   3.20497	6.36095e+06	   76.6499	   16.2119	   3.28724	6.04699e+06	   76.8266	   16.1845	   3.26056	5.85273e+06	   76.6808	    16.123	   3.20074	6.20107e+06	   76.6393	   16.1696	    3.2461	6.19976e+06	   76.7383	   16.1982	    3.2739	5.92992e+06	   76.7798	   16.1515	   3.22853	5.95809e+06	
         R10	   2850	   76.5806	   15.9761	    3.0578	5.36647e+06	      76.5	   15.9761	   3.05784	8.98841e+06	      76.5	   16.0453	   3.12513	7.80565e+06	   76.6181	    16.048	   3.12782	6.24697e+06	   76.5403	   15.9761	   3.05782	6.81659e+06	      76.5	   16.0107	   3.09148	8.36925e+06	    76.559	   16.0467	   3.12648	7.01479e+06	   76.5994	   16.0121	   3.09281	5.69916e+06	
         R10	   2851	   76.7481	   16.0563	   3.13583	6.03389e+06	   76.7578	   15.9845	   3.06595	6.28646e+06	   76.6767	   15.9793	   3.06093	6.20202e+06	   76.6181	    16.048	   3.12782	6.08729e+06	    76.753	   16.0204	   3.10089	6.14487e+06	   76.7173	   15.9819	   3.06344	6.23944e+06	   76.6474	   16.0137	   3.09437	 6.0906e+06	   76.6831	   16.0522	   3.13183	6.04317e+06	
         R10	   2852	   77.1658	    16.059	   3.13845	6.30073e+06	   77.1435	   15.9995	   3.08058	6.51537e+06	   77.0479	   16.0607	   3.14012	6.49546e+06	   77.0967	   16.1313	   3.20881	6.16478e+06	   77.1546	   16.0292	   3.10951	6.40742e+06	   77.0957	   16.0301	   3.11035	6.50439e+06	   77.0723	    16.096	   3.17447	6.33003e+06	   77.1312	   16.0951	   3.17363	6.23243e+06	
         R10	   2853	   77.4539	    16.164	   3.24061	6.19382e+06	   77.4292	   16.0811	   3.16002	6.37995e+06	    77.272	   16.0799	   3.15886	6.44922e+06	   77.2883	    16.161	   3.23769	 6.1121e+06	   77.4415	   16.1225	   3.20031	6.28062e+06	   77.3506	   16.0805	   3.15944	6.41422e+06	   77.2802	   16.1204	   3.19828	6.27779e+06	   77.3711	   16.1625	   3.23915	6.15222e+06	
         R10	   2854	   77.5839	   16.1238	   3.20154	6.15973e+06	     77.57	   16.0187	    3.0993	6.42383e+06	   77.4292	   16.0811	   3.16002	6.67887e+06	   77.4539	    16.164	   3.24061	5.97726e+06	   77.5769	   16.0713	   3.15042	6.28986e+06	   77.4996	   16.0499	   3.12966	6.55133e+06	   77.4415	   16.1225	   3.20031	6.32452e+06	   77.5189	   16.1439	   3.22108	6.06663e+06	
         R10	   2855	   76.9665	   16.1628	   3.23944	6.13866e+06	   76.8266	   16.1845	   3.26056	6.01073e+06	   76.8482	   16.2901	   3.36329	5.84775e+06	   77.0309	   16.2805	   3.35405	 5.9086e+06	   76.8965	   16.1736	      3.25	6.07302e+06	   76.8374	   16.2373	   3.31193	5.92029e+06	   76.9395	   16.2853	   3.35867	5.87427e+06	   76.9987	   16.2217	   3.29674	 6.0182e+06	
         R10	   2856	   76.7481	   16.0563	   3.13583	6.21429e+06	   76.6181	    16.048	   3.12782	6.26238e+06	   76.6286	   16.1273	   3.20497	6.18061e+06	   76.7329	   16.1186	    3.1965	5.90439e+06	   76.6831	   16.0522	   3.13183	6.22178e+06	   76.6234	   16.0877	   3.16639	 6.2017e+06	   76.6808	    16.123	   3.20074	 6.0287e+06	   76.7405	   16.0875	   3.16617	6.04613e+06	
         R10	   2857	   76.8532	   16.0665	   3.14573	6.18436e+06	   76.7481	   16.0563	   3.13583	6.04101e+06	   76.7329	   16.1186	    3.1965	6.23378e+06	   76.8266	   16.1845	   3.26056	5.76329e+06	   76.8006	   16.0614	   3.14078	6.10921e+06	   76.7405	   16.0875	   3.16617	6.11606e+06	   76.7798	   16.1515	   3.22853	5.99571e+06	   76.8399	   16.1255	   3.20315	5.96516e+06	
         R10	   2858	   76.9469	   16.0703	   3.14944	6.32816e+06	   76.8532	   16.0665	   3.14573	6.23468e+06	   76.8266	   16.1845	   3.26056	5.88949e+06	   76.9665	   16.1628	   3.23944	5.93101e+06	      76.9	   16.0684	   3.14759	6.28067e+06	   76.8399	   16.1255	   3.20315	6.04998e+06	   76.8965	   16.1736	      3.25	5.90698e+06	   76.9567	   16.1165	   3.19444	6.12336e+06	
         R10	   2859	   77.0967	   16.1313	   3.20881	6.20256e+06	   77.0479	   16.0607	   3.14012	6.32132e+06	   76.9469	   16.0703	   3.14944	6.35923e+06	   76.9665	   16.1628	   3.23944	5.87204e+06	   77.0723	    16.096	   3.17447	6.26116e+06	   76.9974	   16.0655	   3.14478	6.33991e+06	   76.9567	   16.1165	   3.19444	6.10994e+06	   77.0316	    16.147	   3.22412	6.03507e+06	
         R10	   2860	   77.1338	   16.1948	    3.2706	5.92946e+06	   77.0967	   16.1313	   3.20881	 6.2375e+06	   76.9665	   16.1628	   3.23944	6.21217e+06	   77.0309	   16.2805	   3.35405	5.98197e+06	   77.1153	    16.163	    3.2397	6.08146e+06	   77.0316	    16.147	   3.22412	6.22359e+06	   76.9987	   16.2217	   3.29674	6.08961e+06	   77.0824	   16.2377	   3.31232	5.94746e+06	
         R10	   2861	   77.2883	    16.161	   3.23769	6.03563e+06	    77.272	   16.0799	   3.15886	6.40681e+06	   77.0967	   16.1313	   3.20881	6.21298e+06	   77.1338	   16.1948	    3.2706	 6.1372e+06	   77.2802	   16.1204	   3.19828	6.21894e+06	   77.1844	   16.1056	   3.18383	6.30896e+06	   77.1153	    16.163	    3.2397	6.17314e+06	   77.2111	   16.1779	   3.25415	6.08509e+06	
         R10	   2862	   77.4539	    16.164	   3.24061	6.33644e+06	   77.2883	    16.161	   3.23769	6.23912e+06	   77.2555	   16.2784	   3.35192	6.08739e+06	   77.4485	   16.2641	   3.33806	 6.0849e+06	   77.3711	   16.1625	   3.23915	6.28712e+06	   77.2719	   16.2197	   3.29481	6.15347e+06	    77.352	   16.2712	   3.34499	6.08537e+06	   77.4512	    16.214	   3.28933	6.19576e+06	
         R10	   2863	   77.4539	    16.164	   3.24061	6.30541e+06	   77.4485	   16.2641	   3.33806	6.03644e+06	   77.6469	   16.2526	   3.32682	6.09621e+06	   77.5839	   16.1238	   3.20154	6.39102e+06	   77.4512	    16.214	   3.28933	6.15817e+06	   77.5477	   16.2583	   3.33244	6.06423e+06	   77.6154	   16.1882	   3.26418	6.23337e+06	   77.5189	   16.1439	   3.22108	6.34732e+06	
         R10	   2864	   77.9129	   16.3628	    3.4341	6.41043e+06	   78.0052	    16.192	    3.2679	6.00797e+06	   77.8382	   16.1579	   3.23474	6.14783e+06	   77.7987	   16.2549	   3.32912	6.48554e+06	   77.9591	   16.2774	     3.351	 6.1468e+06	   77.9217	    16.175	   3.25132	6.07536e+06	   77.8184	   16.2064	   3.28193	6.30657e+06	   77.8558	   16.3089	   3.38161	6.40009e+06	
         R10	   2865	   77.6469	   16.2526	   3.32682	6.34975e+06	   77.6643	    16.387	   3.45762	6.45373e+06	   77.9129	   16.3628	    3.4341	6.47678e+06	   77.7987	   16.2549	   3.32912	 5.9453e+06	   77.6556	   16.3198	   3.39222	 6.3511e+06	   77.7886	   16.3749	   3.44586	6.45724e+06	   77.8558	   16.3089	   3.38161	6.14307e+06	   77.7228	   16.2537	   3.32797	6.13487e+06	
         R10	   2866	   77.8382	   16.1579	   3.23474	6.15378e+06	   77.7091	   16.1248	   3.20247	6.14494e+06	   77.6469	   16.2526	   3.32682	6.17469e+06	   77.7987	   16.2549	   3.32912	5.93948e+06	   77.7737	   16.1413	   3.21861	6.14769e+06	    77.678	   16.1887	   3.26464	6.15359e+06	   77.7228	   16.2537	   3.32797	6.05236e+06	   77.8184	   16.2064	   3.28193	6.03324e+06	
         R10	   2867	   77.1435	   15.9995	   3.08058	6.60489e+06	   77.0393	   15.9835	   3.06505	6.63255e+06	   77.0479	   16.0607	   3.14012	6.25662e+06	   77.0914	   15.9915	   3.07281	6.61814e+06	   77.0436	   16.0221	   3.10259	6.44133e+06	   77.0957	   16.0301	   3.11035	6.42922e+06	       N/A	       N/A	       N/A	        N/A	       N/A	       N/A	       N/A	        N/A	
         R10	   2868	   77.3512	   15.9919	   3.07316	6.67418e+06	   77.2435	   15.9837	   3.06518	6.65172e+06	    77.272	   16.0799	   3.15886	 6.3749e+06	   77.2973	   15.9878	   3.06917	6.66272e+06	   77.2577	   16.0318	   3.11202	6.51035e+06	   77.3116	   16.0359	   3.11601	6.52283e+06	       N/A	       N/A	       N/A	        N/A	       N/A	       N/A	       N/A	        N/A	
         R10	   2869	     77.57	   16.0187	    3.0993	6.51867e+06	   77.4387	   15.9944	    3.0756	6.64069e+06	   77.4292	   16.0811	   3.16002	6.29123e+06	   77.5043	   16.0065	   3.08745	6.57894e+06	   77.4339	   16.0377	   3.11781	6.46221e+06	   77.4996	   16.0499	   3.12966	6.40368e+06	       N/A	       N/A	       N/A	        N/A	       N/A	       N/A	       N/A	        N/A	
         R10	   2870	   76.6767	   15.9793	   3.06093	6.29458e+06	   76.5806	   15.9761	    3.0578	6.18291e+06	   76.6181	    16.048	   3.12782	5.96773e+06	   76.6287	   15.9777	   3.05936	6.23061e+06	   76.5994	   16.0121	   3.09281	6.04426e+06	   76.6474	   16.0137	   3.09437	6.08408e+06	       N/A	       N/A	       N/A	        N/A	       N/A	       N/A	       N/A	        N/A	
         R10	   2871	    77.272	   16.0799	   3.15886	6.24902e+06	   77.1658	    16.059	   3.13845	6.40312e+06	   77.0967	   16.1313	   3.20881	6.29962e+06	   77.2189	   16.0694	   3.14865	6.32599e+06	   77.1312	   16.0951	   3.17363	6.35104e+06	   77.1844	   16.1056	   3.18383	6.27381e+06	       N/A	       N/A	       N/A	        N/A	       N/A	       N/A	       N/A	        N/A	
         R10	   2872	   77.1338	   16.1948	    3.2706	6.20815e+06	   77.0309	   16.2805	   3.35405	6.02561e+06	   77.2555	   16.2784	   3.35192	5.98414e+06	   77.0824	   16.2377	   3.31232	6.10786e+06	   77.1432	   16.2795	   3.35298	6.00454e+06	   77.1947	   16.2366	   3.31126	6.09029e+06	       N/A	       N/A	       N/A	        N/A	       N/A	       N/A	       N/A	        N/A	
         R10	   2873	   77.2883	    16.161	   3.23769	 6.2488e+06	   77.1338	   16.1948	    3.2706	6.25891e+06	   77.2555	   16.2784	   3.35192	5.97187e+06	   77.2111	   16.1779	   3.25415	6.25289e+06	   77.1947	   16.2366	   3.31126	6.11018e+06	   77.2719	   16.2197	   3.29481	6.09991e+06	       N/A	       N/A	       N/A	        N/A	       N/A	       N/A	       N/A	        N/A	
         R10	   2874	   77.6469	   16.2526	   3.32682	6.13283e+06	   77.7091	   16.1248	   3.20247	  6.262e+06	   77.5839	   16.1238	   3.20154	6.34574e+06	    77.678	   16.1887	   3.26464	6.18985e+06	   77.6465	   16.1243	   3.20201	6.30304e+06	   77.6154	   16.1882	   3.26418	 6.2342e+06	       N/A	       N/A	       N/A	        N/A	       N/A	       N/A	       N/A	        N/A	
         R10	   2875	   76.8559	   16.6483	    3.7119	 6.1054e+06	   76.8539	   16.5328	   3.59945	6.61803e+06	   76.6725	   16.5328	   3.59945	6.27652e+06	   76.6909	   16.6677	   3.73078	5.95966e+06	   76.8549	   16.5906	   3.65568	 6.3557e+06	   76.7632	   16.5328	   3.59945	6.39959e+06	   76.6817	   16.6003	   3.66512	6.06303e+06	   76.7734	    16.658	   3.72134	6.02547e+06	
         R10	   2876	   77.0586	   16.6498	   3.71331	 5.9844e+06	   77.0441	   16.5328	   3.59945	6.85306e+06	   76.8539	   16.5328	   3.59945	6.62217e+06	   76.8559	   16.6483	    3.7119	5.99985e+06	   77.0514	   16.5913	   3.65638	6.41271e+06	    76.949	   16.5328	   3.59945	6.73195e+06	   76.8549	   16.5906	   3.65568	6.30376e+06	   76.9573	   16.6491	   3.71261	5.98583e+06	
         R10	   2877	   77.2381	   16.6857	   3.74825	6.15026e+06	   77.2433	   16.5328	   3.59945	 6.7575e+06	   77.0441	   16.5328	   3.59945	6.77985e+06	   77.0586	   16.6498	   3.71331	5.96303e+06	   77.2407	   16.6092	   3.67385	6.44519e+06	   77.1437	   16.5328	   3.59945	6.76703e+06	   77.0514	   16.5913	   3.65638	6.35754e+06	   77.1483	   16.6677	   3.73078	6.05616e+06	
         R10	   2878	   77.4432	   16.7241	   3.78558	6.04434e+06	   77.4513	   16.5328	   3.59945	6.68953e+06	   77.2433	   16.5328	   3.59945	6.74807e+06	   77.2381	   16.6857	   3.74825	5.84624e+06	   77.4473	   16.6284	   3.69251	6.35776e+06	   77.3473	   16.5328	   3.59945	6.71635e+06	   77.2407	   16.6092	   3.67385	6.28534e+06	   77.3406	   16.7049	   3.76692	5.94499e+06	
         R10	   2879	   77.6176	   16.7144	   3.77616	5.81658e+06	   77.6683	   16.5328	   3.59945	6.56155e+06	   77.4513	   16.5328	   3.59945	 6.7233e+06	   77.4432	   16.7241	   3.78558	5.65291e+06	   77.6429	   16.6236	    3.6878	6.18879e+06	   77.5598	   16.5328	   3.59945	6.63965e+06	   77.4473	   16.6284	   3.69251	6.17596e+06	   77.5304	   16.7192	   3.78087	5.72989e+06	
         R10	   2880	   77.8907	   16.7106	   3.77245	5.59588e+06	   77.8941	   16.5328	   3.59945	6.49333e+06	   77.6683	   16.5328	   3.59945	6.57221e+06	   77.6176	   16.7144	   3.77616	6.03108e+06	   77.8924	   16.6217	   3.68595	6.04295e+06	   77.7812	   16.5328	   3.59945	6.53036e+06	   77.6429	   16.6236	    3.6878	6.28463e+06	   77.7542	   16.7125	    3.7743	5.80704e+06	
         R10	   2881	   78.0936	   16.7274	   3.78882	 5.9615e+06	   78.1288	   16.5328	   3.59945	6.25219e+06	   77.8941	   16.5328	   3.59945	6.44681e+06	   77.8907	   16.7106	   3.77245	5.60708e+06	   78.1112	   16.6301	   3.69413	6.10409e+06	   78.0115	   16.5328	   3.59945	6.34509e+06	   77.8924	   16.6217	   3.68595	6.00123e+06	   77.9922	    16.719	   3.78063	5.76635e+06	
         R10	   2882	   78.3701	    16.723	   3.78454	  5.978e+06	   78.3725	   16.5328	   3.59945	6.13473e+06	   78.1288	   16.5328	   3.59945	6.25332e+06	   78.0936	   16.7274	   3.78882	  5.502e+06	   78.3713	   16.6279	     3.692	6.05538e+06	   78.2507	   16.5328	   3.59945	6.19112e+06	   78.1112	   16.6301	   3.69413	 5.8604e+06	   78.2319	   16.7252	   3.78668	5.72803e+06	
         R10	   2883	    78.625	   16.7091	   3.77097	 6.1663e+06	    78.625	   16.5328	   3.59945	6.05351e+06	   78.3725	   16.5328	   3.59945	6.08633e+06	   78.3701	    16.723	   3.78454	5.24319e+06	    78.625	   16.6209	   3.68521	 6.0976e+06	   78.4987	   16.5328	   3.59945	6.06524e+06	   78.3713	   16.6279	     3.692	5.62707e+06	   78.4976	    16.716	   3.77776	5.65587e+06	
         R10	   2884	    78.625	   16.9145	   3.97088	5.78722e+06	    78.625	   16.7091	   3.77097	6.29986e+06	   78.3701	    16.723	   3.78454	 5.1441e+06	   78.3309	   16.9376	   3.99335	5.85975e+06	    78.625	   16.8118	   3.87093	6.02329e+06	   78.4976	    16.716	   3.77776	5.70167e+06	   78.3505	   16.8303	   3.88895	 5.4842e+06	   78.4779	   16.9261	   3.98212	5.79528e+06	
         R10	   2885	   78.2783	   17.1492	   4.19918	7.89638e+06	    78.625	   17.1492	   4.19918	7.78705e+06	    78.625	   16.9145	   3.97088	6.02721e+06	   78.3309	   16.9376	   3.99335	5.88861e+06	   78.4517	   17.1492	   4.19918	7.84021e+06	    78.625	   17.0318	   4.08503	6.83127e+06	   78.4779	   16.9261	   3.98212	5.93509e+06	   78.3046	   17.0434	   4.09626	6.80422e+06	
         R10	   2886	    77.946	   17.1492	   4.19918	7.73602e+06	   78.2783	   17.1492	   4.19918	7.86502e+06	   78.3309	   16.9376	   3.99335	6.14428e+06	   78.0143	   16.9349	   3.99068	5.81818e+06	   78.1122	   17.1492	   4.19918	7.79772e+06	   78.3046	   17.0434	   4.09626	6.92367e+06	   78.1726	   16.9362	   3.99202	5.97351e+06	   77.9801	    17.042	   4.09493	6.69796e+06	
         R10	   2887	   77.6991	   16.9204	   3.97656	5.81644e+06	   77.6281	   17.1492	   4.19918	7.52795e+06	    77.946	   17.1492	   4.19918	7.69187e+06	   78.0143	   16.9349	   3.99068	6.14621e+06	   77.6636	   17.0348	   4.08787	6.59168e+06	    77.787	   17.1492	   4.19918	7.60655e+06	   77.9801	    17.042	   4.09493	6.84195e+06	   77.8567	   16.9276	   3.98362	5.97912e+06	
         R10	   2888	   77.3448	   16.9232	   3.97934	6.11145e+06	   77.3245	   17.1492	   4.19918	7.28426e+06	   77.6281	   17.1492	   4.19918	7.48354e+06	   77.6991	   16.9204	   3.97656	 5.9452e+06	   77.3347	   17.0362	   4.08926	6.62077e+06	   77.4763	   17.1492	   4.19918	7.37888e+06	   77.6636	   17.0348	   4.08787	6.63535e+06	    77.522	   16.9218	   3.97795	6.02614e+06	
         R10	   2889	   77.0267	   16.9756	   4.03034	6.39469e+06	   77.0353	   17.1492	   4.19918	7.04932e+06	   77.3245	   17.1492	   4.19918	7.27248e+06	   77.3448	   16.9232	   3.97934	5.98127e+06	    77.031	   17.0624	   4.11476	6.66467e+06	   77.1799	   17.1492	   4.19918	7.15455e+06	   77.3347	   17.0362	   4.08926	6.55192e+06	   77.1858	   16.9494	   4.00484	6.18699e+06	
         R10	   2890	   76.7624	   16.9733	   4.02804	6.59201e+06	   76.7605	   17.1492	   4.19918	6.96534e+06	   77.0353	   17.1492	   4.19918	7.06923e+06	   77.0267	   16.9756	   4.03034	6.24359e+06	   76.7614	   17.0612	   4.11361	6.70697e+06	   76.8979	   17.1492	   4.19918	6.99881e+06	    77.031	   17.0624	   4.11476	 6.5973e+06	   76.8946	   16.9744	   4.02919	6.39691e+06	
         R10	   2891	      76.5	    16.966	   4.02101	7.25234e+06	      76.5	   17.1492	   4.19918	8.94254e+06	   76.7605	   17.1492	   4.19918	7.11487e+06	   76.7624	   16.9733	   4.02804	6.90063e+06	      76.5	   17.0576	   4.11009	7.45597e+06	   76.6302	   17.1492	   4.19918	 7.9593e+06	   76.7614	   17.0612	   4.11361	6.93035e+06	   76.6312	   16.9696	   4.02452	6.81369e+06	
         R10	   2892	      76.5	   16.8023	   3.86166	7.89156e+06	      76.5	    16.966	   4.02101	 7.6275e+06	   76.7624	   16.9733	   4.02804	6.29647e+06	   76.7318	   16.8161	    3.8751	6.34926e+06	      76.5	   16.8841	   3.94133	7.53143e+06	   76.6312	   16.9696	   4.02452	6.94865e+06	   76.7471	   16.8947	   3.95157	6.31408e+06	   76.6159	   16.8092	   3.86838	6.93082e+06	
         R10	   2893	   76.6909	   16.6677	   3.73078	5.77402e+06	   76.6725	   16.5328	   3.59945	6.60571e+06	      76.5	   16.5328	   3.59945	5.89894e+06	      76.5	   16.6578	   3.72114	8.79754e+06	   76.6817	   16.6003	   3.66512	6.15102e+06	   76.5862	   16.5328	   3.59945	6.07494e+06	      76.5	   16.5953	    3.6603	6.86616e+06	   76.5954	   16.6628	   3.72596	7.21995e+06	
         R10	   2894	   78.0143	   16.9349	   3.99068	5.79456e+06	   78.3309	   16.9376	   3.99335	6.10177e+06	   78.3701	    16.723	   3.78454	6.01343e+06	   78.0936	   16.7274	   3.78882	5.46767e+06	   78.1726	   16.9362	   3.99202	5.94227e+06	   78.3505	   16.8303	   3.88895	6.02865e+06	   78.2319	   16.7252	   3.78668	5.72941e+06	    78.054	   16.8311	   3.88975	 5.6104e+06	
         R10	   2895	   77.6991	   16.9204	   3.97656	5.77911e+06	   78.0143	   16.9349	   3.99068	6.17858e+06	   78.0936	   16.7274	   3.78882	6.07939e+06	   77.8907	   16.7106	   3.77245	5.47222e+06	   77.8567	   16.9276	   3.98362	5.97523e+06	    78.054	   16.8311	   3.88975	6.11045e+06	   77.9922	    16.719	   3.78063	5.75595e+06	   77.7949	   16.8155	    3.8745	5.59686e+06	
         R10	   2896	   76.9819	   16.8081	   3.86734	 5.9744e+06	   76.7318	   16.8161	    3.8751	6.83169e+06	   76.7624	   16.9733	   4.02804	 6.0393e+06	   77.0267	   16.9756	   4.03034	5.94387e+06	   76.8569	   16.8121	   3.87122	6.40281e+06	   76.7471	   16.8947	   3.95157	6.42581e+06	   76.8946	   16.9744	   4.02919	5.95529e+06	   77.0043	   16.8919	   3.94884	5.92018e+06	
         R10	   2897	   76.6909	   16.6677	   3.73078	6.13509e+06	      76.5	   16.6578	   3.72114	7.78543e+06	      76.5	   16.8023	   3.86166	8.20801e+06	   76.7318	   16.8161	    3.8751	5.75967e+06	   76.5954	   16.6628	   3.72596	6.70676e+06	      76.5	   16.7301	    3.7914	7.85934e+06	   76.6159	   16.8092	   3.86838	6.98285e+06	   76.7114	   16.7419	   3.80294	5.90542e+06	
         R10	   2898	   76.8559	   16.6483	    3.7119	6.42915e+06	   76.6909	   16.6677	   3.73078	6.53459e+06	   76.7318	   16.8161	    3.8751	 6.0944e+06	   76.9819	   16.8081	   3.86734	5.87246e+06	   76.7734	    16.658	   3.72134	6.48013e+06	   76.7114	   16.7419	   3.80294	6.31025e+06	   76.8569	   16.8121	   3.87122	5.95552e+06	   76.9189	   16.7282	   3.78962	6.13916e+06	
         R10	   2899	   77.6991	   16.9204	   3.97656	6.01568e+06	   77.6176	   16.7144	   3.77616	5.77373e+06	   77.4432	   16.7241	   3.78558	5.82683e+06	   77.3448	   16.9232	   3.97934	5.94754e+06	   77.6583	   16.8174	   3.87636	5.83303e+06	   77.5304	   16.7192	   3.78087	5.79407e+06	    77.394	   16.8236	   3.88246	5.87626e+06	    77.522	   16.9218	   3.97795	 5.9755e+06	
         R10	   2900	   77.3448	   16.9232	   3.97934	5.67081e+06	   77.4432	   16.7241	   3.78558	6.11917e+06	   77.2381	   16.6857	   3.74825	5.86441e+06	   77.1912	   16.7988	    3.8583	6.41302e+06	    77.394	   16.8236	   3.88246	5.87434e+06	   77.3406	   16.7049	   3.76692	5.99123e+06	   77.2146	   16.7423	   3.80328	6.12845e+06	    77.268	    16.861	   3.91882	 6.0104e+06	
         R10	   2901	   76.9819	   16.8081	   3.86734	6.15784e+06	   77.0267	   16.9756	   4.03034	6.06239e+06	   77.3448	   16.9232	   3.97934	5.71156e+06	   77.1912	   16.7988	    3.8583	5.98562e+06	   77.0043	   16.8919	   3.94884	6.06054e+06	   77.1858	   16.9494	   4.00484	5.88698e+06	    77.268	    16.861	   3.91882	5.81529e+06	   77.0865	   16.8035	   3.86282	6.06727e+06	
         R10	   2902	   77.2381	   16.6857	   3.74825	6.37127e+06	   77.0586	   16.6498	   3.71331	6.17037e+06	   76.9819	   16.8081	   3.86734	5.95718e+06	   77.1912	   16.7988	    3.8583	5.42798e+06	   77.1483	   16.6677	   3.73078	6.26758e+06	   77.0202	   16.7289	   3.79033	6.05653e+06	   77.0865	   16.8035	   3.86282	5.69019e+06	   77.2146	   16.7423	   3.80328	5.89294e+06	
         R10	   2903	   77.0586	   16.6498	   3.71331	 6.3947e+06	   76.8559	   16.6483	    3.7119	6.29881e+06	   76.9819	   16.8081	   3.86734	6.05899e+06	   76.9573	   16.6491	   3.71261	6.34288e+06	   76.9189	   16.7282	   3.78962	6.17077e+06	   77.0202	   16.7289	   3.79033	6.21676e+06	       N/A	       N/A	       N/A	        N/A	       N/A	       N/A	       N/A	        N/A	
         R10	   2904	   77.6991	   16.9204	   3.97656	5.98872e+06	   77.8907	   16.7106	   3.77245	 5.7489e+06	   77.6176	   16.7144	   3.77616	6.00659e+06	   77.7949	   16.8155	    3.8745	5.85362e+06	   77.7542	   16.7125	    3.7743	 5.8671e+06	   77.6583	   16.8174	   3.87636	5.95629e+06	       N/A	       N/A	       N/A	        N/A	       N/A	       N/A	       N/A	        N/A	
         R10	   2905	   74.8583	   15.4683	   2.56373	7.72246e+06	   74.9081	      15.3	       2.4	8.30165e+06	   74.6584	      15.3	       2.4	7.96112e+06	    74.623	   15.4925	   2.58728	  7.406e+06	   74.8832	   15.3841	   2.48186	7.99754e+06	   74.7833	      15.3	       2.4	 8.1181e+06	   74.6407	   15.3962	   2.49364	7.66471e+06	   74.7407	   15.4804	    2.5755	7.56133e+06	
         R10	   2906	   75.0756	   15.4404	   2.53657	7.94111e+06	    75.124	      15.3	       2.4	8.48403e+06	   74.9081	      15.3	       2.4	8.26913e+06	   74.8583	   15.4683	   2.56373	7.72019e+06	   75.0998	   15.3702	   2.46828	 8.2021e+06	    75.016	      15.3	       2.4	  8.368e+06	   74.8832	   15.3841	   2.48186	7.97829e+06	    74.967	   15.4543	   2.55015	7.82746e+06	
         R10	   2907	   75.2552	   15.4148	   2.51171	8.25244e+06	   75.3061	      15.3	       2.4	8.60435e+06	    75.124	      15.3	       2.4	8.50778e+06	   75.0756	   15.4404	   2.53657	7.91145e+06	   75.2807	   15.3574	   2.45586	8.41636e+06	   75.2151	      15.3	       2.4	8.55403e+06	   75.0998	   15.3702	   2.46828	8.19976e+06	   75.1654	   15.4276	   2.52414	8.07598e+06	
         R10	   2908	   75.4146	   15.3927	   2.49017	 8.4565e+06	   75.4545	      15.3	       2.4	8.73609e+06	   75.3061	      15.3	       2.4	 8.6219e+06	   75.2552	   15.4148	   2.51171	8.21047e+06	   75.4346	   15.3463	   2.44509	8.58848e+06	   75.3803	      15.3	       2.4	8.67743e+06	   75.2807	   15.3574	   2.45586	8.40492e+06	   75.3349	   15.4037	   2.50094	8.33141e+06	
         R10	   2909	   75.5418	   15.3899	   2.48748	8.53648e+06	   75.5691	      15.3	       2.4	8.81961e+06	   75.4545	      15.3	       2.4	 8.7783e+06	   75.4146	   15.3927	   2.49017	8.39868e+06	   75.5555	    15.345	   2.44374	8.67006e+06	   75.5118	      15.3	       2.4	 8.7973e+06	   75.4346	   15.3463	   2.44509	8.58244e+06	   75.4782	   15.3913	   2.48883	8.46679e+06	
         R10	   2910	     75.65	   15.3588	   2.45717	8.70211e+06	     75.65	      15.3	       2.4	8.94836e+06	   75.5691	      15.3	       2.4	8.87234e+06	   75.5418	   15.3899	   2.48748	8.49214e+06	     75.65	   15.3294	   2.42859	8.82233e+06	   75.6096	      15.3	       2.4	8.91001e+06	   75.5555	    15.345	   2.44374	8.67506e+06	   75.5959	   15.3743	   2.47233	8.59444e+06	
         R10	   2911	   75.5387	   15.5494	   2.64263	 8.1407e+06	     75.65	   15.5496	   2.64289	8.20517e+06	     75.65	   15.4836	   2.57862	8.35957e+06	   75.5369	   15.4718	   2.56717	8.29334e+06	   75.5943	   15.5495	   2.64276	8.17229e+06	     75.65	   15.5166	   2.61075	8.28226e+06	   75.5935	   15.4777	    2.5729	 8.3254e+06	   75.5378	   15.5106	    2.6049	8.21669e+06	
         R10	   2912	   75.5367	   15.6204	   2.71179	8.01676e+06	     75.65	   15.6181	   2.70953	8.12059e+06	     75.65	   15.5496	   2.64289	 8.2274e+06	   75.5387	   15.5494	   2.64263	 8.1623e+06	   75.5934	   15.6193	   2.71066	8.06772e+06	     75.65	   15.5839	   2.67621	8.17393e+06	   75.5943	   15.5495	   2.64276	8.19421e+06	   75.5377	   15.5849	   2.67721	 8.0894e+06	
         R10	   2913	   75.5345	   15.6925	   2.78185	7.98261e+06	     75.65	    15.689	   2.77853	8.01303e+06	     75.65	   15.6181	   2.70953	8.16416e+06	   75.5367	   15.6204	   2.71179	8.05091e+06	   75.5923	   15.6907	   2.78019	7.99745e+06	     75.65	   15.6536	   2.74403	8.08739e+06	   75.5934	   15.6193	   2.71066	8.10651e+06	   75.5356	   15.6565	   2.74682	8.01582e+06	
         R10	   2914	   75.5322	   15.7651	   2.85251	7.96369e+06	     75.65	   15.7624	   2.84989	7.98376e+06	     75.65	    15.689	   2.77853	8.09038e+06	   75.5345	   15.6925	   2.78185	8.04529e+06	   75.5911	   15.7637	    2.8512	7.97342e+06	     75.65	   15.7257	   2.81421	8.03363e+06	   75.5923	   15.6907	   2.78019	8.06739e+06	   75.5334	   15.7288	   2.81718	8.00091e+06	
         R10	   2915	   75.5317	   15.8397	   2.92508	8.02151e+06	     75.65	   15.8382	   2.92363	8.03849e+06	     75.65	   15.7624	   2.84989	8.12767e+06	   75.5322	   15.7651	   2.85251	8.09201e+06	   75.5909	   15.8389	   2.92435	8.02967e+06	     75.65	   15.8003	   2.88676	8.07477e+06	   75.5911	   15.7637	    2.8512	8.10949e+06	    75.532	   15.8024	    2.8888	8.04883e+06	
         R10	   2916	   75.5497	   15.9164	   2.99973	 8.1969e+06	     75.65	   15.9164	   2.99973	8.19882e+06	     75.65	   15.8382	   2.92363	8.30071e+06	   75.5317	   15.8397	   2.92508	8.26779e+06	   75.5999	   15.9164	   2.99973	8.19773e+06	     75.65	   15.8773	   2.96168	  8.232e+06	   75.5909	   15.8389	   2.92435	8.28387e+06	   75.5407	    15.878	    2.9624	8.21604e+06	
         R10	   2917	   75.4222	   15.9164	   2.99973	8.17859e+06	   75.5497	   15.9164	   2.99973	8.19712e+06	   75.5317	   15.8397	   2.92508	8.27665e+06	   75.4039	   15.8404	   2.92583	8.20052e+06	    75.486	   15.9164	   2.99973	8.18762e+06	   75.5407	    15.878	    2.9624	8.22037e+06	   75.4678	   15.8401	   2.92546	8.23809e+06	    75.413	   15.8784	   2.96278	8.17323e+06	
         R10	   2918	    75.253	   15.8272	   2.91294	8.19894e+06	   75.2673	   15.9164	   2.99973	8.08142e+06	   75.4222	   15.9164	   2.99973	8.18333e+06	   75.4039	   15.8404	   2.92583	8.22784e+06	   75.2602	   15.8718	   2.95633	8.12625e+06	   75.3448	   15.9164	   2.99973	8.13172e+06	    75.413	   15.8784	   2.96278	8.18914e+06	   75.3284	   15.8338	   2.91939	8.21223e+06	
         R10	   2919	   75.0838	   15.7613	   2.84885	7.86717e+06	   75.0852	   15.9164	   2.99973	 8.0924e+06	   75.2673	   15.9164	   2.99973	8.04605e+06	    75.253	   15.8272	   2.91294	8.19384e+06	   75.0845	   15.8389	   2.92429	7.94196e+06	   75.1763	   15.9164	   2.99973	8.06899e+06	   75.2602	   15.8718	   2.95633	8.10391e+06	   75.1684	   15.7943	    2.8809	  8.024e+06	
         R10	   2920	   74.8855	   15.7754	   2.86255	7.70453e+06	   74.8758	   15.9164	   2.99973	7.97425e+06	   75.0852	   15.9164	   2.99973	8.10038e+06	   75.0838	   15.7613	   2.84885	7.81438e+06	   74.8806	   15.8459	   2.93114	7.81199e+06	   74.9805	   15.9164	   2.99973	8.03585e+06	   75.0845	   15.8389	   2.92429	7.92227e+06	   74.9846	   15.7684	    2.8557	7.75727e+06	
         R10	   2921	    74.634	   15.7019	   2.79105	7.50451e+06	    74.639	   15.9164	   2.99973	7.80931e+06	   74.8758	   15.9164	   2.99973	7.95157e+06	   74.8855	   15.7754	   2.86255	7.72136e+06	   74.6365	   15.8091	   2.89539	7.61429e+06	   74.7574	   15.9164	   2.99973	7.87906e+06	   74.8806	   15.8459	   2.93114	7.80771e+06	   74.7598	   15.7387	    2.8268	7.60509e+06	
         R10	   2922	    74.375	   15.7109	   2.79982	7.46464e+06	    74.375	   15.9164	   2.99973	7.59044e+06	    74.639	   15.9164	   2.99973	7.83356e+06	    74.634	   15.7019	   2.79105	 7.4676e+06	    74.375	   15.8137	   2.89977	7.49616e+06	    74.507	   15.9164	   2.99973	7.70768e+06	   74.6365	   15.8091	   2.89539	7.61009e+06	   74.5045	   15.7064	   2.79543	 7.4566e+06	
         R10	   2923	    74.623	   15.4925	   2.58728	7.55137e+06	   74.6584	      15.3	       2.4	7.96399e+06	    74.375	      15.3	       2.4	7.75127e+06	    74.375	   15.5055	   2.59991	7.20843e+06	   74.6407	   15.3962	   2.49364	7.74235e+06	   74.5167	      15.3	       2.4	7.84099e+06	    74.375	   15.4027	   2.49995	7.47699e+06	    74.499	    15.499	    2.5936	7.36784e+06	
         R10	   2924	   75.0894	   15.5921	   2.68418	7.77299e+06	   75.0756	   15.4404	   2.53657	8.00035e+06	   74.8583	   15.4683	   2.56373	7.72249e+06	   74.8842	   15.6049	   2.69665	7.48362e+06	   75.0825	   15.5162	   2.61037	7.88556e+06	    74.967	   15.4543	   2.55015	7.85604e+06	   74.8713	   15.5366	   2.63019	 7.6015e+06	   74.9868	   15.5985	   2.69041	7.62242e+06	
         R10	   2925	   75.2652	   15.5033	   2.59777	8.09786e+06	   75.2552	   15.4148	   2.51171	8.20783e+06	   75.0756	   15.4404	   2.53657	 7.9228e+06	   75.0894	   15.5921	   2.68418	7.66286e+06	   75.2602	    15.459	   2.55474	8.15129e+06	   75.1654	   15.4276	   2.52414	8.06332e+06	   75.0825	   15.5162	   2.61037	7.79188e+06	   75.1773	   15.5477	   2.64097	 7.8789e+06	
         R10	   2926	   75.5369	   15.4718	   2.56717	 8.2776e+06	     75.65	   15.4836	   2.57862	8.36946e+06	     75.65	     15.42	   2.51671	8.52282e+06	   75.5418	   15.3899	   2.48748	 8.4809e+06	   75.5935	   15.4777	    2.5729	8.32233e+06	     75.65	   15.4518	   2.54767	8.44504e+06	   75.5959	   15.4049	    2.5021	8.50137e+06	   75.5394	   15.4309	   2.52733	8.37701e+06	
         R10	   2927	   75.4173	   15.4731	   2.56838	  8.192e+06	   75.5369	   15.4718	   2.56717	8.29601e+06	   75.5418	   15.3899	   2.48748	8.55533e+06	   75.4146	   15.3927	   2.49017	8.35103e+06	   75.4771	   15.4724	   2.56778	8.24304e+06	   75.5394	   15.4309	   2.52733	8.42362e+06	   75.4782	   15.3913	   2.48883	8.45168e+06	   75.4159	   15.4329	   2.52928	8.26941e+06	
         R10	   2928	   75.4268	   15.5533	   2.64642	8.08772e+06	   75.5387	   15.5494	   2.64263	8.12831e+06	   75.5369	   15.4718	   2.56717	 8.3099e+06	   75.4173	   15.4731	   2.56838	8.17891e+06	   75.4828	   15.5513	   2.64452	8.10757e+06	   75.5378	   15.5106	    2.6049	8.21885e+06	   75.4771	   15.4724	   2.56778	8.24313e+06	    75.422	   15.5132	    2.6074	8.13287e+06	
         R10	   2929	   75.4147	   15.6255	   2.71673	 7.9074e+06	   75.5367	   15.6204	   2.71179	8.08486e+06	   75.5387	   15.5494	   2.64263	8.15935e+06	   75.4268	   15.5533	   2.64642	8.09235e+06	   75.4757	    15.623	   2.71426	7.99468e+06	   75.5377	   15.5849	   2.67721	  8.122e+06	   75.4828	   15.5513	   2.64452	8.12522e+06	   75.4208	   15.5894	   2.68157	7.99972e+06	
         R10	   2930	   75.4097	   15.6919	    2.7813	 7.8912e+06	   75.5345	   15.6925	   2.78185	7.96449e+06	   75.5367	   15.6204	   2.71179	8.11461e+06	   75.4147	   15.6255	   2.71673	7.94846e+06	   75.4721	   15.6922	   2.78158	 7.9275e+06	   75.5356	   15.6565	   2.74682	8.03823e+06	   75.4757	    15.623	   2.71426	8.03022e+06	   75.4122	   15.6587	   2.74902	7.91882e+06	
         R10	   2931	   75.4123	   15.7644	   2.85185	7.92325e+06	   75.5322	   15.7651	   2.85251	7.93314e+06	   75.5345	   15.6925	   2.78185	8.03313e+06	   75.4097	   15.6919	    2.7813	 7.9723e+06	   75.4722	   15.7647	   2.85218	7.92777e+06	   75.5334	   15.7288	   2.81718	7.97956e+06	   75.4721	   15.6922	   2.78158	8.00245e+06	    75.411	   15.7281	   2.81658	7.94452e+06	
         R10	   2932	   75.4039	   15.8404	   2.92583	7.97462e+06	   75.5317	   15.8397	   2.92508	8.03011e+06	   75.5322	   15.7651	   2.85251	8.07539e+06	   75.4123	   15.7644	   2.85185	8.06037e+06	   75.4678	   15.8401	   2.92546	8.00194e+06	    75.532	   15.8024	    2.8888	8.04531e+06	   75.4722	   15.7647	   2.85218	8.06745e+06	   75.4081	   15.8024	   2.88884	8.01024e+06	
         R10	   2933	    74.623	   15.4925	   2.58728	7.56227e+06	    74.375	   15.5055	   2.59991	7.19606e+06	    74.375	   15.7109	   2.79982	7.37007e+06	    74.634	   15.7019	   2.79105	7.35803e+06	    74.499	    15.499	    2.5936	7.37822e+06	    74.375	   15.6082	   2.69986	7.26919e+06	   74.5045	   15.7064	   2.79543	7.34796e+06	   74.6285	   15.5972	   2.68916	7.45638e+06	
         R10	   2934	   75.2526	   15.7008	   2.78992	7.83341e+06	   75.4097	   15.6919	    2.7813	7.91271e+06	   75.4147	   15.6255	   2.71673	8.03493e+06	   75.2588	   15.6308	   2.72182	7.76671e+06	   75.3312	   15.6963	   2.78561	7.87305e+06	   75.4122	   15.6587	   2.74902	7.97217e+06	   75.3368	   15.6281	   2.71927	7.89721e+06	   75.2557	   15.6658	   2.75587	7.79836e+06	
         R10	   2935	   74.8842	   15.6049	   2.69665	7.84772e+06	   74.8583	   15.4683	   2.56373	7.74822e+06	    74.623	   15.4925	   2.58728	7.42276e+06	    74.634	   15.7019	   2.79105	7.08615e+06	   74.8713	   15.5366	   2.63019	7.79694e+06	   74.7407	   15.4804	    2.5755	7.58071e+06	   74.6285	   15.5972	   2.68916	7.25186e+06	   74.7591	   15.6534	   2.74385	7.46589e+06	
         R10	   2936	   74.8842	   15.6049	   2.69665	 7.5393e+06	   74.8855	   15.7754	   2.86255	7.59034e+06	   75.0838	   15.7613	   2.84885	 7.6972e+06	   75.0894	   15.5921	   2.68418	7.86919e+06	   74.8848	   15.6901	    2.7796	7.54734e+06	   74.9846	   15.7684	    2.8557	7.64003e+06	   75.0866	   15.6767	   2.76651	7.77643e+06	   74.9868	   15.5985	   2.69041	7.70194e+06	
         R10	   2937	   75.4173	   15.4731	   2.56838	8.24839e+06	   75.4146	   15.3927	   2.49017	8.43564e+06	   75.2552	   15.4148	   2.51171	8.17931e+06	   75.2652	   15.5033	   2.59777	7.96035e+06	   75.4159	   15.4329	   2.52928	8.33996e+06	   75.3349	   15.4037	   2.50094	8.30495e+06	   75.2602	    15.459	   2.55474	8.06814e+06	   75.3412	   15.4882	   2.58308	8.10254e+06	
         R10	   2938	   75.2588	   15.6308	   2.72182	7.80721e+06	   75.4147	   15.6255	   2.71673	 8.0029e+06	   75.4268	   15.5533	   2.64642	8.06609e+06	   75.3138	   15.5638	   2.65665	7.94213e+06	   75.3368	   15.6281	   2.71927	7.90281e+06	   75.4208	   15.5894	   2.68157	8.03445e+06	   75.3703	   15.5585	   2.65153	8.00324e+06	   75.2863	   15.5973	   2.68923	7.87284e+06	
         R10	   2939	   75.2652	   15.5033	   2.59777	8.09536e+06	   75.0894	   15.5921	   2.68418	7.61455e+06	   75.2588	   15.6308	   2.72182	7.91178e+06	   75.3138	   15.5638	   2.65665	7.98893e+06	   75.1773	   15.5477	   2.64097	7.85351e+06	   75.1741	   15.6114	     2.703	7.76125e+06	   75.2863	   15.5973	   2.68923	7.95035e+06	   75.2895	   15.5335	   2.62721	  8.042e+06	
         R10	   2940	   75.4268	   15.5533	   2.64642	8.06624e+06	   75.4173	   15.4731	   2.56838	8.24535e+06	   75.2652	   15.5033	   2.59777	7.95539e+06	   75.3138	   15.5638	   2.65665	7.96712e+06	    75.422	   15.5132	    2.6074	8.15542e+06	   75.3412	   15.4882	   2.58308	8.09876e+06	   75.2895	   15.5335	   2.62721	 7.9609e+06	   75.3703	   15.5585	   2.65153	 8.0161e+06	
         R10	   2941	   75.2526	   15.7008	   2.78992	8.07436e+06	   75.2588	   15.6308	   2.72182	7.97875e+06	   75.0894	   15.5921	   2.68418	7.71748e+06	   75.0838	   15.7613	   2.84885	7.48906e+06	   75.2557	   15.6658	   2.75587	8.02546e+06	   75.1741	   15.6114	     2.703	7.84691e+06	   75.0866	   15.6767	   2.76651	7.59519e+06	   75.1682	    15.731	   2.81938	7.77987e+06	
         R10	   2942	    75.253	   15.8272	   2.91294	7.90809e+06	   75.4039	   15.8404	   2.92583	7.93909e+06	   75.4123	   15.7644	   2.85185	8.04665e+06	   75.2981	   15.7625	   2.85004	7.96773e+06	   75.3284	   15.8338	   2.91939	7.92105e+06	   75.4081	   15.8024	   2.88884	7.98661e+06	   75.3552	   15.7635	   2.85095	8.00472e+06	   75.2756	   15.7949	   2.88149	7.91309e+06	
         R10	   2943	   75.2526	   15.7008	   2.78992	8.03776e+06	   75.0838	   15.7613	   2.84885	7.47363e+06	    75.253	   15.8272	   2.91294	7.77514e+06	   75.2981	   15.7625	   2.85004	8.07593e+06	   75.1682	    15.731	   2.81938	7.75188e+06	   75.1684	   15.7943	    2.8809	7.61178e+06	   75.2756	   15.7949	   2.88149	7.91165e+06	   75.2754	   15.7316	   2.81998	8.05584e+06	
         R10	   2944	   75.4123	   15.7644	   2.85185	7.89091e+06	   75.4097	   15.6919	    2.7813	7.99395e+06	   75.2526	   15.7008	   2.78992	7.81346e+06	   75.2981	   15.7625	   2.85004	7.89152e+06	    75.411	   15.7281	   2.81658	7.93931e+06	   75.3312	   15.6963	   2.78561	7.90309e+06	   75.2754	   15.7316	   2.81998	7.84825e+06	   75.3552	   15.7635	   2.85095	7.89098e+06	
         R10	   2945	     75.65	     15.42	   2.51671	8.51415e+06	     75.65	   15.3588	   2.45717	8.69935e+06	   75.5418	   15.3899	   2.48748	8.50422e+06	     75.65	   15.3894	   2.48694	 8.6044e+06	   75.5959	   15.3743	   2.47233	8.59953e+06	   75.5959	   15.4049	    2.5021	8.50876e+06	       N/A	       N/A	       N/A	        N/A	       N/A	       N/A	       N/A	        N/A	
         R10	   2946	   74.8842	   15.6049	   2.69665	7.81337e+06	    74.634	   15.7019	   2.79105	7.15095e+06	   74.8855	   15.7754	   2.86255	7.47333e+06	   74.7591	   15.6534	   2.74385	7.46743e+06	   74.7598	   15.7387	    2.8268	7.29873e+06	   74.8848	   15.6901	    2.7796	7.62339e+06	       N/A	       N/A	       N/A	        N/A	       N/A	       N/A	       N/A	        N/A	
         R10	   2947	   74.9219	   13.8584	       2.4	 6.5908e+06	   74.9213	      13.6	       2.4	6.54653e+06	   74.6542	      13.6	       2.4	6.37403e+06	    74.655	   13.8762	       2.4	6.47795e+06	   74.9216	   13.7292	       2.4	  6.503e+06	   74.7878	      13.6	       2.4	6.44997e+06	   74.6546	   13.7381	       2.4	6.35274e+06	   74.7884	   13.8673	       2.4	 6.5269e+06	
         R10	   2948	   75.1768	   13.8455	       2.4	6.75445e+06	   75.1763	      13.6	       2.4	6.77741e+06	   74.9213	      13.6	       2.4	6.55395e+06	   74.9219	   13.8584	       2.4	6.62713e+06	   75.1766	   13.7227	       2.4	 6.7021e+06	   75.0488	      13.6	       2.4	6.65849e+06	   74.9216	   13.7292	       2.4	6.52551e+06	   75.0493	   13.8519	       2.4	6.68537e+06	
         R10	   2949	   75.4184	   13.8353	       2.4	 6.9834e+06	   75.4192	      13.6	       2.4	7.09348e+06	   75.1763	      13.6	       2.4	6.78973e+06	   75.1768	   13.8455	       2.4	6.76915e+06	   75.4188	   13.7176	       2.4	6.98122e+06	   75.2978	      13.6	       2.4	6.93371e+06	   75.1766	   13.7227	       2.4	6.71581e+06	   75.2976	   13.8404	       2.4	  6.869e+06	
         R10	   2950	     75.65	   13.8398	       2.4	7.32664e+06	     75.65	      13.6	       2.4	7.44456e+06	   75.4192	      13.6	       2.4	7.07216e+06	   75.4184	   13.8353	       2.4	 6.9451e+06	     75.65	   13.7199	       2.4	7.32551e+06	   75.5346	      13.6	       2.4	7.25096e+06	   75.4188	   13.7176	       2.4	6.95122e+06	   75.5342	   13.8376	       2.4	7.12936e+06	
         R10	   2951	     75.65	   14.0447	       2.4	7.25094e+06	     75.65	   13.8398	       2.4	7.58099e+06	   75.4184	   13.8353	       2.4	7.07799e+06	   75.4195	   14.0461	       2.4	6.93638e+06	     75.65	   13.9423	       2.4	 7.4052e+06	   75.5342	   13.8376	       2.4	7.31968e+06	    75.419	   13.9407	       2.4	7.00303e+06	   75.5348	   14.0454	       2.4	7.09212e+06	
         R10	   2952	   75.4967	   14.2158	       2.4	7.01671e+06	     75.65	   14.2147	       2.4	6.95292e+06	     75.65	   14.0447	       2.4	7.53799e+06	   75.4195	   14.0461	       2.4	6.89224e+06	   75.5733	   14.2153	       2.4	6.98465e+06	     75.65	   14.1297	       2.4	7.23397e+06	   75.5348	   14.0454	       2.4	7.20774e+06	   75.4581	    14.131	       2.4	6.95162e+06	
         R10	   2953	   75.5322	   14.3482	       2.4	6.81863e+06	     75.65	   14.3498	       2.4	6.85236e+06	     75.65	   14.2147	       2.4	7.22662e+06	   75.4967	   14.2158	       2.4	7.08873e+06	   75.5911	    14.349	       2.4	6.83296e+06	     75.65	   14.2823	       2.4	7.01311e+06	   75.5733	   14.2153	       2.4	 7.1512e+06	   75.5144	    14.282	       2.4	6.91225e+06	
         R10	   2954	   75.5497	     14.45	       2.4	6.89397e+06	     75.65	     14.45	       2.4	6.94392e+06	     75.65	   14.3498	       2.4	7.34419e+06	   75.5322	   14.3482	       2.4	7.12983e+06	   75.5999	     14.45	       2.4	6.91817e+06	     75.65	   14.3999	       2.4	7.10958e+06	   75.5911	    14.349	       2.4	7.23608e+06	    75.541	   14.3991	       2.4	6.97838e+06	
         R10	   2955	    75.268	   14.2785	       2.4	6.97064e+06	   75.2673	     14.45	       2.4	6.84535e+06	   75.4222	     14.45	       2.4	6.93998e+06	    75.374	   14.3152	       2.4	6.91038e+06	   75.2677	   14.3643	       2.4	6.85151e+06	   75.3448	     14.45	       2.4	 6.8894e+06	   75.3981	   14.3826	       2.4	6.89664e+06	    75.321	   14.2969	       2.4	6.93803e+06	
         R10	   2956	   75.0876	   14.2531	       2.4	6.69087e+06	   75.0852	     14.45	       2.4	6.79595e+06	   75.2673	     14.45	       2.4	6.80774e+06	    75.268	   14.2785	       2.4	6.95438e+06	   75.0864	   14.3515	       2.4	6.65989e+06	   75.1763	     14.45	       2.4	6.79985e+06	   75.2677	   14.3643	       2.4	6.82439e+06	   75.1778	   14.2658	       2.4	6.81573e+06	
         R10	   2957	   74.8755	    14.221	       2.4	6.53426e+06	   74.8758	     14.45	       2.4	6.76414e+06	   75.0852	     14.45	       2.4	6.78868e+06	   75.0876	   14.2531	       2.4	6.84438e+06	   74.8756	   14.3355	       2.4	6.55598e+06	   74.9805	     14.45	       2.4	6.77428e+06	   75.0864	   14.3515	       2.4	6.73576e+06	   74.9815	    14.237	       2.4	6.68254e+06	
         R10	   2958	   74.6334	   14.1993	       2.4	6.43555e+06	    74.639	     14.45	       2.4	6.73946e+06	   74.8758	     14.45	       2.4	 6.7801e+06	   74.8755	    14.221	       2.4	6.61496e+06	   74.6362	   14.3246	       2.4	6.48093e+06	   74.7574	     14.45	       2.4	6.75694e+06	   74.8756	   14.3355	       2.4	6.60527e+06	   74.7544	   14.2101	       2.4	6.52102e+06	
         R10	   2959	    74.375	   14.1802	       2.4	6.39254e+06	    74.375	     14.45	       2.4	6.64919e+06	    74.639	     14.45	       2.4	 6.7798e+06	   74.6334	   14.1993	       2.4	6.44539e+06	    74.375	   14.3151	       2.4	6.46453e+06	    74.507	     14.45	       2.4	6.70724e+06	   74.6362	   14.3246	       2.4	6.50736e+06	   74.5042	   14.1897	       2.4	6.41543e+06	
         R10	   2960	    74.655	   13.8762	       2.4	 6.4903e+06	   74.6542	      13.6	       2.4	6.38567e+06	    74.375	      13.6	       2.4	6.28379e+06	    74.375	   13.8968	       2.4	6.24605e+06	   74.6546	   13.7381	       2.4	6.36598e+06	   74.5146	      13.6	       2.4	6.32321e+06	    74.375	   13.7484	       2.4	6.23081e+06	    74.515	   13.8865	       2.4	6.35527e+06	
         R10	   2961	   75.4195	   14.0461	       2.4	7.05941e+06	   75.4184	   13.8353	       2.4	7.09199e+06	   75.1768	   13.8455	       2.4	6.86886e+06	   75.1846	   14.0651	       2.4	6.77247e+06	    75.419	   13.9407	       2.4	7.07097e+06	   75.2976	   13.8404	       2.4	6.97433e+06	   75.1807	   13.9553	       2.4	 6.8177e+06	   75.3021	   14.0556	       2.4	6.90897e+06	
         R10	   2962	    75.374	   14.3152	       2.4	6.41106e+06	   75.4222	     14.45	       2.4	6.81757e+06	   75.5322	   14.3482	       2.4	7.33983e+06	   75.4967	   14.2158	       2.4	7.23844e+06	   75.3981	   14.3826	       2.4	6.58339e+06	   75.4772	   14.3991	       2.4	7.06048e+06	   75.5144	    14.282	       2.4	7.24747e+06	   75.4353	   14.2655	       2.4	6.80188e+06	
         R10	   2963	    75.268	   14.2785	       2.4	6.57005e+06	    75.374	   14.3152	       2.4	6.57848e+06	   75.4967	   14.2158	       2.4	 7.2083e+06	   75.4195	   14.0461	       2.4	 7.0873e+06	    75.321	   14.2969	       2.4	 6.5679e+06	   75.4353	   14.2655	       2.4	6.87921e+06	   75.4581	    14.131	       2.4	7.14581e+06	   75.3438	   14.1623	       2.4	6.81534e+06	
         R10	   2964	   75.0876	   14.2531	       2.4	6.51236e+06	    75.268	   14.2785	       2.4	6.74149e+06	   75.4195	   14.0461	       2.4	7.05754e+06	   75.1846	   14.0651	       2.4	6.88018e+06	   75.1778	   14.2658	       2.4	6.62327e+06	   75.3438	   14.1623	       2.4	6.88042e+06	   75.3021	   14.0556	       2.4	6.96423e+06	   75.1361	   14.1591	       2.4	6.66738e+06	
         R10	   2965	   74.8755	    14.221	       2.4	6.48887e+06	   75.0876	   14.2531	       2.4	6.62255e+06	   75.1846	   14.0651	       2.4	6.94586e+06	   74.9876	   14.0228	       2.4	6.68963e+06	   74.9815	    14.237	       2.4	6.55257e+06	   75.1361	   14.1591	       2.4	6.75776e+06	   75.0861	    14.044	       2.4	6.81214e+06	   74.9315	   14.1219	       2.4	6.57989e+06	
         R10	   2966	    74.655	   13.8762	       2.4	6.53385e+06	    74.375	   13.8968	       2.4	6.31507e+06	    74.375	   14.1802	       2.4	6.37041e+06	   74.6334	   14.1993	       2.4	6.42513e+06	    74.515	   13.8865	       2.4	6.41981e+06	    74.375	   14.0385	       2.4	6.33283e+06	   74.5042	   14.1897	       2.4	6.39026e+06	   74.6442	   14.0377	       2.4	 6.4723e+06	
         R10	   2967	   74.9876	   14.0228	       2.4	 6.5794e+06	   75.1846	   14.0651	       2.4	6.73923e+06	   75.1768	   13.8455	       2.4	 6.8748e+06	   74.9219	   13.8584	       2.4	6.69577e+06	   75.0861	    14.044	       2.4	 6.6543e+06	   75.1807	   13.9553	       2.4	6.80354e+06	   75.0493	   13.8519	       2.4	6.77841e+06	   74.9547	   13.9406	       2.4	6.63503e+06	
         R10	   2968	   74.8755	    14.221	       2.4	6.44309e+06	   74.9876	   14.0228	       2.4	6.91443e+06	   74.9219	   13.8584	       2.4	6.56724e+06	    74.655	   13.8762	       2.4	6.46069e+06	   74.9315	   14.1219	       2.4	6.67408e+06	   74.9547	   13.9406	       2.4	6.74053e+06	   74.7884	   13.8673	       2.4	 6.5033e+06	   74.7652	   14.0486	       2.4	6.44056e+06	
         R10	   2969	   75.4222	     14.45	       2.4	6.88858e+06	   75.5497	     14.45	       2.4	6.91326e+06	   75.5322	   14.3482	       2.4	7.01829e+06	    75.486	     14.45	       2.4	 6.8998e+06	    75.541	   14.3991	       2.4	6.93339e+06	   75.4772	   14.3991	       2.4	6.90996e+06	       N/A	       N/A	       N/A	        N/A	       N/A	       N/A	       N/A	        N/A	
         R10	   2970	   74.8755	    14.221	       2.4	6.63412e+06	    74.655	   13.8762	       2.4	6.50623e+06	   74.6334	   14.1993	       2.4	6.41853e+06	   74.7652	   14.0486	       2.4	6.56134e+06	   74.6442	   14.0377	       2.4	 6.4559e+06	   74.7544	   14.2101	       2.4	6.52214e+06	       N/A	       N/A	       N/A	        N/A	       N/A	       N/A	       N/A	        N/A	
         R10	   2971	   74.8666	   14.6828	       2.4	 6.6799e+06	   74.8758	     14.45	       2.4	6.90292e+06	    74.639	     14.45	       2.4	6.77995e+06	   74.6314	   14.7141	       2.4	6.65958e+06	   74.8712	   14.5664	       2.4	 6.7125e+06	   74.7574	     14.45	       2.4	6.83305e+06	   74.6352	    14.582	       2.4	6.62383e+06	    74.749	   14.6984	       2.4	6.66755e+06	
         R10	   2972	   75.0786	   14.6489	       2.4	6.71117e+06	   75.0852	     14.45	       2.4	7.04835e+06	   74.8758	     14.45	       2.4	6.89841e+06	   74.8666	   14.6828	       2.4	6.84136e+06	   75.0819	   14.5494	       2.4	6.81398e+06	   74.9805	     14.45	       2.4	6.96676e+06	   74.8712	   14.5664	       2.4	6.79344e+06	   74.9726	   14.6658	       2.4	6.77455e+06	
         R10	   2973	   75.2601	   14.6204	       2.4	6.78331e+06	   75.2673	     14.45	       2.4	7.23637e+06	   75.0852	     14.45	       2.4	7.07314e+06	   75.0786	   14.6489	       2.4	6.83258e+06	   75.2637	   14.5352	       2.4	6.96168e+06	   75.1763	     14.45	       2.4	 7.1502e+06	   75.0819	   14.5494	       2.4	6.89106e+06	   75.1693	   14.6346	       2.4	6.80479e+06	
         R10	   2974	   75.4145	   14.5914	       2.4	6.86975e+06	   75.4222	     14.45	       2.4	7.42451e+06	   75.2673	     14.45	       2.4	7.21653e+06	   75.2601	   14.6204	       2.4	6.92778e+06	   75.4183	   14.5207	       2.4	7.11197e+06	   75.3448	     14.45	       2.4	7.31551e+06	   75.2637	   14.5352	       2.4	7.02643e+06	   75.3373	   14.6059	       2.4	6.89542e+06	
         R10	   2975	   75.5426	   14.5656	       2.4	7.03275e+06	   75.5497	     14.45	       2.4	7.63331e+06	   75.4222	     14.45	       2.4	7.43179e+06	   75.4145	   14.5914	       2.4	7.07386e+06	   75.5462	   14.5078	       2.4	7.30169e+06	    75.486	     14.45	       2.4	7.52927e+06	   75.4183	   14.5207	       2.4	 7.2191e+06	   75.4785	   14.5785	       2.4	7.05186e+06	
         R10	   2976	     75.65	   14.5579	       2.4	7.14311e+06	     75.65	     14.45	       2.4	7.84396e+06	   75.5497	     14.45	       2.4	 7.6579e+06	   75.5426	   14.5656	       2.4	7.07202e+06	     75.65	   14.5039	       2.4	7.46448e+06	   75.5999	     14.45	       2.4	7.74888e+06	   75.5462	   14.5078	       2.4	7.33776e+06	   75.5963	   14.5617	       2.4	7.10697e+06	
         R10	   2977	     75.65	   14.6624	       2.4	7.11452e+06	     75.65	   14.5579	       2.4	7.44623e+06	   75.5426	   14.5656	       2.4	7.33707e+06	   75.5562	   14.6714	       2.4	7.06272e+06	     75.65	   14.6101	       2.4	7.26699e+06	   75.5963	   14.5617	       2.4	7.39077e+06	   75.5494	   14.6185	       2.4	7.18179e+06	   75.6031	   14.6669	       2.4	7.08733e+06	
         R10	   2978	   75.5545	    14.768	       2.4	6.99621e+06	     75.65	   14.7635	       2.4	7.12013e+06	     75.65	   14.6624	       2.4	 7.2604e+06	   75.5562	   14.6714	       2.4	7.20291e+06	   75.6022	   14.7657	       2.4	7.05377e+06	     75.65	   14.7129	       2.4	 7.1859e+06	   75.6031	   14.6669	       2.4	7.23074e+06	   75.5553	   14.7197	       2.4	7.09127e+06	
         R10	   2979	   75.5518	   14.8632	       2.4	7.01942e+06	     75.65	   14.8613	       2.4	7.01131e+06	     75.65	   14.7635	       2.4	7.20755e+06	   75.5545	    14.768	       2.4	7.07399e+06	   75.6009	   14.8623	       2.4	7.01462e+06	     75.65	   14.8124	       2.4	7.10601e+06	   75.6022	   14.7657	       2.4	7.13685e+06	   75.5531	   14.8156	       2.4	7.04575e+06	
         R10	   2980	   75.5528	   14.9548	       2.4	6.92458e+06	     75.65	   14.9557	       2.4	7.01924e+06	     75.65	   14.8613	       2.4	7.04702e+06	   75.5518	   14.8632	       2.4	7.03725e+06	   75.6014	   14.9553	       2.4	6.96871e+06	     75.65	   14.9085	       2.4	7.03282e+06	   75.6009	   14.8623	       2.4	 7.0409e+06	   75.5523	    14.909	       2.4	6.97904e+06	
         R10	   2981	   75.5581	   15.0476	       2.4	6.99462e+06	     75.65	   15.0468	       2.4	 6.9182e+06	     75.65	   14.9557	       2.4	 7.0668e+06	   75.5528	   14.9548	       2.4	6.95213e+06	    75.604	   15.0472	       2.4	6.95561e+06	     75.65	   15.0013	       2.4	6.98874e+06	   75.6014	   14.9553	       2.4	7.00544e+06	   75.5554	   15.0012	       2.4	6.97135e+06	
         R10	   2982	   75.5655	   15.1311	       2.4	6.94628e+06	     75.65	   15.1346	       2.4	6.99901e+06	     75.65	   15.0468	       2.4	6.92803e+06	   75.5581	   15.0476	       2.4	7.00201e+06	   75.6077	   15.1329	       2.4	6.97116e+06	     75.65	   15.0907	       2.4	6.95895e+06	    75.604	   15.0472	       2.4	6.96422e+06	   75.5618	   15.0894	       2.4	6.96948e+06	
         R10	   2983	   75.5631	   15.2215	       2.4	7.05696e+06	     75.65	    15.219	       2.4	7.08454e+06	     75.65	   15.1346	       2.4	7.00777e+06	   75.5655	   15.1311	       2.4	6.95875e+06	   75.6066	   15.2202	       2.4	7.06971e+06	     75.65	   15.1768	       2.4	7.03795e+06	   75.6077	   15.1329	       2.4	6.98184e+06	   75.5643	   15.1763	       2.4	6.99874e+06	
         R10	   2984	   75.5691	      15.3	       2.4	7.30395e+06	     75.65	      15.3	       2.4	  7.276e+06	     75.65	    15.219	       2.4	7.07854e+06	   75.5631	   15.2215	       2.4	7.06839e+06	   75.6096	      15.3	       2.4	7.28944e+06	     75.65	   15.2595	       2.4	7.16529e+06	   75.6066	   15.2202	       2.4	7.07276e+06	   75.5661	   15.2607	       2.4	7.17505e+06	
         R10	   2985	   75.4484	   15.1681	       2.4	6.96111e+06	   75.4545	      15.3	       2.4	 7.2545e+06	   75.5691	      15.3	       2.4	7.26883e+06	   75.5631	   15.2215	       2.4	7.06834e+06	   75.4515	    15.234	       2.4	7.08621e+06	   75.5118	      15.3	       2.4	7.26038e+06	   75.5661	   15.2607	       2.4	7.15629e+06	   75.5058	   15.1948	       2.4	7.00923e+06	
         R10	   2986	   75.2981	   15.0981	       2.4	 6.6709e+06	   75.3061	      15.3	       2.4	7.03041e+06	   75.4545	      15.3	       2.4	7.36413e+06	   75.4484	   15.1681	       2.4	7.23198e+06	   75.3021	    15.199	       2.4	 6.7886e+06	   75.3803	      15.3	       2.4	7.19693e+06	   75.4515	    15.234	       2.4	7.27492e+06	   75.3733	   15.1331	       2.4	6.93676e+06	
         R10	   2987	   75.1176	   15.0875	       2.4	7.07769e+06	    75.124	      15.3	       2.4	6.85359e+06	   75.3061	      15.3	       2.4	 7.4378e+06	   75.2981	   15.0981	       2.4	6.88592e+06	   75.1208	   15.1938	       2.4	6.89902e+06	   75.2151	      15.3	       2.4	7.13981e+06	   75.3021	    15.199	       2.4	7.10536e+06	   75.2079	   15.0928	       2.4	6.98088e+06	
         R10	   2988	   74.9099	   15.0901	       2.4	6.96478e+06	   74.9081	      15.3	       2.4	6.72226e+06	    75.124	      15.3	       2.4	7.43412e+06	   75.1176	   15.0875	       2.4	6.90713e+06	    74.909	    15.195	       2.4	6.79684e+06	    75.016	      15.3	       2.4	7.07552e+06	   75.1208	   15.1938	       2.4	7.10489e+06	   75.0137	   15.0888	       2.4	6.93251e+06	
         R10	   2989	   74.6498	   15.0178	       2.4	6.84786e+06	   74.6584	      15.3	       2.4	6.33916e+06	   74.9081	      15.3	       2.4	7.68937e+06	   74.9099	   15.0901	       2.4	7.03529e+06	   74.6541	   15.1589	       2.4	6.48677e+06	   74.7833	      15.3	       2.4	7.01114e+06	    74.909	    15.195	       2.4	  7.316e+06	   74.7798	   15.0539	       2.4	6.92208e+06	
         R10	   2990	    74.375	   15.0167	       2.4	6.92214e+06	    74.375	      15.3	       2.4	 6.1649e+06	   74.6584	      15.3	       2.4	7.80918e+06	   74.6498	   15.0178	       2.4	6.68272e+06	    74.375	   15.1583	       2.4	6.52074e+06	   74.5167	      15.3	       2.4	6.96791e+06	   74.6541	   15.1589	       2.4	7.13812e+06	   74.5124	   15.0172	       2.4	6.79301e+06	
         R10	   2991	   74.6314	   14.7141	       2.4	6.73057e+06	    74.639	     14.45	       2.4	6.80211e+06	    74.375	     14.45	       2.4	6.67839e+06	    74.375	   14.7333	       2.4	6.37403e+06	   74.6352	    14.582	       2.4	6.67097e+06	    74.507	     14.45	       2.4	6.73137e+06	    74.375	   14.5917	       2.4	6.44599e+06	   74.5032	   14.7237	       2.4	6.55033e+06	
         R10	   2992	   75.1077	   14.8596	       2.4	6.97035e+06	   75.0786	   14.6489	       2.4	6.76275e+06	   74.8666	   14.6828	       2.4	6.87559e+06	   74.8995	   14.8852	       2.4	6.82551e+06	   75.0931	   14.7542	       2.4	6.85021e+06	   74.9726	   14.6658	       2.4	6.81637e+06	   74.8831	    14.784	       2.4	6.83888e+06	   75.0036	   14.8724	       2.4	6.89469e+06	
         R10	   2993	   75.2857	   14.8189	       2.4	7.03095e+06	   75.2601	   14.6204	       2.4	6.86059e+06	   75.0786	   14.6489	       2.4	6.90724e+06	   75.1077	   14.8596	       2.4	6.88915e+06	   75.2729	   14.7196	       2.4	 6.9325e+06	   75.1693	   14.6346	       2.4	6.88336e+06	   75.0931	   14.7542	       2.4	6.87737e+06	   75.1967	   14.8392	       2.4	6.95518e+06	
         R10	   2994	   75.4356	   14.7085	       2.4	7.45923e+06	   75.4145	   14.5914	       2.4	6.89472e+06	   75.2601	   14.6204	       2.4	6.92253e+06	   75.2857	   14.8189	       2.4	6.59828e+06	    75.425	   14.6499	       2.4	7.15016e+06	   75.3373	   14.6059	       2.4	6.89852e+06	   75.2729	   14.7196	       2.4	6.74515e+06	   75.3607	   14.7637	       2.4	7.02314e+06	
         R10	   2995	   75.4295	   14.9708	       2.4	6.92031e+06	   75.5528	   14.9548	       2.4	7.17702e+06	   75.5518	   14.8632	       2.4	7.04409e+06	   75.4287	   14.8752	       2.4	7.11112e+06	   75.4911	   14.9628	       2.4	7.03646e+06	   75.5523	    14.909	       2.4	7.10992e+06	   75.4902	   14.8692	       2.4	7.07745e+06	   75.4291	    14.923	       2.4	7.00523e+06	
         R10	   2996	   74.6314	   14.7141	       2.4	6.79651e+06	    74.375	   14.7333	       2.4	 6.4109e+06	    74.375	   15.0167	       2.4	 7.0377e+06	   74.6498	   15.0178	       2.4	6.61827e+06	   74.5032	   14.7237	       2.4	6.60295e+06	    74.375	    14.875	       2.4	6.71494e+06	   74.5124	   15.0172	       2.4	6.82263e+06	   74.6406	   14.8659	       2.4	6.70681e+06	
         R10	   2997	   74.8995	   14.8852	       2.4	6.99293e+06	   74.8666	   14.6828	       2.4	6.65304e+06	   74.6314	   14.7141	       2.4	6.67529e+06	   74.6498	   15.0178	       2.4	6.85765e+06	   74.8831	    14.784	       2.4	6.81736e+06	    74.749	   14.6984	       2.4	6.66022e+06	   74.6406	   14.8659	       2.4	 6.7656e+06	   74.7746	   14.9515	       2.4	6.92407e+06	
         R10	   2998	   74.8995	   14.8852	       2.4	6.81485e+06	   74.9099	   15.0901	       2.4	6.94954e+06	   75.1176	   15.0875	       2.4	6.83021e+06	   75.1077	   14.8596	       2.4	6.97661e+06	   74.9047	   14.9876	       2.4	6.87713e+06	   75.0137	   15.0888	       2.4	 6.8882e+06	   75.1127	   14.9736	       2.4	6.89586e+06	   75.0036	   14.8724	       2.4	6.89248e+06	
         R10	   2999	   75.1077	   14.8596	       2.4	6.89796e+06	   75.1176	   15.0875	       2.4	6.97715e+06	   75.2981	   15.0981	       2.4	6.91453e+06	   75.2857	   14.8189	       2.4	 7.0679e+06	   75.1127	   14.9736	       2.4	6.92882e+06	   75.2079	   15.0928	       2.4	6.93947e+06	   75.2919	   14.9585	       2.4	6.98466e+06	   75.1967	   14.8392	       2.4	6.98247e+06	
         R10	   3000	   75.5562	   14.6714	       2.4	7.14167e+06	   75.5426	   14.5656	       2.4	7.22091e+06	   75.4145	   14.5914	       2.4	7.23363e+06	   75.4356	   14.7085	       2.4	6.86372e+06	   75.5494	   14.6185	       2.4	7.16303e+06	   75.4785	   14.5785	       2.4	 7.2251e+06	    75.425	   14.6499	       2.4	7.02347e+06	   75.4959	   14.6899	       2.4	6.99705e+06	
         R10	   3001	   75.5545	    14.768	       2.4	7.10848e+06	   75.5562	   14.6714	       2.4	7.15374e+06	   75.4356	   14.7085	       2.4	6.84498e+06	   75.4716	   14.7826	       2.4	6.80772e+06	   75.5553	   14.7197	       2.4	7.12665e+06	   75.4959	   14.6899	       2.4	6.99834e+06	   75.4536	   14.7455	       2.4	6.81627e+06	    75.513	   14.7753	       2.4	6.95276e+06	
         R10	   3002	   75.4287	   14.8752	       2.4	7.10512e+06	   75.5518	   14.8632	       2.4	6.97203e+06	   75.5545	    14.768	       2.4	7.10882e+06	   75.4716	   14.7826	       2.4	6.78233e+06	   75.4902	   14.8692	       2.4	7.03714e+06	   75.5531	   14.8156	       2.4	7.03543e+06	    75.513	   14.7753	       2.4	6.94241e+06	   75.4501	   14.8289	       2.4	  6.939e+06	
         R10	   3003	   75.4356	   14.7085	       2.4	7.15613e+06	   75.2857	   14.8189	       2.4	 6.5775e+06	   75.4287	   14.8752	       2.4	7.09536e+06	   75.4716	   14.7826	       2.4	7.37266e+06	   75.3607	   14.7637	       2.4	 6.8558e+06	   75.3572	   14.8471	       2.4	6.82909e+06	   75.4501	   14.8289	       2.4	7.23203e+06	   75.4536	   14.7455	       2.4	7.26328e+06	
         R10	   3004	   75.4295	   14.9708	       2.4	6.89317e+06	   75.4287	   14.8752	       2.4	7.03559e+06	   75.2857	   14.8189	       2.4	6.71597e+06	   75.2981	   15.0981	       2.4	7.06268e+06	   75.4291	    14.923	       2.4	6.96329e+06	   75.3572	   14.8471	       2.4	6.87075e+06	   75.2919	   14.9585	       2.4	6.87819e+06	   75.3638	   15.0344	       2.4	6.97017e+06	
         R10	   3005	   75.4295	   14.9708	       2.4	6.91603e+06	   75.2981	   15.0981	       2.4	6.92395e+06	   75.4484	   15.1681	       2.4	7.22087e+06	   75.4747	   15.0625	       2.4	7.02419e+06	   75.3638	   15.0344	       2.4	  6.908e+06	   75.3733	   15.1331	       2.4	7.07154e+06	   75.4615	   15.1153	       2.4	 7.1198e+06	   75.4521	   15.0166	       2.4	6.96336e+06	
         R10	   3006	   75.5581	   15.0476	       2.4	6.91454e+06	   75.5528	   14.9548	       2.4	 7.1618e+06	   75.4295	   14.9708	       2.4	6.89068e+06	   75.4747	   15.0625	       2.4	6.88938e+06	   75.5554	   15.0012	       2.4	7.03542e+06	   75.4911	   14.9628	       2.4	7.01442e+06	   75.4521	   15.0166	       2.4	6.87815e+06	   75.5164	   15.0551	       2.4	6.90034e+06	
         R10	   3007	   75.4484	   15.1681	       2.4	6.88434e+06	   75.5655	   15.1311	       2.4	7.05651e+06	   75.5581	   15.0476	       2.4	6.91594e+06	   75.4747	   15.0625	       2.4	6.92144e+06	    75.507	   15.1496	       2.4	6.96895e+06	   75.5618	   15.0894	       2.4	6.98196e+06	   75.5164	   15.0551	       2.4	6.91836e+06	   75.4615	   15.1153	       2.4	6.89773e+06	
         R10	   3008	   75.5655	   15.1311	       2.4	 7.0537e+06	   75.4484	   15.1681	       2.4	6.89421e+06	   75.5631	   15.2215	       2.4	7.05611e+06	    75.507	   15.1496	       2.4	6.97023e+06	   75.5058	   15.1948	       2.4	 6.9689e+06	   75.5643	   15.1763	       2.4	7.04588e+06	       N/A	       N/A	       N/A	        N/A	       N/A	       N/A	       N/A	        N/A	
         R10	   3009	   74.8995	   14.8852	       2.4	6.85776e+06	   74.6498	   15.0178	       2.4	6.85921e+06	   74.9099	   15.0901	       2.4	6.95663e+06	   74.7746	   14.9515	       2.4	6.85325e+06	   74.7798	   15.0539	       2.4	6.90748e+06	   74.9047	   14.9876	       2.4	6.90336e+06	       N/A	       N/A	       N/A	        N/A	       N/A	       N/A	       N/A	        N/A	
         R10	   3010	   74.8548	    16.113	     3.191	6.76145e+06	   74.8758	   15.9164	   2.99973	 7.3756e+06	    74.639	   15.9164	   2.99973	7.11733e+06	   74.6296	   16.1237	    3.2014	6.63759e+06	   74.8653	   16.0147	   3.09536	7.06761e+06	   74.7574	   15.9164	   2.99973	7.24315e+06	   74.6343	     16.02	   3.10056	6.87676e+06	   74.7422	   16.1183	    3.1962	6.69631e+06	
         R10	   3011	    75.058	   16.0772	   3.15615	6.95594e+06	   75.0852	   15.9164	   2.99973	7.60387e+06	   74.8758	   15.9164	   2.99973	7.35579e+06	   74.8548	    16.113	     3.191	6.95276e+06	   75.0716	   15.9968	   3.07794	7.27807e+06	   74.9805	   15.9164	   2.99973	7.47654e+06	   74.8653	   16.0147	   3.09536	7.15233e+06	   74.9564	   16.0951	   3.17357	6.94975e+06	
         R10	   3012	   75.2433	   16.0436	   3.12351	7.21138e+06	   75.2673	   15.9164	   2.99973	7.83093e+06	   75.0852	   15.9164	   2.99973	7.61191e+06	    75.058	   16.0772	   3.15615	7.08376e+06	   75.2553	     15.98	   3.06162	7.51703e+06	   75.1763	   15.9164	   2.99973	7.71912e+06	   75.0716	   15.9968	   3.07794	7.34427e+06	   75.1507	   16.0604	   3.13983	7.14586e+06	
         R10	   3013	   75.3985	   16.0266	   3.10692	7.40617e+06	   75.4222	   15.9164	   2.99973	 8.0037e+06	   75.2673	   15.9164	   2.99973	7.85919e+06	   75.2433	   16.0436	   3.12351	7.19846e+06	   75.4103	   15.9715	   3.05332	7.70066e+06	   75.3448	   15.9164	   2.99973	7.93022e+06	   75.2553	     15.98	   3.06162	7.52446e+06	   75.3209	   16.0351	   3.11521	7.30109e+06	
         R10	   3014	   75.5187	   16.0045	   3.08545	7.50335e+06	   75.5497	   15.9164	   2.99973	8.12358e+06	   75.4222	   15.9164	   2.99973	7.98287e+06	   75.3985	   16.0266	   3.10692	7.37315e+06	   75.5342	   15.9604	   3.04259	7.80666e+06	    75.486	   15.9164	   2.99973	8.05205e+06	   75.4103	   15.9715	   3.05332	7.67372e+06	   75.4586	   16.0155	   3.09619	7.43793e+06	
         R10	   3015	   75.6489	   15.9959	    3.0771	7.54912e+06	     75.65	   15.9164	   2.99973	8.21384e+06	   75.5497	   15.9164	   2.99973	8.14506e+06	   75.5187	   16.0045	   3.08545	7.43642e+06	   75.6494	   15.9561	   3.03841	 7.8767e+06	   75.5999	   15.9164	   2.99973	8.17896e+06	   75.5342	   15.9604	   3.04259	7.78486e+06	   75.5838	   16.0002	   3.08128	7.49197e+06	
         R10	   3016	   75.7393	   16.0032	   3.08415	7.47021e+06	   75.7534	   15.9164	   2.99973	8.24668e+06	     75.65	   15.9164	   2.99973	8.22086e+06	   75.6489	   15.9959	    3.0771	7.51051e+06	   75.7464	   15.9598	   3.04194	7.85284e+06	   75.7017	   15.9164	   2.99973	8.23338e+06	   75.6494	   15.9561	   3.03841	7.86092e+06	   75.6941	   15.9995	   3.08063	7.49022e+06	
         R10	   3017	   75.8471	   15.9968	   3.07796	7.48482e+06	   75.8546	   15.9164	   2.99973	 8.2439e+06	   75.7534	   15.9164	   2.99973	8.23262e+06	   75.7393	   16.0032	   3.08415	7.50475e+06	   75.8509	   15.9566	   3.03884	7.85752e+06	    75.804	   15.9164	   2.99973	8.23791e+06	   75.7464	   15.9598	   3.04194	7.86216e+06	   75.7932	        16	   3.08106	 7.4945e+06	
         R10	   3018	   75.9387	   15.9848	   3.06633	7.49866e+06	   75.9535	   15.9164	   2.99973	8.19967e+06	   75.8546	   15.9164	   2.99973	8.24341e+06	   75.8471	   15.9968	   3.07796	7.51078e+06	   75.9461	   15.9506	   3.03303	7.84186e+06	   75.9041	   15.9164	   2.99973	8.22133e+06	   75.8509	   15.9566	   3.03884	 7.8691e+06	   75.8929	   15.9908	   3.07214	7.50435e+06	
         R10	   3019	    76.048	   16.0022	   3.08325	7.37124e+06	   76.0502	   15.9164	   2.99973	8.04293e+06	   75.9535	   15.9164	   2.99973	 8.2508e+06	   75.9387	   15.9848	   3.06633	7.37988e+06	   76.0491	   15.9593	   3.04149	7.70368e+06	   76.0019	   15.9164	   2.99973	8.14682e+06	   75.9461	   15.9506	   3.03303	7.81124e+06	   75.9934	   15.9935	   3.07479	7.37547e+06	
         R10	   3020	   76.1448	   15.9912	   3.07251	7.30045e+06	   76.1447	   15.9164	   2.99973	7.81944e+06	   76.0502	   15.9164	   2.99973	7.99649e+06	    76.048	   16.0022	   3.08325	7.40447e+06	   76.1447	   15.9538	   3.03612	7.55495e+06	   76.0974	   15.9164	   2.99973	7.90777e+06	   76.0491	   15.9593	   3.04149	7.69549e+06	   76.0964	   15.9967	   3.07788	7.35232e+06	
         R10	   3021	   76.2352	   15.9884	   3.06976	7.11956e+06	   76.2369	   15.9164	   2.99973	 7.5095e+06	   76.1447	   15.9164	   2.99973	7.85239e+06	   76.1448	   15.9912	   3.07251	7.24752e+06	    76.236	   15.9524	   3.03474	7.31089e+06	   76.1908	   15.9164	   2.99973	7.67944e+06	   76.1447	   15.9538	   3.03612	  7.546e+06	     76.19	   15.9898	   3.07114	7.18351e+06	
         R10	   3022	   76.3237	   15.9844	   3.06589	6.94726e+06	   76.3268	   15.9164	   2.99973	7.05143e+06	   76.2369	   15.9164	   2.99973	7.52675e+06	   76.2352	   15.9884	   3.06976	7.15019e+06	   76.3252	   15.9504	   3.03281	6.99456e+06	   76.2818	   15.9164	   2.99973	7.28383e+06	    76.236	   15.9524	   3.03474	7.33572e+06	   76.2794	   15.9864	   3.06783	7.04674e+06	
         R10	   3023	   76.4133	   15.9823	   3.06386	6.83853e+06	   76.4145	   15.9164	   2.99973	7.10275e+06	   76.3268	   15.9164	   2.99973	7.03076e+06	   76.3237	   15.9844	   3.06589	7.03254e+06	   76.4139	   15.9493	   3.03179	6.59389e+06	   76.3707	   15.9164	   2.99973	6.97248e+06	   76.3252	   15.9504	   3.03281	7.02711e+06	   76.3685	   15.9833	   3.06487	6.87571e+06	
         R10	   3024	      76.5	   15.9761	   3.05784	1.22664e+07	      76.5	   15.9164	   2.99973	8.31926e+06	   76.4145	   15.9164	   2.99973	7.57739e+06	   76.4133	   15.9823	   3.06386	6.25826e+06	      76.5	   15.9462	   3.02878	7.63676e+06	   76.4573	   15.9164	   2.99973	7.70906e+06	   76.4139	   15.9493	   3.03179	6.56828e+06	   76.4567	   15.9792	   3.06085	8.94692e+06	
         R10	   3025	      76.5	   16.0453	   3.12513	8.33094e+06	      76.5	   15.9761	   3.05784	8.85716e+06	   76.4133	   15.9823	   3.06386	6.26255e+06	   76.4167	   16.0504	   3.13008	 7.1216e+06	      76.5	   16.0107	   3.09148	8.56938e+06	   76.4567	   15.9792	   3.06085	7.18105e+06	    76.415	   16.0163	   3.09697	6.55914e+06	   76.4584	   16.0478	   3.12761	7.71593e+06	
         R10	   3026	   76.4035	   16.1302	    3.2078	7.11456e+06	      76.5	   16.1239	   3.20162	7.88524e+06	      76.5	   16.0453	   3.12513	8.07118e+06	   76.4167	   16.0504	   3.13008	7.30629e+06	   76.4518	   16.1271	   3.20471	7.49568e+06	      76.5	   16.0846	   3.16338	7.97615e+06	   76.4584	   16.0478	   3.12761	7.65553e+06	   76.4101	   16.0903	   3.16894	7.20094e+06	
         R10	   3027	   76.3428	   16.2177	    3.2929	 6.7742e+06	      76.5	   16.2119	    3.2873	7.60727e+06	      76.5	   16.1239	   3.20162	7.79869e+06	   76.4035	   16.1302	    3.2078	7.21402e+06	   76.4214	   16.2148	    3.2901	7.17776e+06	      76.5	   16.1679	   3.24446	7.70138e+06	   76.4518	   16.1271	   3.20471	7.49055e+06	   76.3731	    16.174	   3.25035	6.99402e+06	
         R10	   3028	   76.3382	   16.3206	   3.39306	6.64152e+06	      76.5	   16.3094	   3.38216	7.25002e+06	      76.5	   16.2119	    3.2873	7.55749e+06	   76.3428	   16.2177	    3.2929	6.95781e+06	   76.4191	    16.315	   3.38761	6.94461e+06	      76.5	   16.2607	   3.33473	7.40126e+06	   76.4214	   16.2148	    3.2901	7.23096e+06	   76.3405	   16.2692	   3.34298	6.79321e+06	
         R10	   3029	   76.3248	   16.4246	    3.4942	 7.0306e+06	      76.5	   16.4164	   3.48621	6.76673e+06	      76.5	   16.3094	   3.38216	7.05903e+06	   76.3382	   16.3206	   3.39306	7.00919e+06	   76.4124	   16.4205	    3.4902	 6.8935e+06	      76.5	   16.3629	   3.43418	6.87068e+06	   76.4191	    16.315	   3.38761	7.00036e+06	   76.3315	   16.3726	   3.44363	7.01435e+06	
         R10	   3030	   76.3313	   16.5328	   3.59945	7.41924e+06	      76.5	   16.5328	   3.59945	 8.2235e+06	      76.5	   16.4164	   3.48621	6.49065e+06	   76.3248	   16.4246	    3.4942	7.63537e+06	   76.4156	   16.5328	   3.59945	7.80983e+06	      76.5	   16.4746	   3.54283	6.89732e+06	   76.4124	   16.4205	    3.4902	6.87267e+06	    76.328	   16.4787	   3.54682	7.50612e+06	
         R10	   3031	   76.1457	   16.5328	   3.59945	7.49073e+06	   76.3313	   16.5328	   3.59945	7.17931e+06	   76.3248	   16.4246	    3.4942	7.30064e+06	   76.1312	   16.4171	   3.48691	   7.37e+06	   76.2385	   16.5328	   3.59945	7.33019e+06	    76.328	   16.4787	   3.54682	7.22024e+06	    76.228	   16.4208	   3.49055	7.32651e+06	   76.1385	   16.4749	   3.54318	7.40942e+06	
         R10	   3032	   75.9366	   16.4079	     3.478	7.48353e+06	   75.9433	   16.5328	   3.59945	7.90213e+06	   76.1457	   16.5328	   3.59945	7.47893e+06	   76.1312	   16.4171	   3.48691	7.40251e+06	   75.9399	   16.4704	   3.53873	7.65423e+06	   76.0445	   16.5328	   3.59945	 7.6856e+06	   76.1385	   16.4749	   3.54318	7.42043e+06	   76.0339	   16.4125	   3.48246	7.44234e+06	
         R10	   3033	   75.7161	    16.402	   3.47219	7.59916e+06	    75.724	   16.5328	   3.59945	8.13515e+06	   75.9433	   16.5328	   3.59945	7.91898e+06	   75.9366	   16.4079	     3.478	7.45553e+06	   75.7201	   16.4674	   3.53582	7.81869e+06	   75.8336	   16.5328	   3.59945	8.02547e+06	   75.9399	   16.4704	   3.53873	7.65005e+06	   75.8263	    16.405	    3.4751	7.52718e+06	
         R10	   3034	   75.4909	    16.399	   3.46931	7.58142e+06	   75.4879	   16.5328	   3.59945	8.23151e+06	    75.724	   16.5328	   3.59945	 8.1382e+06	   75.7161	    16.402	   3.47219	7.54411e+06	   75.4894	   16.4659	   3.53438	7.85307e+06	   75.6059	   16.5328	   3.59945	8.18406e+06	   75.7201	   16.4674	   3.53582	7.79405e+06	   75.6035	   16.4005	   3.47075	7.56201e+06	
         R10	   3035	   75.2321	   16.3784	   3.44929	 7.4637e+06	   75.2349	   16.5328	   3.59945	8.20741e+06	   75.4879	   16.5328	   3.59945	8.23502e+06	   75.4909	    16.399	   3.46931	7.51444e+06	   75.2335	   16.4556	   3.52437	7.76709e+06	   75.3614	   16.5328	   3.59945	8.22011e+06	   75.4894	   16.4659	   3.53438	7.82255e+06	   75.3615	   16.3887	    3.4593	7.48695e+06	
         R10	   3036	   74.9194	   16.3258	   3.39811	7.08174e+06	   74.9651	   16.5328	   3.59945	8.09967e+06	   75.2349	   16.5328	   3.59945	8.19319e+06	   75.2321	   16.3784	   3.44929	7.36846e+06	   74.9423	   16.4293	   3.49878	7.48888e+06	      75.1	   16.5328	   3.59945	8.14553e+06	   75.2335	   16.4556	   3.52437	7.71254e+06	   75.0757	   16.3521	    3.4237	7.21672e+06	
         R10	   3037	   74.6487	   16.3286	   3.40081	6.67831e+06	   74.6785	   16.5328	   3.59945	7.96332e+06	   74.9651	   16.5328	   3.59945	8.07019e+06	   74.9194	   16.3258	   3.39811	 7.1583e+06	   74.6636	   16.4307	   3.50013	7.20708e+06	   74.8218	   16.5328	   3.59945	8.01506e+06	   74.9423	   16.4293	   3.49878	7.51242e+06	   74.7841	   16.3272	   3.39946	6.91435e+06	
         R10	   3038	    74.375	   16.3175	   3.39002	7.15892e+06	    74.375	   16.5328	   3.59945	7.41148e+06	   74.6785	   16.5328	   3.59945	8.03687e+06	   74.6487	   16.3286	   3.40081	6.57098e+06	    74.375	   16.4251	   3.49474	7.24617e+06	   74.5267	   16.5328	   3.59945	7.71894e+06	   74.6636	   16.4307	   3.50013	7.19794e+06	   74.5119	   16.3231	   3.39542	6.84628e+06	
         R10	   3039	   74.6296	   16.1237	    3.2014	6.85269e+06	    74.639	   15.9164	   2.99973	7.28889e+06	    74.375	   15.9164	   2.99973	7.24627e+06	    74.375	   16.1121	   3.19011	  5.523e+06	   74.6343	     16.02	   3.10056	7.06578e+06	    74.507	   15.9164	   2.99973	7.25955e+06	    74.375	   16.0142	   3.09492	6.28753e+06	   74.5023	   16.1179	   3.19576	 6.1331e+06	
         R10	   3040	   75.2807	   16.1671	   3.24366	7.07429e+06	   75.2433	   16.0436	   3.12351	7.33737e+06	    75.058	   16.0772	   3.15615	7.16441e+06	   75.1114	   16.2013	    3.2769	 6.9307e+06	    75.262	   16.1054	   3.18358	7.20512e+06	   75.1507	   16.0604	   3.13983	7.24822e+06	   75.0847	   16.1392	   3.21653	7.03907e+06	   75.1961	   16.1842	   3.26028	 6.9977e+06	
         R10	   3041	   75.4334	   16.1296	   3.20722	7.11705e+06	   75.3985	   16.0266	   3.10692	7.57139e+06	   75.2433	   16.0436	   3.12351	7.33411e+06	   75.2807	   16.1671	   3.24366	7.09529e+06	   75.4159	   16.0781	   3.15707	7.34195e+06	   75.3209	   16.0351	   3.11521	7.45123e+06	    75.262	   16.1054	   3.18358	7.21357e+06	    75.357	   16.1484	   3.22544	7.10522e+06	
         R10	   3042	   75.5878	   16.0948	   3.17329	7.31611e+06	   75.5187	   16.0045	   3.08545	7.69342e+06	   75.3985	   16.0266	   3.10692	7.52496e+06	   75.4334	   16.1296	   3.20722	7.25084e+06	   75.5533	   16.0496	   3.12937	7.50362e+06	   75.4586	   16.0155	   3.09619	7.60836e+06	   75.4159	   16.0781	   3.15707	7.38503e+06	   75.5106	   16.1122	   3.19026	7.28222e+06	
         R10	   3043	    75.859	   16.0821	   3.16093	7.31273e+06	   75.8471	   15.9968	   3.07796	7.83565e+06	   75.7393	   16.0032	   3.08415	7.80332e+06	   75.7361	   16.0877	   3.16636	7.28538e+06	   75.8531	   16.0394	   3.11944	7.57164e+06	   75.7932	        16	   3.08106	7.81877e+06	   75.7377	   16.0454	   3.12526	 7.5418e+06	   75.7976	   16.0849	   3.16365	7.29875e+06	
         R10	   3044	   75.9525	   16.0655	   3.14479	 7.4175e+06	   75.9387	   15.9848	   3.06633	7.79003e+06	   75.8471	   15.9968	   3.07796	7.80899e+06	    75.859	   16.0821	   3.16093	7.30487e+06	   75.9456	   16.0252	   3.10556	 7.6011e+06	   75.8929	   15.9908	   3.07214	 7.7994e+06	   75.8531	   16.0394	   3.11944	7.55402e+06	   75.9058	   16.0738	   3.15286	7.36063e+06	
         R10	   3045	   76.1467	   16.0743	   3.15333	7.08998e+06	   76.1448	   15.9912	   3.07251	7.65815e+06	    76.048	   16.0022	   3.08325	7.61289e+06	   76.0741	   16.0714	   3.15057	7.25908e+06	   76.1458	   16.0327	   3.11292	7.37079e+06	   76.0964	   15.9967	   3.07788	7.63502e+06	   76.0611	   16.0368	   3.11691	7.43496e+06	   76.1104	   16.0728	   3.15195	7.17424e+06	
         R10	   3046	   76.2333	   16.0641	   3.14348	7.05527e+06	   76.2352	   15.9884	   3.06976	7.58799e+06	   76.1448	   15.9912	   3.07251	 7.6503e+06	   76.1467	   16.0743	   3.15333	7.13516e+06	   76.2342	   16.0262	   3.10662	7.31473e+06	     76.19	   15.9898	   3.07114	7.61906e+06	   76.1458	   16.0327	   3.11292	7.38822e+06	     76.19	   16.0692	   3.14841	7.09383e+06	
         R10	   3047	   76.3243	   16.0502	   3.12991	6.99326e+06	   76.3237	   15.9844	   3.06589	7.38442e+06	   76.2352	   15.9884	   3.06976	7.57692e+06	   76.2333	   16.0641	   3.14348	7.07478e+06	    76.324	   16.0173	    3.0979	 7.1602e+06	   76.2794	   15.9864	   3.06783	7.47911e+06	   76.2342	   16.0262	   3.10662	 7.3154e+06	   76.2788	   16.0572	   3.13669	7.02704e+06	
         R10	   3048	   76.4167	   16.0504	   3.13008	6.95451e+06	   76.4133	   15.9823	   3.06386	7.19683e+06	   76.3237	   15.9844	   3.06589	7.47622e+06	   76.3243	   16.0502	   3.12991	6.91112e+06	    76.415	   16.0163	   3.09697	7.02927e+06	   76.3685	   15.9833	   3.06487	7.32477e+06	    76.324	   16.0173	    3.0979	7.17888e+06	   76.3705	   16.0503	      3.13	6.90657e+06	
         R10	   3049	   76.1539	    16.313	    3.3856	6.78503e+06	   76.3382	   16.3206	   3.39306	6.70362e+06	   76.3428	   16.2177	    3.2929	6.94533e+06	   76.1948	   16.2389	   3.31352	6.94937e+06	    76.246	   16.3168	   3.38933	6.73172e+06	   76.3405	   16.2692	   3.34298	6.81984e+06	   76.2688	   16.2283	   3.30321	6.93091e+06	   76.1744	   16.2759	   3.34956	6.85487e+06	
         R10	   3050	   76.1312	   16.4171	   3.48691	6.88521e+06	   76.3248	   16.4246	    3.4942	6.70524e+06	   76.3382	   16.3206	   3.39306	7.13739e+06	   76.1539	    16.313	    3.3856	 6.9903e+06	    76.228	   16.4208	   3.49055	 6.7802e+06	   76.3315	   16.3726	   3.44363	6.91903e+06	    76.246	   16.3168	   3.38933	7.05893e+06	   76.1426	    16.365	   3.43626	 6.9262e+06	
         R10	   3051	   75.7306	   16.2889	   3.36222	7.32763e+06	   75.7161	    16.402	   3.47219	7.30251e+06	   75.9366	   16.4079	     3.478	7.18489e+06	   75.9652	   16.2789	   3.35242	7.17725e+06	   75.7233	   16.3455	    3.4172	7.29159e+06	   75.8263	    16.405	    3.4751	7.24362e+06	   75.9509	   16.3434	   3.41521	7.16144e+06	   75.8479	   16.2839	   3.35732	 7.2522e+06	
         R10	   3052	   75.5199	   16.2631	   3.33709	7.23377e+06	   75.4909	    16.399	   3.46931	7.36419e+06	   75.7161	    16.402	   3.47219	7.22969e+06	   75.7306	   16.2889	   3.36222	7.38963e+06	   75.5054	   16.3311	    3.4032	7.26505e+06	   75.6035	   16.4005	   3.47075	7.29678e+06	   75.7233	   16.3455	    3.4172	7.28644e+06	   75.6252	    16.276	   3.34965	7.31056e+06	
         R10	   3053	   74.6296	   16.1237	    3.2014	6.68781e+06	    74.375	   16.1121	   3.19011	6.08485e+06	    74.375	   16.3175	   3.39002	6.79973e+06	   74.6487	   16.3286	   3.40081	6.70442e+06	   74.5023	   16.1179	   3.19576	6.36409e+06	    74.375	   16.2148	   3.29007	6.43436e+06	   74.5119	   16.3231	   3.39542	6.72705e+06	   74.6392	   16.2261	   3.30111	6.60809e+06	
         R10	   3054	   74.8548	    16.113	     3.191	6.74931e+06	   74.6296	   16.1237	    3.2014	6.53747e+06	   74.6487	   16.3286	   3.40081	6.79647e+06	   74.9194	   16.3258	   3.39811	6.89511e+06	   74.7422	   16.1183	    3.1962	6.63728e+06	   74.6392	   16.2261	   3.30111	 6.5962e+06	   74.7841	   16.3272	   3.39946	6.83761e+06	   74.8871	   16.2194	   3.29455	 6.7993e+06	
         R10	   3055	   75.1114	   16.2013	    3.2769	 7.4562e+06	    75.058	   16.0772	   3.15615	 7.0278e+06	   74.8548	    16.113	     3.191	6.99216e+06	   74.9194	   16.3258	   3.39811	6.32384e+06	   75.0847	   16.1392	   3.21653	7.23139e+06	   74.9564	   16.0951	   3.17357	 7.0045e+06	   74.8871	   16.2194	   3.29455	6.62951e+06	   75.0154	   16.2635	   3.33751	6.88046e+06	
         R10	   3056	   75.7361	   16.0877	   3.16636	7.32532e+06	   75.7393	   16.0032	   3.08415	 7.8376e+06	   75.6489	   15.9959	    3.0771	7.77611e+06	   75.5878	   16.0948	   3.17329	7.28889e+06	   75.7377	   16.0454	   3.12526	7.57914e+06	   75.6941	   15.9995	   3.08063	7.80638e+06	   75.6183	   16.0453	    3.1252	7.53056e+06	   75.6619	   16.0912	   3.16983	7.30654e+06	
         R10	   3057	   76.0741	   16.0714	   3.15057	7.40303e+06	    76.048	   16.0022	   3.08325	7.66845e+06	   75.9525	   16.0655	   3.14479	7.30381e+06	   76.0058	   16.1319	   3.20943	7.30588e+06	   76.0611	   16.0368	   3.11691	7.53454e+06	   76.0003	   16.0339	   3.11402	7.48611e+06	   75.9792	   16.0987	   3.17711	7.30377e+06	     76.04	   16.1017	      3.18	7.35415e+06	
         R10	   3058	   76.2577	   16.1396	   3.21693	6.94138e+06	   76.2333	   16.0641	   3.14348	7.22467e+06	   76.1467	   16.0743	   3.15333	7.24894e+06	   76.1129	   16.1834	    3.2595	6.91621e+06	   76.2455	   16.1019	   3.18021	7.06629e+06	     76.19	   16.0692	   3.14841	7.23484e+06	   76.1298	   16.1288	   3.20641	7.08012e+06	   76.1853	   16.1615	   3.23822	6.92307e+06	
         R10	   3059	    75.898	   16.1725	   3.24894	  7.225e+06	   76.0058	   16.1319	   3.20943	7.10703e+06	   75.9525	   16.0655	   3.14479	7.51455e+06	    75.859	   16.0821	   3.16093	7.45354e+06	   75.9519	   16.1522	   3.22918	7.16388e+06	   75.9792	   16.0987	   3.17711	7.31074e+06	   75.9058	   16.0738	   3.15286	7.48391e+06	   75.8785	   16.1273	   3.20494	7.33638e+06	
         R10	   3060	    75.898	   16.1725	   3.24894	7.10542e+06	    75.859	   16.0821	   3.16093	7.55058e+06	   75.7361	   16.0877	   3.16636	7.51417e+06	   75.7445	   16.1842	   3.26031	7.12691e+06	   75.8785	   16.1273	   3.20494	 7.3263e+06	   75.7976	   16.0849	   3.16365	7.53168e+06	   75.7403	   16.1359	   3.21334	 7.3171e+06	   75.8213	   16.1784	   3.25463	7.11582e+06	
         R10	   3061	   76.1467	   16.0743	   3.15333	 7.3372e+06	   76.0741	   16.0714	   3.15057	 7.3459e+06	   76.0058	   16.1319	   3.20943	7.26229e+06	   76.1129	   16.1834	    3.2595	6.96488e+06	   76.1104	   16.0728	   3.15195	 7.3414e+06	     76.04	   16.1017	      3.18	7.30369e+06	   76.0594	   16.1576	   3.23446	7.11179e+06	   76.1298	   16.1288	   3.20641	7.14811e+06	
         R10	   3062	   76.3243	   16.0502	   3.12991	7.13667e+06	   76.2333	   16.0641	   3.14348	7.28227e+06	   76.2577	   16.1396	   3.21693	6.85126e+06	   76.3301	   16.1107	   3.18878	6.94176e+06	   76.2788	   16.0572	   3.13669	7.20731e+06	   76.2455	   16.1019	   3.18021	7.05511e+06	   76.2939	   16.1252	   3.20286	6.89343e+06	   76.3272	   16.0804	   3.15935	7.02841e+06	
         R10	   3063	   76.4035	   16.1302	    3.2078	6.99827e+06	   76.4167	   16.0504	   3.13008	7.28295e+06	   76.3243	   16.0502	   3.12991	7.14084e+06	   76.3301	   16.1107	   3.18878	6.89376e+06	   76.4101	   16.0903	   3.16894	7.13098e+06	   76.3705	   16.0503	      3.13	7.18344e+06	   76.3272	   16.0804	   3.15935	7.00338e+06	   76.3668	   16.1205	   3.19829	6.93505e+06	
         R10	   3064	   76.2577	   16.1396	   3.21693	 6.8262e+06	   76.3428	   16.2177	    3.2929	6.81003e+06	   76.4035	   16.1302	    3.2078	7.32183e+06	   76.3301	   16.1107	   3.18878	6.96763e+06	   76.3002	   16.1787	   3.25492	6.80144e+06	   76.3731	    16.174	   3.25035	7.06525e+06	   76.3668	   16.1205	   3.19829	7.13478e+06	   76.2939	   16.1252	   3.20286	6.89454e+06	
         R10	   3065	   76.1948	   16.2389	   3.31352	6.80934e+06	   76.3428	   16.2177	    3.2929	6.75908e+06	   76.2577	   16.1396	   3.21693	7.04919e+06	   76.1129	   16.1834	    3.2595	6.96873e+06	   76.2688	   16.2283	   3.30321	6.77517e+06	   76.3002	   16.1787	   3.25492	6.88588e+06	   76.1853	   16.1615	   3.23822	7.00532e+06	   76.1538	   16.2111	   3.28651	6.88143e+06	
         R10	   3066	   75.9652	   16.2789	   3.35242	7.14718e+06	   75.9366	   16.4079	     3.478	 7.1951e+06	   76.1312	   16.4171	   3.48691	6.93219e+06	   76.1539	    16.313	    3.3856	7.01968e+06	   75.9509	   16.3434	   3.41521	7.15394e+06	   76.0339	   16.4125	   3.48246	7.06122e+06	   76.1426	    16.365	   3.43626	 6.9637e+06	   76.0595	   16.2959	   3.36901	7.08235e+06	
         R10	   3067	   75.9652	   16.2789	   3.35242	6.87305e+06	   76.1539	    16.313	    3.3856	6.69731e+06	   76.1948	   16.2389	   3.31352	7.10851e+06	   76.1129	   16.1834	    3.2595	7.07108e+06	   76.0595	   16.2959	   3.36901	6.78234e+06	   76.1744	   16.2759	   3.34956	6.89748e+06	   76.1538	   16.2111	   3.28651	7.08191e+06	    76.039	   16.2311	   3.30596	6.97024e+06	
         R10	   3068	   75.9652	   16.2789	   3.35242	6.87369e+06	   76.1129	   16.1834	    3.2595	7.17828e+06	   76.0058	   16.1319	   3.20943	7.14897e+06	    75.898	   16.1725	   3.24894	7.21774e+06	    76.039	   16.2311	   3.30596	7.02445e+06	   76.0594	   16.1576	   3.23446	7.16208e+06	   75.9519	   16.1522	   3.22918	7.18306e+06	   75.9316	   16.2257	   3.30068	7.03929e+06	
         R10	   3069	   75.7306	   16.2889	   3.36222	7.06324e+06	   75.9652	   16.2789	   3.35242	7.00914e+06	    75.898	   16.1725	   3.24894	7.27409e+06	   75.7445	   16.1842	   3.26031	7.33682e+06	   75.8479	   16.2839	   3.35732	7.03609e+06	   75.9316	   16.2257	   3.30068	7.13596e+06	   75.8213	   16.1784	   3.25463	7.30504e+06	   75.7375	   16.2366	   3.31126	7.18991e+06	
         R10	   3070	   75.5199	   16.2631	   3.33709	7.00236e+06	   75.7306	   16.2889	   3.36222	7.05707e+06	   75.7445	   16.1842	   3.26031	7.41255e+06	   75.6229	   16.1742	   3.25058	7.36974e+06	   75.6252	    16.276	   3.34965	7.02887e+06	   75.7375	   16.2366	   3.31126	7.22549e+06	   75.6837	   16.1792	   3.25544	7.39113e+06	   75.5714	   16.2187	   3.29383	7.18075e+06	
         R10	   3071	   75.5878	   16.0948	   3.17329	7.37231e+06	   75.4334	   16.1296	   3.20722	7.32067e+06	   75.5199	   16.2631	   3.33709	 6.9863e+06	   75.6229	   16.1742	   3.25058	7.47577e+06	   75.5106	   16.1122	   3.19026	7.34554e+06	   75.4766	   16.1964	   3.27215	7.14371e+06	   75.5714	   16.2187	   3.29383	7.22637e+06	   75.6053	   16.1345	   3.21193	7.42105e+06	
         R10	   3072	   75.7445	   16.1842	   3.26031	7.12765e+06	   75.7361	   16.0877	   3.16636	7.57286e+06	   75.5878	   16.0948	   3.17329	7.44612e+06	   75.6229	   16.1742	   3.25058	7.08469e+06	   75.7403	   16.1359	   3.21334	7.34689e+06	   75.6619	   16.0912	   3.16983	7.50851e+06	   75.6053	   16.1345	   3.21193	7.26467e+06	   75.6837	   16.1792	   3.25544	7.10597e+06	
         R10	   3073	   75.5199	   16.2631	   3.33709	7.11269e+06	   75.4334	   16.1296	   3.20722	7.19545e+06	   75.2807	   16.1671	   3.24366	7.14945e+06	   75.3437	    16.264	   3.33793	6.97927e+06	   75.4766	   16.1964	   3.27215	7.14524e+06	    75.357	   16.1484	   3.22544	7.16928e+06	   75.3122	   16.2155	    3.2908	 7.0598e+06	   75.4318	   16.2636	   3.33751	7.04591e+06	
         R10	   3074	   75.2321	   16.3784	   3.44929	7.03119e+06	   75.4909	    16.399	   3.46931	 7.3012e+06	   75.5199	   16.2631	   3.33709	7.30266e+06	   75.3437	    16.264	   3.33793	7.33468e+06	   75.3615	   16.3887	    3.4593	7.15852e+06	   75.5054	   16.3311	    3.4032	7.26854e+06	   75.4318	   16.2636	   3.33751	 7.3169e+06	   75.2879	   16.3212	   3.39361	  7.171e+06	
         R10	   3075	   75.2807	   16.1671	   3.24366	7.17759e+06	   75.1114	   16.2013	    3.2769	7.04698e+06	   75.2321	   16.3784	   3.44929	6.98772e+06	   75.3437	    16.264	   3.33793	7.58126e+06	   75.1961	   16.1842	   3.26028	7.11193e+06	   75.1717	   16.2898	   3.36309	6.98779e+06	   75.2879	   16.3212	   3.39361	7.27067e+06	   75.3122	   16.2155	    3.2908	7.37534e+06	
         R10	   3076	   75.6489	   15.9959	    3.0771	7.76722e+06	   75.5187	   16.0045	   3.08545	7.68697e+06	   75.5878	   16.0948	   3.17329	7.34659e+06	   75.5838	   16.0002	   3.08128	7.72672e+06	   75.5533	   16.0496	   3.12937	7.51554e+06	   75.6183	   16.0453	    3.1252	7.55397e+06	       N/A	       N/A	       N/A	        N/A	       N/A	       N/A	       N/A	        N/A	
         R10	   3077	    76.048	   16.0022	   3.08325	7.69027e+06	   75.9387	   15.9848	   3.06633	7.81673e+06	   75.9525	   16.0655	   3.14479	7.38036e+06	   75.9934	   15.9935	   3.07479	7.75349e+06	   75.9456	   16.0252	   3.10556	7.59742e+06	   76.0003	   16.0339	   3.11402	7.53435e+06	       N/A	       N/A	       N/A	        N/A	       N/A	       N/A	       N/A	        N/A	
         R10	   3078	   75.1114	   16.2013	    3.2769	7.36769e+06	   74.9194	   16.3258	   3.39811	  6.505e+06	   75.2321	   16.3784	   3.44929	6.90701e+06	   75.0154	   16.2635	   3.33751	6.91505e+06	   75.0757	   16.3521	    3.4237	6.69335e+06	   75.1717	   16.2898	   3.36309	 7.1055e+06	       N/A	       N/A	       N/A	        N/A	       N/A	       N/A	       N/A	        N/A	
         R10	   3079	   73.0071	      15.3	       1.6	7.22908e+06	     72.25	      15.3	       1.6	7.18429e+06	     72.25	      15.3	       2.4	5.60213e+06	   73.0071	      15.3	       2.4	8.08707e+06	   72.6286	      15.3	       1.6	6.89996e+06	     72.25	      15.3	         2	5.91535e+06	   72.6286	      15.3	       2.4	6.52361e+06	   73.0071	      15.3	         2	7.34915e+06	
         R10	   3080	   73.6137	      15.3	       1.6	7.86108e+06	   73.0071	      15.3	       1.6	7.62374e+06	   73.0071	      15.3	       2.4	6.96262e+06	   73.6137	      15.3	       2.4	7.87679e+06	   73.3104	      15.3	       1.6	7.61774e+06	   73.0071	      15.3	         2	6.64677e+06	   73.3104	      15.3	       2.4	7.23966e+06	   73.6137	      15.3	         2	 7.7802e+06	
         R10	   3081	   74.0696	      15.3	   2.01934	7.95839e+06	   74.0696	      15.3	       2.4	8.86774e+06	    74.375	      15.3	       2.4	6.40354e+06	    74.375	      15.3	   2.13333	6.91304e+06	   74.0696	      15.3	   2.20967	8.41306e+06	   74.2223	      15.3	       2.4	7.61202e+06	    74.375	      15.3	   2.26667	6.62572e+06	   74.2223	      15.3	   2.07633	7.42817e+06	
         R10	   3082	   74.0696	      15.3	   2.01934	 7.3466e+06	    74.375	      15.3	   1.86667	7.70326e+06	    74.375	      15.3	       1.6	8.12227e+06	   74.0696	      15.3	       1.6	8.10071e+06	   74.2223	      15.3	     1.943	7.47898e+06	    74.375	      15.3	   1.73333	7.90922e+06	   74.2223	      15.3	       1.6	8.09549e+06	   74.0696	      15.3	   1.80967	7.63482e+06	
         R10	   3083	   74.0696	      15.3	   2.01934	  9.379e+06	   74.0696	      15.3	       1.6	8.26184e+06	   73.6137	      15.3	       1.6	7.87021e+06	   73.6137	      15.3	       2.4	5.29961e+06	   74.0696	      15.3	   1.80967	8.74304e+06	   73.8416	      15.3	       1.6	8.05131e+06	   73.6137	      15.3	         2	6.44732e+06	   73.8416	      15.3	   2.20967	7.29573e+06	
         R10	   3084	   74.0696	      15.3	   2.01934	7.63745e+06	    74.375	      15.3	   2.13333	6.79903e+06	    74.375	      15.3	   1.86667	7.64574e+06	   74.2223	      15.3	   2.07633	7.20737e+06	    74.375	      15.3	         2	7.21236e+06	   74.2223	      15.3	     1.943	7.62999e+06	       N/A	       N/A	       N/A	        N/A	       N/A	       N/A	       N/A	        N/A	
         R10	   3085	   73.6137	      15.3	       2.4	7.29825e+06	   74.0696	      15.3	       2.4	6.52294e+06	   74.0696	      15.3	   2.01934	9.46993e+06	   73.8416	      15.3	       2.4	6.66216e+06	   74.0696	      15.3	   2.20967	7.92707e+06	   73.8416	      15.3	   2.20967	8.29568e+06	       N/A	       N/A	       N/A	        N/A	       N/A	       N/A	       N/A	        N/A	
         R10	   3086	    72.961	      15.3	         0	9.23919e+06	     72.25	      15.3	         0	1.29548e+07	     72.25	      15.3	       0.8	7.52459e+06	    72.986	      15.3	       0.8	9.06382e+06	   72.6055	      15.3	         0	1.07293e+07	     72.25	      15.3	       0.4	 1.0236e+07	    72.618	      15.3	       0.8	 8.2517e+06	   72.9735	      15.3	       0.4	8.94279e+06	
         R10	   3087	   73.6123	      15.3	         0	9.93198e+06	    72.961	      15.3	         0	1.06363e+07	    72.986	      15.3	       0.8	8.78084e+06	   73.5855	      15.3	       0.8	8.96341e+06	   73.2867	      15.3	         0	1.02778e+07	   72.9735	      15.3	       0.4	9.53597e+06	   73.2857	      15.3	       0.8	8.79559e+06	   73.5989	      15.3	       0.4	9.35212e+06	
         R10	   3088	   74.0142	      15.3	  0.419023	9.27438e+06	   74.0485	      15.3	       0.8	9.12073e+06	    74.375	      15.3	       0.8	9.05053e+06	   74.3438	      15.3	  0.426322	 9.8018e+06	   74.0313	      15.3	  0.609512	9.01841e+06	   74.2117	      15.3	       0.8	9.07738e+06	   74.3594	      15.3	  0.613161	9.39881e+06	    74.179	      15.3	  0.422673	9.50792e+06	
         R10	   3089	   74.3438	      15.3	  0.426322	9.57826e+06	    74.375	      15.3	       0.8	9.10226e+06	   74.6887	      15.3	       0.8	9.25713e+06	   74.6494	      15.3	  0.459467	9.58423e+06	   74.3594	      15.3	  0.613161	9.31078e+06	   74.5318	      15.3	       0.8	9.17674e+06	    74.669	      15.3	  0.629734	9.41305e+06	   74.4966	      15.3	  0.442895	9.57632e+06	
         R10	   3090	   74.6494	      15.3	  0.459467	 9.8677e+06	   74.6887	      15.3	       0.8	 9.2279e+06	    74.983	      15.3	       0.8	 9.3094e+06	    74.983	      15.3	  0.471679	 9.1366e+06	    74.669	      15.3	  0.629734	 9.5434e+06	   74.8358	      15.3	       0.8	9.26753e+06	    74.983	      15.3	   0.63584	9.20818e+06	   74.8162	      15.3	  0.465573	9.49848e+06	
         R10	   3091	    74.983	      15.3	  0.471679	9.94431e+06	    74.983	      15.3	       0.8	9.39918e+06	   75.2579	      15.3	       0.8	9.60523e+06	   75.2411	      15.3	  0.455406	1.02143e+07	    74.983	      15.3	   0.63584	9.66188e+06	   75.1204	      15.3	       0.8	9.49593e+06	   75.2495	      15.3	  0.627703	9.86099e+06	    75.112	      15.3	  0.463543	1.00753e+07	
         R10	   3092	   75.2411	      15.3	  0.455406	9.61436e+06	   75.2579	      15.3	       0.8	9.60465e+06	   75.5134	      15.3	       0.8	9.66248e+06	   75.5031	      15.3	  0.486008	1.00117e+07	   75.2495	      15.3	  0.627703	9.56334e+06	   75.3856	      15.3	       0.8	9.63223e+06	   75.5082	      15.3	  0.643004	9.78573e+06	   75.3721	      15.3	  0.470707	9.81176e+06	
         R10	   3093	   75.5031	      15.3	  0.486008	1.07662e+07	   75.5134	      15.3	       0.8	9.76588e+06	   75.7495	      15.3	       0.8	9.89304e+06	   75.7322	      15.3	  0.552431	9.30613e+06	   75.5082	      15.3	  0.643004	1.02195e+07	   75.6314	      15.3	       0.8	9.82738e+06	   75.7409	      15.3	  0.676215	9.57749e+06	   75.6177	      15.3	  0.519219	1.00328e+07	
         R10	   3094	   75.7322	      15.3	  0.552431	1.03681e+07	   75.7495	      15.3	       0.8	 9.8506e+06	   75.9662	      15.3	       0.8	9.99015e+06	   75.9608	      15.3	  0.582564	1.04283e+07	   75.7409	      15.3	  0.676215	1.00929e+07	   75.8578	      15.3	       0.8	9.91518e+06	   75.9635	      15.3	  0.691282	1.02054e+07	   75.8465	      15.3	  0.567497	1.03927e+07	
         R10	   3095	   75.9608	      15.3	  0.582564	1.04062e+07	   75.9662	      15.3	       0.8	1.00167e+07	   76.1635	      15.3	       0.8	 1.0168e+07	   76.1385	      15.3	  0.567834	1.05217e+07	   75.9635	      15.3	  0.691282	1.02108e+07	   76.0648	      15.3	       0.8	1.00867e+07	    76.151	      15.3	  0.683917	1.03283e+07	   76.0497	      15.3	  0.575199	1.04624e+07	
         R10	   3096	   76.1385	      15.3	  0.567834	1.08162e+07	   76.1635	      15.3	       0.8	1.01406e+07	   76.3415	      15.3	       0.8	1.02131e+07	   76.3447	      15.3	  0.636697	1.05807e+07	    76.151	      15.3	  0.683917	1.04687e+07	   76.2525	      15.3	       0.8	1.01724e+07	   76.3431	      15.3	  0.718348	1.03923e+07	   76.2416	      15.3	  0.602265	1.06904e+07	
         R10	   3097	   76.3447	      15.3	  0.636697	1.10563e+07	   76.3415	      15.3	       0.8	1.02886e+07	      76.5	      15.3	       0.8	1.06758e+07	      76.5	      15.3	  0.637669	1.06993e+07	   76.3431	      15.3	  0.718348	1.06669e+07	   76.4207	      15.3	       0.8	1.04484e+07	      76.5	      15.3	  0.718834	1.05515e+07	   76.4224	      15.3	  0.637183	1.08513e+07	
         R10	   3098	   76.3447	      15.3	  0.636697	1.10036e+07	      76.5	      15.3	  0.637669	1.08221e+07	      76.5	      15.3	  0.450225	1.18552e+07	   76.3052	      15.3	  0.436837	1.12631e+07	   76.4224	      15.3	  0.637183	1.08796e+07	      76.5	      15.3	  0.543947	1.12574e+07	   76.4026	      15.3	  0.443531	1.15455e+07	    76.325	      15.3	  0.536767	1.11331e+07	
         R10	   3099	   76.3052	      15.3	  0.436837	1.12836e+07	      76.5	      15.3	  0.450225	1.20179e+07	      76.5	      15.3	  0.237669	1.28797e+07	    76.271	      15.3	  0.237031	1.25344e+07	   76.4026	      15.3	  0.443531	1.15968e+07	      76.5	      15.3	  0.343947	1.23323e+07	   76.3855	      15.3	   0.23735	1.26946e+07	   76.2881	      15.3	  0.336934	1.19046e+07	
         R10	   3100	    76.271	      15.3	  0.237031	1.25662e+07	      76.5	      15.3	  0.237669	1.25498e+07	      76.5	      15.3	         0	1.80257e+07	   76.2666	      15.3	         0	1.16947e+07	   76.3855	      15.3	   0.23735	1.24765e+07	      76.5	      15.3	  0.118834	1.50947e+07	   76.3833	      15.3	         0	1.48082e+07	   76.2688	      15.3	  0.118515	1.20364e+07	
         R10	   3101	   76.0351	      15.3	  0.261056	1.18682e+07	    76.271	      15.3	  0.237031	1.23825e+07	   76.2666	      15.3	         0	1.31773e+07	   75.9734	      15.3	         0	1.06668e+07	    76.153	      15.3	  0.249044	1.21002e+07	   76.2688	      15.3	  0.118515	1.26108e+07	     76.12	      15.3	         0	1.18853e+07	   76.0042	      15.3	  0.130528	1.12627e+07	
         R10	   3102	   73.6123	      15.3	         0	1.07126e+07	   73.5855	      15.3	       0.8	9.08844e+06	   74.0485	      15.3	       0.8	9.08953e+06	   74.0142	      15.3	  0.419023	8.85663e+06	   73.5989	      15.3	       0.4	9.82162e+06	    73.817	      15.3	       0.8	9.06183e+06	   74.0313	      15.3	  0.609512	8.77959e+06	   73.8133	      15.3	  0.209512	9.78132e+06	
         R10	   3103	   74.2039	      15.3	         0	1.06281e+07	   73.6123	      15.3	         0	8.83501e+06	   74.0142	      15.3	  0.419023	8.84711e+06	   74.3438	      15.3	  0.426322	9.81012e+06	   73.9081	      15.3	         0	9.71028e+06	   73.8133	      15.3	  0.209512	8.80335e+06	    74.179	      15.3	  0.422673	9.31387e+06	   74.2738	      15.3	  0.213161	1.01643e+07	
         R10	   3104	   74.7358	      15.3	         0	1.05906e+07	   74.2039	      15.3	         0	9.25282e+06	   74.3438	      15.3	  0.426322	9.51505e+06	   74.6494	      15.3	  0.459467	9.57429e+06	   74.4699	      15.3	         0	9.86865e+06	   74.2738	      15.3	  0.213161	9.36414e+06	   74.4966	      15.3	  0.442895	9.53288e+06	   74.6926	      15.3	  0.229734	 1.0051e+07	
         R10	   3105	   76.1385	      15.3	  0.567834	1.05838e+07	   76.3052	      15.3	  0.436837	1.15263e+07	    76.271	      15.3	  0.237031	1.17549e+07	   76.0351	      15.3	  0.261056	1.17465e+07	   76.2218	      15.3	  0.502336	1.10462e+07	   76.2881	      15.3	  0.336934	1.16316e+07	    76.153	      15.3	  0.249044	 1.1741e+07	   76.0868	      15.3	  0.414445	1.11211e+07	
         R10	   3106	   75.9608	      15.3	  0.582564	1.04457e+07	   76.1385	      15.3	  0.567834	1.06251e+07	   76.0351	      15.3	  0.261056	1.13803e+07	   75.8083	      15.3	  0.329547	1.04662e+07	   76.0497	      15.3	  0.575199	1.05332e+07	   76.0868	      15.3	  0.414445	1.09696e+07	   75.9217	      15.3	  0.295301	1.09185e+07	   75.8846	      15.3	  0.456055	1.04411e+07	
         R10	   3107	   75.8083	      15.3	  0.329547	1.07266e+07	   76.0351	      15.3	  0.261056	1.13116e+07	   75.9734	      15.3	         0	1.16461e+07	   75.6206	      15.3	         0	9.83443e+06	   75.9217	      15.3	  0.295301	1.10042e+07	   76.0042	      15.3	  0.130528	1.14544e+07	    75.797	      15.3	         0	1.07156e+07	   75.7145	      15.3	  0.164773	1.02561e+07	
         R10	   3108	   75.6206	      15.3	         0	   1.05e+07	   75.5031	      15.3	  0.486008	1.05748e+07	   75.7322	      15.3	  0.552431	9.16232e+06	   75.8083	      15.3	  0.329547	1.10584e+07	   75.5619	      15.3	  0.243004	1.05161e+07	   75.6177	      15.3	  0.519219	9.85456e+06	   75.7703	      15.3	  0.440989	1.00786e+07	   75.7145	      15.3	  0.164773	1.07176e+07	
         R10	   3109	   75.2081	      15.3	         0	9.72767e+06	   75.2411	      15.3	  0.455406	9.46786e+06	   75.5031	      15.3	  0.486008	1.00473e+07	   75.6206	      15.3	         0	1.08088e+07	   75.2246	      15.3	  0.227703	9.56505e+06	   75.3721	      15.3	  0.470707	9.75672e+06	   75.5619	      15.3	  0.243004	1.04168e+07	   75.4143	      15.3	         0	1.02644e+07	
         R10	   3110	   74.7358	      15.3	         0	9.51713e+06	    74.983	      15.3	  0.471679	9.85111e+06	   75.2411	      15.3	  0.455406	1.01718e+07	   75.2081	      15.3	         0	1.04938e+07	   74.8594	      15.3	   0.23584	9.63713e+06	    75.112	      15.3	  0.463543	1.00079e+07	   75.2246	      15.3	  0.227703	1.03082e+07	    74.972	      15.3	         0	1.00048e+07	
         R10	   3111	   76.1385	      15.3	  0.567834	1.06147e+07	   76.3447	      15.3	  0.636697	1.04958e+07	   76.3052	      15.3	  0.436837	1.13228e+07	   76.2416	      15.3	  0.602265	1.05508e+07	    76.325	      15.3	  0.536767	 1.0908e+07	   76.2218	      15.3	  0.502336	1.09672e+07	       N/A	       N/A	       N/A	        N/A	       N/A	       N/A	       N/A	        N/A	
         R10	   3112	   74.7358	      15.3	         0	9.79575e+06	   74.6494	      15.3	  0.459467	 9.8898e+06	    74.983	      15.3	  0.471679	9.13831e+06	   74.6926	      15.3	  0.229734	9.81073e+06	   74.8162	      15.3	  0.465573	9.50526e+06	   74.8594	      15.3	   0.23584	9.45008e+06	       N/A	       N/A	       N/A	        N/A	       N/A	       N/A	       N/A	        N/A	
         R10	   3113	   75.7322	      15.3	  0.552431	1.02599e+07	   75.9608	      15.3	  0.582564	1.02563e+07	   75.8083	      15.3	  0.329547	1.07593e+07	   75.8465	      15.3	  0.567497	1.02555e+07	   75.8846	      15.3	  0.456055	1.05026e+07	   75.7703	      15.3	  0.440989	1.04988e+07	       N/A	       N/A	       N/A	        N/A	       N/A	       N/A	       N/A	        N/A	
         R10	   3114	   80.1935	        19	         6	1.06274e+07	     80.75	        19	         6	1.01622e+07	     80.75	     19.83	         6	9.19205e+06	   80.1935	     19.83	         6	8.59617e+06	   80.4717	        19	         6	1.02284e+07	     80.75	    19.415	         6	9.63637e+06	   80.4717	     19.83	         6	8.88403e+06	   80.1935	    19.415	         6	9.46388e+06	
         R10	   3115	   79.6538	        19	         6	5.58527e+06	   80.1935	        19	         6	 9.4218e+06	   80.1935	     19.83	         6	8.22024e+06	   79.6538	     19.83	         6	 6.7535e+06	   79.9236	        19	         6	7.30011e+06	   80.1935	    19.415	         6	8.32062e+06	   79.9236	     19.83	         6	7.42554e+06	   79.6538	    19.415	         6	6.05008e+06	
         R10	   3116	    79.131	        19	         6	 3.9787e+06	   79.6538	        19	         6	7.40351e+06	   79.6538	     19.83	         6	6.38182e+06	    79.131	     19.83	         6	 5.0417e+06	   79.3924	        19	         6	5.57803e+06	   79.6538	    19.415	         6	6.65595e+06	   79.3924	     19.83	         6	5.64375e+06	    79.131	    19.415	         6	 4.4762e+06	
         R10	   3117	    78.625	   19.3952	         6	4.56639e+06	    78.625	        19	         6	3.89306e+06	    79.131	        19	         6	6.32796e+06	    79.131	     19.83	         6	4.64237e+06	    78.625	   19.1976	         6	4.17317e+06	    78.878	        19	         6	5.02098e+06	    79.131	    19.415	         6	5.38812e+06	    78.878	   19.6126	         6	4.50066e+06	
         R10	   3118	    78.625	   19.3952	         6	5.38913e+06	    79.131	     19.83	         6	4.64507e+06	    78.625	     19.83	         6	3.60592e+06	    78.878	   19.6126	         6	4.86092e+06	    78.878	     19.83	         6	4.05471e+06	    78.625	   19.6126	         6	4.43136e+06	       N/A	       N/A	       N/A	        N/A	       N/A	       N/A	       N/A	        N/A	
         R10	   3119	   80.1935	     19.83	         6	8.06772e+06	     80.75	     19.83	         6	9.75083e+06	     80.75	     20.66	         6	 8.0652e+06	   80.0004	     20.66	         6	8.47808e+06	   80.4717	     19.83	         6	8.83294e+06	     80.75	    20.245	         6	8.90165e+06	   80.3752	     20.66	         6	8.25437e+06	   80.0969	    20.245	         6	 8.1916e+06	
         R10	   3120	   79.6538	     19.83	         6	5.66898e+06	   80.1935	     19.83	         6	7.02419e+06	   80.0004	     20.66	         6	6.54852e+06	   79.2921	     20.66	         6	4.66843e+06	   79.9236	     19.83	         6	 6.2953e+06	   80.0969	    20.245	         6	6.73374e+06	   79.6462	     20.66	         6	5.57875e+06	   79.4729	    20.245	         6	5.14718e+06	
         R10	   3121	    78.625	     20.66	         6	2.37859e+06	    78.625	     19.83	         6	3.95532e+06	    79.131	     19.83	         6	 4.4753e+06	   79.2921	     20.66	         6	3.84401e+06	    78.625	    20.245	         6	3.11862e+06	    78.878	     19.83	         6	4.13257e+06	   79.2115	    20.245	         6	4.05778e+06	   78.9585	     20.66	         6	2.90689e+06	
         R10	   3122	    79.131	     19.83	         6	4.51837e+06	   79.6538	     19.83	         6	5.37246e+06	   79.2921	     20.66	         6	3.73408e+06	   79.3924	     19.83	         6	4.87281e+06	   79.4729	    20.245	         6	4.51875e+06	   79.2115	    20.245	         6	4.01325e+06	       N/A	       N/A	       N/A	        N/A	       N/A	       N/A	       N/A	        N/A	
         R10	   3123	   80.0004	     20.66	         6	7.70721e+06	     80.75	     20.66	         6	6.66135e+06	     80.75	      21.5	         6	 9.6748e+06	   80.0094	      21.5	         6	4.94607e+06	   80.3752	     20.66	         6	7.15682e+06	     80.75	     21.08	         6	 7.7001e+06	   80.3797	      21.5	         6	6.08335e+06	   80.0049	     21.08	         6	5.94894e+06	
         R10	   3124	   79.2921	     20.66	         6	4.50379e+06	   80.0004	     20.66	         6	6.32002e+06	   80.0094	      21.5	         6	6.35357e+06	   79.3011	      21.5	         6	3.24136e+06	   79.6462	     20.66	         6	 5.3561e+06	   80.0049	     21.08	         6	6.14402e+06	   79.6553	      21.5	         6	3.15842e+06	   79.2966	     21.08	         6	2.61039e+06	
         R10	   3125	    78.625	     20.66	         6	3.02531e+06	   79.2921	     20.66	         6	 3.9289e+06	   79.3011	      21.5	         6	 4.6345e+06	    78.625	      21.5	         6	3.19838e+06	   78.9585	     20.66	         6	3.31254e+06	   79.2966	     21.08	         6	 4.1354e+06	   78.9631	      21.5	         6	 1.8762e+06	    78.625	     21.08	         6	     785848	
         R10	   3126	    72.986	      15.3	       0.8	9.18256e+06	     72.25	      15.3	       0.8	8.05872e+06	     72.25	      15.3	       1.6	6.91429e+06	   73.0071	      15.3	       1.6	7.12954e+06	    72.618	      15.3	       0.8	8.45686e+06	     72.25	      15.3	       1.2	7.48117e+06	   72.6286	      15.3	       1.6	6.87648e+06	   72.9966	      15.3	       1.2	8.05457e+06	
         R10	   3127	   73.5855	      15.3	       0.8	8.75971e+06	    72.986	      15.3	       0.8	8.51372e+06	   73.0071	      15.3	       1.6	7.83393e+06	   73.6137	      15.3	       1.6	7.93281e+06	   73.2857	      15.3	       0.8	8.61018e+06	   72.9966	      15.3	       1.2	8.12778e+06	   73.3104	      15.3	       1.6	7.80592e+06	   73.5996	      15.3	       1.2	8.32437e+06	
         R10	   3128	   74.0696	      15.3	   1.21934	8.81293e+06	   74.0696	      15.3	       1.6	8.09149e+06	    74.375	      15.3	       1.6	8.23064e+06	    74.375	      15.3	   1.34603	8.34242e+06	   74.0696	      15.3	   1.40967	  8.441e+06	   74.2223	      15.3	       1.6	8.16041e+06	    74.375	      15.3	   1.47302	8.28253e+06	   74.2223	      15.3	   1.28268	 8.5718e+06	
         R10	   3129	   74.0696	      15.3	   1.21934	  8.444e+06	    74.375	      15.3	   1.07937	8.97889e+06	    74.375	      15.3	       0.8	9.12359e+06	   74.0485	      15.3	       0.8	9.11387e+06	   74.2223	      15.3	   1.14935	8.70999e+06	    74.375	      15.3	  0.939683	9.04711e+06	   74.2117	      15.3	       0.8	9.11711e+06	   74.0591	      15.3	   1.00967	8.76982e+06	
         R10	   3130	   73.6137	      15.3	       1.6	7.69709e+06	   74.0696	      15.3	   1.21934	8.66007e+06	   74.0485	      15.3	       0.8	9.06567e+06	   73.5855	      15.3	       0.8	9.12821e+06	   73.8416	      15.3	   1.40967	8.17029e+06	   74.0591	      15.3	   1.00967	8.85519e+06	    73.817	      15.3	       0.8	9.08223e+06	   73.5996	      15.3	       1.2	8.39756e+06	
         R10	   3131	   74.0696	      15.3	   1.21934	8.58646e+06	    74.375	      15.3	   1.34603	8.32521e+06	    74.375	      15.3	   1.07937	8.97545e+06	   74.2223	      15.3	   1.28268	8.44839e+06	    74.375	      15.3	    1.2127	8.64901e+06	   74.2223	      15.3	   1.14935	8.77711e+06	       N/A	       N/A	       N/A	        N/A	       N/A	       N/A	       N/A	        N/A	
         R10	   3132	   74.0696	      15.3	       1.6	7.99511e+06	   74.0696	      15.3	   1.21934	8.67173e+06	   73.6137	      15.3	       1.6	 7.7429e+06	   74.0696	      15.3	   1.40967	8.32272e+06	   73.8416	      15.3	   1.40967	8.18252e+06	   73.8416	      15.3	       1.6	7.85373e+06	       N/A	       N/A	       N/A	        N/A	       N/A	       N/A	       N/A	        N/A	
         R10	   3133	   76.7279	      15.3	         0	1.16521e+07	      76.5	      15.3	         0	1.69267e+07	      76.5	      15.3	  0.237669	1.17593e+07	   76.7279	      15.3	  0.212304	1.17295e+07	    76.614	      15.3	         0	 1.4237e+07	      76.5	      15.3	  0.118834	 1.4139e+07	    76.614	      15.3	  0.224987	1.16361e+07	   76.7279	      15.3	  0.106152	1.16028e+07	
         R10	   3134	   76.7279	      15.3	  0.212304	1.16948e+07	      76.5	      15.3	  0.237669	1.19638e+07	      76.5	      15.3	  0.450225	1.09898e+07	   76.7177	      15.3	  0.419759	1.05134e+07	    76.614	      15.3	  0.224987	1.18181e+07	      76.5	      15.3	  0.343947	 1.1353e+07	   76.6089	      15.3	  0.434992	 1.0692e+07	   76.7228	      15.3	  0.316032	1.10997e+07	
         R10	   3135	   76.7177	      15.3	  0.419759	1.05047e+07	      76.5	      15.3	  0.450225	1.07783e+07	      76.5	      15.3	  0.637669	1.00316e+07	   76.6973	      15.3	  0.607315	1.01239e+07	   76.6089	      15.3	  0.434992	1.06261e+07	      76.5	      15.3	  0.543947	1.03149e+07	   76.5986	      15.3	  0.622492	1.00338e+07	   76.7075	      15.3	  0.513537	1.03141e+07	
         R10	   3136	   76.6973	      15.3	  0.607315	 1.0219e+07	      76.5	      15.3	  0.637669	9.77562e+06	      76.5	      15.3	       0.8	9.86126e+06	    76.648	      15.3	       0.8	9.51185e+06	   76.5986	      15.3	  0.622492	9.97599e+06	      76.5	      15.3	  0.718834	9.67631e+06	    76.574	      15.3	       0.8	9.65214e+06	   76.6726	      15.3	  0.703657	9.85638e+06	
         R10	   3137	   76.9061	      15.3	  0.619706	9.77449e+06	   76.6973	      15.3	  0.607315	1.00117e+07	    76.648	      15.3	       0.8	9.45239e+06	    76.805	      15.3	       0.8	9.40588e+06	   76.8017	      15.3	   0.61351	9.88892e+06	   76.6726	      15.3	  0.703657	9.72397e+06	   76.7265	      15.3	       0.8	9.42385e+06	   76.8556	      15.3	  0.709853	9.58596e+06	
         R10	   3138	   77.1251	      15.3	  0.595442	9.66769e+06	   77.1462	      15.3	       0.8	9.30835e+06	   77.3304	      15.3	       0.8	  9.271e+06	   77.3242	      15.3	  0.543019	 9.6237e+06	   77.1357	      15.3	  0.697721	9.48089e+06	   77.2383	      15.3	       0.8	9.28754e+06	   77.3273	      15.3	   0.67151	9.43485e+06	   77.2247	      15.3	   0.56923	9.63869e+06	
         R10	   3139	   77.3242	      15.3	  0.543019	9.76525e+06	   77.3304	      15.3	       0.8	9.25436e+06	   77.5236	      15.3	       0.8	9.18743e+06	   77.5136	      15.3	  0.520072	9.45641e+06	   77.3273	      15.3	   0.67151	9.49875e+06	    77.427	      15.3	       0.8	9.21914e+06	   77.5186	      15.3	  0.660036	9.30174e+06	   77.4189	      15.3	  0.531546	9.60283e+06	
         R10	   3140	   77.5136	      15.3	  0.520072	9.46189e+06	   77.5236	      15.3	       0.8	9.19139e+06	   77.7258	      15.3	       0.8	9.13881e+06	   77.7017	      15.3	  0.558573	9.37599e+06	   77.5186	      15.3	  0.660036	9.30859e+06	   77.6247	      15.3	       0.8	 9.1633e+06	   77.7138	      15.3	  0.679286	9.23873e+06	   77.6077	      15.3	  0.539322	9.41631e+06	
         R10	   3141	   77.7017	      15.3	  0.558573	9.21417e+06	   77.7258	      15.3	       0.8	9.09844e+06	    77.937	      15.3	       0.8	 9.0468e+06	   77.9373	      15.3	  0.559303	 9.3706e+06	   77.7138	      15.3	  0.679286	9.13732e+06	   77.8314	      15.3	       0.8	9.07088e+06	   77.9372	      15.3	  0.679652	9.20196e+06	   77.8195	      15.3	  0.558938	9.28818e+06	
         R10	   3142	   77.9373	      15.3	  0.559303	9.54869e+06	    77.937	      15.3	       0.8	9.04603e+06	   78.1573	      15.3	       0.8	9.01299e+06	   78.1317	      15.3	  0.527147	9.09045e+06	   77.9372	      15.3	  0.679652	 9.2907e+06	   78.0472	      15.3	       0.8	9.02584e+06	   78.1445	      15.3	  0.663573	9.02304e+06	   78.0345	      15.3	  0.543225	9.31579e+06	
         R10	   3143	   78.1317	      15.3	  0.527147	8.80654e+06	   78.1573	      15.3	       0.8	8.99578e+06	   78.3866	      15.3	       0.8	8.94989e+06	   78.3752	      15.3	  0.532532	9.00345e+06	   78.1445	      15.3	  0.663573	8.87193e+06	    78.272	      15.3	       0.8	8.97236e+06	   78.3809	      15.3	  0.666266	8.95548e+06	   78.2534	      15.3	   0.52984	8.90452e+06	
         R10	   3144	   78.3752	      15.3	  0.532532	9.30455e+06	   78.3866	      15.3	       0.8	 8.9732e+06	    78.625	      15.3	       0.8	8.89835e+06	    78.625	      15.3	  0.558673	9.17552e+06	   78.3809	      15.3	  0.666266	9.11904e+06	   78.5058	      15.3	       0.8	8.93297e+06	    78.625	      15.3	  0.679336	9.03176e+06	   78.5001	      15.3	  0.545603	9.23589e+06	
         R10	   3145	   78.3546	      15.3	  0.263318	1.00483e+07	   78.3752	      15.3	  0.532532	 9.2809e+06	    78.625	      15.3	  0.558673	9.17305e+06	    78.625	      15.3	  0.292006	 9.4905e+06	   78.3649	      15.3	  0.397925	9.63844e+06	   78.5001	      15.3	  0.545603	9.22341e+06	    78.625	      15.3	  0.425339	9.31145e+06	   78.4898	      15.3	  0.277662	9.75385e+06	
         R10	   3146	   78.3546	      15.3	  0.263318	1.02178e+07	    78.625	      15.3	  0.292006	9.49119e+06	    78.625	      15.3	         0	9.94078e+06	   78.3217	      15.3	         0	9.60577e+06	   78.4898	      15.3	  0.277662	9.82238e+06	    78.625	      15.3	  0.146003	9.63161e+06	   78.4733	      15.3	         0	9.73554e+06	   78.3381	      15.3	  0.131659	9.89333e+06	
         R10	   3147	   78.0773	      15.3	  0.263443	8.55067e+06	   78.3546	      15.3	  0.263318	8.82589e+06	   78.3217	      15.3	         0	9.94028e+06	   78.0291	      15.3	         0	1.00545e+07	   78.2159	      15.3	  0.263381	8.67691e+06	   78.3381	      15.3	  0.131659	9.37525e+06	   78.1754	      15.3	         0	9.96912e+06	   78.0532	      15.3	  0.131722	 9.2137e+06	
         R10	   3148	   78.0773	      15.3	  0.263443	9.87889e+06	   78.0291	      15.3	         0	1.03292e+07	   77.7473	      15.3	         0	1.03142e+07	    77.794	      15.3	  0.282486	9.89592e+06	   78.0532	      15.3	  0.131722	9.97572e+06	   77.8882	      15.3	         0	1.02091e+07	   77.7707	      15.3	  0.141243	1.00729e+07	   77.9356	      15.3	  0.272965	9.88551e+06	
         R10	   3149	    77.794	      15.3	  0.282486	 9.7172e+06	   77.7473	      15.3	         0	9.50477e+06	   77.4763	      15.3	         0	1.04724e+07	   77.5022	      15.3	  0.265437	9.47212e+06	   77.7707	      15.3	  0.141243	9.56376e+06	   77.6118	      15.3	         0	9.87524e+06	   77.4893	      15.3	  0.132719	9.91225e+06	   77.6481	      15.3	  0.273962	9.57815e+06	
         R10	   3150	   77.5022	      15.3	  0.265437	1.00899e+07	   77.4763	      15.3	         0	9.77171e+06	    77.216	      15.3	         0	1.09458e+07	   77.2397	      15.3	  0.275932	1.00351e+07	   77.4893	      15.3	  0.132719	9.86561e+06	   77.3462	      15.3	         0	1.02669e+07	   77.2279	      15.3	  0.137966	1.04635e+07	    77.371	      15.3	  0.270684	1.00609e+07	
         R10	   3151	   77.2397	      15.3	  0.275932	1.01224e+07	    77.216	      15.3	         0	9.88397e+06	   76.9666	      15.3	         0	   1.12e+07	   76.9625	      15.3	  0.208864	1.09307e+07	   77.2279	      15.3	  0.137966	9.96695e+06	   77.0913	      15.3	         0	1.05123e+07	   76.9646	      15.3	  0.104432	1.10642e+07	   77.1011	      15.3	  0.242398	1.05247e+07	
         R10	   3152	   76.9625	      15.3	  0.208864	1.08575e+07	   76.9666	      15.3	         0	1.07728e+07	   76.7279	      15.3	         0	1.23815e+07	   76.7279	      15.3	  0.212304	1.18949e+07	   76.9646	      15.3	  0.104432	1.08136e+07	   76.8472	      15.3	         0	  1.151e+07	   76.7279	      15.3	  0.106152	1.19053e+07	   76.8452	      15.3	  0.210584	1.13423e+07	
         R10	   3153	   76.9227	      15.3	  0.420222	1.03948e+07	   76.9625	      15.3	  0.208864	 1.0732e+07	   76.7279	      15.3	  0.212304	 1.1366e+07	   76.7177	      15.3	  0.419759	1.06993e+07	   76.9426	      15.3	  0.314543	1.05472e+07	   76.8452	      15.3	  0.210584	1.10362e+07	   76.7228	      15.3	  0.316032	 1.1026e+07	   76.8202	      15.3	  0.419991	1.05392e+07	
         R10	   3154	   76.9227	      15.3	  0.420222	1.03798e+07	   76.7177	      15.3	  0.419759	1.05908e+07	   76.6973	      15.3	  0.607315	9.95113e+06	   76.9061	      15.3	  0.619706	9.71975e+06	   76.8202	      15.3	  0.419991	1.04675e+07	   76.7075	      15.3	  0.513537	1.02707e+07	   76.8017	      15.3	   0.61351	 9.8309e+06	   76.9144	      15.3	  0.519964	1.00382e+07	
         R10	   3155	   76.9061	      15.3	  0.619706	9.80386e+06	   76.9711	      15.3	       0.8	9.34331e+06	   77.1462	      15.3	       0.8	9.31671e+06	   77.1251	      15.3	  0.595442	9.69604e+06	   76.9386	      15.3	  0.709853	9.57019e+06	   77.0587	      15.3	       0.8	9.32739e+06	   77.1357	      15.3	  0.697721	9.49937e+06	   77.0156	      15.3	  0.607574	9.74056e+06	
         R10	   3156	   76.9227	      15.3	  0.420222	1.02782e+07	   76.9061	      15.3	  0.619706	9.80014e+06	   77.1251	      15.3	  0.595442	9.66705e+06	   77.0916	      15.3	  0.440336	1.01574e+07	   76.9144	      15.3	  0.519964	1.00256e+07	   77.0156	      15.3	  0.607574	 9.7209e+06	   77.1083	      15.3	  0.517889	9.90506e+06	   77.0071	      15.3	  0.430279	1.02162e+07	
         R10	   3157	   78.1317	      15.3	  0.527147	8.78549e+06	   78.3752	      15.3	  0.532532	9.00123e+06	   78.3546	      15.3	  0.263318	8.97162e+06	   78.0773	      15.3	  0.263443	8.79156e+06	   78.2534	      15.3	   0.52984	8.89224e+06	   78.3649	      15.3	  0.397925	8.95801e+06	   78.2159	      15.3	  0.263381	8.87369e+06	   78.1045	      15.3	  0.395295	 8.7615e+06	
         R10	   3158	   77.9373	      15.3	  0.559303	9.56081e+06	   78.1317	      15.3	  0.527147	9.08466e+06	   78.0773	      15.3	  0.263443	9.91247e+06	    77.794	      15.3	  0.282486	9.74621e+06	   78.0345	      15.3	  0.543225	9.32191e+06	   78.1045	      15.3	  0.395295	 9.4729e+06	   77.9356	      15.3	  0.272965	9.82219e+06	   77.8657	      15.3	  0.420895	9.64676e+06	
         R10	   3159	   77.2397	      15.3	  0.275932	1.00633e+07	   76.9625	      15.3	  0.208864	1.08113e+07	   76.9227	      15.3	  0.420222	1.02779e+07	   77.0916	      15.3	  0.440336	1.00479e+07	   77.1011	      15.3	  0.242398	1.04367e+07	   76.9426	      15.3	  0.314543	 1.0529e+07	   77.0071	      15.3	  0.430279	1.01617e+07	   77.1656	      15.3	  0.358134	1.00411e+07	
         R10	   3160	   77.2397	      15.3	  0.275932	1.02211e+07	   77.0916	      15.3	  0.440336	1.00573e+07	   77.1251	      15.3	  0.595442	9.55382e+06	   77.3242	      15.3	  0.543019	  9.575e+06	   77.1656	      15.3	  0.358134	1.01295e+07	   77.1083	      15.3	  0.517889	9.80074e+06	   77.2247	      15.3	   0.56923	9.55513e+06	    77.282	      15.3	  0.409476	9.88783e+06	
         R10	   3161	   77.5136	      15.3	  0.520072	9.45514e+06	   77.5022	      15.3	  0.265437	1.01411e+07	   77.2397	      15.3	  0.275932	9.97011e+06	   77.3242	      15.3	  0.543019	 9.7356e+06	   77.5079	      15.3	  0.392755	9.78067e+06	    77.371	      15.3	  0.270684	1.00506e+07	    77.282	      15.3	  0.409476	9.84419e+06	   77.4189	      15.3	  0.531546	9.58937e+06	
         R10	   3162	   77.7017	      15.3	  0.558573	9.33682e+06	    77.794	      15.3	  0.282486	9.60025e+06	   77.5022	      15.3	  0.265437	9.55037e+06	   77.5136	      15.3	  0.520072	9.44854e+06	   77.7479	      15.3	  0.420529	9.43209e+06	   77.6481	      15.3	  0.273962	9.57118e+06	   77.5079	      15.3	  0.392755	9.47624e+06	   77.6077	      15.3	  0.539322	9.38815e+06	
         R10	   3163	   76.9061	      15.3	  0.619706	9.76451e+06	    76.805	      15.3	       0.8	9.38424e+06	   76.9711	      15.3	       0.8	9.36044e+06	   76.8556	      15.3	  0.709853	9.56801e+06	   76.8881	      15.3	       0.8	9.36932e+06	   76.9386	      15.3	  0.709853	9.55992e+06	       N/A	       N/A	       N/A	        N/A	       N/A	       N/A	       N/A	        N/A	
         R10	   3164	   77.9373	      15.3	  0.559303	9.41111e+06	    77.794	      15.3	  0.282486	9.66767e+06	   77.7017	      15.3	  0.558573	9.18837e+06	   77.8657	      15.3	  0.420895	9.51924e+06	   77.7479	      15.3	  0.420529	9.39484e+06	   77.8195	      15.3	  0.558938	9.29577e+06	       N/A	       N/A	       N/A	        N/A	       N/A	       N/A	       N/A	        N/A	
         R10	   3165	    76.648	      15.3	       0.8	9.51741e+06	      76.5	      15.3	       0.8	9.45099e+06	      76.5	      15.3	  0.951056	9.72961e+06	   76.6487	      15.3	  0.948637	8.88817e+06	    76.574	      15.3	       0.8	9.46779e+06	      76.5	      15.3	  0.875528	9.44666e+06	   76.5743	      15.3	  0.949846	9.27652e+06	   76.6483	      15.3	  0.874318	9.19755e+06	
         R10	   3166	   76.6487	      15.3	  0.948637	8.84602e+06	      76.5	      15.3	  0.951056	9.29311e+06	      76.5	      15.3	   1.08986	9.00021e+06	   76.6383	      15.3	   1.08668	8.72214e+06	   76.5743	      15.3	  0.949846	9.06547e+06	      76.5	      15.3	   1.02046	9.10982e+06	   76.5692	      15.3	   1.08827	8.84536e+06	   76.6435	      15.3	   1.01766	8.78378e+06	
         R10	   3167	   76.6383	      15.3	   1.08668	8.75266e+06	      76.5	      15.3	   1.08986	8.80455e+06	      76.5	      15.3	    1.2164	8.55985e+06	   76.6242	      15.3	   1.21294	8.46818e+06	   76.5692	      15.3	   1.08827	8.77638e+06	      76.5	      15.3	   1.15313	8.67283e+06	   76.5621	      15.3	   1.21467	8.50624e+06	   76.6312	      15.3	   1.14981	8.61033e+06	
         R10	   3168	   76.6242	      15.3	   1.21294	8.48672e+06	      76.5	      15.3	    1.2164	8.46221e+06	      76.5	      15.3	   1.33068	8.20349e+06	   76.6103	      15.3	   1.32778	8.22117e+06	   76.5621	      15.3	   1.21467	8.47172e+06	      76.5	      15.3	   1.27354	8.32933e+06	   76.5552	      15.3	   1.32923	  8.207e+06	   76.6172	      15.3	   1.27036	8.35352e+06	
         R10	   3169	   76.6103	      15.3	   1.32778	8.21529e+06	      76.5	      15.3	   1.33068	8.14191e+06	      76.5	      15.3	   1.43271	7.83735e+06	   76.5974	      15.3	   1.42922	8.02954e+06	   76.5552	      15.3	   1.32923	8.17545e+06	      76.5	      15.3	    1.3817	7.98633e+06	   76.5487	      15.3	   1.43096	7.92657e+06	   76.6039	      15.3	    1.3785	8.12226e+06	
         R10	   3170	   76.5974	      15.3	   1.42922	7.99861e+06	      76.5	      15.3	   1.43271	 7.6786e+06	      76.5	      15.3	   1.52248	7.26246e+06	   76.5854	      15.3	   1.51934	8.50325e+06	   76.5487	      15.3	   1.43096	7.83572e+06	      76.5	      15.3	    1.4776	7.44565e+06	   76.5427	      15.3	   1.52091	7.84997e+06	   76.5914	      15.3	   1.47428	8.25001e+06	
         R10	   3171	   76.5854	      15.3	   1.51934	8.53632e+06	      76.5	      15.3	   1.52248	6.79278e+06	      76.5	      15.3	       1.6	9.51096e+06	    76.581	      15.3	       1.6	8.46804e+06	   76.5427	      15.3	   1.52091	7.59835e+06	      76.5	      15.3	   1.56124	7.75903e+06	   76.5405	      15.3	       1.6	8.91555e+06	   76.5832	      15.3	   1.55967	8.46635e+06	
         R10	   3172	    76.666	      15.3	   1.52869	8.14053e+06	   76.5854	      15.3	   1.51934	8.14815e+06	    76.581	      15.3	       1.6	8.39296e+06	   76.6654	      15.3	       1.6	7.96265e+06	   76.6257	      15.3	   1.52402	  8.144e+06	   76.5832	      15.3	   1.55967	 8.2451e+06	   76.6232	      15.3	       1.6	8.16338e+06	   76.6657	      15.3	   1.56435	8.05051e+06	
         R10	   3173	    76.666	      15.3	   1.52869	8.10546e+06	   76.6654	      15.3	       1.6	7.85375e+06	   76.7532	      15.3	       1.6	7.82042e+06	   76.7582	      15.3	   1.51367	 7.9774e+06	   76.6657	      15.3	   1.56435	7.97817e+06	   76.7093	      15.3	       1.6	7.83458e+06	   76.7557	      15.3	   1.55684	7.89743e+06	   76.7121	      15.3	   1.52118	8.03635e+06	
         R10	   3174	   76.7582	      15.3	   1.51367	7.97731e+06	   76.7532	      15.3	       1.6	7.83696e+06	   76.8443	      15.3	       1.6	7.80844e+06	   76.8417	      15.3	   1.50509	7.95417e+06	   76.7557	      15.3	   1.55684	7.90571e+06	   76.7987	      15.3	       1.6	7.82041e+06	    76.843	      15.3	   1.55255	7.88076e+06	      76.8	      15.3	   1.50938	7.96437e+06	
         R10	   3175	   76.8417	      15.3	   1.50509	7.96986e+06	   76.8443	      15.3	       1.6	7.80641e+06	   76.9387	      15.3	       1.6	7.81406e+06	   76.9396	      15.3	   1.50153	7.97187e+06	    76.843	      15.3	   1.55255	7.88756e+06	   76.8915	      15.3	       1.6	7.80869e+06	   76.9391	      15.3	   1.55076	7.89254e+06	   76.8906	      15.3	   1.50331	7.96934e+06	
         R10	   3176	   76.9396	      15.3	   1.50153	7.97724e+06	   76.9387	      15.3	       1.6	7.81464e+06	   77.0365	      15.3	       1.6	7.83863e+06	   77.0373	      15.3	   1.49785	7.99614e+06	   76.9391	      15.3	   1.55076	7.89551e+06	   76.9876	      15.3	       1.6	7.82543e+06	   77.0369	      15.3	   1.54893	7.91693e+06	   76.9884	      15.3	   1.49969	7.98541e+06	
         R10	   3177	   77.0373	      15.3	   1.49785	8.00238e+06	   77.0365	      15.3	       1.6	7.83665e+06	   77.1376	      15.3	       1.6	7.87035e+06	   77.1386	      15.3	   1.49427	8.03031e+06	   77.0369	      15.3	   1.54893	7.91906e+06	   77.0871	      15.3	       1.6	 7.8525e+06	   77.1381	      15.3	   1.54713	7.94988e+06	   77.0879	      15.3	   1.49606	8.01517e+06	
         R10	   3178	   77.1386	      15.3	   1.49427	8.03198e+06	   77.1376	      15.3	       1.6	7.87252e+06	   77.2421	      15.3	       1.6	7.90626e+06	   77.2428	      15.3	   1.49126	8.06573e+06	   77.1381	      15.3	   1.54713	 7.9518e+06	   77.1899	      15.3	       1.6	7.88849e+06	   77.2425	      15.3	   1.54563	7.98551e+06	   77.1907	      15.3	   1.49277	8.04784e+06	
         R10	   3179	   77.2428	      15.3	   1.49126	8.06992e+06	   77.2421	      15.3	       1.6	 7.9046e+06	     77.35	      15.3	       1.6	7.93854e+06	   77.3421	      15.3	   1.49801	8.08143e+06	   77.2425	      15.3	   1.54563	7.98676e+06	   77.2961	      15.3	       1.6	7.92079e+06	   77.3461	      15.3	   1.54901	8.00965e+06	   77.2925	      15.3	   1.49464	8.07491e+06	
         R10	   3180	   77.3421	      15.3	   1.49801	8.09912e+06	     77.35	      15.3	       1.6	7.93855e+06	   77.4514	      15.3	       1.6	7.96582e+06	   77.4573	      15.3	   1.48601	8.11142e+06	   77.3461	      15.3	   1.54901	8.01847e+06	   77.4007	      15.3	       1.6	7.95162e+06	   77.4544	      15.3	   1.54301	8.03797e+06	   77.3997	      15.3	   1.49201	8.10418e+06	
         R10	   3181	   77.4573	      15.3	   1.48601	8.15244e+06	   77.4514	      15.3	       1.6	7.96461e+06	   77.5694	      15.3	       1.6	7.99073e+06	   77.5663	      15.3	   1.46817	8.16001e+06	   77.4544	      15.3	   1.54301	8.05789e+06	   77.5104	      15.3	       1.6	7.97699e+06	   77.5678	      15.3	   1.53409	8.07471e+06	   77.5118	      15.3	   1.47709	 8.1551e+06	
         R10	   3182	   77.5663	      15.3	   1.46817	8.19015e+06	   77.5694	      15.3	       1.6	7.99251e+06	   77.7039	      15.3	       1.6	8.01253e+06	   77.7076	      15.3	   1.45417	8.21493e+06	   77.5678	      15.3	   1.53409	8.09066e+06	   77.6366	      15.3	       1.6	8.00175e+06	   77.7057	      15.3	   1.52709	8.11271e+06	   77.6369	      15.3	   1.46117	8.20076e+06	
         R10	   3183	   77.7076	      15.3	   1.45417	8.20398e+06	   77.7039	      15.3	       1.6	8.01127e+06	    77.855	      15.3	       1.6	8.02673e+06	   77.8592	      15.3	   1.43677	8.25911e+06	   77.7057	      15.3	   1.52709	8.10662e+06	   77.7794	      15.3	       1.6	 8.0182e+06	   77.8571	      15.3	   1.51838	8.14174e+06	   77.7834	      15.3	   1.44547	8.22949e+06	
         R10	   3184	   77.8592	      15.3	   1.43677	8.26281e+06	    77.855	      15.3	       1.6	  8.026e+06	   78.0226	      15.3	       1.6	8.03068e+06	   78.0288	      15.3	   1.40663	8.28099e+06	   77.8571	      15.3	   1.51838	8.14323e+06	   77.9388	      15.3	       1.6	8.02746e+06	   78.0257	      15.3	   1.50331	8.15411e+06	    77.944	      15.3	    1.4217	8.26872e+06	
         R10	   3185	   78.0288	      15.3	   1.40663	8.31487e+06	   78.0226	      15.3	       1.6	8.02842e+06	   78.2069	      15.3	       1.6	8.02694e+06	   78.2074	      15.3	   1.38064	8.32101e+06	   78.0257	      15.3	   1.50331	8.16988e+06	   78.1147	      15.3	       1.6	8.02682e+06	   78.2071	      15.3	   1.49032	8.17161e+06	   78.1181	      15.3	   1.39363	8.31291e+06	
         R10	   3186	   78.2074	      15.3	   1.38064	8.33224e+06	   78.2069	      15.3	       1.6	8.02713e+06	   78.4076	      15.3	       1.6	8.01432e+06	   78.4074	      15.3	   1.36964	8.31918e+06	   78.2071	      15.3	   1.49032	8.17742e+06	   78.3073	      15.3	       1.6	8.01977e+06	   78.4075	      15.3	   1.48482	8.16336e+06	   78.3074	      15.3	   1.37514	8.31803e+06	
         R10	   3187	   78.4074	      15.3	   1.36964	8.33393e+06	   78.4076	      15.3	       1.6	8.01233e+06	    78.625	      15.3	       1.6	7.99605e+06	    78.625	      15.3	   1.34603	8.24696e+06	   78.4075	      15.3	   1.48482	8.17015e+06	   78.5163	      15.3	       1.6	8.00321e+06	    78.625	      15.3	   1.47302	8.11533e+06	   78.5162	      15.3	   1.35784	8.28055e+06	
         R10	   3188	   78.3844	      15.3	   1.11942	8.59175e+06	   78.4074	      15.3	   1.36964	8.33379e+06	    78.625	      15.3	   1.34603	 8.2421e+06	    78.625	      15.3	   1.07937	8.72608e+06	   78.3959	      15.3	   1.24453	8.45556e+06	   78.5162	      15.3	   1.35784	8.27767e+06	    78.625	      15.3	    1.2127	8.47214e+06	   78.5047	      15.3	   1.09939	8.65233e+06	
         R10	   3189	   78.3844	      15.3	   1.11942	8.58011e+06	    78.625	      15.3	   1.07937	8.70954e+06	    78.625	      15.3	       0.8	8.95233e+06	   78.3866	      15.3	       0.8	9.00559e+06	   78.5047	      15.3	   1.09939	8.63828e+06	    78.625	      15.3	  0.939683	8.82377e+06	   78.5058	      15.3	       0.8	8.97791e+06	   78.3855	      15.3	  0.959709	 8.7873e+06	
         R10	   3190	   78.3844	      15.3	   1.11942	8.67281e+06	   78.3866	      15.3	       0.8	8.99066e+06	   78.1573	      15.3	       0.8	9.04691e+06	   78.1561	      15.3	   1.06272	8.73257e+06	   78.3855	      15.3	  0.959709	8.82642e+06	    78.272	      15.3	       0.8	9.01777e+06	   78.1567	      15.3	   0.93136	8.88675e+06	   78.2702	      15.3	   1.09107	8.70025e+06	
         R10	   3191	   78.1561	      15.3	   1.06272	8.75536e+06	   78.1573	      15.3	       0.8	9.03903e+06	    77.937	      15.3	       0.8	9.08543e+06	   77.9257	      15.3	   1.02023	8.75121e+06	   78.1567	      15.3	   0.93136	8.89391e+06	   78.0472	      15.3	       0.8	9.06073e+06	   77.9313	      15.3	  0.910115	8.91707e+06	   78.0409	      15.3	   1.04147	8.75309e+06	
         R10	   3192	   77.9257	      15.3	   1.02023	8.86068e+06	    77.937	      15.3	       0.8	9.09505e+06	   77.7258	      15.3	       0.8	9.15768e+06	   77.7226	      15.3	   1.01626	8.82694e+06	   77.9313	      15.3	  0.910115	 8.9756e+06	   77.8314	      15.3	       0.8	9.12454e+06	   77.7242	      15.3	   0.90813	8.98961e+06	   77.8241	      15.3	   1.01824	8.84344e+06	
         R10	   3193	   77.7226	      15.3	   1.01626	8.86481e+06	   77.7258	      15.3	       0.8	9.17423e+06	   77.5236	      15.3	       0.8	 9.2279e+06	   77.5284	      15.3	  0.998742	8.89116e+06	   77.7242	      15.3	   0.90813	9.01683e+06	   77.6247	      15.3	       0.8	9.19906e+06	    77.526	      15.3	  0.899371	9.05752e+06	   77.6255	      15.3	    1.0075	8.87784e+06	
         R10	   3194	   77.5284	      15.3	  0.998742	8.91873e+06	   77.5236	      15.3	       0.8	9.23529e+06	   77.3304	      15.3	       0.8	9.30475e+06	   77.3329	      15.3	  0.981139	8.92345e+06	    77.526	      15.3	  0.899371	9.07525e+06	    77.427	      15.3	       0.8	9.26757e+06	   77.3316	      15.3	  0.890569	9.11213e+06	   77.4306	      15.3	   0.98994	8.92017e+06	
         R10	   3195	   77.3329	      15.3	  0.981139	8.97748e+06	   77.3304	      15.3	       0.8	9.31672e+06	   77.1462	      15.3	       0.8	 9.3678e+06	   77.1486	      15.3	  0.972738	 8.9599e+06	   77.3316	      15.3	  0.890569	9.14537e+06	   77.2383	      15.3	       0.8	9.33892e+06	   77.1474	      15.3	  0.886369	9.16175e+06	   77.2407	      15.3	  0.976938	8.96694e+06	
         R10	   3196	   77.1486	      15.3	  0.972738	9.00731e+06	   77.1462	      15.3	       0.8	9.37929e+06	   76.9711	      15.3	       0.8	9.42368e+06	   76.9734	      15.3	  0.964536	9.00524e+06	   77.1474	      15.3	  0.886369	9.19156e+06	   77.0587	      15.3	       0.8	9.39745e+06	   76.9723	      15.3	  0.882268	9.21266e+06	    77.061	      15.3	  0.968637	9.00413e+06	
         R10	   3197	   76.9734	      15.3	  0.964536	9.04987e+06	   76.9711	      15.3	       0.8	9.43088e+06	    76.805	      15.3	       0.8	9.44134e+06	   76.8064	      15.3	  0.956763	9.02999e+06	   76.9723	      15.3	  0.882268	9.23896e+06	   76.8881	      15.3	       0.8	9.43247e+06	   76.8057	      15.3	  0.878381	9.23495e+06	   76.8899	      15.3	  0.960649	9.03697e+06	
         R10	   3198	   76.8064	      15.3	  0.956763	9.08863e+06	    76.805	      15.3	       0.8	 9.4367e+06	    76.648	      15.3	       0.8	9.43462e+06	   76.6487	      15.3	  0.948637	 9.0216e+06	   76.8057	      15.3	  0.878381	9.26199e+06	   76.7265	      15.3	       0.8	9.43268e+06	   76.6483	      15.3	  0.874318	9.22311e+06	   76.7275	      15.3	    0.9527	9.05083e+06	
         R10	   3199	   76.7935	      15.3	   1.09867	8.74312e+06	   76.8064	      15.3	  0.956763	9.10122e+06	   76.6487	      15.3	  0.948637	9.05537e+06	   76.6383	      15.3	   1.08668	8.72168e+06	   76.7999	      15.3	   1.02772	8.92048e+06	   76.7275	      15.3	    0.9527	9.07342e+06	   76.6435	      15.3	   1.01766	 8.8884e+06	   76.7159	      15.3	   1.09268	8.72944e+06	
         R10	   3200	   76.7935	      15.3	   1.09867	8.75539e+06	   76.6383	      15.3	   1.08668	8.75558e+06	   76.6242	      15.3	   1.21294	8.47627e+06	   76.7485	      15.3	    1.2208	8.48223e+06	   76.7159	      15.3	   1.09268	8.75029e+06	   76.6312	      15.3	   1.14981	8.61581e+06	   76.6863	      15.3	   1.21687	 8.4775e+06	    76.771	      15.3	   1.15973	8.61656e+06	
         R10	   3201	   76.7485	      15.3	    1.2208	8.48038e+06	   76.6242	      15.3	   1.21294	8.50174e+06	   76.6103	      15.3	   1.32778	8.22807e+06	   76.7212	      15.3	   1.33799	8.30016e+06	   76.6863	      15.3	   1.21687	8.48826e+06	   76.6172	      15.3	   1.27036	8.36448e+06	   76.6658	      15.3	   1.33289	8.26243e+06	   76.7349	      15.3	   1.27939	8.38893e+06	
         R10	   3202	   76.7212	      15.3	   1.33799	8.29017e+06	   76.6103	      15.3	   1.32778	8.22986e+06	   76.5974	      15.3	   1.42922	8.08745e+06	    76.702	      15.3	   1.43815	8.18941e+06	   76.6658	      15.3	   1.33289	8.25779e+06	   76.6039	      15.3	    1.3785	8.15851e+06	   76.6497	      15.3	   1.43368	8.13791e+06	   76.7116	      15.3	   1.38807	8.23821e+06	
         R10	   3203	    76.702	      15.3	   1.43815	8.17909e+06	   76.5974	      15.3	   1.42922	8.10498e+06	   76.5854	      15.3	   1.51934	8.15796e+06	    76.666	      15.3	   1.52869	8.01898e+06	   76.6497	      15.3	   1.43368	8.14068e+06	   76.5914	      15.3	   1.47428	8.13021e+06	   76.6257	      15.3	   1.52402	8.08749e+06	    76.684	      15.3	   1.48342	8.09561e+06	
         R10	   3204	   76.8322	      15.3	   1.40906	8.15835e+06	   76.8417	      15.3	   1.50509	7.99359e+06	   76.9396	      15.3	   1.50153	7.99126e+06	   76.9342	      15.3	   1.39365	8.19299e+06	   76.8369	      15.3	   1.45708	8.07533e+06	   76.8906	      15.3	   1.50331	7.99087e+06	   76.9369	      15.3	   1.44759	8.09142e+06	   76.8832	      15.3	   1.40136	8.17415e+06	
         R10	   3205	   76.9342	      15.3	   1.39365	8.18112e+06	   76.9396	      15.3	   1.50153	7.99753e+06	   77.0373	      15.3	   1.49785	8.00847e+06	    77.027	      15.3	   1.38014	8.22617e+06	   76.9369	      15.3	   1.44759	8.08867e+06	   76.9884	      15.3	   1.49969	8.00171e+06	   77.0321	      15.3	   1.43899	8.11654e+06	   76.9806	      15.3	    1.3869	8.20253e+06	
         R10	   3206	    77.027	      15.3	   1.38014	8.22044e+06	   77.0373	      15.3	   1.49785	 8.0111e+06	   77.1386	      15.3	   1.49427	8.04165e+06	   77.1355	      15.3	   1.38336	8.22944e+06	   77.0321	      15.3	   1.43899	8.11507e+06	   77.0879	      15.3	   1.49606	8.02522e+06	   77.1371	      15.3	   1.43882	8.13502e+06	   77.0813	      15.3	   1.38175	8.22371e+06	
         R10	   3207	   77.1355	      15.3	   1.38336	8.22337e+06	   77.1386	      15.3	   1.49427	8.04718e+06	   77.2428	      15.3	   1.49126	8.07433e+06	   77.2404	      15.3	   1.37071	8.27074e+06	   77.1371	      15.3	   1.43882	8.13477e+06	   77.1907	      15.3	   1.49277	8.05967e+06	   77.2416	      15.3	   1.43099	8.17183e+06	    77.188	      15.3	   1.37704	8.24603e+06	
         R10	   3208	   77.2404	      15.3	   1.37071	8.27118e+06	   77.2428	      15.3	   1.49126	8.07762e+06	   77.3421	      15.3	   1.49801	8.08396e+06	   77.3696	      15.3	   1.37848	8.28836e+06	   77.2416	      15.3	   1.43099	8.17374e+06	   77.2925	      15.3	   1.49464	8.07985e+06	   77.3559	      15.3	   1.43825	8.18549e+06	    77.305	      15.3	    1.3746	8.27876e+06	
         R10	   3209	   77.3696	      15.3	   1.37848	 8.2874e+06	   77.4573	      15.3	   1.48601	8.14273e+06	   77.5663	      15.3	   1.46817	8.17161e+06	   77.5362	      15.3	   1.34025	8.37134e+06	   77.4135	      15.3	   1.43225	8.21476e+06	   77.5118	      15.3	   1.47709	8.15627e+06	   77.5512	      15.3	   1.40421	8.27077e+06	   77.4529	      15.3	   1.35937	8.32727e+06	
         R10	   3210	   77.5362	      15.3	   1.34025	8.36631e+06	   77.5663	      15.3	   1.46817	8.18937e+06	   77.7076	      15.3	   1.45417	8.21699e+06	   77.6891	      15.3	   1.26681	8.49763e+06	   77.5512	      15.3	   1.40421	8.27743e+06	   77.6369	      15.3	   1.46117	 8.2016e+06	   77.6983	      15.3	   1.36049	 8.3554e+06	   77.6126	      15.3	   1.30353	8.42998e+06	
         R10	   3211	   77.6891	      15.3	   1.26681	8.51233e+06	   77.7076	      15.3	   1.45417	8.20387e+06	   77.8592	      15.3	   1.43677	8.25367e+06	   77.8559	      15.3	   1.24379	8.47192e+06	   77.6983	      15.3	   1.36049	8.35661e+06	   77.7834	      15.3	   1.44547	8.22642e+06	   77.8575	      15.3	   1.34028	8.36182e+06	   77.7725	      15.3	    1.2553	8.49149e+06	
         R10	   3212	   77.8559	      15.3	   1.24379	  8.494e+06	   77.8592	      15.3	   1.43677	8.26565e+06	   78.0288	      15.3	   1.40663	8.26311e+06	   78.0111	      15.3	   1.23778	8.63459e+06	   77.8575	      15.3	   1.34028	8.37899e+06	    77.944	      15.3	    1.4217	8.26066e+06	   78.0199	      15.3	    1.3222	8.44541e+06	   77.9335	      15.3	   1.24079	8.56298e+06	
         R10	   3213	   77.5183	      15.3	   1.15289	 8.6623e+06	   77.5284	      15.3	  0.998742	8.92708e+06	   77.3329	      15.3	  0.981139	8.93648e+06	   77.3295	      15.3	   1.12889	8.69082e+06	   77.5234	      15.3	   1.07582	8.79372e+06	   77.4306	      15.3	   0.98994	8.93094e+06	   77.3312	      15.3	   1.05501	8.81251e+06	   77.4239	      15.3	   1.14089	8.67472e+06	
         R10	   3214	   77.3295	      15.3	   1.12889	8.69835e+06	   77.3329	      15.3	  0.981139	8.99605e+06	   77.1486	      15.3	  0.972738	8.98111e+06	   77.1333	      15.3	   1.12896	 8.6796e+06	   77.3312	      15.3	   1.05501	8.84594e+06	   77.2407	      15.3	  0.976938	8.98695e+06	    77.141	      15.3	   1.05085	8.82881e+06	   77.2314	      15.3	   1.12892	8.68563e+06	
         R10	   3215	   77.1333	      15.3	   1.12896	8.69335e+06	   77.1486	      15.3	  0.972738	9.02716e+06	   76.9734	      15.3	  0.964536	9.03274e+06	   76.9563	      15.3	   1.11251	8.71161e+06	    77.141	      15.3	   1.05085	8.85873e+06	    77.061	      15.3	  0.968637	9.02771e+06	   76.9649	      15.3	   1.03852	8.87047e+06	   77.0448	      15.3	   1.12073	8.69919e+06	
         R10	   3216	   76.9563	      15.3	   1.11251	8.70795e+06	   76.9734	      15.3	  0.964536	 9.0765e+06	   76.8064	      15.3	  0.956763	9.03715e+06	   76.7935	      15.3	   1.09867	8.75339e+06	   76.9649	      15.3	   1.03852	8.89048e+06	   76.8899	      15.3	  0.960649	 9.0539e+06	   76.7999	      15.3	   1.02772	8.89358e+06	   76.8749	      15.3	   1.10559	8.72711e+06	
         R10	   3217	   76.9563	      15.3	   1.11251	8.71916e+06	   76.7935	      15.3	   1.09867	 8.7579e+06	   76.7485	      15.3	    1.2208	8.49027e+06	   76.8849	      15.3	   1.25478	8.45152e+06	   76.8749	      15.3	   1.10559	8.73551e+06	    76.771	      15.3	   1.15973	8.62168e+06	   76.8167	      15.3	   1.23779	8.46861e+06	   76.9206	      15.3	   1.18365	  8.583e+06	
         R10	   3218	    76.702	      15.3	   1.43815	8.11981e+06	   76.7582	      15.3	   1.51367	8.05471e+06	   76.8417	      15.3	   1.50509	8.00355e+06	   76.8322	      15.3	   1.40906	8.19256e+06	   76.7301	      15.3	   1.47591	8.08701e+06	      76.8	      15.3	   1.50938	8.02729e+06	   76.8369	      15.3	   1.45708	8.09726e+06	   76.7671	      15.3	   1.42361	 8.1536e+06	
         R10	   3219	   77.0279	      15.3	   1.25564	8.46063e+06	    77.027	      15.3	   1.38014	8.21697e+06	   77.1355	      15.3	   1.38336	8.23436e+06	     77.13	      15.3	    1.2805	8.41316e+06	   77.0274	      15.3	   1.31789	8.33774e+06	   77.0813	      15.3	   1.38175	8.22455e+06	   77.1327	      15.3	   1.33193	8.32335e+06	   77.0789	      15.3	   1.26807	8.43569e+06	
         R10	   3220	     77.13	      15.3	    1.2805	8.39255e+06	   77.1355	      15.3	   1.38336	8.23897e+06	   77.2404	      15.3	   1.37071	8.27113e+06	   77.2251	      15.3	   1.24388	8.50569e+06	   77.1327	      15.3	   1.33193	 8.3153e+06	    77.188	      15.3	   1.37704	  8.254e+06	   77.2328	      15.3	    1.3073	8.38775e+06	   77.1775	      15.3	   1.26219	8.44783e+06	
         R10	   3221	   77.2251	      15.3	   1.24388	8.49389e+06	   77.2404	      15.3	   1.37071	8.27037e+06	   77.3696	      15.3	   1.37848	8.28327e+06	   77.3472	      15.3	   1.25813	8.47984e+06	   77.2328	      15.3	    1.3073	8.38138e+06	    77.305	      15.3	    1.3746	8.27559e+06	   77.3584	      15.3	   1.31831	8.38106e+06	   77.2861	      15.3	   1.25101	8.48582e+06	
         R10	   3222	   76.8075	      15.3	   1.33866	8.28176e+06	   76.8849	      15.3	   1.25478	8.45097e+06	   76.7485	      15.3	    1.2208	8.49268e+06	   76.7212	      15.3	   1.33799	8.29122e+06	   76.8462	      15.3	   1.29672	8.36479e+06	   76.8167	      15.3	   1.23779	8.46977e+06	   76.7349	      15.3	   1.27939	8.39062e+06	   76.7644	      15.3	   1.33832	8.28544e+06	
         R10	   3223	   76.8075	      15.3	   1.33866	8.30176e+06	   76.7212	      15.3	   1.33799	8.26778e+06	    76.702	      15.3	   1.43815	8.15269e+06	   76.8322	      15.3	   1.40906	8.20902e+06	   76.7644	      15.3	   1.33832	8.28411e+06	   76.7116	      15.3	   1.38807	 8.2087e+06	   76.7671	      15.3	   1.42361	8.17794e+06	   76.8199	      15.3	   1.37386	8.25526e+06	
         R10	   3224	   76.8075	      15.3	   1.33866	8.31371e+06	   76.8322	      15.3	   1.40906	8.17402e+06	   76.9342	      15.3	   1.39365	8.19212e+06	   76.8849	      15.3	   1.25478	8.45658e+06	   76.8199	      15.3	   1.37386	8.24363e+06	   76.8832	      15.3	   1.40136	8.18156e+06	   76.9096	      15.3	   1.32422	8.32357e+06	   76.8462	      15.3	   1.29672	8.38328e+06	
         R10	   3225	   76.8849	      15.3	   1.25478	 8.4522e+06	   76.9342	      15.3	   1.39365	8.18606e+06	    77.027	      15.3	   1.38014	8.22123e+06	   77.0279	      15.3	   1.25564	8.45664e+06	   76.9096	      15.3	   1.32422	8.31827e+06	   76.9806	      15.3	    1.3869	8.20249e+06	   77.0274	      15.3	   1.31789	8.33799e+06	   76.9564	      15.3	   1.25521	8.45198e+06	
         R10	   3226	   77.1333	      15.3	   1.12896	8.70515e+06	   76.9563	      15.3	   1.11251	8.73008e+06	   76.8849	      15.3	   1.25478	8.44065e+06	   77.0279	      15.3	   1.25564	8.44572e+06	   77.0448	      15.3	   1.12073	8.71435e+06	   76.9206	      15.3	   1.18365	8.58292e+06	   76.9564	      15.3	   1.25521	8.44091e+06	   77.0806	      15.3	    1.1923	8.57256e+06	
         R10	   3227	   77.2251	      15.3	   1.24388	8.47868e+06	   77.1333	      15.3	   1.12896	8.70737e+06	   77.0279	      15.3	   1.25564	8.45699e+06	     77.13	      15.3	    1.2805	8.41431e+06	   77.1792	      15.3	   1.18642	8.59208e+06	   77.0806	      15.3	    1.1923	8.57908e+06	   77.0789	      15.3	   1.26807	8.43493e+06	   77.1775	      15.3	   1.26219	8.44511e+06	
         R10	   3228	   77.3472	      15.3	   1.25813	8.47626e+06	   77.3295	      15.3	   1.12889	8.71642e+06	   77.1333	      15.3	   1.12896	8.69358e+06	   77.2251	      15.3	   1.24388	 8.4812e+06	   77.3383	      15.3	   1.19351	8.59547e+06	   77.2314	      15.3	   1.12892	8.70136e+06	   77.1792	      15.3	   1.18642	8.58647e+06	   77.2861	      15.3	   1.25101	8.47758e+06	
         R10	   3229	   77.4664	      15.3	   1.25559	8.48648e+06	   77.5183	      15.3	   1.15289	8.66235e+06	   77.3295	      15.3	   1.12889	8.70066e+06	   77.3472	      15.3	   1.25813	 8.4776e+06	   77.4924	      15.3	   1.20424	8.57389e+06	   77.4239	      15.3	   1.14089	8.67959e+06	   77.3383	      15.3	   1.19351	8.58839e+06	   77.4068	      15.3	   1.25686	8.48097e+06	
         R10	   3230	   77.4664	      15.3	   1.25559	8.49936e+06	   77.3472	      15.3	   1.25813	8.48213e+06	   77.3696	      15.3	   1.37848	8.28071e+06	   77.5362	      15.3	   1.34025	8.36955e+06	   77.4068	      15.3	   1.25686	8.48966e+06	   77.3584	      15.3	   1.31831	8.38087e+06	   77.4529	      15.3	   1.35937	 8.3231e+06	   77.5013	      15.3	   1.29792	8.43419e+06	
         R10	   3231	   77.4664	      15.3	   1.25559	8.51717e+06	   77.5362	      15.3	   1.34025	8.36025e+06	   77.6891	      15.3	   1.26681	8.47439e+06	   77.5183	      15.3	   1.15289	8.66107e+06	   77.5013	      15.3	   1.29792	8.43835e+06	   77.6126	      15.3	   1.30353	8.41561e+06	   77.6037	      15.3	   1.20985	8.56658e+06	   77.4924	      15.3	   1.20424	8.58823e+06	
         R10	   3232	   78.1561	      15.3	   1.06272	 8.7221e+06	   78.2074	      15.3	   1.38064	8.34103e+06	   78.4074	      15.3	   1.36964	8.32854e+06	   78.3844	      15.3	   1.11942	8.67609e+06	   78.1817	      15.3	   1.22168	8.52463e+06	   78.3074	      15.3	   1.37514	8.32714e+06	   78.3959	      15.3	   1.24453	8.49275e+06	   78.2702	      15.3	   1.09107	8.69536e+06	
         R10	   3233	   78.1561	      15.3	   1.06272	8.75997e+06	   78.0111	      15.3	   1.23778	8.48527e+06	   78.0288	      15.3	   1.40663	8.27793e+06	   78.2074	      15.3	   1.38064	8.31429e+06	   78.0836	      15.3	   1.15025	8.61912e+06	   78.0199	      15.3	    1.3222	8.37812e+06	   78.1181	      15.3	   1.39363	8.29199e+06	   78.1817	      15.3	   1.22168	8.52865e+06	
         R10	   3234	   77.8559	      15.3	   1.24379	8.46992e+06	   78.0111	      15.3	   1.23778	8.60397e+06	   78.1561	      15.3	   1.06272	8.75376e+06	   77.9257	      15.3	   1.02023	8.75867e+06	   77.9335	      15.3	   1.24079	8.53394e+06	   78.0836	      15.3	   1.15025	8.66778e+06	   78.0409	      15.3	   1.04147	8.75597e+06	   77.8908	      15.3	   1.13201	8.61151e+06	
         R10	   3235	   77.6891	      15.3	   1.26681	8.50725e+06	   77.8559	      15.3	   1.24379	8.45532e+06	   77.9257	      15.3	   1.02023	 8.8624e+06	   77.7226	      15.3	   1.01626	8.84437e+06	   77.7725	      15.3	    1.2553	8.47996e+06	   77.8908	      15.3	   1.13201	8.65809e+06	   77.8241	      15.3	   1.01824	8.85334e+06	   77.7058	      15.3	   1.14154	8.67209e+06	
         R10	   3236	   77.5284	      15.3	  0.998742	8.88837e+06	   77.5183	      15.3	   1.15289	8.67558e+06	   77.6891	      15.3	   1.26681	8.48659e+06	   77.7226	      15.3	   1.01626	8.87457e+06	   77.5234	      15.3	   1.07582	8.78066e+06	   77.6037	      15.3	   1.20985	8.58037e+06	   77.7058	      15.3	   1.14154	8.67807e+06	   77.6255	      15.3	    1.0075	8.88129e+06	
         R10	   3237	    76.702	      15.3	   1.43815	8.13511e+06	    76.666	      15.3	   1.52869	8.07061e+06	   76.7582	      15.3	   1.51367	8.06269e+06	    76.684	      15.3	   1.48342	8.09944e+06	   76.7121	      15.3	   1.52118	8.06459e+06	   76.7301	      15.3	   1.47591	8.09829e+06	       N/A	       N/A	       N/A	        N/A	       N/A	       N/A	       N/A	        N/A	
         R10	   3238	   77.3696	      15.3	   1.37848	8.28443e+06	   77.3421	      15.3	   1.49801	8.10353e+06	   77.4573	      15.3	   1.48601	 8.1154e+06	   77.3559	      15.3	   1.43825	8.19319e+06	   77.3997	      15.3	   1.49201	8.10849e+06	   77.4135	      15.3	   1.43225	8.19938e+06	       N/A	       N/A	       N/A	        N/A	       N/A	       N/A	       N/A	        N/A	
         R10	   3239	   77.4514	      15.3	       1.6	7.89799e+06	     77.35	      15.3	       1.6	 7.8464e+06	     77.35	      15.3	   1.70151	7.67445e+06	   77.4578	      15.3	   1.70399	 7.7477e+06	   77.4007	      15.3	       1.6	7.87152e+06	     77.35	      15.3	   1.65076	7.75833e+06	   77.4039	      15.3	   1.70275	 7.7105e+06	   77.4546	      15.3	   1.65199	7.82137e+06	
         R10	   3240	   77.4578	      15.3	   1.70399	7.73474e+06	     77.35	      15.3	   1.70151	 7.6657e+06	     77.35	      15.3	   1.79987	7.52587e+06	    77.445	      15.3	   1.79387	7.60433e+06	   77.4039	      15.3	   1.70275	7.69983e+06	     77.35	      15.3	   1.75069	 7.5942e+06	   77.3975	      15.3	   1.79687	7.56456e+06	   77.4514	      15.3	   1.74893	7.66815e+06	
         R10	   3241	    77.445	      15.3	   1.79387	7.59598e+06	     77.35	      15.3	   1.79987	7.52287e+06	     77.35	      15.3	   1.89507	7.40749e+06	   77.4428	      15.3	   1.89924	7.45481e+06	   77.3975	      15.3	   1.79687	7.55876e+06	     77.35	      15.3	   1.84747	7.46389e+06	   77.3964	      15.3	   1.89715	7.43098e+06	   77.4439	      15.3	   1.84656	7.52318e+06	
         R10	   3242	   77.4428	      15.3	   1.89924	7.46247e+06	     77.35	      15.3	   1.89507	7.41333e+06	     77.35	      15.3	   1.98711	7.30224e+06	   77.4476	      15.3	   1.97957	7.37291e+06	   77.3964	      15.3	   1.89715	 7.4375e+06	     77.35	      15.3	   1.94109	7.35652e+06	   77.3988	      15.3	   1.98334	7.33697e+06	   77.4452	      15.3	   1.93941	7.41642e+06	
         R10	   3243	   77.4476	      15.3	   1.97957	7.37474e+06	     77.35	      15.3	   1.98711	7.29323e+06	     77.35	      15.3	     2.076	7.21801e+06	   77.4414	      15.3	   2.07521	7.25769e+06	   77.3988	      15.3	   1.98334	7.33355e+06	     77.35	      15.3	   2.03156	7.25438e+06	   77.3957	      15.3	    2.0756	 7.2375e+06	   77.4445	      15.3	   2.02739	7.31491e+06	
         R10	   3244	   77.4414	      15.3	   2.07521	7.25252e+06	     77.35	      15.3	     2.076	7.21481e+06	     77.35	      15.3	   2.16173	7.12851e+06	   77.4367	      15.3	   2.15942	7.20009e+06	   77.3957	      15.3	    2.0756	7.23335e+06	     77.35	      15.3	   2.11887	7.17056e+06	   77.3934	      15.3	   2.16057	7.16401e+06	    77.439	      15.3	   2.11731	7.22517e+06	
         R10	   3245	   77.4367	      15.3	   2.15942	  7.194e+06	     77.35	      15.3	   2.16173	7.13036e+06	     77.35	      15.3	   2.24431	7.06579e+06	   77.4306	      15.3	   2.24261	7.11198e+06	   77.3934	      15.3	   2.16057	7.16184e+06	     77.35	      15.3	   2.20302	7.09714e+06	   77.3903	      15.3	   2.24346	7.08864e+06	   77.4337	      15.3	   2.20101	7.15197e+06	
         R10	   3246	   77.4306	      15.3	   2.24261	7.11222e+06	     77.35	      15.3	   2.24431	7.06822e+06	     77.35	      15.3	   2.32373	7.00156e+06	   77.4306	      15.3	   2.32389	7.05564e+06	   77.3903	      15.3	   2.24346	7.08998e+06	     77.35	      15.3	   2.28402	7.03411e+06	   77.3903	      15.3	   2.32381	7.02838e+06	   77.4306	      15.3	   2.28325	7.08307e+06	
         R10	   3247	   77.4306	      15.3	   2.32389	7.05961e+06	     77.35	      15.3	   2.32373	7.00408e+06	     77.35	      15.3	       2.4	6.97996e+06	   77.4288	      15.3	       2.4	6.98843e+06	   77.3903	      15.3	   2.32381	7.03161e+06	     77.35	      15.3	   2.36187	6.99142e+06	   77.3894	      15.3	       2.4	  6.984e+06	   77.4297	      15.3	   2.36194	7.02314e+06	
         R10	   3248	   77.5253	      15.3	   2.31439	7.12046e+06	   77.4306	      15.3	   2.32389	 7.0536e+06	   77.4288	      15.3	       2.4	 7.0291e+06	   77.5234	      15.3	       2.4	7.04287e+06	   77.4779	      15.3	   2.31914	7.08671e+06	   77.4297	      15.3	   2.36194	7.04063e+06	   77.4761	      15.3	       2.4	7.03569e+06	   77.5243	      15.3	    2.3572	7.08082e+06	
         R10	   3249	   77.5253	      15.3	   2.31439	7.09139e+06	   77.5234	      15.3	       2.4	7.10837e+06	   77.6336	      15.3	       2.4	7.10705e+06	   77.6341	      15.3	   2.27608	7.20826e+06	   77.5243	      15.3	    2.3572	7.09911e+06	   77.5785	      15.3	       2.4	7.10711e+06	   77.6339	      15.3	   2.33804	7.15547e+06	   77.5797	      15.3	   2.29524	7.14896e+06	
         R10	   3250	   77.6341	      15.3	   2.27608	7.22259e+06	   77.6336	      15.3	       2.4	7.11387e+06	   77.7596	      15.3	       2.4	7.16766e+06	   77.7716	      15.3	   2.26714	7.21413e+06	   77.6339	      15.3	   2.33804	7.16617e+06	   77.6966	      15.3	       2.4	7.13918e+06	   77.7656	      15.3	   2.33357	7.18772e+06	   77.7029	      15.3	   2.27161	7.21764e+06	
         R10	   3251	   77.7716	      15.3	   2.26714	7.28214e+06	   77.7596	      15.3	       2.4	7.19593e+06	   77.9013	      15.3	       2.4	7.19803e+06	   77.9069	      15.3	   2.24758	7.25667e+06	   77.7656	      15.3	   2.33357	7.23563e+06	   77.8304	      15.3	       2.4	7.19429e+06	   77.9041	      15.3	   2.32379	7.22331e+06	   77.8393	      15.3	   2.25736	7.26821e+06	
         R10	   3252	   77.9069	      15.3	   2.24758	7.31661e+06	   77.9013	      15.3	       2.4	7.23267e+06	   78.0586	      15.3	       2.4	7.22839e+06	   78.0643	      15.3	   2.23173	7.29634e+06	   77.9041	      15.3	   2.32379	7.27024e+06	     77.98	      15.3	       2.4	7.22578e+06	   78.0615	      15.3	   2.31586	7.25686e+06	   77.9856	      15.3	   2.23965	7.30474e+06	
         R10	   3253	   78.0643	      15.3	   2.23173	7.37994e+06	   78.0586	      15.3	       2.4	7.25777e+06	   78.2317	      15.3	       2.4	7.25244e+06	   78.2378	      15.3	   2.21689	7.33677e+06	   78.0615	      15.3	   2.31586	7.31281e+06	   78.1452	      15.3	       2.4	7.24691e+06	   78.2347	      15.3	   2.30844	7.28757e+06	    78.151	      15.3	   2.22431	7.35567e+06	
         R10	   3254	   78.2378	      15.3	   2.21689	 7.3704e+06	   78.2317	      15.3	       2.4	7.29021e+06	   78.4205	      15.3	       2.4	7.23545e+06	   78.4257	      15.3	   2.20679	7.37836e+06	   78.2347	      15.3	   2.30844	7.32259e+06	   78.3261	      15.3	       2.4	7.24928e+06	   78.4231	      15.3	   2.30339	7.29947e+06	   78.3317	      15.3	   2.21184	7.37087e+06	
         R10	   3255	   78.4257	      15.3	   2.20679	7.32359e+06	   78.4205	      15.3	       2.4	7.30786e+06	    78.625	      15.3	       2.4	7.22837e+06	    78.625	      15.3	   2.20952	7.44465e+06	   78.4231	      15.3	   2.30339	7.30767e+06	   78.5228	      15.3	       2.4	7.24583e+06	    78.625	      15.3	   2.30476	7.32618e+06	   78.5254	      15.3	   2.20816	7.37958e+06	
         R10	   3256	   78.4211	      15.3	   2.01051	7.59608e+06	   78.4257	      15.3	   2.20679	7.32025e+06	    78.625	      15.3	   2.20952	7.45712e+06	    78.625	      15.3	    2.0127	 7.4288e+06	   78.4234	      15.3	   2.10865	7.45034e+06	   78.5254	      15.3	   2.20816	 7.3842e+06	    78.625	      15.3	   2.11111	7.43335e+06	   78.5231	      15.3	    2.0116	7.50974e+06	
         R10	   3257	   78.4211	      15.3	   2.01051	7.59415e+06	    78.625	      15.3	    2.0127	7.42018e+06	    78.625	      15.3	   1.80952	7.90514e+06	     78.42	      15.3	   1.80873	7.71692e+06	   78.5231	      15.3	    2.0116	7.50297e+06	    78.625	      15.3	   1.91111	7.64209e+06	   78.5225	      15.3	   1.80913	  7.788e+06	   78.4206	      15.3	   1.90962	7.63855e+06	
         R10	   3258	     78.42	      15.3	   1.80873	 7.7159e+06	    78.625	      15.3	   1.80952	7.89901e+06	    78.625	      15.3	       1.6	8.06844e+06	   78.4076	      15.3	       1.6	8.09793e+06	   78.5225	      15.3	   1.80913	7.78452e+06	    78.625	      15.3	   1.70476	7.96837e+06	   78.5163	      15.3	       1.6	8.08222e+06	   78.4138	      15.3	   1.70436	7.89064e+06	
         R10	   3259	   78.2168	      15.3	   1.81847	7.71364e+06	     78.42	      15.3	   1.80873	7.88675e+06	   78.4076	      15.3	       1.6	8.09699e+06	   78.2069	      15.3	       1.6	8.09903e+06	   78.3184	      15.3	    1.8136	7.78986e+06	   78.4138	      15.3	   1.70436	7.98022e+06	   78.3073	      15.3	       1.6	8.09745e+06	   78.2118	      15.3	   1.70924	7.89345e+06	
         R10	   3260	   78.2168	      15.3	   1.81847	7.78148e+06	   78.2069	      15.3	       1.6	8.09148e+06	   78.0226	      15.3	       1.6	8.07601e+06	   78.0195	      15.3	   1.75622	7.82956e+06	   78.2118	      15.3	   1.70924	7.92529e+06	   78.1147	      15.3	       1.6	8.08312e+06	   78.0211	      15.3	   1.67811	 7.9478e+06	   78.1181	      15.3	   1.78735	7.80088e+06	
         R10	   3261	   78.0195	      15.3	   1.75622	7.89865e+06	   78.0226	      15.3	       1.6	8.06103e+06	    77.855	      15.3	       1.6	8.04402e+06	    77.861	      15.3	   1.75654	7.72479e+06	   78.0211	      15.3	   1.67811	 7.9753e+06	   77.9388	      15.3	       1.6	8.05166e+06	    77.858	      15.3	   1.67827	7.87902e+06	   77.9403	      15.3	   1.75638	7.80985e+06	
         R10	   3262	    77.861	      15.3	   1.75654	7.87575e+06	    77.855	      15.3	       1.6	8.04874e+06	   77.7039	      15.3	       1.6	8.00442e+06	   77.7104	      15.3	    1.7398	7.73551e+06	    77.858	      15.3	   1.67827	7.95782e+06	   77.7794	      15.3	       1.6	 8.0259e+06	   77.7071	      15.3	    1.6699	7.86588e+06	   77.7857	      15.3	   1.74817	7.80494e+06	
         R10	   3263	   77.7104	      15.3	    1.7398	7.79125e+06	   77.7039	      15.3	       1.6	8.00158e+06	   77.5694	      15.3	       1.6	7.95218e+06	    77.577	      15.3	   1.72208	7.76094e+06	   77.7071	      15.3	    1.6699	7.89317e+06	   77.6366	      15.3	       1.6	 7.9761e+06	   77.5732	      15.3	   1.66104	7.85322e+06	   77.6437	      15.3	   1.73094	7.77546e+06	
         R10	   3264	    77.577	      15.3	   1.72208	7.77014e+06	   77.5694	      15.3	       1.6	7.95245e+06	   77.4514	      15.3	       1.6	7.89927e+06	   77.4578	      15.3	   1.70399	 7.7148e+06	   77.5732	      15.3	   1.66104	7.85893e+06	   77.5104	      15.3	       1.6	7.92505e+06	   77.4546	      15.3	   1.65199	7.80499e+06	   77.5174	      15.3	   1.71304	7.74221e+06	
         R10	   3265	   77.5606	      15.3	   1.85214	7.56218e+06	    77.577	      15.3	   1.72208	7.77229e+06	   77.4578	      15.3	   1.70399	7.71796e+06	    77.445	      15.3	   1.79387	7.59283e+06	   77.5688	      15.3	   1.78711	7.66392e+06	   77.5174	      15.3	   1.71304	7.74486e+06	   77.4514	      15.3	   1.74893	7.65379e+06	   77.5028	      15.3	     1.823	7.57742e+06	
         R10	   3266	   77.5473	      15.3	   1.96545	7.42089e+06	   77.4476	      15.3	   1.97957	7.36855e+06	   77.4414	      15.3	   2.07521	 7.2624e+06	   77.5343	      15.3	   2.07707	7.30639e+06	   77.4975	      15.3	   1.97251	7.39416e+06	   77.4445	      15.3	   2.02739	7.31414e+06	   77.4878	      15.3	   2.07614	7.28427e+06	   77.5408	      15.3	   2.02126	7.36126e+06	
         R10	   3267	   77.5343	      15.3	   2.07707	7.31579e+06	   77.4414	      15.3	   2.07521	7.27062e+06	   77.4367	      15.3	   2.15942	7.15995e+06	   77.5495	      15.3	   2.16943	7.26353e+06	   77.4878	      15.3	   2.07614	7.29288e+06	    77.439	      15.3	   2.11731	7.21414e+06	   77.4931	      15.3	   2.16442	7.21131e+06	   77.5419	      15.3	   2.12325	7.28801e+06	
         R10	   3268	   77.7621	      15.3	   2.12013	7.34587e+06	   77.7716	      15.3	   2.26714	7.27678e+06	   77.9069	      15.3	   2.24758	7.26662e+06	   77.8794	      15.3	   2.09236	7.41847e+06	   77.7669	      15.3	   2.19364	7.30823e+06	   77.8393	      15.3	   2.25736	7.27087e+06	   77.8932	      15.3	   2.16997	 7.3375e+06	   77.8207	      15.3	   2.10625	7.38125e+06	
         R10	   3269	   77.8794	      15.3	   2.09236	7.37431e+06	   77.9069	      15.3	   2.24758	7.31939e+06	   78.0643	      15.3	   2.23173	7.30174e+06	   78.0516	      15.3	   2.06263	7.51141e+06	   77.8932	      15.3	   2.16997	7.34274e+06	   77.9856	      15.3	   2.23965	7.30884e+06	    78.058	      15.3	   2.14718	7.40199e+06	   77.9655	      15.3	   2.07749	7.44193e+06	
         R10	   3270	   78.0516	      15.3	   2.06263	 7.4853e+06	   78.0643	      15.3	   2.23173	  7.371e+06	   78.2378	      15.3	   2.21689	7.34442e+06	   78.2277	      15.3	   2.02807	7.51998e+06	    78.058	      15.3	   2.14718	7.42399e+06	    78.151	      15.3	   2.22431	7.35545e+06	   78.2327	      15.3	   2.12248	7.42359e+06	   78.1396	      15.3	   2.04535	7.50083e+06	
         R10	   3271	   78.2277	      15.3	   2.02807	7.54251e+06	   78.2378	      15.3	   2.21689	7.36459e+06	   78.4257	      15.3	   2.20679	7.37893e+06	   78.4211	      15.3	   2.01051	7.52934e+06	   78.2327	      15.3	   2.12248	7.44557e+06	   78.3317	      15.3	   2.21184	7.36861e+06	   78.4234	      15.3	   2.10865	 7.4463e+06	   78.3244	      15.3	   2.01929	7.53338e+06	
         R10	   3272	   78.2277	      15.3	   2.02807	7.54755e+06	   78.4211	      15.3	   2.01051	 7.5319e+06	     78.42	      15.3	   1.80873	7.88745e+06	   78.2168	      15.3	   1.81847	7.70639e+06	   78.3244	      15.3	   2.01929	7.53665e+06	   78.4206	      15.3	   1.90962	7.69544e+06	   78.3184	      15.3	    1.8136	7.78566e+06	   78.2222	      15.3	   1.92327	7.61357e+06	
         R10	   3273	   78.0151	      15.3	   1.93043	7.67803e+06	   78.0195	      15.3	   1.75622	7.89454e+06	    77.861	      15.3	   1.75654	7.71941e+06	   77.8449	      15.3	   1.92717	7.50992e+06	   78.0173	      15.3	   1.84332	7.77564e+06	   77.9403	      15.3	   1.75638	7.80486e+06	    77.853	      15.3	   1.84185	7.61026e+06	     77.93	      15.3	    1.9288	7.59286e+06	
         R10	   3274	   77.8449	      15.3	   1.92717	7.55652e+06	    77.861	      15.3	   1.75654	7.87171e+06	   77.7104	      15.3	    1.7398	7.74004e+06	   77.6847	      15.3	   1.86055	 7.6094e+06	    77.853	      15.3	   1.84185	7.71005e+06	   77.7857	      15.3	   1.74817	7.80522e+06	   77.6975	      15.3	   1.80017	7.67179e+06	   77.7648	      15.3	   1.89386	7.58281e+06	
         R10	   3275	   77.6847	      15.3	   1.86055	7.62611e+06	   77.7104	      15.3	    1.7398	7.78192e+06	    77.577	      15.3	   1.72208	7.75965e+06	   77.5606	      15.3	   1.85214	7.54984e+06	   77.6975	      15.3	   1.80017	7.70168e+06	   77.6437	      15.3	   1.73094	7.77056e+06	   77.5688	      15.3	   1.78711	7.65141e+06	   77.6226	      15.3	   1.85634	7.58777e+06	
         R10	   3276	   77.5606	      15.3	   1.85214	7.59611e+06	   77.4428	      15.3	   1.89924	7.43637e+06	   77.4476	      15.3	   1.97957	 7.3538e+06	   77.5473	      15.3	   1.96545	7.42166e+06	   77.5017	      15.3	   1.87569	7.51504e+06	   77.4452	      15.3	   1.93941	7.39392e+06	   77.4975	      15.3	   1.97251	 7.3871e+06	    77.554	      15.3	    1.9088	7.50709e+06	
         R10	   3277	   77.6847	      15.3	   1.86055	7.62704e+06	   77.5606	      15.3	   1.85214	7.55371e+06	   77.5473	      15.3	   1.96545	7.44788e+06	   77.6799	      15.3	    2.0124	7.39948e+06	   77.6226	      15.3	   1.85634	7.58988e+06	    77.554	      15.3	    1.9088	7.49888e+06	   77.6136	      15.3	   1.98893	7.42359e+06	   77.6823	      15.3	   1.93648	7.50803e+06	
         R10	   3278	   77.6799	      15.3	    2.0124	7.42123e+06	   77.5343	      15.3	   2.07707	7.29407e+06	   77.5495	      15.3	   2.16943	7.15497e+06	   77.6312	      15.3	   2.12849	7.35816e+06	   77.6071	      15.3	   2.04473	7.35567e+06	   77.5419	      15.3	   2.12325	7.22302e+06	   77.5904	      15.3	   2.14896	7.25576e+06	   77.6556	      15.3	   2.07045	7.38668e+06	
         R10	   3279	   78.0516	      15.3	   2.06263	7.43839e+06	   78.2277	      15.3	   2.02807	7.51222e+06	   78.2168	      15.3	   1.81847	7.84642e+06	   78.0151	      15.3	   1.93043	7.58786e+06	   78.1396	      15.3	   2.04535	7.47447e+06	   78.2222	      15.3	   1.92327	7.66648e+06	   78.1159	      15.3	   1.87445	7.70893e+06	   78.0333	      15.3	   1.99653	  7.511e+06	
         R10	   3280	   77.8794	      15.3	   2.09236	7.40493e+06	   78.0516	      15.3	   2.06263	7.49458e+06	   78.0151	      15.3	   1.93043	7.70351e+06	   77.8449	      15.3	   1.92717	  7.529e+06	   77.9655	      15.3	   2.07749	7.44689e+06	   78.0333	      15.3	   1.99653	7.59212e+06	     77.93	      15.3	    1.9288	7.61379e+06	   77.8621	      15.3	   2.00976	7.46232e+06	
         R10	   3281	   77.5033	      15.3	   2.24714	7.14054e+06	   77.4306	      15.3	   2.24261	7.12595e+06	   77.4306	      15.3	   2.32389	7.05821e+06	   77.5253	      15.3	   2.31439	 7.1274e+06	   77.4669	      15.3	   2.24487	 7.1329e+06	   77.4306	      15.3	   2.28325	 7.0913e+06	   77.4779	      15.3	   2.31914	7.09247e+06	   77.5143	      15.3	   2.28077	7.13252e+06	
         R10	   3282	   77.5033	      15.3	   2.24714	7.17493e+06	   77.5253	      15.3	   2.31439	7.05804e+06	   77.6341	      15.3	   2.27608	7.18134e+06	   77.5495	      15.3	   2.16943	7.19365e+06	   77.5143	      15.3	   2.28077	7.11573e+06	   77.5797	      15.3	   2.29524	7.11831e+06	   77.5918	      15.3	   2.22275	7.18705e+06	   77.5264	      15.3	   2.20828	 7.1838e+06	
         R10	   3283	   77.5033	      15.3	   2.24714	7.14654e+06	   77.5495	      15.3	   2.16943	 7.2733e+06	   77.4367	      15.3	   2.15942	7.15067e+06	   77.4306	      15.3	   2.24261	7.12373e+06	   77.5264	      15.3	   2.20828	7.20896e+06	   77.4931	      15.3	   2.16442	7.21189e+06	   77.4337	      15.3	   2.20101	7.13624e+06	   77.4669	      15.3	   2.24487	7.13503e+06	
         R10	   3284	   77.6696	      15.3	   2.17596	7.29058e+06	   77.6312	      15.3	   2.12849	7.33643e+06	   77.5495	      15.3	   2.16943	7.21782e+06	   77.6341	      15.3	   2.27608	7.20783e+06	   77.6504	      15.3	   2.15223	 7.3126e+06	   77.5904	      15.3	   2.14896	7.27524e+06	   77.5918	      15.3	   2.22275	7.21259e+06	   77.6518	      15.3	   2.22602	7.24881e+06	
         R10	   3285	   77.6696	      15.3	   2.17596	7.24503e+06	   77.6341	      15.3	   2.27608	 7.2102e+06	   77.7716	      15.3	   2.26714	7.20843e+06	   77.7621	      15.3	   2.12013	 7.4139e+06	   77.6518	      15.3	   2.22602	7.22697e+06	   77.7029	      15.3	   2.27161	7.20898e+06	   77.7669	      15.3	   2.19364	7.30745e+06	   77.7159	      15.3	   2.14805	7.32762e+06	
         R10	   3286	   77.6696	      15.3	   2.17596	7.23699e+06	   77.7621	      15.3	   2.12013	7.34024e+06	   77.6799	      15.3	    2.0124	7.51644e+06	   77.6312	      15.3	   2.12849	7.30375e+06	   77.7159	      15.3	   2.14805	7.28649e+06	    77.721	      15.3	   2.06627	7.42676e+06	   77.6556	      15.3	   2.07045	 7.4076e+06	   77.6504	      15.3	   2.15223	7.26974e+06	
         R10	   3287	   77.6799	      15.3	    2.0124	7.43507e+06	   77.7621	      15.3	   2.12013	7.30476e+06	   77.8794	      15.3	   2.09236	7.43746e+06	   77.8449	      15.3	   1.92717	7.58401e+06	    77.721	      15.3	   2.06627	  7.369e+06	   77.8207	      15.3	   2.10625	7.37073e+06	   77.8621	      15.3	   2.00976	7.50429e+06	   77.7624	      15.3	   1.96979	7.50446e+06	
         R10	   3288	   77.5606	      15.3	   1.85214	7.57918e+06	    77.445	      15.3	   1.79387	7.60573e+06	   77.4428	      15.3	   1.89924	 7.4392e+06	   77.5028	      15.3	     1.823	7.59232e+06	   77.4439	      15.3	   1.84656	7.52028e+06	   77.5017	      15.3	   1.87569	7.50751e+06	       N/A	       N/A	       N/A	        N/A	       N/A	       N/A	       N/A	        N/A	
         R10	   3289	   77.6799	      15.3	    2.0124	7.41127e+06	   77.5473	      15.3	   1.96545	7.44923e+06	   77.5343	      15.3	   2.07707	7.28585e+06	   77.6136	      15.3	   1.98893	7.43012e+06	   77.5408	      15.3	   2.02126	7.36518e+06	   77.6071	      15.3	   2.04473	7.34635e+06	       N/A	       N/A	       N/A	        N/A	       N/A	       N/A	       N/A	        N/A	
         R10	   3290	   78.2168	      15.3	   1.81847	7.79577e+06	   78.0195	      15.3	   1.75622	7.85116e+06	   78.0151	      15.3	   1.93043	7.57722e+06	   78.1181	      15.3	   1.78735	7.81872e+06	   78.0173	      15.3	   1.84332	7.70331e+06	   78.1159	      15.3	   1.87445	7.68156e+06	       N/A	       N/A	       N/A	        N/A	       N/A	       N/A	       N/A	        N/A	
         R10	   3291	   77.8449	      15.3	   1.92717	7.57477e+06	   77.6847	      15.3	   1.86055	7.62179e+06	   77.6799	      15.3	    2.0124	  7.405e+06	   77.7648	      15.3	   1.89386	7.59791e+06	   77.6823	      15.3	   1.93648	7.50848e+06	   77.7624	      15.3	   1.96979	7.48728e+06	       N/A	       N/A	       N/A	        N/A	       N/A	       N/A	       N/A	        N/A	
         R10	   3292	   79.6875	       8.5	       2.4	7.88696e+06	    78.625	       8.5	       2.4	7.52812e+06	    78.625	      9.35	       2.4	6.34683e+06	   79.6875	      9.35	       2.4	7.23613e+06	   79.1563	       8.5	       2.4	7.69368e+06	    78.625	     8.925	       2.4	6.87712e+06	   79.1563	      9.35	       2.4	6.76224e+06	   79.6875	     8.925	       2.4	7.52329e+06	
         R10	   3293	     80.75	       8.5	       2.4	8.56176e+06	   79.6875	       8.5	       2.4	8.09354e+06	   79.6875	      9.35	       2.4	7.32945e+06	     80.75	      9.35	       2.4	8.71926e+06	   80.2188	       8.5	       2.4	 8.3136e+06	   79.6875	     8.925	       2.4	7.68233e+06	   80.2188	      9.35	       2.4	7.98064e+06	     80.75	     8.925	       2.4	8.63119e+06	
         R10	   3294	   79.6875	      9.35	       2.4	 7.8792e+06	    78.625	      9.35	       2.4	7.44354e+06	    78.625	      10.2	       2.4	 6.8754e+06	   79.6875	      10.2	       2.4	7.39369e+06	   79.1563	      9.35	       2.4	7.65635e+06	    78.625	     9.775	       2.4	7.13709e+06	   79.1563	      10.2	       2.4	7.12993e+06	   79.6875	     9.775	       2.4	7.62376e+06	
         R10	   3295	     80.75	      9.35	       2.4	8.66245e+06	   79.6875	      9.35	       2.4	7.96044e+06	   79.6875	      10.2	       2.4	7.41677e+06	     80.75	      10.2	       2.4	8.76304e+06	   80.2188	      9.35	       2.4	8.30332e+06	   79.6875	     9.775	       2.4	7.67127e+06	   80.2188	      10.2	       2.4	8.04843e+06	     80.75	     9.775	       2.4	8.69837e+06	
         R10	   3296	   79.9744	     11.05	       2.4	 7.6162e+06	     80.75	     11.05	       2.4	8.87555e+06	     80.75	      10.2	       2.4	8.64838e+06	   79.6875	      10.2	       2.4	7.60093e+06	   80.3622	     11.05	       2.4	8.21031e+06	     80.75	    10.625	       2.4	8.74605e+06	   80.2188	      10.2	       2.4	8.11528e+06	   79.8309	    10.625	       2.4	7.60715e+06	
         R10	   3297	   79.6875	      10.2	       2.4	7.69235e+06	    78.625	      10.2	       2.4	7.13114e+06	    78.625	     11.05	       2.4	 6.9678e+06	    79.266	     11.05	       2.4	7.02587e+06	   79.1563	      10.2	       2.4	7.38793e+06	    78.625	    10.625	       2.4	7.04798e+06	   78.9455	     11.05	       2.4	6.99509e+06	   79.4768	    10.625	       2.4	7.34485e+06	
         R10	   3298	    79.266	     11.05	       2.4	7.12512e+06	   79.9744	     11.05	       2.4	7.70753e+06	   79.6875	      10.2	       2.4	7.48194e+06	   79.6202	     11.05	       2.4	7.40697e+06	   79.8309	    10.625	       2.4	7.59265e+06	   79.4768	    10.625	       2.4	7.28456e+06	       N/A	       N/A	       N/A	        N/A	       N/A	       N/A	       N/A	        N/A	
         R10	   3299	   79.2479	      15.3	  0.372116	8.51844e+06	   79.2266	      15.3	         0	9.79077e+06	   78.9125	      15.3	         0	9.26641e+06	   78.9404	      15.3	  0.308896	9.07662e+06	   79.2372	      15.3	  0.186058	9.14667e+06	   79.0695	      15.3	         0	9.44823e+06	   78.9264	      15.3	  0.154448	9.14258e+06	   79.0941	      15.3	  0.340506	8.75329e+06	
         R10	   3300	   79.5713	      15.3	  0.400362	9.13105e+06	   79.5674	      15.3	         0	1.02598e+07	   79.2266	      15.3	         0	9.33639e+06	   79.2479	      15.3	  0.372116	 9.9208e+06	   79.5694	      15.3	  0.200181	9.50536e+06	    79.397	      15.3	         0	9.61494e+06	   79.2372	      15.3	  0.186058	9.56924e+06	   79.4096	      15.3	  0.386239	9.47205e+06	
         R10	   3301	   79.9385	      15.3	  0.401676	9.35563e+06	   79.9349	      15.3	         0	1.02456e+07	   79.5674	      15.3	         0	9.20232e+06	   79.5713	      15.3	  0.400362	9.73087e+06	   79.9367	      15.3	  0.200838	9.64383e+06	   79.7512	      15.3	         0	9.41013e+06	   79.5694	      15.3	  0.200181	9.27414e+06	   79.7549	      15.3	  0.401019	9.46877e+06	
         R10	   3302	   80.3364	      15.3	  0.403082	9.45601e+06	   80.3291	      15.3	         0	1.17354e+07	   79.9349	      15.3	         0	9.56428e+06	   79.9385	      15.3	  0.401676	1.00073e+07	   80.3327	      15.3	  0.201541	1.00067e+07	    80.132	      15.3	         0	1.00311e+07	   79.9367	      15.3	  0.200838	9.40879e+06	   80.1374	      15.3	  0.402379	 9.4598e+06	
         R10	   3303	     80.75	      15.3	       0.4	9.68361e+06	     80.75	      15.3	         0	1.57509e+07	   80.3291	      15.3	         0	 1.1114e+07	   80.3364	      15.3	  0.403082	1.00459e+07	     80.75	      15.3	       0.2	1.23873e+07	   80.5396	      15.3	         0	1.15354e+07	   80.3327	      15.3	  0.201541	9.28219e+06	   80.5432	      15.3	  0.401541	9.69915e+06	
         R10	   3304	   80.2972	      15.3	       0.8	8.71327e+06	     80.75	      15.3	       0.8	9.24592e+06	     80.75	      15.3	       0.4	9.66915e+06	   80.3364	      15.3	  0.403082	1.02403e+07	   80.5236	      15.3	       0.8	 8.9088e+06	     80.75	      15.3	       0.6	9.40915e+06	   80.5432	      15.3	  0.401541	 9.7439e+06	   80.3168	      15.3	  0.601541	9.20542e+06	
         R10	   3305	   79.8839	      15.3	       0.8	8.89354e+06	   80.2972	      15.3	       0.8	9.50038e+06	   80.3364	      15.3	  0.403082	9.46878e+06	   79.9385	      15.3	  0.401676	 9.8423e+06	   80.0906	      15.3	       0.8	9.13919e+06	   80.3168	      15.3	  0.601541	9.20805e+06	   80.1374	      15.3	  0.402379	9.51666e+06	   79.9112	      15.3	  0.600838	9.31718e+06	
         R10	   3306	     79.51	      15.3	       0.8	8.86933e+06	   79.8839	      15.3	       0.8	8.97206e+06	   79.9385	      15.3	  0.401676	9.22438e+06	   79.5713	      15.3	  0.400362	9.74359e+06	    79.697	      15.3	       0.8	8.89803e+06	   79.9112	      15.3	  0.600838	9.04644e+06	   79.7549	      15.3	  0.401019	9.40432e+06	   79.5407	      15.3	  0.600181	 9.2495e+06	
         R10	   3307	   79.1756	      15.3	       0.8	8.75463e+06	     79.51	      15.3	       0.8	8.87289e+06	   79.5713	      15.3	  0.400362	8.98823e+06	   79.2479	      15.3	  0.372116	9.70215e+06	   79.3428	      15.3	       0.8	8.80811e+06	   79.5407	      15.3	  0.600181	8.90175e+06	   79.4096	      15.3	  0.386239	9.30167e+06	   79.2117	      15.3	  0.586058	9.19953e+06	
         R10	   3308	    78.625	      15.3	  0.558673	9.07578e+06	    78.625	      15.3	       0.8	8.87453e+06	   78.8806	      15.3	       0.8	8.87047e+06	   78.9022	      15.3	  0.546117	8.94892e+06	    78.625	      15.3	  0.679336	8.96998e+06	   78.7528	      15.3	       0.8	8.87126e+06	   78.8914	      15.3	  0.673059	8.90675e+06	   78.7636	      15.3	  0.552395	9.01204e+06	
         R10	   3309	   78.9404	      15.3	  0.308896	9.69213e+06	   78.9125	      15.3	         0	9.91029e+06	    78.625	      15.3	         0	9.83171e+06	    78.625	      15.3	  0.292006	9.14672e+06	   78.9264	      15.3	  0.154448	9.76617e+06	   78.7687	      15.3	         0	9.79714e+06	    78.625	      15.3	  0.146003	9.41837e+06	   78.7827	      15.3	  0.300451	9.41409e+06	
         R10	   3310	   78.9404	      15.3	  0.308896	9.48758e+06	    78.625	      15.3	  0.292006	9.06385e+06	    78.625	      15.3	  0.558673	9.05707e+06	   78.9022	      15.3	  0.546117	8.93039e+06	   78.7827	      15.3	  0.300451	9.26133e+06	    78.625	      15.3	  0.425339	9.03439e+06	   78.7636	      15.3	  0.552395	8.99166e+06	   78.9213	      15.3	  0.427507	9.19663e+06	
         R10	   3311	   79.1756	      15.3	       0.8	8.76413e+06	   79.2479	      15.3	  0.372116	8.67535e+06	   78.9404	      15.3	  0.308896	9.39008e+06	   78.9022	      15.3	  0.546117	9.28271e+06	   79.2117	      15.3	  0.586058	8.70293e+06	   79.0941	      15.3	  0.340506	8.99821e+06	   78.9213	      15.3	  0.427507	9.30734e+06	   79.0389	      15.3	  0.673059	9.02134e+06	
         R10	   3312	   78.9022	      15.3	  0.546117	9.15262e+06	   78.8806	      15.3	       0.8	8.85515e+06	   79.1756	      15.3	       0.8	8.82041e+06	   78.8914	      15.3	  0.673059	9.00121e+06	   79.0281	      15.3	       0.8	8.83464e+06	   79.0389	      15.3	  0.673059	8.98024e+06	       N/A	       N/A	       N/A	        N/A	       N/A	       N/A	       N/A	        N/A	
         R10	   3313	   79.1756	      15.3	   1.11473	8.87045e+06	   79.1756	      15.3	       0.8	8.88482e+06	   78.8806	      15.3	       0.8	8.94369e+06	   78.8806	      15.3	   1.07529	 8.3672e+06	   79.1756	      15.3	  0.957366	8.87392e+06	   79.0281	      15.3	       0.8	8.91196e+06	   78.8806	      15.3	  0.937646	8.64204e+06	   79.0281	      15.3	   1.09501	8.60419e+06	
         R10	   3314	     79.51	      15.3	   1.15417	8.22612e+06	     79.51	      15.3	       0.8	8.96554e+06	   79.1756	      15.3	       0.8	8.82956e+06	   79.1756	      15.3	   1.11473	8.59417e+06	     79.51	      15.3	  0.977084	8.57904e+06	   79.3428	      15.3	       0.8	8.88785e+06	   79.1756	      15.3	  0.957366	8.69542e+06	   79.3428	      15.3	   1.13445	8.38761e+06	
         R10	   3315	   79.8839	      15.3	    1.1936	 7.6625e+06	   79.8839	      15.3	       0.8	9.03323e+06	     79.51	      15.3	       0.8	 8.9189e+06	     79.51	      15.3	   1.15417	8.90792e+06	   79.8839	      15.3	  0.996802	8.27588e+06	    79.697	      15.3	       0.8	8.95684e+06	     79.51	      15.3	  0.977084	8.88954e+06	    79.697	      15.3	   1.17389	8.24042e+06	
         R10	   3316	   80.2972	      15.3	   1.23304	7.44645e+06	   80.2972	      15.3	       0.8	9.40347e+06	   79.8839	      15.3	       0.8	 8.9158e+06	   79.8839	      15.3	    1.1936	9.11847e+06	   80.2972	      15.3	   1.01652	8.17467e+06	   80.0906	      15.3	       0.8	9.10275e+06	   79.8839	      15.3	  0.996802	8.94126e+06	   80.0906	      15.3	   1.21332	8.16779e+06	
         R10	   3317	     80.75	      15.3	   1.21905	6.91183e+06	     80.75	      15.3	       0.8	9.51738e+06	   80.2972	      15.3	       0.8	8.80172e+06	   80.2972	      15.3	   1.23304	 9.5384e+06	     80.75	      15.3	   1.00952	8.13554e+06	   80.5236	      15.3	       0.8	9.00054e+06	   80.2972	      15.3	   1.01652	8.98924e+06	   80.5236	      15.3	   1.22604	8.18201e+06	
         R10	   3318	   80.3619	      15.3	       1.6	7.28349e+06	     80.75	      15.3	       1.6	7.71967e+06	     80.75	      15.3	   1.21905	7.19097e+06	   80.2972	      15.3	   1.23304	9.42871e+06	    80.556	      15.3	       1.6	7.34742e+06	     80.75	      15.3	   1.40952	7.38632e+06	   80.5236	      15.3	   1.22604	8.18215e+06	   80.3296	      15.3	   1.41652	 8.1262e+06	
         R10	   3319	    80.002	      15.3	       1.6	7.89088e+06	   80.3619	      15.3	       1.6	7.94163e+06	   80.2972	      15.3	   1.23304	7.22483e+06	   79.8839	      15.3	    1.1936	9.17967e+06	    80.182	      15.3	       1.6	7.88377e+06	   80.3296	      15.3	   1.41652	7.29314e+06	   80.0906	      15.3	   1.21332	8.08913e+06	    79.943	      15.3	    1.3968	8.45614e+06	
         R10	   3320	   79.6703	      15.3	       1.6	7.87681e+06	    80.002	      15.3	       1.6	7.78397e+06	   79.8839	      15.3	    1.1936	7.70801e+06	     79.51	      15.3	   1.15417	8.94064e+06	   79.8361	      15.3	       1.6	7.81787e+06	    79.943	      15.3	    1.3968	7.56294e+06	    79.697	      15.3	   1.17389	8.24997e+06	   79.5901	      15.3	   1.37708	8.36547e+06	
         R10	   3321	   78.8441	      15.3	   1.36685	8.34008e+06	   78.8441	      15.3	       1.6	7.98022e+06	   79.0913	      15.3	       1.6	7.92515e+06	   79.0913	      15.3	   1.33869	8.21044e+06	   78.8441	      15.3	   1.48343	8.15832e+06	   78.9677	      15.3	       1.6	7.94861e+06	   79.0913	      15.3	   1.46934	8.05363e+06	   78.9677	      15.3	   1.35277	8.24911e+06	
         R10	   3322	    78.625	      15.3	   1.34603	8.41574e+06	    78.625	      15.3	       1.6	7.98861e+06	   78.8441	      15.3	       1.6	7.95651e+06	   78.8441	      15.3	   1.36685	8.06588e+06	    78.625	      15.3	   1.47302	8.19674e+06	   78.7345	      15.3	       1.6	7.97195e+06	   78.8441	      15.3	   1.48343	8.00499e+06	   78.7345	      15.3	   1.35644	8.22485e+06	
         R10	   3323	   78.8806	      15.3	   1.07529	8.76023e+06	   78.8806	      15.3	       0.8	8.94432e+06	    78.625	      15.3	       0.8	8.94915e+06	    78.625	      15.3	   1.07937	8.59837e+06	   78.8806	      15.3	  0.937646	8.84408e+06	   78.7528	      15.3	       0.8	8.94567e+06	    78.625	      15.3	  0.939683	8.76546e+06	   78.7528	      15.3	   1.07733	8.66754e+06	
         R10	   3324	   78.8806	      15.3	   1.07529	8.77427e+06	    78.625	      15.3	   1.07937	8.59382e+06	    78.625	      15.3	   1.34603	8.41606e+06	   78.8441	      15.3	   1.36685	8.09898e+06	   78.7528	      15.3	   1.07733	8.67193e+06	    78.625	      15.3	    1.2127	8.49068e+06	   78.7345	      15.3	   1.35644	8.24212e+06	   78.8623	      15.3	   1.22107	8.41551e+06	
         R10	   3325	   79.1756	      15.3	   1.11473	8.81837e+06	   78.8806	      15.3	   1.07529	8.38223e+06	   78.8441	      15.3	   1.36685	8.30079e+06	   79.0913	      15.3	   1.33869	8.20825e+06	   79.0281	      15.3	   1.09501	 8.5698e+06	   78.8623	      15.3	   1.22107	8.30587e+06	   78.9677	      15.3	   1.35277	8.22508e+06	   79.1334	      15.3	   1.22671	8.48762e+06	
         R10	   3326	   79.3667	      15.3	       1.6	7.72567e+06	     79.51	      15.3	   1.15417	8.23298e+06	   79.1756	      15.3	   1.11473	8.62216e+06	   79.0913	      15.3	   1.33869	8.63224e+06	   79.4384	      15.3	   1.37708	7.92707e+06	   79.3428	      15.3	   1.13445	8.39848e+06	   79.1334	      15.3	   1.22671	8.57736e+06	    79.229	      15.3	   1.46934	8.12849e+06	
         R10	   3327	   79.3667	      15.3	       1.6	7.90685e+06	   79.6703	      15.3	       1.6	7.76791e+06	     79.51	      15.3	   1.15417	8.49167e+06	   79.5185	      15.3	       1.6	7.83251e+06	   79.5901	      15.3	   1.37708	8.06592e+06	   79.4384	      15.3	   1.37708	 8.1446e+06	       N/A	       N/A	       N/A	        N/A	       N/A	       N/A	       N/A	        N/A	
         R10	   3328	   79.0913	      15.3	   1.33869	8.63822e+06	   79.0913	      15.3	       1.6	7.95051e+06	   79.3667	      15.3	       1.6	7.82542e+06	   79.0913	      15.3	   1.46934	8.28491e+06	    79.229	      15.3	       1.6	7.88174e+06	    79.229	      15.3	   1.46934	8.21258e+06	       N/A	       N/A	       N/A	        N/A	       N/A	       N/A	       N/A	        N/A	
         R10	   3329	   79.1278	      15.3	   1.85414	7.85324e+06	   79.0913	      15.3	       1.6	8.00478e+06	   78.8441	      15.3	       1.6	8.06368e+06	   78.8748	      15.3	   1.82224	7.62775e+06	   79.1096	      15.3	   1.72707	7.90708e+06	   78.9677	      15.3	       1.6	8.03329e+06	   78.8594	      15.3	   1.71112	7.81335e+06	   79.0013	      15.3	   1.83819	7.68909e+06	
         R10	   3330	    79.411	      15.3	   1.91032	7.75723e+06	   79.3667	      15.3	       1.6	 7.8779e+06	   79.0913	      15.3	       1.6	8.03674e+06	   79.1278	      15.3	   1.85414	7.48251e+06	   79.3889	      15.3	   1.75516	7.78679e+06	    79.229	      15.3	       1.6	7.95474e+06	   79.1096	      15.3	   1.72707	7.71085e+06	   79.2694	      15.3	   1.88223	7.54442e+06	
         R10	   3331	    79.705	      15.3	   1.97475	7.83939e+06	   79.6703	      15.3	       1.6	7.72098e+06	   79.3667	      15.3	       1.6	7.94167e+06	    79.411	      15.3	   1.91032	7.54612e+06	   79.6876	      15.3	   1.78737	7.71132e+06	   79.5185	      15.3	       1.6	7.82796e+06	   79.3889	      15.3	   1.75516	7.67384e+06	    79.558	      15.3	   1.94253	7.53254e+06	
         R10	   3332	   80.0216	      15.3	   2.00131	7.48935e+06	    80.002	      15.3	       1.6	7.51908e+06	   79.6703	      15.3	       1.6	7.79541e+06	    79.705	      15.3	   1.97475	7.19299e+06	   80.0118	      15.3	   1.80065	7.34127e+06	   79.8361	      15.3	       1.6	7.64235e+06	   79.6876	      15.3	   1.78737	 7.4008e+06	   79.8633	      15.3	   1.98803	  7.073e+06	
         R10	   3333	   80.3775	      15.3	   2.00147	7.17187e+06	   80.3619	      15.3	       1.6	7.50841e+06	    80.002	      15.3	       1.6	7.56516e+06	   80.0216	      15.3	   2.00131	7.04088e+06	   80.3697	      15.3	   1.80073	6.81425e+06	    80.182	      15.3	       1.6	7.46963e+06	   80.0118	      15.3	   1.80065	 7.1806e+06	   80.1995	      15.3	   2.00139	6.62086e+06	
         R10	   3334	     80.75	      15.3	         2	4.80439e+06	     80.75	      15.3	       1.6	7.63574e+06	   80.3619	      15.3	       1.6	6.86205e+06	   80.3775	      15.3	   2.00147	8.30949e+06	     80.75	      15.3	       1.8	5.91637e+06	    80.556	      15.3	       1.6	7.01677e+06	   80.3697	      15.3	   1.80073	7.39024e+06	   80.5637	      15.3	   2.00073	6.35356e+06	
         R10	   3335	   80.3488	      15.3	       2.4	1.13613e+07	     80.75	      15.3	       2.4	4.55723e+06	     80.75	      15.3	         2	5.99297e+06	   80.3775	      15.3	   2.00147	7.74023e+06	   80.5494	      15.3	       2.4	6.60557e+06	     80.75	      15.3	       2.2	4.71775e+06	   80.5637	      15.3	   2.00073	5.99913e+06	   80.3631	      15.3	   2.20073	8.63089e+06	
         R10	   3336	   79.9801	      15.3	       2.4	9.82899e+06	   80.3488	      15.3	       2.4	6.65234e+06	   80.3775	      15.3	   2.00147	6.68376e+06	   80.0216	      15.3	   2.00131	7.20263e+06	   80.1644	      15.3	       2.4	6.77917e+06	   80.3631	      15.3	   2.20073	5.30022e+06	   80.1995	      15.3	   2.00139	6.50202e+06	   80.0008	      15.3	   2.20065	7.85189e+06	
         R10	   3337	   79.6439	      15.3	       2.4	8.53284e+06	   79.9801	      15.3	       2.4	6.08062e+06	   80.0216	      15.3	   2.00131	7.48952e+06	    79.705	      15.3	   1.97475	7.32549e+06	    79.812	      15.3	       2.4	6.71088e+06	   80.0008	      15.3	   2.20065	6.26049e+06	   79.8633	      15.3	   1.98803	7.15132e+06	   79.6745	      15.3	   2.18737	7.61447e+06	
         R10	   3338	   79.0986	      15.3	   2.12572	7.34022e+06	   79.0694	      15.3	       2.4	 7.3856e+06	   79.3404	      15.3	       2.4	6.91006e+06	   79.3651	      15.3	    2.1445	7.35395e+06	    79.084	      15.3	   2.26286	7.34115e+06	   79.2049	      15.3	       2.4	7.04164e+06	   79.3527	      15.3	   2.27225	7.10768e+06	   79.2319	      15.3	   2.13511	 7.3207e+06	
         R10	   3339	   78.8349	      15.3	    2.2217	7.04541e+06	   78.8309	      15.3	       2.4	 7.4754e+06	   79.0694	      15.3	       2.4	7.10679e+06	   79.0986	      15.3	   2.12572	7.50861e+06	   78.8329	      15.3	   2.31085	7.23869e+06	   78.9501	      15.3	       2.4	7.21786e+06	    79.084	      15.3	   2.26286	7.29025e+06	   78.9668	      15.3	   2.17371	7.27141e+06	
         R10	   3340	    78.625	      15.3	   2.20952	7.22798e+06	    78.625	      15.3	       2.4	7.27664e+06	   78.8309	      15.3	       2.4	7.28103e+06	   78.8349	      15.3	    2.2217	7.40272e+06	    78.625	      15.3	   2.30476	7.24068e+06	    78.728	      15.3	       2.4	7.24359e+06	   78.8329	      15.3	   2.31085	7.32971e+06	   78.7299	      15.3	   2.21561	7.30814e+06	
         R10	   3341	    78.846	      15.3	   2.00272	7.35682e+06	    78.625	      15.3	    2.0127	7.64027e+06	    78.625	      15.3	   2.20952	 7.2419e+06	   78.8349	      15.3	    2.2217	7.39141e+06	   78.7355	      15.3	   2.00771	7.49152e+06	    78.625	      15.3	   2.11111	7.43166e+06	   78.7299	      15.3	   2.21561	7.31159e+06	   78.8404	      15.3	   2.11221	7.37167e+06	
         R10	   3342	   78.8748	      15.3	   1.82224	7.89496e+06	   78.8441	      15.3	       1.6	8.04232e+06	    78.625	      15.3	       1.6	8.07368e+06	    78.625	      15.3	   1.80952	7.64738e+06	   78.8594	      15.3	   1.71112	7.95113e+06	   78.7345	      15.3	       1.6	8.05731e+06	    78.625	      15.3	   1.70476	7.84422e+06	   78.7499	      15.3	   1.81588	7.74222e+06	
         R10	   3343	   78.8748	      15.3	   1.82224	7.87963e+06	    78.625	      15.3	   1.80952	7.63848e+06	    78.625	      15.3	    2.0127	7.62754e+06	    78.846	      15.3	   2.00272	7.35696e+06	   78.7499	      15.3	   1.81588	7.73189e+06	    78.625	      15.3	   1.91111	7.60918e+06	   78.7355	      15.3	   2.00771	7.48745e+06	   78.8604	      15.3	   1.91248	7.60167e+06	
         R10	   3344	   79.3651	      15.3	    2.1445	7.96524e+06	   79.6439	      15.3	       2.4	6.45967e+06	    79.705	      15.3	   1.97475	7.98309e+06	    79.411	      15.3	   1.91032	7.65348e+06	   79.5045	      15.3	   2.27225	7.06426e+06	   79.6745	      15.3	   2.18737	7.07397e+06	    79.558	      15.3	   1.94253	7.65231e+06	   79.3881	      15.3	   2.02741	7.63707e+06	
         R10	   3345	   79.0986	      15.3	   2.12572	7.29525e+06	   79.3651	      15.3	    2.1445	7.19898e+06	    79.411	      15.3	   1.91032	7.72996e+06	   79.1278	      15.3	   1.85414	7.47368e+06	   79.2319	      15.3	   2.13511	7.23729e+06	   79.3881	      15.3	   2.02741	7.43776e+06	   79.2694	      15.3	   1.88223	7.53334e+06	   79.1132	      15.3	   1.98993	7.31689e+06	
         R10	   3346	   79.1278	      15.3	   1.85414	7.82741e+06	   78.8748	      15.3	   1.82224	7.64812e+06	    78.846	      15.3	   2.00272	7.65464e+06	   79.0986	      15.3	   2.12572	7.09811e+06	   79.0013	      15.3	   1.83819	7.68347e+06	   78.8604	      15.3	   1.91248	7.60595e+06	   78.9723	      15.3	   2.06422	7.36346e+06	   79.1132	      15.3	   1.98993	7.43107e+06	
         R10	   3347	   79.3651	      15.3	    2.1445	8.03886e+06	   79.3404	      15.3	       2.4	7.53464e+06	   79.6439	      15.3	       2.4	6.49983e+06	   79.3527	      15.3	   2.27225	7.75989e+06	   79.4922	      15.3	       2.4	6.74144e+06	   79.5045	      15.3	   2.27225	7.11251e+06	       N/A	       N/A	       N/A	        N/A	       N/A	       N/A	       N/A	        N/A	
         R10	   3348	    78.846	      15.3	   2.00272	7.66279e+06	   78.8349	      15.3	    2.2217	7.05721e+06	   79.0986	      15.3	   2.12572	7.25814e+06	   78.8404	      15.3	   2.11221	7.35748e+06	   78.9668	      15.3	   2.17371	7.13734e+06	   78.9723	      15.3	   2.06422	7.44317e+06	       N/A	       N/A	       N/A	        N/A	       N/A	       N/A	       N/A	        N/A	
         R10	   3349	   74.6887	      15.3	       0.8	9.30625e+06	    74.375	      15.3	       0.8	9.16287e+06	    74.375	      15.3	   1.07937	8.79722e+06	    74.667	      15.3	   1.07016	8.97388e+06	   74.5318	      15.3	       0.8	9.23363e+06	    74.375	      15.3	  0.939683	8.97683e+06	    74.521	      15.3	   1.07476	8.88477e+06	   74.6778	      15.3	  0.935078	9.13717e+06	
         R10	   3350	    74.667	      15.3	   1.07016	8.98263e+06	    74.375	      15.3	   1.07937	8.81204e+06	    74.375	      15.3	   1.34603	8.65787e+06	   74.6443	      15.3	   1.33537	8.58483e+06	    74.521	      15.3	   1.07476	8.89682e+06	    74.375	      15.3	    1.2127	8.73432e+06	   74.5097	      15.3	    1.3407	8.61974e+06	   74.6556	      15.3	   1.20277	8.78124e+06	
         R10	   3351	   74.6443	      15.3	   1.33537	8.58088e+06	    74.375	      15.3	   1.34603	8.66752e+06	    74.375	      15.3	       1.6	8.21263e+06	    74.639	      15.3	       1.6	8.33691e+06	   74.5097	      15.3	    1.3407	8.62298e+06	    74.375	      15.3	   1.47302	8.43716e+06	    74.507	      15.3	       1.6	8.27249e+06	   74.6417	      15.3	   1.46769	8.45647e+06	
         R10	   3352	   74.8922	      15.3	   1.33075	8.71641e+06	   74.6443	      15.3	   1.33537	8.70778e+06	    74.639	      15.3	       1.6	8.32769e+06	   74.8758	      15.3	       1.6	8.39639e+06	   74.7683	      15.3	   1.33306	8.71055e+06	   74.6417	      15.3	   1.46769	8.51534e+06	   74.7574	      15.3	       1.6	8.36091e+06	    74.884	      15.3	   1.46538	8.55302e+06	
         R10	   3353	   74.8922	      15.3	   1.33075	8.75111e+06	   74.8758	      15.3	       1.6	8.39871e+06	   75.0852	      15.3	       1.6	8.45474e+06	    75.095	      15.3	   1.35773	8.76462e+06	    74.884	      15.3	   1.46538	8.57156e+06	   74.9805	      15.3	       1.6	8.42569e+06	   75.0901	      15.3	   1.47886	8.60704e+06	   74.9936	      15.3	   1.34424	8.75701e+06	
         R10	   3354	    75.095	      15.3	   1.35773	8.79416e+06	   75.0852	      15.3	       1.6	8.45268e+06	   75.2673	      15.3	       1.6	 8.4886e+06	   75.2659	      15.3	   1.41225	8.73187e+06	   75.0901	      15.3	   1.47886	8.62079e+06	   75.1763	      15.3	       1.6	 8.4698e+06	   75.2666	      15.3	   1.50612	 8.6089e+06	   75.1804	      15.3	   1.38499	8.76169e+06	
         R10	   3355	   75.2659	      15.3	   1.41225	 8.7621e+06	   75.2673	      15.3	       1.6	8.48683e+06	   75.4222	      15.3	       1.6	8.50659e+06	   75.4112	      15.3	   1.44802	8.73592e+06	   75.2666	      15.3	   1.50612	8.62318e+06	   75.3448	      15.3	       1.6	8.49593e+06	   75.4167	      15.3	   1.52401	8.62024e+06	   75.3386	      15.3	   1.43013	8.74799e+06	
         R10	   3356	   75.4112	      15.3	   1.44802	8.73822e+06	   75.4222	      15.3	       1.6	8.50907e+06	   75.5497	      15.3	       1.6	8.52467e+06	   75.5279	      15.3	    1.4802	8.67656e+06	   75.4167	      15.3	   1.52401	8.62266e+06	    75.486	      15.3	       1.6	8.51617e+06	   75.5388	      15.3	    1.5401	8.59987e+06	   75.4695	      15.3	   1.46411	8.70664e+06	
         R10	   3357	   75.5279	      15.3	    1.4802	 8.7066e+06	   75.5497	      15.3	       1.6	8.51932e+06	     75.65	      15.3	       1.6	8.51428e+06	   75.6577	      15.3	   1.49188	8.68251e+06	   75.5388	      15.3	    1.5401	8.61219e+06	   75.5999	      15.3	       1.6	8.51635e+06	   75.6538	      15.3	   1.54594	8.59804e+06	   75.5928	      15.3	   1.48604	 8.6934e+06	
         R10	   3358	   75.6577	      15.3	   1.49188	 8.6903e+06	     75.65	      15.3	       1.6	8.51762e+06	   75.7579	      15.3	       1.6	8.51375e+06	   75.7466	      15.3	   1.48315	8.70943e+06	   75.6538	      15.3	   1.54594	 8.6036e+06	   75.7039	      15.3	       1.6	8.51502e+06	   75.7522	      15.3	   1.54157	8.61105e+06	   75.7021	      15.3	   1.48751	8.69937e+06	
         R10	   3359	   75.7466	      15.3	   1.48315	 8.7076e+06	   75.7579	      15.3	       1.6	8.51529e+06	   75.8624	      15.3	       1.6	8.51084e+06	   75.8608	      15.3	   1.48932	8.69663e+06	   75.7522	      15.3	   1.54157	8.61091e+06	   75.8101	      15.3	       1.6	8.51229e+06	   75.8616	      15.3	   1.54466	8.60331e+06	   75.8037	      15.3	   1.48623	8.70111e+06	
         R10	   3360	   75.8608	      15.3	   1.48932	8.69589e+06	   75.8624	      15.3	       1.6	 8.5124e+06	   75.9635	      15.3	       1.6	8.51358e+06	   75.9513	      15.3	   1.50319	8.66656e+06	   75.8616	      15.3	   1.54466	8.60372e+06	   75.9129	      15.3	       1.6	 8.5121e+06	   75.9574	      15.3	   1.55159	8.58971e+06	   75.9061	      15.3	   1.49625	8.68037e+06	
         R10	   3361	   75.9513	      15.3	   1.50319	8.67189e+06	   75.9635	      15.3	       1.6	8.50709e+06	   76.0613	      15.3	       1.6	8.50695e+06	   76.0586	      15.3	   1.47931	8.73961e+06	   75.9574	      15.3	   1.55159	8.58909e+06	   76.0124	      15.3	       1.6	8.50597e+06	   76.0599	      15.3	   1.53965	8.62268e+06	    76.005	      15.3	   1.49125	8.70459e+06	
         R10	   3362	   76.0586	      15.3	   1.47931	8.72874e+06	   76.0613	      15.3	       1.6	8.51067e+06	   76.1557	      15.3	       1.6	8.52537e+06	   76.1591	      15.3	   1.50678	8.71403e+06	   76.0599	      15.3	   1.53965	8.61911e+06	   76.1085	      15.3	       1.6	 8.5167e+06	   76.1574	      15.3	   1.55339	8.61923e+06	   76.1089	      15.3	   1.49304	8.71962e+06	
         R10	   3363	   76.1591	      15.3	   1.50678	8.71256e+06	   76.1557	      15.3	       1.6	8.52697e+06	   76.2468	      15.3	       1.6	8.57009e+06	   76.2453	      15.3	     1.508	8.76407e+06	   76.1574	      15.3	   1.55339	8.61932e+06	   76.2013	      15.3	       1.6	8.54668e+06	   76.2461	      15.3	     1.554	 8.6661e+06	   76.2022	      15.3	   1.50739	8.73699e+06	
         R10	   3364	   76.2453	      15.3	     1.508	8.76225e+06	   76.2468	      15.3	       1.6	8.55661e+06	   76.3346	      15.3	       1.6	8.62457e+06	   76.3333	      15.3	   1.51168	8.96181e+06	   76.2461	      15.3	     1.554	8.65844e+06	   76.2907	      15.3	       1.6	8.58802e+06	   76.3339	      15.3	   1.55584	 8.7913e+06	   76.2893	      15.3	   1.50984	8.85962e+06	
         R10	   3365	   76.3333	      15.3	   1.51168	8.97374e+06	   76.3346	      15.3	       1.6	8.72587e+06	    76.419	      15.3	       1.6	9.19181e+06	   76.4174	      15.3	    1.5149	8.90837e+06	   76.3339	      15.3	   1.55584	8.84819e+06	   76.3768	      15.3	       1.6	8.94546e+06	   76.4182	      15.3	   1.55745	9.02409e+06	   76.3753	      15.3	   1.51329	8.94087e+06	
         R10	   3366	   76.4174	      15.3	    1.5149	9.29706e+06	    76.419	      15.3	       1.6	9.25931e+06	      76.5	      15.3	       1.6	1.01479e+07	      76.5	      15.3	   1.52248	7.85264e+06	   76.4182	      15.3	   1.55745	9.24397e+06	   76.4595	      15.3	       1.6	9.63238e+06	      76.5	      15.3	   1.56124	 8.6213e+06	   76.4587	      15.3	   1.51869	8.50668e+06	
         R10	   3367	   76.4184	      15.3	   1.42439	8.79923e+06	   76.4174	      15.3	    1.5149	9.27476e+06	      76.5	      15.3	   1.52248	8.16544e+06	      76.5	      15.3	   1.43271	8.62821e+06	   76.4179	      15.3	   1.46964	9.03422e+06	   76.4587	      15.3	   1.51869	8.68246e+06	      76.5	      15.3	    1.4776	8.37344e+06	   76.4592	      15.3	   1.42855	8.71149e+06	
         R10	   3368	   76.4184	      15.3	   1.42439	8.80548e+06	      76.5	      15.3	   1.43271	8.80322e+06	      76.5	      15.3	   1.33068	9.08425e+06	   76.4035	      15.3	   1.31953	9.11051e+06	   76.4592	      15.3	   1.42855	8.79941e+06	      76.5	      15.3	    1.3817	8.94097e+06	   76.4518	      15.3	   1.32511	9.09547e+06	    76.411	      15.3	   1.37196	 8.9579e+06	
         R10	   3369	   76.4035	      15.3	   1.31953	9.09104e+06	      76.5	      15.3	   1.33068	9.14045e+06	      76.5	      15.3	    1.2164	 9.3737e+06	   76.3816	      15.3	   1.20702	9.37364e+06	   76.4518	      15.3	   1.32511	9.11182e+06	      76.5	      15.3	   1.27354	9.25399e+06	   76.4408	      15.3	   1.21171	9.37177e+06	   76.3926	      15.3	   1.26328	9.23184e+06	
         R10	   3370	   76.3816	      15.3	   1.20702	9.33829e+06	      76.5	      15.3	    1.2164	9.47501e+06	      76.5	      15.3	   1.08986	9.69586e+06	   76.3637	      15.3	   1.08431	9.61644e+06	   76.4408	      15.3	   1.21171	9.40014e+06	      76.5	      15.3	   1.15313	9.57696e+06	   76.4318	      15.3	   1.08708	9.65448e+06	   76.3726	      15.3	   1.14566	9.47728e+06	
         R10	   3371	   76.3637	      15.3	   1.08431	9.57933e+06	      76.5	      15.3	   1.08986	9.90231e+06	      76.5	      15.3	  0.951056	1.01382e+07	   76.3469	      15.3	  0.943624	9.73353e+06	   76.4318	      15.3	   1.08708	9.72697e+06	      76.5	      15.3	   1.02046	9.98701e+06	   76.4235	      15.3	   0.94734	9.93242e+06	   76.3553	      15.3	   1.01397	9.65625e+06	
         R10	   3372	   76.3469	      15.3	  0.943624	9.78129e+06	      76.5	      15.3	  0.951056	1.06222e+07	      76.5	      15.3	       0.8	1.03274e+07	   76.3415	      15.3	       0.8	1.03947e+07	   76.4235	      15.3	   0.94734	1.01697e+07	      76.5	      15.3	  0.875528	1.03428e+07	   76.4207	      15.3	       0.8	1.03447e+07	   76.3442	      15.3	  0.871812	1.00844e+07	
         R10	   3373	   76.1714	      15.3	  0.953091	9.89277e+06	   76.3469	      15.3	  0.943624	9.87443e+06	   76.3415	      15.3	       0.8	1.02933e+07	   76.1635	      15.3	       0.8	1.02097e+07	   76.2592	      15.3	  0.948358	9.87892e+06	   76.3442	      15.3	  0.871812	1.00807e+07	   76.2525	      15.3	       0.8	1.02483e+07	   76.1674	      15.3	  0.876545	1.00508e+07	
         R10	   3374	   76.1714	      15.3	  0.953091	9.85093e+06	   76.1635	      15.3	       0.8	 1.0239e+07	   75.9662	      15.3	       0.8	1.01121e+07	   75.9646	      15.3	   1.01446	9.63595e+06	   76.1674	      15.3	  0.876545	1.00445e+07	   76.0648	      15.3	       0.8	1.01702e+07	   75.9654	      15.3	   0.90723	9.87152e+06	    76.068	      15.3	  0.983775	9.73968e+06	
         R10	   3375	   75.9646	      15.3	   1.01446	9.61158e+06	   75.9662	      15.3	       0.8	1.01266e+07	   75.7495	      15.3	       0.8	9.96736e+06	    75.721	      15.3	   1.02578	9.48073e+06	   75.9654	      15.3	   0.90723	9.86661e+06	   75.8578	      15.3	       0.8	1.00416e+07	   75.7352	      15.3	   0.91289	9.72177e+06	   75.8428	      15.3	   1.02012	9.54146e+06	
         R10	   3376	    75.721	      15.3	   1.02578	 9.4817e+06	   75.7495	      15.3	       0.8	9.94515e+06	   75.5134	      15.3	       0.8	9.81945e+06	   75.5086	      15.3	   1.03558	 9.3776e+06	   75.7352	      15.3	   0.91289	9.71118e+06	   75.6314	      15.3	       0.8	9.87898e+06	    75.511	      15.3	  0.917789	9.59599e+06	   75.6148	      15.3	   1.03068	9.42666e+06	
         R10	   3377	   75.5086	      15.3	   1.03558	9.36142e+06	   75.5134	      15.3	       0.8	9.75908e+06	   75.2579	      15.3	       0.8	9.63071e+06	   75.2221	      15.3	   1.08375	9.19888e+06	    75.511	      15.3	  0.917789	9.55768e+06	   75.3856	      15.3	       0.8	9.69197e+06	     75.24	      15.3	  0.941875	9.41249e+06	   75.3654	      15.3	   1.05966	9.27772e+06	
         R10	   3378	   75.2221	      15.3	   1.08375	 9.1657e+06	   75.2579	      15.3	       0.8	9.58346e+06	    74.983	      15.3	       0.8	9.46672e+06	   74.9453	      15.3	   1.07556	9.04483e+06	     75.24	      15.3	  0.941875	 9.3723e+06	   75.1204	      15.3	       0.8	9.52312e+06	   74.9641	      15.3	   0.93778	9.25255e+06	   75.0837	      15.3	   1.07966	9.10325e+06	
         R10	   3379	   74.9453	      15.3	   1.07556	9.07577e+06	    74.983	      15.3	       0.8	 9.4172e+06	   74.6887	      15.3	       0.8	9.27796e+06	    74.667	      15.3	   1.07016	8.93178e+06	   74.9641	      15.3	   0.93778	9.24295e+06	   74.8358	      15.3	       0.8	9.34545e+06	   74.6778	      15.3	  0.935078	9.10196e+06	   74.8061	      15.3	   1.07286	9.00304e+06	
         R10	   3380	   74.9453	      15.3	   1.07556	9.10152e+06	    74.667	      15.3	   1.07016	8.92622e+06	   74.6443	      15.3	   1.33537	8.70813e+06	   74.8922	      15.3	   1.33075	8.68765e+06	   74.8061	      15.3	   1.07286	9.01288e+06	   74.6556	      15.3	   1.20277	8.81482e+06	   74.7683	      15.3	   1.33306	8.69701e+06	   74.9187	      15.3	   1.20316	8.89132e+06	
         R10	   3381	   75.2221	      15.3	   1.08375	9.17039e+06	   74.9453	      15.3	   1.07556	9.07913e+06	   74.8922	      15.3	   1.33075	8.71648e+06	    75.095	      15.3	   1.35773	8.74566e+06	   75.0837	      15.3	   1.07966	9.12254e+06	   74.9187	      15.3	   1.20316	8.89442e+06	   74.9936	      15.3	   1.34424	8.73017e+06	   75.1585	      15.3	   1.22074	8.95632e+06	
         R10	   3382	   75.2221	      15.3	   1.08375	9.19963e+06	    75.095	      15.3	   1.35773	8.74927e+06	   75.2659	      15.3	   1.41225	8.69076e+06	   75.3185	      15.3	    1.2575	9.00232e+06	   75.1585	      15.3	   1.22074	8.97293e+06	   75.1804	      15.3	   1.38499	8.71872e+06	   75.2922	      15.3	   1.33487	8.84592e+06	   75.2703	      15.3	   1.17062	9.09903e+06	
         R10	   3383	   75.3185	      15.3	    1.2575	9.02026e+06	   75.2659	      15.3	   1.41225	8.72835e+06	   75.4112	      15.3	   1.44802	8.70766e+06	   75.5018	      15.3	   1.24397	9.06321e+06	   75.2922	      15.3	   1.33487	8.87348e+06	   75.3386	      15.3	   1.43013	8.71682e+06	   75.4565	      15.3	     1.346	8.88458e+06	   75.4101	      15.3	   1.25074	9.04023e+06	
         R10	   3384	   75.5018	      15.3	   1.24397	9.08405e+06	   75.4112	      15.3	   1.44802	8.70084e+06	   75.5279	      15.3	    1.4802	8.68577e+06	   75.6018	      15.3	   1.38031	8.87392e+06	   75.4565	      15.3	     1.346	8.89146e+06	   75.4695	      15.3	   1.46411	8.69234e+06	   75.5648	      15.3	   1.43026	8.77968e+06	   75.5518	      15.3	   1.31214	  8.977e+06	
         R10	   3385	   75.7228	      15.3	   1.36764	8.90676e+06	   75.7466	      15.3	   1.48315	8.68824e+06	   75.8608	      15.3	   1.48932	8.69023e+06	   75.8702	      15.3	   1.36559	8.92885e+06	   75.7347	      15.3	    1.4254	8.79688e+06	   75.8037	      15.3	   1.48623	8.68806e+06	   75.8655	      15.3	   1.42746	8.80896e+06	   75.7965	      15.3	   1.36662	8.91626e+06	
         R10	   3386	   75.8702	      15.3	   1.36559	8.92942e+06	   75.8608	      15.3	   1.48932	8.68868e+06	   75.9513	      15.3	   1.50319	8.69023e+06	   75.9682	      15.3	   1.38528	8.89602e+06	   75.8655	      15.3	   1.42746	8.80844e+06	   75.9061	      15.3	   1.49625	8.68851e+06	   75.9597	      15.3	   1.44424	8.79273e+06	   75.9192	      15.3	   1.37544	 8.9117e+06	
         R10	   3387	   76.0845	      15.3	   1.39187	8.93605e+06	   76.0586	      15.3	   1.47931	8.74897e+06	   76.1591	      15.3	   1.50678	8.73899e+06	   76.1646	      15.3	   1.37961	 8.9963e+06	   76.0715	      15.3	   1.43559	 8.8422e+06	   76.1089	      15.3	   1.49304	8.74223e+06	   76.1619	      15.3	    1.4432	8.86659e+06	   76.1245	      15.3	   1.38574	8.96546e+06	
         R10	   3388	   76.1646	      15.3	   1.37961	8.99929e+06	   76.1591	      15.3	   1.50678	8.73597e+06	   76.2453	      15.3	     1.508	8.80679e+06	   76.2392	      15.3	   1.38551	9.01847e+06	   76.1619	      15.3	    1.4432	8.86663e+06	   76.2022	      15.3	   1.50739	8.76998e+06	   76.2423	      15.3	   1.44676	8.91077e+06	   76.2019	      15.3	   1.38256	9.00835e+06	
         R10	   3389	   76.2392	      15.3	   1.38551	9.01773e+06	   76.2453	      15.3	     1.508	8.82733e+06	   76.3333	      15.3	   1.51168	8.95506e+06	   76.3292	      15.3	   1.41169	8.93417e+06	   76.2423	      15.3	   1.44676	8.92069e+06	   76.2893	      15.3	   1.50984	8.89018e+06	   76.3313	      15.3	   1.46168	8.94275e+06	   76.2842	      15.3	    1.3986	8.97507e+06	
         R10	   3390	   76.3292	      15.3	   1.41169	9.00704e+06	   76.3333	      15.3	   1.51168	8.85347e+06	   76.4174	      15.3	    1.5149	8.96313e+06	   76.4184	      15.3	   1.42439	8.94773e+06	   76.3313	      15.3	   1.46168	8.92808e+06	   76.3753	      15.3	   1.51329	8.90782e+06	   76.4179	      15.3	   1.46964	 8.9552e+06	   76.3738	      15.3	   1.41804	8.97537e+06	
         R10	   3391	   76.2523	      15.3	   1.24861	9.24235e+06	   76.3816	      15.3	   1.20702	9.34342e+06	   76.3637	      15.3	   1.08431	9.63115e+06	   76.2168	      15.3	    1.0951	 9.5624e+06	   76.3169	      15.3	   1.22781	9.29129e+06	   76.3726	      15.3	   1.14566	 9.4872e+06	   76.2902	      15.3	    1.0897	9.59279e+06	   76.2345	      15.3	   1.17185	9.40007e+06	
         R10	   3392	   76.2168	      15.3	    1.0951	9.53325e+06	   76.3637	      15.3	   1.08431	9.60173e+06	   76.3469	      15.3	  0.943624	9.92273e+06	   76.1714	      15.3	  0.953091	9.92558e+06	   76.2902	      15.3	    1.0897	9.56502e+06	   76.3553	      15.3	   1.01397	9.76209e+06	   76.2592	      15.3	  0.948358	9.91887e+06	   76.1941	      15.3	   1.02409	9.72748e+06	
         R10	   3393	   76.0801	      15.3	   1.13339	 9.4367e+06	   76.2168	      15.3	    1.0951	 9.5655e+06	   76.1714	      15.3	  0.953091	9.85884e+06	   75.9646	      15.3	   1.01446	 9.6505e+06	   76.1484	      15.3	   1.11424	9.49927e+06	   76.1941	      15.3	   1.02409	9.71034e+06	    76.068	      15.3	  0.983775	9.75125e+06	   76.0223	      15.3	   1.07393	9.54063e+06	
         R10	   3394	   75.5086	      15.3	   1.03558	9.38249e+06	   75.2221	      15.3	   1.08375	9.18814e+06	   75.3185	      15.3	    1.2575	9.00126e+06	   75.5018	      15.3	   1.24397	9.04069e+06	   75.3654	      15.3	   1.05966	9.28237e+06	   75.2703	      15.3	   1.17062	9.09223e+06	   75.4101	      15.3	   1.25074	9.02009e+06	   75.5052	      15.3	   1.13978	9.20977e+06	
         R10	   3395	   75.6018	      15.3	   1.38031	8.86519e+06	   75.6577	      15.3	   1.49188	8.68048e+06	   75.7466	      15.3	   1.48315	8.69524e+06	   75.7228	      15.3	   1.36764	8.89316e+06	   75.6297	      15.3	    1.4361	  8.772e+06	   75.7021	      15.3	   1.48751	8.68744e+06	   75.7347	      15.3	    1.4254	8.79354e+06	   75.6623	      15.3	   1.37398	8.87844e+06	
         R10	   3396	   75.7067	      15.3	   1.20183	9.19898e+06	   75.7228	      15.3	   1.36764	 8.8785e+06	   75.8702	      15.3	   1.36559	8.90685e+06	   75.8986	      15.3	   1.19999	9.24431e+06	   75.7148	      15.3	   1.28474	9.03744e+06	   75.7965	      15.3	   1.36662	8.89091e+06	   75.8844	      15.3	   1.28279	9.07454e+06	   75.8027	      15.3	   1.20091	 9.2187e+06	
         R10	   3397	   76.0111	      15.3	   1.26819	9.13212e+06	   75.9682	      15.3	   1.38528	8.91907e+06	   76.0586	      15.3	   1.47931	8.74476e+06	   76.0845	      15.3	   1.39187	8.91543e+06	   75.9896	      15.3	   1.32674	9.02524e+06	   76.0134	      15.3	   1.43229	8.82968e+06	   76.0715	      15.3	   1.43559	8.82983e+06	   76.0478	      15.3	   1.33003	 9.0215e+06	
         R10	   3398	   76.1569	      15.3	   1.26782	9.19037e+06	   76.2523	      15.3	   1.24861	 9.2437e+06	   76.2168	      15.3	    1.0951	9.57524e+06	   76.0801	      15.3	   1.13339	9.44226e+06	   76.2046	      15.3	   1.25822	9.21604e+06	   76.2345	      15.3	   1.17185	9.40727e+06	   76.1484	      15.3	   1.11424	9.50677e+06	   76.1185	      15.3	   1.20061	9.31402e+06	
         R10	   3399	   75.8986	      15.3	   1.19999	9.28281e+06	   75.8702	      15.3	   1.36559	8.90641e+06	   75.9682	      15.3	   1.38528	8.91251e+06	   76.0111	      15.3	   1.26819	9.10831e+06	   75.8844	      15.3	   1.28279	9.09352e+06	   75.9192	      15.3	   1.37544	8.90834e+06	   75.9896	      15.3	   1.32674	9.01002e+06	   75.9548	      15.3	   1.23409	9.19325e+06	
         R10	   3400	   76.3282	      15.3	    1.3297	9.11501e+06	   76.4035	      15.3	   1.31953	9.10233e+06	   76.3816	      15.3	   1.20702	9.37259e+06	   76.2523	      15.3	   1.24861	9.24585e+06	   76.3659	      15.3	   1.32462	9.10781e+06	   76.3926	      15.3	   1.26328	9.23703e+06	   76.3169	      15.3	   1.22781	9.30712e+06	   76.2903	      15.3	   1.28915	9.17911e+06	
         R10	   3401	   76.3282	      15.3	    1.3297	9.09589e+06	   76.2523	      15.3	   1.24861	9.26558e+06	   76.2392	      15.3	   1.38551	8.99414e+06	   76.3292	      15.3	   1.41169	 9.0265e+06	   76.2903	      15.3	   1.28915	9.17925e+06	   76.2458	      15.3	   1.31706	9.12896e+06	   76.2842	      15.3	    1.3986	 9.0088e+06	   76.3287	      15.3	    1.3707	9.06068e+06	
         R10	   3402	   76.3282	      15.3	    1.3297	9.09818e+06	   76.3292	      15.3	   1.41169	9.06445e+06	   76.4184	      15.3	   1.42439	8.89644e+06	   76.4035	      15.3	   1.31953	9.09328e+06	   76.3287	      15.3	    1.3707	9.08079e+06	   76.3738	      15.3	   1.41804	8.98002e+06	    76.411	      15.3	   1.37196	8.99479e+06	   76.3659	      15.3	   1.32462	 9.0944e+06	
         R10	   3403	   76.1569	      15.3	   1.26782	9.20167e+06	   76.1646	      15.3	   1.37961	8.97574e+06	   76.2392	      15.3	   1.38551	9.00192e+06	   76.2523	      15.3	   1.24861	 9.2571e+06	   76.1608	      15.3	   1.32372	9.08802e+06	   76.2019	      15.3	   1.38256	 8.9882e+06	   76.2458	      15.3	   1.31706	9.12866e+06	   76.2046	      15.3	   1.25822	9.22839e+06	
         R10	   3404	   75.5018	      15.3	   1.24397	9.02526e+06	   75.6018	      15.3	   1.38031	8.84524e+06	   75.7228	      15.3	   1.36764	8.87909e+06	   75.7067	      15.3	   1.20183	9.18563e+06	   75.5518	      15.3	   1.31214	8.93315e+06	   75.6623	      15.3	   1.37398	8.86156e+06	   75.7148	      15.3	   1.28474	9.03113e+06	   75.6043	      15.3	    1.2229	9.10324e+06	
         R10	   3405	    75.721	      15.3	   1.02578	9.50142e+06	   75.5086	      15.3	   1.03558	9.39862e+06	   75.5018	      15.3	   1.24397	9.02495e+06	   75.7067	      15.3	   1.20183	9.16709e+06	   75.6148	      15.3	   1.03068	9.44718e+06	   75.5052	      15.3	   1.13978	9.20981e+06	   75.6043	      15.3	    1.2229	9.09414e+06	   75.7139	      15.3	   1.11381	9.33288e+06	
         R10	   3406	   75.9646	      15.3	   1.01446	9.65509e+06	    75.721	      15.3	   1.02578	9.50905e+06	   75.7067	      15.3	   1.20183	9.16447e+06	   75.8986	      15.3	   1.19999	9.21152e+06	   75.8428	      15.3	   1.02012	9.57704e+06	   75.7139	      15.3	   1.11381	9.33543e+06	   75.8027	      15.3	   1.20091	9.18504e+06	   75.9316	      15.3	   1.10723	9.43223e+06	
         R10	   3407	   76.0111	      15.3	   1.26819	9.12113e+06	   76.0801	      15.3	   1.13339	9.46048e+06	   75.9646	      15.3	   1.01446	 9.6319e+06	   75.8986	      15.3	   1.19999	9.20239e+06	   76.0456	      15.3	   1.20079	 9.2905e+06	   76.0223	      15.3	   1.07393	9.54304e+06	   75.9316	      15.3	   1.10723	9.41569e+06	   75.9548	      15.3	   1.23409	 9.1594e+06	
         R10	   3408	   76.0845	      15.3	   1.39187	8.94437e+06	   76.1646	      15.3	   1.37961	8.98895e+06	   76.1569	      15.3	   1.26782	9.18679e+06	   76.0111	      15.3	   1.26819	9.15166e+06	   76.1245	      15.3	   1.38574	8.96609e+06	   76.1608	      15.3	   1.32372	9.08719e+06	    76.084	      15.3	   1.26801	9.16671e+06	   76.0478	      15.3	   1.33003	9.04558e+06	
         R10	   3409	   75.6018	      15.3	   1.38031	 8.8549e+06	   75.5279	      15.3	    1.4802	8.70701e+06	   75.6577	      15.3	   1.49188	8.67339e+06	   75.5648	      15.3	   1.43026	8.78066e+06	   75.5928	      15.3	   1.48604	8.68911e+06	   75.6297	      15.3	    1.4361	8.76323e+06	       N/A	       N/A	       N/A	        N/A	       N/A	       N/A	       N/A	        N/A	
         R10	   3410	   75.9682	      15.3	   1.38528	8.89318e+06	   75.9513	      15.3	   1.50319	8.68142e+06	   76.0586	      15.3	   1.47931	8.74436e+06	   75.9597	      15.3	   1.44424	8.78687e+06	    76.005	      15.3	   1.49125	8.71182e+06	   76.0134	      15.3	   1.43229	8.81665e+06	       N/A	       N/A	       N/A	        N/A	       N/A	       N/A	       N/A	        N/A	
         R10	   3411	   76.0111	      15.3	   1.26819	9.15271e+06	   76.1569	      15.3	   1.26782	9.18612e+06	   76.0801	      15.3	   1.13339	9.42456e+06	    76.084	      15.3	   1.26801	 9.1671e+06	   76.1185	      15.3	   1.20061	9.30296e+06	   76.0456	      15.3	   1.20079	9.28805e+06	       N/A	       N/A	       N/A	        N/A	       N/A	       N/A	       N/A	        N/A	
         R10	   3412	    74.639	      15.3	       1.6	8.45184e+06	    74.375	      15.3	       1.6	8.32116e+06	    74.375	      15.3	   1.86667	7.73074e+06	   74.6353	      15.3	   1.86718	 8.1977e+06	    74.507	      15.3	       1.6	8.38214e+06	    74.375	      15.3	   1.73333	8.02165e+06	   74.5052	      15.3	   1.86692	7.95435e+06	   74.6372	      15.3	   1.73359	8.31645e+06	
         R10	   3413	   74.6353	      15.3	   1.86718	8.15717e+06	    74.375	      15.3	   1.86667	7.75622e+06	    74.375	      15.3	   2.13333	7.65339e+06	   74.6405	      15.3	   2.13162	7.81712e+06	   74.5052	      15.3	   1.86692	7.95596e+06	    74.375	      15.3	         2	7.69481e+06	   74.5078	      15.3	   2.13248	 7.7343e+06	   74.6379	      15.3	    1.9994	7.97213e+06	
         R10	   3414	   74.6405	      15.3	   2.13162	7.77746e+06	    74.375	      15.3	   2.13333	7.75164e+06	    74.375	      15.3	       2.4	8.28578e+06	   74.6584	      15.3	       2.4	6.88069e+06	   74.5078	      15.3	   2.13248	7.76257e+06	    74.375	      15.3	   2.26667	7.97927e+06	   74.5167	      15.3	       2.4	7.55854e+06	   74.6495	      15.3	   2.26581	7.30492e+06	
         R10	   3415	   74.8986	      15.3	   2.11684	7.94418e+06	   74.6405	      15.3	   2.13162	7.67944e+06	   74.6584	      15.3	       2.4	8.20404e+06	   74.9081	      15.3	       2.4	7.05041e+06	   74.7696	      15.3	   2.12423	7.81113e+06	   74.6495	      15.3	   2.26581	7.92743e+06	   74.7833	      15.3	       2.4	7.61849e+06	   74.9034	      15.3	   2.25842	7.48238e+06	
         R10	   3416	   74.8986	      15.3	   2.11684	7.95337e+06	   74.9081	      15.3	       2.4	7.97176e+06	    75.124	      15.3	       2.4	7.40254e+06	   75.1235	      15.3	   2.21705	7.59755e+06	   74.9034	      15.3	   2.25842	7.95235e+06	    75.016	      15.3	       2.4	7.68096e+06	   75.1237	      15.3	   2.30853	7.48966e+06	    75.011	      15.3	   2.16694	7.77386e+06	
         R10	   3417	   75.1235	      15.3	   2.21705	7.62295e+06	    75.124	      15.3	       2.4	7.93028e+06	   75.3061	      15.3	       2.4	 7.3549e+06	   75.2968	      15.3	   2.23737	7.72626e+06	   75.1237	      15.3	   2.30853	 7.7695e+06	   75.2151	      15.3	       2.4	7.64124e+06	   75.3015	      15.3	   2.31868	7.53619e+06	   75.2101	      15.3	   2.22721	7.67354e+06	
         R10	   3418	   75.2968	      15.3	   2.23737	7.60119e+06	   75.3061	      15.3	       2.4	7.77209e+06	   75.4545	      15.3	       2.4	7.33815e+06	   75.4449	      15.3	   2.26979	7.67396e+06	   75.3015	      15.3	   2.31868	7.68404e+06	   75.3803	      15.3	       2.4	7.55446e+06	   75.4497	      15.3	    2.3349	7.50328e+06	   75.3709	      15.3	   2.25358	7.63708e+06	
         R10	   3419	   75.4449	      15.3	   2.26979	7.59449e+06	   75.4545	      15.3	       2.4	7.58921e+06	   75.5691	      15.3	       2.4	 7.3986e+06	   75.5616	      15.3	   2.29211	7.56985e+06	   75.4497	      15.3	    2.3349	7.58961e+06	   75.5118	      15.3	       2.4	7.49362e+06	   75.5654	      15.3	   2.34606	7.48259e+06	   75.5033	      15.3	   2.28095	7.58175e+06	
         R10	   3420	   75.5616	      15.3	   2.29211	7.54699e+06	   75.5691	      15.3	       2.4	7.46063e+06	     75.65	      15.3	       2.4	7.44898e+06	     75.65	      15.3	   2.32373	7.42716e+06	   75.5654	      15.3	   2.34606	7.50224e+06	   75.6096	      15.3	       2.4	7.45469e+06	     75.65	      15.3	   2.36187	7.43762e+06	   75.6058	      15.3	   2.30792	7.48626e+06	
         R10	   3421	    75.565	      15.3	   2.17592	 7.6607e+06	     75.65	      15.3	   2.16173	7.59977e+06	     75.65	      15.3	     2.076	7.69692e+06	    75.545	      15.3	   2.07575	7.75713e+06	   75.6075	      15.3	   2.16882	7.63012e+06	     75.65	      15.3	   2.11887	7.64744e+06	   75.5975	      15.3	   2.07588	7.72662e+06	    75.555	      15.3	   2.12583	7.70721e+06	
         R10	   3422	    75.545	      15.3	   2.07575	7.75245e+06	     75.65	      15.3	     2.076	7.69906e+06	     75.65	      15.3	   1.98711	7.82075e+06	   75.5635	      15.3	   1.98878	7.84087e+06	   75.5975	      15.3	   2.07588	7.72544e+06	     75.65	      15.3	   2.03156	7.75878e+06	   75.6068	      15.3	   1.98795	7.83046e+06	   75.5543	      15.3	   2.03227	 7.7955e+06	
         R10	   3423	   75.5635	      15.3	   1.98878	7.83178e+06	     75.65	      15.3	   1.98711	7.81968e+06	     75.65	      15.3	   1.89507	7.94452e+06	   75.5557	      15.3	     1.896	7.97255e+06	   75.6068	      15.3	   1.98795	7.82544e+06	     75.65	      15.3	   1.94109	  7.881e+06	   75.6029	      15.3	   1.89553	7.95803e+06	   75.5596	      15.3	   1.94239	7.90087e+06	
         R10	   3424	   75.5557	      15.3	     1.896	7.98129e+06	     75.65	      15.3	   1.89507	7.93182e+06	     75.65	      15.3	   1.79987	8.05733e+06	     75.53	      15.3	   1.80337	8.11259e+06	   75.6029	      15.3	   1.89553	7.95623e+06	     75.65	      15.3	   1.84747	7.99326e+06	     75.59	      15.3	   1.80162	8.08427e+06	   75.5428	      15.3	   1.84969	8.04514e+06	
         R10	   3425	     75.53	      15.3	   1.80337	  8.128e+06	     75.65	      15.3	   1.79987	8.05423e+06	     75.65	      15.3	   1.70151	8.25611e+06	   75.5519	      15.3	   1.69435	8.26039e+06	     75.59	      15.3	   1.80162	8.09054e+06	     75.65	      15.3	   1.75069	8.15362e+06	   75.6009	      15.3	   1.69793	 8.2573e+06	   75.5409	      15.3	   1.74886	8.19272e+06	
         R10	   3426	   75.5519	      15.3	   1.69435	8.26897e+06	     75.65	      15.3	   1.70151	8.25419e+06	     75.65	      15.3	       1.6	8.43215e+06	   75.5497	      15.3	       1.6	8.44905e+06	   75.6009	      15.3	   1.69793	8.26088e+06	     75.65	      15.3	   1.65076	8.34165e+06	   75.5999	      15.3	       1.6	8.43977e+06	   75.5508	      15.3	   1.64718	8.35735e+06	
         R10	   3427	   75.4282	      15.3	   1.70635	8.28708e+06	   75.5519	      15.3	   1.69435	8.29302e+06	   75.5497	      15.3	       1.6	8.45709e+06	   75.4222	      15.3	       1.6	8.47948e+06	   75.4901	      15.3	   1.70035	8.28896e+06	   75.5508	      15.3	   1.64718	8.37341e+06	    75.486	      15.3	       1.6	8.46763e+06	   75.4252	      15.3	   1.65318	 8.3822e+06	
         R10	   3428	   75.4282	      15.3	   1.70635	 8.2642e+06	   75.4222	      15.3	       1.6	8.46718e+06	   75.2673	      15.3	       1.6	8.48515e+06	   75.2763	      15.3	    1.7767	  8.212e+06	   75.4252	      15.3	   1.65318	8.36433e+06	   75.3448	      15.3	       1.6	8.47495e+06	   75.2718	      15.3	   1.68835	8.34299e+06	   75.3523	      15.3	   1.74153	8.23766e+06	
         R10	   3429	   75.2763	      15.3	    1.7767	  8.183e+06	   75.2673	      15.3	       1.6	8.48621e+06	   75.0852	      15.3	       1.6	8.48697e+06	   75.0802	      15.3	   1.81037	8.16902e+06	   75.2718	      15.3	   1.68835	8.32941e+06	   75.1763	      15.3	       1.6	8.48553e+06	   75.0827	      15.3	   1.70519	8.32065e+06	   75.1783	      15.3	   1.79354	8.17531e+06	
         R10	   3430	   75.0802	      15.3	   1.81037	8.10732e+06	   75.0852	      15.3	       1.6	8.48486e+06	   74.8758	      15.3	       1.6	8.47018e+06	   74.8734	      15.3	   1.84062	8.17163e+06	   75.0827	      15.3	   1.70519	 8.2889e+06	   74.9805	      15.3	       1.6	8.47652e+06	   74.8746	      15.3	   1.72031	8.30947e+06	   74.9768	      15.3	    1.8255	8.13872e+06	
         R10	   3431	   74.8734	      15.3	   1.84062	8.06524e+06	   74.8758	      15.3	       1.6	8.46998e+06	    74.639	      15.3	       1.6	 8.4063e+06	   74.6353	      15.3	   1.86718	8.11037e+06	   74.8746	      15.3	   1.72031	8.25663e+06	   74.7574	      15.3	       1.6	8.43717e+06	   74.6372	      15.3	   1.73359	8.25015e+06	   74.7544	      15.3	    1.8539	8.08723e+06	
         R10	   3432	   74.8734	      15.3	   1.84062	8.05141e+06	   74.6353	      15.3	   1.86718	8.07529e+06	   74.6405	      15.3	   2.13162	7.71405e+06	   74.8986	      15.3	   2.11684	7.92769e+06	   74.7544	      15.3	    1.8539	8.06257e+06	   74.6379	      15.3	    1.9994	7.87945e+06	   74.7696	      15.3	   2.12423	7.82078e+06	    74.886	      15.3	   1.97873	7.97686e+06	
         R10	   3433	    75.147	      15.3	   2.00057	7.98397e+06	   75.1235	      15.3	   2.21705	7.68513e+06	   75.2968	      15.3	   2.23737	 7.7073e+06	   75.3354	      15.3	   2.10073	 7.7211e+06	   75.1353	      15.3	   2.10881	7.82824e+06	   75.2101	      15.3	   2.22721	7.69574e+06	   75.3161	      15.3	   2.16905	7.71138e+06	   75.2412	      15.3	   2.05065	7.84855e+06	
         R10	   3434	   75.5616	      15.3	   2.29211	7.50743e+06	     75.65	      15.3	   2.24431	7.54779e+06	     75.65	      15.3	   2.16173	7.61036e+06	    75.565	      15.3	   2.17592	7.66719e+06	   75.6058	      15.3	   2.26821	7.52742e+06	     75.65	      15.3	   2.20302	7.57805e+06	   75.6075	      15.3	   2.16882	7.63868e+06	   75.5633	      15.3	   2.23401	7.58569e+06	
         R10	   3435	   75.4449	      15.3	   2.26979	 7.5353e+06	   75.5616	      15.3	   2.29211	7.56802e+06	    75.565	      15.3	   2.17592	7.60601e+06	   75.4612	      15.3	   2.16488	7.75804e+06	   75.5033	      15.3	   2.28095	7.55128e+06	   75.5633	      15.3	   2.23401	7.58566e+06	   75.5131	      15.3	    2.1704	7.68123e+06	   75.4531	      15.3	   2.21733	 7.6443e+06	
         R10	   3436	     75.45	      15.3	   2.04159	7.84058e+06	    75.545	      15.3	   2.07575	 7.7048e+06	   75.5635	      15.3	   1.98878	7.85596e+06	   75.4405	      15.3	   1.96265	7.88559e+06	   75.4975	      15.3	   2.05867	7.77124e+06	   75.5543	      15.3	   2.03227	  7.779e+06	    75.502	      15.3	   1.97572	7.87019e+06	   75.4453	      15.3	   2.00212	7.86276e+06	
         R10	   3437	   75.3354	      15.3	   2.10073	7.84313e+06	   75.2968	      15.3	   2.23737	7.58171e+06	   75.4449	      15.3	   2.26979	7.63592e+06	   75.4612	      15.3	   2.16488	7.66942e+06	   75.3161	      15.3	   2.16905	7.71038e+06	   75.3709	      15.3	   2.25358	7.60778e+06	   75.4531	      15.3	   2.21733	7.65047e+06	   75.3983	      15.3	   2.13281	7.75483e+06	
         R10	   3438	   75.3354	      15.3	   2.10073	7.74824e+06	   75.4612	      15.3	   2.16488	7.66425e+06	    75.545	      15.3	   2.07575	7.75006e+06	     75.45	      15.3	   2.04159	7.89131e+06	   75.3983	      15.3	   2.13281	7.70329e+06	   75.5031	      15.3	   2.12031	7.70675e+06	   75.4975	      15.3	   2.05867	7.81991e+06	   75.3927	      15.3	   2.07116	7.81892e+06	
         R10	   3439	   75.3354	      15.3	   2.10073	7.71778e+06	     75.45	      15.3	   2.04159	7.88729e+06	   75.4405	      15.3	   1.96265	7.90902e+06	   75.3089	      15.3	   1.93255	7.97998e+06	   75.3927	      15.3	   2.07116	7.80235e+06	   75.4453	      15.3	   2.00212	 7.8974e+06	   75.3747	      15.3	    1.9476	 7.9436e+06	   75.3221	      15.3	   2.01664	7.84512e+06	
         R10	   3440	   75.4405	      15.3	   1.96265	7.93882e+06	   75.5557	      15.3	     1.896	7.95292e+06	     75.53	      15.3	   1.80337	8.10965e+06	   75.4328	      15.3	      1.85	8.05684e+06	   75.4981	      15.3	   1.92932	7.94504e+06	   75.5428	      15.3	   1.84969	8.02925e+06	   75.4814	      15.3	   1.82669	8.08323e+06	   75.4367	      15.3	   1.90633	7.99516e+06	
         R10	   3441	   75.4328	      15.3	      1.85	8.06331e+06	     75.53	      15.3	   1.80337	8.09392e+06	   75.4282	      15.3	   1.70635	8.28197e+06	   75.2763	      15.3	    1.7767	8.21443e+06	   75.4814	      15.3	   1.82669	8.07845e+06	   75.4791	      15.3	   1.75486	8.18498e+06	   75.3523	      15.3	   1.74153	8.24753e+06	   75.3546	      15.3	   1.81335	8.13667e+06	
         R10	   3442	   75.0802	      15.3	   1.81037	8.11925e+06	   74.8734	      15.3	   1.84062	8.16809e+06	   74.8986	      15.3	   2.11684	7.63072e+06	    75.147	      15.3	   2.00057	8.02881e+06	   74.9768	      15.3	    1.8255	8.14318e+06	    74.886	      15.3	   1.97873	7.88691e+06	   75.0228	      15.3	   2.05871	7.82838e+06	   75.1136	      15.3	   1.90547	 8.0673e+06	
         R10	   3443	   75.3089	      15.3	   1.93255	 7.9802e+06	   75.4405	      15.3	   1.96265	7.86654e+06	   75.4328	      15.3	      1.85	8.08791e+06	   75.2763	      15.3	    1.7767	8.16473e+06	   75.3747	      15.3	    1.9476	7.92269e+06	   75.4367	      15.3	   1.90633	7.97472e+06	   75.3546	      15.3	   1.81335	8.12277e+06	   75.2926	      15.3	   1.85462	 8.0671e+06	
         R10	   3444	    75.147	      15.3	   2.00057	7.85733e+06	   75.3089	      15.3	   1.93255	8.02093e+06	   75.2763	      15.3	    1.7767	8.17119e+06	   75.0802	      15.3	   1.81037	8.16269e+06	   75.2279	      15.3	   1.96656	7.93902e+06	   75.2926	      15.3	   1.85462	8.09149e+06	   75.1783	      15.3	   1.79354	8.16624e+06	   75.1136	      15.3	   1.90547	8.00349e+06	
         R10	   3445	   75.5616	      15.3	   2.29211	7.50396e+06	     75.65	      15.3	   2.32373	7.43328e+06	     75.65	      15.3	   2.24431	7.54389e+06	   75.6058	      15.3	   2.30792	 7.4678e+06	     75.65	      15.3	   2.28402	7.48797e+06	   75.6058	      15.3	   2.26821	7.52376e+06	       N/A	       N/A	       N/A	        N/A	       N/A	       N/A	       N/A	        N/A	
         R10	   3446	   75.4612	      15.3	   2.16488	7.72062e+06	    75.565	      15.3	   2.17592	7.58588e+06	    75.545	      15.3	   2.07575	7.76876e+06	   75.5131	      15.3	    2.1704	7.65266e+06	    75.555	      15.3	   2.12583	7.67557e+06	   75.5031	      15.3	   2.12031	7.74407e+06	       N/A	       N/A	       N/A	        N/A	       N/A	       N/A	       N/A	        N/A	
         R10	   3447	   75.4405	      15.3	   1.96265	7.90747e+06	   75.5635	      15.3	   1.98878	7.85154e+06	   75.5557	      15.3	     1.896	7.94908e+06	    75.502	      15.3	   1.97572	7.87837e+06	   75.5596	      15.3	   1.94239	  7.899e+06	   75.4981	      15.3	   1.92932	7.92807e+06	       N/A	       N/A	       N/A	        N/A	       N/A	       N/A	       N/A	        N/A	
         R10	   3448	     75.53	      15.3	   1.80337	8.08538e+06	   75.5519	      15.3	   1.69435	8.28505e+06	   75.4282	      15.3	   1.70635	8.27283e+06	   75.5409	      15.3	   1.74886	8.18366e+06	   75.4901	      15.3	   1.70035	8.27806e+06	   75.4791	      15.3	   1.75486	8.17552e+06	       N/A	       N/A	       N/A	        N/A	       N/A	       N/A	       N/A	        N/A	
         R10	   3449	   74.8986	      15.3	   2.11684	7.67857e+06	   75.1235	      15.3	   2.21705	7.62452e+06	    75.147	      15.3	   2.00057	8.03546e+06	    75.011	      15.3	   2.16694	7.64618e+06	   75.1353	      15.3	   2.10881	7.82372e+06	   75.0228	      15.3	   2.05871	7.85551e+06	       N/A	       N/A	       N/A	        N/A	       N/A	       N/A	       N/A	        N/A	
         R10	   3450	    75.147	      15.3	   2.00057	7.87806e+06	   75.3354	      15.3	   2.10073	7.70982e+06	   75.3089	      15.3	   1.93255	8.03021e+06	   75.2412	      15.3	   2.05065	7.79021e+06	   75.3221	      15.3	   2.01664	7.86598e+06	   75.2279	      15.3	   1.96656	7.95324e+06	       N/A	       N/A	       N/A	        N/A	       N/A	       N/A	       N/A	        N/A	
         R10	   3451	   79.0225	   11.4831	       2.4	7.27799e+06	    78.625	   11.5581	       2.4	6.66862e+06	    78.625	      11.9	       2.4	6.54914e+06	   78.9896	      11.9	       2.4	6.74927e+06	   78.8237	   11.5206	       2.4	6.96591e+06	    78.625	   11.7291	       2.4	6.56427e+06	   78.8073	      11.9	       2.4	6.64337e+06	   79.0061	   11.6916	       2.4	7.00297e+06	
         R10	   3452	   79.5015	   11.4512	       2.4	7.11729e+06	   79.3845	      11.9	       2.4	6.95434e+06	   79.8095	      11.9	       2.4	7.22021e+06	   79.7584	   11.5003	       2.4	 7.4293e+06	    79.443	   11.6756	       2.4	 7.0244e+06	    79.597	      11.9	       2.4	7.08305e+06	   79.7839	   11.7002	       2.4	7.31903e+06	   79.6299	   11.4758	       2.4	7.27296e+06	
         R10	   3453	   80.2646	      11.9	       2.4	 7.8494e+06	     80.75	      11.9	       2.4	8.98366e+06	     80.75	     11.05	       2.4	8.60944e+06	   79.9744	     11.05	       2.4	7.87285e+06	   80.5073	      11.9	       2.4	8.37513e+06	     80.75	    11.475	       2.4	8.77694e+06	   80.3622	     11.05	       2.4	 8.2379e+06	   80.1195	    11.475	       2.4	7.85759e+06	
         R10	   3454	    79.266	     11.05	       2.4	7.25062e+06	    78.625	     11.05	       2.4	6.73321e+06	    78.625	   11.5581	       2.4	7.08259e+06	   79.0225	   11.4831	       2.4	7.15223e+06	   78.9455	     11.05	       2.4	6.95459e+06	    78.625	   11.3041	       2.4	6.85001e+06	   78.8237	   11.5206	       2.4	7.09314e+06	   79.1443	   11.2666	       2.4	7.19639e+06	
         R10	   3455	    79.266	     11.05	       2.4	7.40804e+06	   79.0225	   11.4831	       2.4	6.94219e+06	   79.3845	      11.9	       2.4	7.06749e+06	   79.5015	   11.4512	       2.4	7.30179e+06	   79.1443	   11.2666	       2.4	7.16866e+06	   79.2035	   11.6916	       2.4	6.99674e+06	    79.443	   11.6756	       2.4	7.17923e+06	   79.3838	   11.2506	       2.4	7.35464e+06	
         R10	   3456	   79.9744	     11.05	       2.4	8.01793e+06	    79.266	     11.05	       2.4	7.30483e+06	   79.5015	   11.4512	       2.4	6.95679e+06	   79.7584	   11.5003	       2.4	7.28015e+06	   79.6202	     11.05	       2.4	7.64107e+06	   79.3838	   11.2506	       2.4	7.12929e+06	   79.6299	   11.4758	       2.4	7.11749e+06	   79.8664	   11.2752	       2.4	7.63883e+06	
         R10	   3457	   79.8095	      11.9	       2.4	7.28538e+06	   80.2646	      11.9	       2.4	7.80614e+06	   79.9744	     11.05	       2.4	8.02711e+06	   79.7584	   11.5003	       2.4	7.08551e+06	   80.0371	      11.9	       2.4	7.53574e+06	   80.1195	    11.475	       2.4	7.91434e+06	   79.8664	   11.2752	       2.4	7.55615e+06	   79.7839	   11.7002	       2.4	 7.1745e+06	
         R10	   3458	   79.0225	   11.4831	       2.4	6.99136e+06	   78.9896	      11.9	       2.4	6.77031e+06	   79.3845	      11.9	       2.4	6.99741e+06	   79.0061	   11.6916	       2.4	6.86451e+06	   79.1871	      11.9	       2.4	6.87721e+06	   79.2035	   11.6916	       2.4	6.98111e+06	       N/A	       N/A	       N/A	        N/A	       N/A	       N/A	       N/A	        N/A	
         R10	   3459	   78.9896	      11.9	       2.4	6.52462e+06	    78.625	      11.9	       2.4	6.49723e+06	    78.625	   12.3654	       2.4	7.12783e+06	   79.0214	   12.3409	       2.4	7.25795e+06	   78.8073	      11.9	       2.4	 6.5027e+06	    78.625	   12.1327	       2.4	6.76044e+06	   78.8232	   12.3532	       2.4	7.19261e+06	   79.0055	   12.1205	       2.4	6.83144e+06	
         R10	   3460	   79.0214	   12.3409	       2.4	7.12372e+06	    78.625	   12.3654	       2.4	7.03384e+06	    78.625	     12.75	       2.4	6.37767e+06	   78.9289	     12.75	       2.4	 6.4048e+06	   78.8232	   12.3532	       2.4	7.07851e+06	    78.625	   12.5577	       2.4	6.61965e+06	   78.7769	     12.75	       2.4	6.38784e+06	   78.9751	   12.5455	       2.4	6.67207e+06	
         R10	   3461	    79.427	    12.366	       2.4	7.20865e+06	   79.0214	   12.3409	       2.4	 7.1555e+06	   78.9289	     12.75	       2.4	6.40739e+06	   79.2529	     12.75	       2.4	6.49236e+06	   79.2242	   12.3535	       2.4	7.17432e+06	   78.9751	   12.5455	       2.4	6.66028e+06	   79.0909	     12.75	       2.4	6.44641e+06	   79.3399	    12.558	       2.4	6.79586e+06	
         R10	   3462	   79.9188	   12.3464	       2.4	8.38358e+06	   79.9612	     12.75	       2.4	6.95771e+06	   80.3455	     12.75	       2.4	7.23563e+06	   80.3395	   12.3354	       2.4	8.14125e+06	     79.94	   12.5482	       2.4	7.60218e+06	   80.1534	     12.75	       2.4	7.08989e+06	   80.3425	   12.5427	       2.4	7.52959e+06	   80.1292	   12.3409	       2.4	8.22668e+06	
         R10	   3463	   80.3395	   12.3354	       2.4	8.77461e+06	   80.3455	     12.75	       2.4	7.10414e+06	     80.75	     12.75	       2.4	8.76362e+06	     80.75	   12.3654	       2.4	9.12279e+06	   80.3425	   12.5427	       2.4	7.78841e+06	   80.5478	     12.75	       2.4	7.80916e+06	     80.75	   12.5577	       2.4	8.89082e+06	   80.5448	   12.3504	       2.4	8.90438e+06	
         R10	   3464	   80.3395	   12.3354	       2.4	 8.5761e+06	     80.75	   12.3654	       2.4	9.49765e+06	     80.75	      11.9	       2.4	8.75847e+06	   80.2646	      11.9	       2.4	7.92207e+06	   80.5448	   12.3504	       2.4	9.02315e+06	     80.75	   12.1327	       2.4	9.11666e+06	   80.5073	      11.9	       2.4	8.31606e+06	   80.3021	   12.1177	       2.4	8.21985e+06	
         R10	   3465	   79.9188	   12.3464	       2.4	8.44071e+06	   80.3395	   12.3354	       2.4	7.74864e+06	   80.2646	      11.9	       2.4	7.73539e+06	   79.8095	      11.9	       2.4	7.14673e+06	   80.1292	   12.3409	       2.4	8.07822e+06	   80.3021	   12.1177	       2.4	7.66076e+06	   80.0371	      11.9	       2.4	7.42455e+06	   79.8642	   12.1232	       2.4	7.75292e+06	
         R10	   3466	   79.3845	      11.9	       2.4	6.69318e+06	   78.9896	      11.9	       2.4	6.52433e+06	   79.0214	   12.3409	       2.4	7.13096e+06	    79.427	    12.366	       2.4	7.70199e+06	   79.1871	      11.9	       2.4	6.59704e+06	   79.0055	   12.1205	       2.4	6.76303e+06	   79.2242	   12.3535	       2.4	7.41533e+06	   79.4057	    12.133	       2.4	7.11957e+06	
         R10	   3467	    79.427	    12.366	       2.4	 7.3174e+06	    79.597	     12.75	       2.4	6.70483e+06	   79.9612	     12.75	       2.4	6.92489e+06	   79.9188	   12.3464	       2.4	7.59969e+06	    79.512	    12.558	       2.4	6.96018e+06	   79.7791	     12.75	       2.4	6.81055e+06	     79.94	   12.5482	       2.4	 7.1547e+06	   79.6729	   12.3562	       2.4	7.44115e+06	
         R10	   3468	   79.3845	      11.9	       2.4	6.69218e+06	    79.427	    12.366	       2.4	 7.7248e+06	   79.9188	   12.3464	       2.4	7.74272e+06	   79.8095	      11.9	       2.4	7.09895e+06	   79.4057	    12.133	       2.4	7.14055e+06	   79.6729	   12.3562	       2.4	7.72924e+06	   79.8642	   12.1232	       2.4	7.33717e+06	    79.597	      11.9	       2.4	6.88235e+06	
         R10	   3469	    79.427	    12.366	       2.4	7.32824e+06	   79.2529	     12.75	       2.4	6.55914e+06	    79.597	     12.75	       2.4	6.75078e+06	   79.3399	    12.558	       2.4	6.87258e+06	   79.4249	     12.75	       2.4	6.64654e+06	    79.512	    12.558	       2.4	6.98107e+06	       N/A	       N/A	       N/A	        N/A	       N/A	       N/A	       N/A	        N/A	
         R10	   3470	   78.9289	     12.75	       2.4	6.43932e+06	    78.625	     12.75	       2.4	6.35316e+06	    78.625	   13.0736	       2.4	6.62571e+06	    78.914	   13.0484	       2.4	6.65648e+06	   78.7769	     12.75	       2.4	6.38548e+06	    78.625	   12.9118	       2.4	6.41787e+06	   78.7695	    13.061	       2.4	6.63429e+06	   78.9214	   12.8992	       2.4	 6.5191e+06	
         R10	   3471	    78.914	   13.0484	       2.4	6.76937e+06	    78.625	   13.0736	       2.4	6.61451e+06	    78.625	   13.3569	       2.4	6.67141e+06	   78.8797	   13.3599	       2.4	6.43559e+06	   78.7695	    13.061	       2.4	6.69127e+06	    78.625	   13.2152	       2.4	6.63801e+06	   78.7523	   13.3584	       2.4	6.55103e+06	   78.8969	   13.2042	       2.4	6.60087e+06	
         R10	   3472	   78.8797	   13.3599	       2.4	 6.2558e+06	    78.625	   13.3569	       2.4	6.68258e+06	    78.625	      13.6	       2.4	6.44931e+06	   78.8806	      13.6	       2.4	6.47402e+06	   78.7523	   13.3584	       2.4	6.46523e+06	    78.625	   13.4784	       2.4	 6.4641e+06	   78.7528	      13.6	       2.4	6.45124e+06	   78.8801	   13.4799	       2.4	6.32738e+06	
         R10	   3473	   78.8797	   13.3599	       2.4	7.28603e+06	   78.8806	      13.6	       2.4	6.40354e+06	   79.1756	      13.6	       2.4	6.47103e+06	   79.2049	   13.2142	       2.4	6.57599e+06	   78.8801	   13.4799	       2.4	6.81656e+06	   79.0281	      13.6	       2.4	6.43249e+06	   79.1903	   13.4071	       2.4	 6.3453e+06	   79.0423	   13.2871	       2.4	6.85715e+06	
         R10	   3474	   79.2049	   13.2142	       2.4	7.31165e+06	   79.1756	      13.6	       2.4	6.48485e+06	     79.51	      13.6	       2.4	6.58013e+06	   79.5364	   13.2022	       2.4	7.03644e+06	   79.1903	   13.4071	       2.4	6.75952e+06	   79.3428	      13.6	       2.4	6.52539e+06	   79.5232	   13.4011	       2.4	6.64407e+06	   79.3707	   13.2082	       2.4	7.16997e+06	
         R10	   3475	   79.5364	   13.2022	       2.4	7.59457e+06	     79.51	      13.6	       2.4	6.59649e+06	   79.8839	      13.6	       2.4	6.84627e+06	   79.9076	    13.189	       2.4	 7.2783e+06	   79.5232	   13.4011	       2.4	6.93984e+06	    79.697	      13.6	       2.4	6.70956e+06	   79.8958	   13.3945	       2.4	6.91687e+06	    79.722	   13.1956	       2.4	7.43306e+06	
         R10	   3476	   79.9076	    13.189	       2.4	7.99183e+06	   79.8839	      13.6	       2.4	 6.8371e+06	   80.2972	      13.6	       2.4	7.22823e+06	   80.3159	   13.1752	       2.4	8.08365e+06	   79.8958	   13.3945	       2.4	7.28428e+06	   80.0906	      13.6	       2.4	7.01569e+06	   80.3065	   13.3876	       2.4	7.52845e+06	   80.1117	   13.1821	       2.4	8.03024e+06	
         R10	   3477	   80.3159	   13.1752	       2.4	8.33062e+06	   80.2972	      13.6	       2.4	  7.071e+06	     80.75	      13.6	       2.4	8.90382e+06	     80.75	    13.175	       2.4	9.04716e+06	   80.3065	   13.3876	       2.4	7.52176e+06	   80.5236	      13.6	       2.4	7.83096e+06	     80.75	   13.3875	       2.4	8.91213e+06	   80.5329	   13.1751	       2.4	8.63899e+06	
         R10	   3478	   80.3159	   13.1752	       2.4	8.21664e+06	     80.75	    13.175	       2.4	 9.4319e+06	     80.75	     12.75	       2.4	 8.8368e+06	   80.3455	     12.75	       2.4	 8.0855e+06	   80.5329	   13.1751	       2.4	8.80229e+06	     80.75	   12.9625	       2.4	9.11222e+06	   80.5478	     12.75	       2.4	8.43794e+06	   80.3307	   12.9626	       2.4	8.11973e+06	
         R10	   3479	   79.9076	    13.189	       2.4	8.06344e+06	   80.3159	   13.1752	       2.4	7.63191e+06	   80.3455	     12.75	       2.4	8.01392e+06	   79.9612	     12.75	       2.4	7.24635e+06	   80.1117	   13.1821	       2.4	7.84761e+06	   80.3307	   12.9626	       2.4	7.77925e+06	   80.1534	     12.75	       2.4	7.60564e+06	   79.9344	   12.9695	       2.4	7.58948e+06	
         R10	   3480	   79.5364	   13.2022	       2.4	7.51866e+06	   79.9076	    13.189	       2.4	7.27749e+06	   79.9612	     12.75	       2.4	7.21786e+06	    79.597	     12.75	       2.4	6.80944e+06	    79.722	   13.1956	       2.4	7.39228e+06	   79.9344	   12.9695	       2.4	7.16308e+06	   79.7791	     12.75	       2.4	7.00219e+06	   79.5667	   12.9761	       2.4	7.10589e+06	
         R10	   3481	   79.2049	   13.2142	       2.4	7.24063e+06	   79.5364	   13.2022	       2.4	6.92632e+06	    79.597	     12.75	       2.4	 6.8014e+06	   79.2529	     12.75	       2.4	6.53317e+06	   79.3707	   13.2082	       2.4	7.08052e+06	   79.5667	   12.9761	       2.4	6.79182e+06	   79.4249	     12.75	       2.4	6.65435e+06	   79.2289	   12.9821	       2.4	6.84404e+06	
         R10	   3482	   79.2049	   13.2142	       2.4	6.63648e+06	   79.2529	     12.75	       2.4	6.55783e+06	   78.9289	     12.75	       2.4	  6.383e+06	    78.914	   13.0484	       2.4	7.11083e+06	   79.2289	   12.9821	       2.4	 6.5385e+06	   79.0909	     12.75	       2.4	6.45973e+06	   78.9214	   12.8992	       2.4	6.72216e+06	   79.0595	   13.1313	       2.4	6.86557e+06	
         R10	   3483	   78.8797	   13.3599	       2.4	7.29752e+06	   79.2049	   13.2142	       2.4	6.34395e+06	    78.914	   13.0484	       2.4	7.03582e+06	   79.0423	   13.2871	       2.4	6.81643e+06	   79.0595	   13.1313	       2.4	6.68926e+06	   78.8969	   13.2042	       2.4	7.16213e+06	       N/A	       N/A	       N/A	        N/A	       N/A	       N/A	       N/A	        N/A	
         R10	   3484	   78.8806	      13.6	       2.4	6.44485e+06	    78.625	      13.6	       2.4	 6.4232e+06	    78.625	   13.8226	       2.4	   6.58e+06	   78.8837	   13.8009	       2.4	6.44036e+06	   78.7528	      13.6	       2.4	6.42511e+06	    78.625	   13.7113	       2.4	 6.4491e+06	   78.7544	   13.8118	       2.4	6.50475e+06	   78.8821	   13.7005	       2.4	6.40205e+06	
         R10	   3485	   78.8837	   13.8009	       2.4	6.40257e+06	    78.625	   13.8226	       2.4	6.57232e+06	    78.625	   14.0385	       2.4	6.56189e+06	   78.8649	   14.0347	       2.4	6.69474e+06	   78.7544	   13.8118	       2.4	6.48192e+06	    78.625	   13.9306	       2.4	6.56354e+06	   78.7449	   14.0366	       2.4	 6.6142e+06	   78.8743	   13.9178	       2.4	6.54304e+06	
         R10	   3486	   78.8649	   14.0347	       2.4	6.64768e+06	    78.625	   14.0385	       2.4	6.61072e+06	    78.625	   14.2476	       2.4	6.67051e+06	   78.8769	   14.2251	       2.4	 6.5041e+06	   78.7449	   14.0366	       2.4	6.61471e+06	    78.625	   14.1431	       2.4	6.61143e+06	   78.7509	   14.2364	       2.4	6.58226e+06	   78.8709	   14.1299	       2.4	6.56612e+06	
         R10	   3487	   78.8769	   14.2251	       2.4	6.44636e+06	    78.625	   14.2476	       2.4	 6.6702e+06	    78.625	     14.45	       2.4	6.75814e+06	   78.8441	     14.45	       2.4	6.73123e+06	   78.7509	   14.2364	       2.4	6.55652e+06	    78.625	   14.3488	       2.4	6.63302e+06	   78.7345	     14.45	       2.4	6.74217e+06	   78.8605	   14.3375	       2.4	6.52057e+06	
         R10	   3488	   79.1034	   14.2303	       2.4	6.61599e+06	   78.8769	   14.2251	       2.4	6.74919e+06	   78.8441	     14.45	       2.4	6.74335e+06	   79.0913	     14.45	       2.4	6.76577e+06	   78.9901	   14.2277	       2.4	6.67284e+06	   78.8605	   14.3375	       2.4	6.65961e+06	   78.9677	     14.45	       2.4	6.74949e+06	   79.0973	   14.3402	       2.4	6.59985e+06	
         R10	   3489	   79.1034	   14.2303	       2.4	6.00982e+06	   79.0913	     14.45	       2.4	6.77274e+06	   79.3667	     14.45	       2.4	6.70959e+06	   79.3931	   14.1353	       2.4	7.31639e+06	   79.0973	   14.3402	       2.4	6.25983e+06	    79.229	     14.45	       2.4	6.72692e+06	   79.3799	   14.2926	       2.4	6.94628e+06	   79.2482	   14.1828	       2.4	6.63852e+06	
         R10	   3490	   79.3931	   14.1353	       2.4	 7.0233e+06	   79.3667	     14.45	       2.4	6.68589e+06	   79.6703	     14.45	       2.4	6.77442e+06	   79.6501	   14.0445	       2.4	 7.0195e+06	   79.3799	   14.2926	       2.4	6.75747e+06	   79.5185	     14.45	       2.4	 6.7228e+06	   79.6602	   14.2472	       2.4	6.73458e+06	   79.5216	   14.0899	       2.4	7.00692e+06	
         R10	   3491	   79.6501	   14.0445	       2.4	7.53749e+06	   79.6703	     14.45	       2.4	6.77941e+06	    80.002	     14.45	       2.4	6.91126e+06	   79.9787	   14.0175	       2.4	6.74218e+06	   79.6602	   14.2472	       2.4	6.98769e+06	   79.8361	     14.45	       2.4	6.83923e+06	   79.9904	   14.2338	       2.4	6.66687e+06	   79.8144	    14.031	       2.4	7.13294e+06	
         R10	   3492	   79.9787	   14.0175	       2.4	8.45116e+06	    80.002	     14.45	       2.4	6.97288e+06	   80.3619	     14.45	       2.4	7.35684e+06	   80.3559	   14.0171	       2.4	7.10918e+06	   79.9904	   14.2338	       2.4	7.58291e+06	    80.182	     14.45	       2.4	7.14879e+06	   80.3589	   14.2335	       2.4	6.96861e+06	   80.1673	   14.0173	       2.4	7.74028e+06	
         R10	   3493	   80.3559	   14.0171	       2.4	9.00736e+06	   80.3619	     14.45	       2.4	7.15027e+06	     80.75	     14.45	       2.4	8.97687e+06	     80.75	   14.0452	       2.4	8.41913e+06	   80.3589	   14.2335	       2.4	7.81496e+06	    80.556	     14.45	       2.4	7.82316e+06	     80.75	   14.2476	       2.4	8.59139e+06	    80.553	   14.0312	       2.4	8.65589e+06	
         R10	   3494	   80.3559	   14.0171	       2.4	8.87115e+06	     80.75	   14.0452	       2.4	8.80357e+06	     80.75	      13.6	       2.4	8.92525e+06	   80.2972	      13.6	       2.4	 8.0992e+06	    80.553	   14.0312	       2.4	8.81251e+06	     80.75	   13.8226	       2.4	8.83118e+06	   80.5236	      13.6	       2.4	8.48582e+06	   80.3266	   13.8085	       2.4	 8.4701e+06	
         R10	   3495	   79.9787	   14.0175	       2.4	8.27049e+06	   80.3559	   14.0171	       2.4	6.55825e+06	   80.2972	      13.6	       2.4	8.10765e+06	   79.8839	      13.6	       2.4	7.20376e+06	   80.1673	   14.0173	       2.4	7.40414e+06	   80.3266	   13.8085	       2.4	7.27516e+06	   80.0906	      13.6	       2.4	7.62141e+06	   79.9313	   13.8088	       2.4	7.70093e+06	
         R10	   3496	   79.6501	   14.0445	       2.4	7.16355e+06	   79.9787	   14.0175	       2.4	6.78173e+06	   79.8839	      13.6	       2.4	7.16728e+06	     79.51	      13.6	       2.4	6.72874e+06	   79.8144	    14.031	       2.4	6.91303e+06	   79.9313	   13.8088	       2.4	 6.8721e+06	    79.697	      13.6	       2.4	6.91776e+06	     79.58	   13.8222	       2.4	6.92603e+06	
         R10	   3497	   79.2036	    13.907	       2.4	6.97853e+06	   79.1756	      13.6	       2.4	6.62533e+06	   78.8806	      13.6	       2.4	6.44715e+06	   78.8837	   13.8009	       2.4	6.24623e+06	   79.1896	   13.7535	       2.4	6.80172e+06	   79.0281	      13.6	       2.4	6.51263e+06	   78.8821	   13.7005	       2.4	6.30921e+06	   79.0437	    13.854	       2.4	6.60281e+06	
         R10	   3498	   79.2036	    13.907	       2.4	6.82016e+06	   78.8649	   14.0347	       2.4	6.43853e+06	   78.8769	   14.2251	       2.4	6.70137e+06	   79.1034	   14.2303	       2.4	6.58897e+06	   79.0342	   13.9709	       2.4	6.59192e+06	   78.8709	   14.1299	       2.4	6.55695e+06	   78.9901	   14.2277	       2.4	6.62781e+06	   79.1535	   14.0687	       2.4	6.64658e+06	
         R10	   3499	     79.51	      13.6	       2.4	6.86851e+06	   79.2036	    13.907	       2.4	6.64966e+06	   79.3931	   14.1353	       2.4	7.02716e+06	   79.6501	   14.0445	       2.4	7.00991e+06	   79.3568	   13.7535	       2.4	 6.7563e+06	   79.2984	   14.0212	       2.4	6.83461e+06	   79.5216	   14.0899	       2.4	7.00049e+06	     79.58	   13.8222	       2.4	6.92374e+06	
         R10	   3500	   79.2036	    13.907	       2.4	6.75111e+06	   78.8837	   13.8009	       2.4	6.20966e+06	   78.8649	   14.0347	       2.4	6.54947e+06	   79.0437	    13.854	       2.4	6.47592e+06	   78.8743	   13.9178	       2.4	6.37175e+06	   79.0342	   13.9709	       2.4	6.62533e+06	       N/A	       N/A	       N/A	        N/A	       N/A	       N/A	       N/A	        N/A	
         R10	   3501	   79.2036	    13.907	       2.4	6.50639e+06	   79.1034	   14.2303	       2.4	6.10421e+06	   79.3931	   14.1353	       2.4	7.39859e+06	   79.1535	   14.0687	       2.4	6.30089e+06	   79.2482	   14.1828	       2.4	6.73904e+06	   79.2984	   14.0212	       2.4	6.94922e+06	       N/A	       N/A	       N/A	        N/A	       N/A	       N/A	       N/A	        N/A	
         R10	   3502	     79.51	      13.6	       2.4	6.84412e+06	   79.1756	      13.6	       2.4	 6.6205e+06	   79.2036	    13.907	       2.4	6.67097e+06	   79.3428	      13.6	       2.4	6.71894e+06	   79.1896	   13.7535	       2.4	6.64434e+06	   79.3568	   13.7535	       2.4	6.75055e+06	       N/A	       N/A	       N/A	        N/A	       N/A	       N/A	       N/A	        N/A	
         R10	   3503	   78.8441	     14.45	       2.4	6.81519e+06	    78.625	     14.45	       2.4	6.80819e+06	    78.625	   14.6726	       2.4	6.70403e+06	   78.8535	   14.6701	       2.4	6.73148e+06	   78.7345	     14.45	       2.4	6.80525e+06	    78.625	   14.5613	       2.4	6.67898e+06	   78.7392	   14.6713	       2.4	6.68818e+06	   78.8488	     14.56	       2.4	6.69577e+06	
         R10	   3504	   78.8535	   14.6701	       2.4	6.73491e+06	    78.625	   14.6726	       2.4	6.70788e+06	    78.625	   14.8885	       2.4	 6.8837e+06	   78.8446	   14.8886	       2.4	6.80799e+06	   78.7392	   14.6713	       2.4	6.68745e+06	    78.625	   14.7806	       2.4	6.78437e+06	   78.7348	   14.8885	       2.4	6.84495e+06	    78.849	   14.7793	       2.4	6.75559e+06	
         R10	   3505	   78.8446	   14.8886	       2.4	6.80623e+06	    78.625	   14.8885	       2.4	6.88377e+06	    78.625	   15.0976	       2.4	6.76239e+06	    78.841	   15.0957	       2.4	7.09927e+06	   78.7348	   14.8885	       2.4	6.84356e+06	    78.625	   14.9931	       2.4	6.81326e+06	    78.733	   15.0967	       2.4	 6.9086e+06	   78.8428	   14.9921	       2.4	 6.9443e+06	
         R10	   3506	    78.841	   15.0957	       2.4	7.09993e+06	    78.625	   15.0976	       2.4	6.76051e+06	    78.625	      15.3	       2.4	7.44481e+06	   78.8309	      15.3	       2.4	6.71666e+06	    78.733	   15.0967	       2.4	6.90122e+06	    78.625	   15.1988	       2.4	7.05193e+06	    78.728	      15.3	       2.4	7.04621e+06	   78.8359	   15.1979	       2.4	6.86012e+06	
         R10	   3507	   79.0748	   15.0994	       2.4	7.22696e+06	    78.841	   15.0957	       2.4	6.69675e+06	   78.8309	      15.3	       2.4	7.73604e+06	   79.0694	      15.3	       2.4	6.42317e+06	   78.9579	   15.0975	       2.4	6.92117e+06	   78.8359	   15.1979	       2.4	7.16692e+06	   78.9501	      15.3	       2.4	7.03623e+06	   79.0721	   15.1997	       2.4	6.76918e+06	
         R10	   3508	   79.0748	   15.0994	       2.4	6.63015e+06	   79.0694	      15.3	       2.4	7.99591e+06	   79.3404	      15.3	       2.4	6.08609e+06	   79.3449	   15.0603	       2.4	 6.9927e+06	   79.0721	   15.1997	       2.4	 7.2584e+06	   79.2049	      15.3	       2.4	7.00203e+06	   79.3426	   15.1802	       2.4	6.46967e+06	   79.2098	   15.0798	       2.4	6.75974e+06	
         R10	   3509	   79.3449	   15.0603	       2.4	 7.0371e+06	   79.3404	      15.3	       2.4	8.69433e+06	   79.6439	      15.3	       2.4	5.10955e+06	   79.6534	   14.9019	       2.4	7.21788e+06	   79.3426	   15.1802	       2.4	7.79885e+06	   79.4922	      15.3	       2.4	6.86136e+06	   79.6487	   15.1009	       2.4	6.01686e+06	   79.4991	   14.9811	       2.4	6.94335e+06	
         R10	   3510	   79.6534	   14.9019	       2.4	6.33303e+06	   79.6439	      15.3	       2.4	8.95397e+06	   79.9801	      15.3	       2.4	4.70654e+06	   79.9967	    14.894	       2.4	8.26558e+06	   79.6487	   15.1009	       2.4	7.51757e+06	    79.812	      15.3	       2.4	6.72339e+06	   79.9884	    15.097	       2.4	 6.4362e+06	    79.825	    14.898	       2.4	7.17404e+06	
         R10	   3511	   79.9967	    14.894	       2.4	 5.0872e+06	   79.9801	      15.3	       2.4	9.83666e+06	   80.3488	      15.3	       2.4	3.85166e+06	   80.3633	   14.8862	       2.4	1.04061e+07	   79.9884	    15.097	       2.4	7.38927e+06	   80.1644	      15.3	       2.4	6.48698e+06	    80.356	   15.0931	       2.4	6.69017e+06	     80.18	   14.8901	       2.4	7.66487e+06	
         R10	   3512	   80.3633	   14.8862	       2.4	5.54741e+06	   80.3488	      15.3	       2.4	1.16982e+07	     80.75	      15.3	       2.4	 6.2846e+06	     80.75	    14.875	       2.4	9.80579e+06	    80.356	   15.0931	       2.4	8.21313e+06	   80.5494	      15.3	       2.4	7.39005e+06	     80.75	   15.0875	       2.4	7.27451e+06	   80.5567	   14.8806	       2.4	7.63234e+06	
         R10	   3513	   80.3633	   14.8862	       2.4	5.09973e+06	     80.75	    14.875	       2.4	1.06364e+07	     80.75	     14.45	       2.4	9.57151e+06	   80.3619	     14.45	       2.4	8.08131e+06	   80.5567	   14.8806	       2.4	7.80454e+06	     80.75	   14.6625	       2.4	1.00913e+07	    80.556	     14.45	       2.4	8.74605e+06	   80.3626	   14.6681	       2.4	6.46431e+06	
         R10	   3514	   79.9967	    14.894	       2.4	5.21468e+06	   80.3633	   14.8862	       2.4	9.71319e+06	   80.3619	     14.45	       2.4	8.05697e+06	    80.002	     14.45	       2.4	7.37356e+06	     80.18	   14.8901	       2.4	7.41903e+06	   80.3626	   14.6681	       2.4	8.83567e+06	    80.182	     14.45	       2.4	7.69417e+06	   79.9993	    14.672	       2.4	6.20446e+06	
         R10	   3515	   79.6534	   14.9019	       2.4	6.15678e+06	   79.9967	    14.894	       2.4	 8.1802e+06	    80.002	     14.45	       2.4	7.37586e+06	   79.6703	     14.45	       2.4	7.06055e+06	    79.825	    14.898	       2.4	7.05919e+06	   79.9993	    14.672	       2.4	7.72794e+06	   79.8361	     14.45	       2.4	7.20843e+06	   79.6618	   14.6759	       2.4	6.51768e+06	
         R10	   3516	   79.6534	   14.9019	       2.4	 6.9921e+06	   79.6703	     14.45	       2.4	7.03598e+06	   79.3667	     14.45	       2.4	6.82173e+06	   79.3731	   14.7128	       2.4	7.04768e+06	   79.6618	   14.6759	       2.4	6.96347e+06	   79.5185	     14.45	       2.4	6.91644e+06	   79.3699	   14.5814	       2.4	6.88056e+06	   79.5132	   14.8074	       2.4	6.98622e+06	
         R10	   3517	   79.3731	   14.7128	       2.4	 6.9365e+06	   79.3667	     14.45	       2.4	6.90758e+06	   79.0913	     14.45	       2.4	6.91065e+06	    79.094	   14.6771	       2.4	 6.5933e+06	   79.3699	   14.5814	       2.4	6.87184e+06	    79.229	     14.45	       2.4	6.89753e+06	   79.0927	   14.5635	       2.4	6.67076e+06	   79.2336	    14.695	       2.4	 6.6911e+06	
         R10	   3518	    79.094	   14.6771	       2.4	6.76468e+06	   79.0913	     14.45	       2.4	6.85076e+06	   78.8441	     14.45	       2.4	6.82044e+06	   78.8535	   14.6701	       2.4	6.65217e+06	   79.0927	   14.5635	       2.4	6.73571e+06	   78.9677	     14.45	       2.4	  6.827e+06	   78.8488	     14.56	       2.4	 6.6523e+06	   78.9738	   14.6736	       2.4	6.66566e+06	
         R10	   3519	    79.094	   14.6771	       2.4	6.80831e+06	   78.8535	   14.6701	       2.4	6.64073e+06	   78.8446	   14.8886	       2.4	6.89196e+06	   79.0637	   14.8939	       2.4	6.69717e+06	   78.9738	   14.6736	       2.4	6.67448e+06	    78.849	   14.7793	       2.4	6.75303e+06	   78.9541	   14.8912	       2.4	6.79331e+06	   79.0789	   14.7855	       2.4	6.72642e+06	
         R10	   3520	   79.0637	   14.8939	       2.4	6.78386e+06	   78.8446	   14.8886	       2.4	6.89063e+06	    78.841	   15.0957	       2.4	6.69753e+06	   79.0748	   15.0994	       2.4	7.20978e+06	   78.9541	   14.8912	       2.4	 6.8362e+06	   78.8428	   14.9921	       2.4	 6.7813e+06	   78.9579	   15.0975	       2.4	6.91737e+06	   79.0693	   14.9966	       2.4	6.97948e+06	
         R10	   3521	   79.2714	   14.8937	       2.4	6.37767e+06	   79.0637	   14.8939	       2.4	6.93203e+06	   79.0748	   15.0994	       2.4	6.65443e+06	   79.3449	   15.0603	       2.4	7.00399e+06	   79.1676	   14.8938	       2.4	 6.6545e+06	   79.0693	   14.9966	       2.4	6.77702e+06	   79.2098	   15.0798	       2.4	6.77187e+06	   79.3082	    14.977	       2.4	6.66849e+06	
         R10	   3522	   79.2714	   14.8937	       2.4	7.16335e+06	   79.3449	   15.0603	       2.4	7.25811e+06	   79.6534	   14.9019	       2.4	7.07074e+06	   79.3731	   14.7128	       2.4	6.83068e+06	   79.3082	    14.977	       2.4	7.19059e+06	   79.4991	   14.9811	       2.4	7.04334e+06	   79.5132	   14.8074	       2.4	6.88897e+06	   79.3223	   14.8033	       2.4	6.97508e+06	
         R10	   3523	   79.2714	   14.8937	       2.4	6.39893e+06	   79.3731	   14.7128	       2.4	6.87277e+06	    79.094	   14.6771	       2.4	 6.6008e+06	   79.0637	   14.8939	       2.4	6.92544e+06	   79.3223	   14.8033	       2.4	6.62132e+06	   79.2336	    14.695	       2.4	6.68058e+06	   79.0789	   14.7855	       2.4	6.75308e+06	   79.1676	   14.8938	       2.4	6.64935e+06	
         R10	   3524	      76.5	       8.5	       1.6	4.03599e+06	      76.5	       8.5	       2.4	6.60693e+06	      76.5	      9.35	       2.4	6.53557e+06	      76.5	      9.35	       1.6	3.38418e+06	      76.5	       8.5	         2	5.10808e+06	      76.5	     8.925	       2.4	 6.4516e+06	      76.5	      9.35	         2	4.85215e+06	      76.5	     8.925	       1.6	3.48751e+06	
         R10	   3525	      76.5	       8.5	       0.8	4.90256e+06	      76.5	       8.5	       1.6	4.32244e+06	      76.5	      9.35	       1.6	3.21682e+06	      76.5	      9.35	       0.8	2.66257e+06	      76.5	       8.5	       1.2	4.09713e+06	      76.5	     8.925	       1.6	3.52042e+06	      76.5	      9.35	       1.2	2.51244e+06	      76.5	     8.925	       0.8	3.42021e+06	
         R10	   3526	      76.5	       8.5	         0	6.65467e+06	      76.5	       8.5	       0.8	4.85719e+06	      76.5	      9.35	       0.8	3.09202e+06	      76.5	      9.35	         0	 7.4467e+06	      76.5	       8.5	       0.4	5.71035e+06	      76.5	     8.925	       0.8	3.66194e+06	      76.5	      9.35	       0.4	4.81096e+06	      76.5	     8.925	         0	 6.7124e+06	
         R10	   3527	   78.8309	      15.3	       2.4	7.23203e+06	    78.625	      15.3	       2.4	7.81488e+06	    78.625	   15.4468	   2.54279	 6.8866e+06	   78.8273	   15.4346	   2.53094	7.17361e+06	    78.728	      15.3	       2.4	7.46769e+06	    78.625	   15.3734	    2.4714	7.32389e+06	   78.7262	   15.4407	   2.53687	7.02934e+06	   78.8291	   15.3673	   2.46547	7.17495e+06	
         R10	   3528	   78.8273	   15.4346	   2.53094	7.10474e+06	    78.625	   15.4468	   2.54279	6.93188e+06	    78.625	   15.5984	   2.69034	6.77754e+06	   78.8382	   15.6092	   2.70087	6.77233e+06	   78.7262	   15.4407	   2.53687	7.01673e+06	    78.625	   15.5226	   2.61657	6.85399e+06	   78.7316	   15.6038	   2.69561	6.77324e+06	   78.8328	   15.5219	   2.61591	6.93556e+06	
         R10	   3529	   78.8382	   15.6092	   2.70087	6.75472e+06	    78.625	   15.5984	   2.69034	6.77028e+06	    78.625	    15.755	   2.84265	6.62767e+06	   78.8624	    15.743	     2.831	 6.7284e+06	   78.7316	   15.6038	   2.69561	6.76164e+06	    78.625	   15.6767	    2.7665	6.68363e+06	   78.7437	    15.749	   2.83683	6.67065e+06	   78.8503	   15.6761	   2.76594	6.73775e+06	
         R10	   3530	   78.8624	    15.743	     2.831	 6.7807e+06	    78.625	    15.755	   2.84265	6.58727e+06	    78.625	   15.9164	   2.99973	7.28358e+06	   78.8441	   15.9164	   2.99973	7.26607e+06	   78.7437	    15.749	   2.83683	6.67541e+06	    78.625	   15.8357	   2.92119	6.87953e+06	   78.7345	   15.9164	   2.99973	7.27255e+06	   78.8532	   15.8297	   2.91536	6.96428e+06	
         R10	   3531	    79.109	   15.7173	   2.80607	6.35879e+06	   78.8624	    15.743	     2.831	6.87504e+06	   78.8441	   15.9164	   2.99973	7.27182e+06	   79.0913	   15.9164	   2.99973	7.22475e+06	   78.9857	   15.7302	   2.81853	6.60173e+06	   78.8532	   15.8297	   2.91536	  6.997e+06	   78.9677	   15.9164	   2.99973	7.24598e+06	   79.1001	   15.8169	   2.90289	6.74502e+06	
         R10	   3532	    79.109	   15.7173	   2.80607	6.88475e+06	   79.0913	   15.9164	   2.99973	 7.2714e+06	   79.3667	   15.9164	   2.99973	6.96615e+06	   79.3439	   15.7302	   2.81856	7.04382e+06	   79.1001	   15.8169	   2.90289	6.99655e+06	    79.229	   15.9164	   2.99973	7.10636e+06	   79.3553	   15.8233	   2.90914	6.98767e+06	   79.2264	   15.7238	   2.81231	6.92589e+06	
         R10	   3533	   79.3439	   15.7302	   2.81856	7.48058e+06	   79.3667	   15.9164	   2.99973	 7.1045e+06	   79.6703	   15.9164	   2.99973	7.71146e+06	   79.6746	   15.6057	   2.69741	6.77149e+06	   79.3553	   15.8233	   2.90914	7.27156e+06	   79.5185	   15.9164	   2.99973	7.38894e+06	   79.6724	    15.761	   2.84857	7.02276e+06	   79.5092	   15.6679	   2.75799	 7.0726e+06	
         R10	   3534	   79.6746	   15.6057	   2.69741	6.86269e+06	   79.6703	   15.9164	   2.99973	7.70952e+06	    80.002	   15.9164	   2.99973	8.50354e+06	   80.0107	   15.6074	   2.69907	5.97179e+06	   79.6724	    15.761	   2.84857	7.04436e+06	   79.8361	   15.9164	   2.99973	8.08801e+06	   80.0064	   15.7619	    2.8494	6.79542e+06	   79.8426	   15.6065	   2.69824	6.32539e+06	
         R10	   3535	   80.0107	   15.6074	   2.69907	9.38629e+06	    80.002	   15.9164	   2.99973	8.81556e+06	   80.3619	   15.9164	   2.99973	9.45647e+06	   80.3731	    15.607	   2.69871	1.64865e+06	   80.0064	   15.7619	    2.8494	8.55311e+06	    80.182	   15.9164	   2.99973	9.11707e+06	   80.3675	   15.7617	   2.84922	4.69361e+06	   80.1919	   15.6072	   2.69889	5.22016e+06	
         R10	   3536	   80.3731	    15.607	   2.69871	1.17611e+07	   80.3619	   15.9164	   2.99973	9.29247e+06	     80.75	   15.9164	   2.99973	7.60775e+06	     80.75	   15.6082	   2.69986	5.50726e+06	   80.3675	   15.7617	   2.84922	9.16603e+06	    80.556	   15.9164	   2.99973	 8.3981e+06	     80.75	   15.7623	   2.84979	6.16249e+06	   80.5615	   15.6076	   2.69929	6.47376e+06	
         R10	   3537	   80.3731	    15.607	   2.69871	1.28958e+07	     80.75	   15.6082	   2.69986	4.06891e+06	     80.75	      15.3	       2.4	7.33242e+06	   80.3488	      15.3	       2.4	1.26888e+07	   80.5615	   15.6076	   2.69929	 7.4027e+06	     80.75	   15.4541	   2.54993	5.31247e+06	   80.5494	      15.3	       2.4	7.37052e+06	   80.3609	   15.4535	   2.54935	1.27225e+07	
         R10	   3538	   80.0107	   15.6074	   2.69907	 9.0213e+06	   80.3731	    15.607	   2.69871	2.93071e+06	   80.3488	      15.3	       2.4	6.15521e+06	   79.9801	      15.3	       2.4	1.12067e+07	   80.1919	   15.6072	   2.69889	5.34996e+06	   80.3609	   15.4535	   2.54935	 4.1673e+06	   80.1644	      15.3	       2.4	7.46249e+06	   79.9954	   15.4537	   2.54954	9.89757e+06	
         R10	   3539	   79.6746	   15.6057	   2.69741	6.53808e+06	   80.0107	   15.6074	   2.69907	5.90998e+06	   79.9801	      15.3	       2.4	6.43411e+06	   79.6439	      15.3	       2.4	9.67514e+06	   79.8426	   15.6065	   2.69824	6.12851e+06	   79.9954	   15.4537	   2.54954	5.51728e+06	    79.812	      15.3	       2.4	7.49303e+06	   79.6593	   15.4528	   2.54871	7.98766e+06	
         R10	   3540	   79.6746	   15.6057	   2.69741	6.51567e+06	   79.6439	      15.3	       2.4	6.08161e+06	   79.3404	      15.3	       2.4	8.75086e+06	    79.349	   15.5007	   2.59526	7.32039e+06	   79.6593	   15.4528	   2.54871	6.03483e+06	   79.4922	      15.3	       2.4	 7.1959e+06	   79.3447	   15.4003	   2.49763	7.98878e+06	   79.5118	   15.5532	   2.64634	6.85103e+06	
         R10	   3541	    79.349	   15.5007	   2.59526	7.27567e+06	   79.3404	      15.3	       2.4	6.62491e+06	   79.0694	      15.3	       2.4	8.00812e+06	   79.0898	   15.5211	   2.61509	6.58005e+06	   79.3447	   15.4003	   2.49763	6.88014e+06	   79.2049	      15.3	       2.4	7.21561e+06	   79.0796	   15.4105	   2.50754	7.26469e+06	   79.2194	   15.5109	   2.60518	6.91144e+06	
         R10	   3542	   79.0898	   15.5211	   2.61509	7.04959e+06	   79.0694	      15.3	       2.4	6.84939e+06	   78.8309	      15.3	       2.4	7.93572e+06	   78.8273	   15.4346	   2.53094	6.81754e+06	   79.0796	   15.4105	   2.50754	6.90748e+06	   78.9501	      15.3	       2.4	7.32223e+06	   78.8291	   15.3673	   2.46547	7.35175e+06	   78.9586	   15.4778	   2.57302	6.93121e+06	
         R10	   3543	   79.0898	   15.5211	   2.61509	 6.8122e+06	   78.8382	   15.6092	   2.70087	6.89591e+06	   78.8624	    15.743	     2.831	6.88965e+06	    79.109	   15.7173	   2.80607	6.25778e+06	    78.964	   15.5651	   2.65798	6.85306e+06	   78.8503	   15.6761	   2.76594	6.88353e+06	   78.9857	   15.7302	   2.81853	6.56007e+06	   79.0994	   15.6192	   2.71058	6.52604e+06	
         R10	   3544	    79.349	   15.5007	   2.59526	7.06155e+06	   79.0898	   15.5211	   2.61509	  6.638e+06	    79.109	   15.7173	   2.80607	6.89939e+06	   79.3439	   15.7302	   2.81856	6.97059e+06	   79.2194	   15.5109	   2.60518	6.83118e+06	   79.0994	   15.6192	   2.71058	6.76416e+06	   79.2264	   15.7238	   2.81231	6.89321e+06	   79.3464	   15.6154	   2.70691	6.93878e+06	
         R10	   3545	   79.0898	   15.5211	   2.61509	7.00814e+06	   78.8273	   15.4346	   2.53094	6.75749e+06	   78.8382	   15.6092	   2.70087	6.82467e+06	   78.9586	   15.4778	   2.57302	6.88136e+06	   78.8328	   15.5219	   2.61591	6.78916e+06	    78.964	   15.5651	   2.65798	6.91506e+06	       N/A	       N/A	       N/A	        N/A	       N/A	       N/A	       N/A	        N/A	
         R10	   3546	   79.6746	   15.6057	   2.69741	6.98623e+06	    79.349	   15.5007	   2.59526	7.25289e+06	   79.3439	   15.7302	   2.81856	 7.3809e+06	   79.5118	   15.5532	   2.64634	7.07813e+06	   79.3464	   15.6154	   2.70691	7.25143e+06	   79.5092	   15.6679	   2.75799	7.16173e+06	       N/A	       N/A	       N/A	        N/A	       N/A	       N/A	       N/A	        N/A	
         R10	   3547	   78.8441	   15.9164	   2.99973	6.22415e+06	    78.625	   15.9164	   2.99973	6.28315e+06	    78.625	   16.0631	   3.14252	5.84947e+06	   78.8361	   16.0514	   3.13113	6.18903e+06	   78.7345	   15.9164	   2.99973	6.25052e+06	    78.625	   15.9898	   3.07112	6.05885e+06	   78.7305	   16.0573	   3.13682	6.01752e+06	   78.8401	   15.9839	   3.06543	6.20537e+06	
         R10	   3548	   78.8361	   16.0514	   3.13113	6.13289e+06	    78.625	   16.0631	   3.14252	5.84012e+06	    78.625	   16.2148	   3.29007	5.78499e+06	   78.8449	    16.224	   3.29901	6.19511e+06	   78.7305	   16.0573	   3.13682	 5.9793e+06	    78.625	    16.139	   3.21629	5.79887e+06	    78.735	   16.2194	   3.29454	5.98172e+06	   78.8405	   16.1377	   3.21507	 6.1004e+06	
         R10	   3549	   78.8449	    16.224	   3.29901	6.15105e+06	    78.625	   16.2148	   3.29007	5.81043e+06	    78.625	   16.3713	   3.44238	6.22464e+06	   78.8758	   16.3628	   3.43406	6.45325e+06	    78.735	   16.2194	   3.29454	5.97775e+06	    78.625	   16.2931	   3.36622	5.87483e+06	   78.7504	   16.3671	   3.43822	6.11409e+06	   78.8604	   16.2934	   3.36653	6.24793e+06	
         R10	   3550	   78.8758	   16.3628	   3.43406	6.75387e+06	    78.625	   16.3713	   3.44238	6.14253e+06	    78.625	   16.5328	   3.59945	8.12243e+06	   78.8806	   16.5328	   3.59945	7.95354e+06	   78.7504	   16.3671	   3.43822	6.19224e+06	    78.625	   16.4521	   3.52092	 6.9917e+06	   78.7528	   16.5328	   3.59945	8.03638e+06	   78.8782	   16.4478	   3.51675	7.15929e+06	
         R10	   3551	   79.1666	   16.3353	   3.40728	5.99146e+06	   78.8758	   16.3628	   3.43406	7.04165e+06	   78.8806	   16.5328	   3.59945	8.07541e+06	   79.1756	   16.5328	   3.59945	7.68317e+06	   79.0212	    16.349	   3.42067	 6.1707e+06	   78.8782	   16.4478	   3.51675	7.37762e+06	   79.0281	   16.5328	   3.59945	7.87575e+06	   79.1711	    16.434	   3.50337	 6.6424e+06	
         R10	   3552	   79.1666	   16.3353	   3.40728	7.75194e+06	   79.1756	   16.5328	   3.59945	7.79766e+06	     79.51	   16.5328	   3.59945	7.87289e+06	   79.5367	    16.241	   3.31558	5.00933e+06	   79.1711	    16.434	   3.50337	7.57491e+06	   79.3428	   16.5328	   3.59945	7.83164e+06	   79.5234	   16.3869	   3.45752	6.19797e+06	   79.3517	   16.2881	   3.36143	6.17843e+06	
         R10	   3553	   79.5367	    16.241	   3.31558	6.76475e+06	     79.51	   16.5328	   3.59945	7.98285e+06	   79.8839	   16.5328	   3.59945	8.04915e+06	   79.9276	   16.2329	    3.3077	6.05412e+06	   79.5234	   16.3869	   3.45752	 6.9534e+06	    79.697	   16.5328	   3.59945	8.01071e+06	   79.9058	   16.3828	   3.45358	6.65242e+06	   79.7322	    16.237	   3.31164	5.99137e+06	
         R10	   3554	   79.9276	   16.2329	    3.3077	6.67824e+06	   79.8839	   16.5328	   3.59945	8.26139e+06	   80.2972	   16.5328	   3.59945	9.17488e+06	   80.3278	   16.2295	   3.30433	6.85333e+06	   79.9058	   16.3828	   3.45358	6.90999e+06	   80.0906	   16.5328	   3.59945	8.70927e+06	   80.3125	   16.3811	   3.45189	6.39875e+06	   80.1277	   16.2312	   3.30602	5.63148e+06	
         R10	   3555	   80.3278	   16.2295	   3.30433	6.17277e+06	   80.2972	   16.5328	   3.59945	9.30982e+06	     80.75	   16.5328	   3.59945	6.25549e+06	     80.75	   16.2099	   3.28531	8.95617e+06	   80.3125	   16.3811	   3.45189	 5.4749e+06	   80.5236	   16.5328	   3.59945	7.64284e+06	     80.75	   16.3713	   3.44238	7.34507e+06	   80.5389	   16.2197	   3.29482	5.17356e+06	
         R10	   3556	   80.3278	   16.2295	   3.30433	7.43485e+06	     80.75	   16.2099	   3.28531	8.13193e+06	     80.75	   15.9164	   2.99973	5.55162e+06	   80.3619	   15.9164	   2.99973	5.63347e+06	   80.5389	   16.2197	   3.29482	6.26059e+06	     80.75	   16.0631	   3.14252	6.51298e+06	    80.556	   15.9164	   2.99973	5.51948e+06	   80.3449	   16.0729	   3.15203	5.66502e+06	
         R10	   3557	   79.9276	   16.2329	    3.3077	6.66324e+06	   80.3278	   16.2295	   3.30433	9.29674e+06	   80.3619	   15.9164	   2.99973	6.00522e+06	    80.002	   15.9164	   2.99973	6.09693e+06	   80.1277	   16.2312	   3.30602	6.69309e+06	   80.3449	   16.0729	   3.15203	6.44204e+06	    80.182	   15.9164	   2.99973	 6.0411e+06	   79.9648	   16.0746	   3.15371	6.22029e+06	
         R10	   3558	   79.5367	    16.241	   3.31558	6.71835e+06	   79.9276	   16.2329	    3.3077	6.90134e+06	    80.002	   15.9164	   2.99973	6.04605e+06	   79.6703	   15.9164	   2.99973	6.13703e+06	   79.7322	    16.237	   3.31164	6.21296e+06	   79.9648	   16.0746	   3.15371	6.03509e+06	   79.8361	   15.9164	   2.99973	6.08778e+06	   79.6035	   16.0787	   3.15765	6.34977e+06	
         R10	   3559	   79.1151	   16.1314	    3.2089	6.30326e+06	   79.0913	   15.9164	   2.99973	6.14119e+06	   78.8441	   15.9164	   2.99973	6.10281e+06	   78.8361	   16.0514	   3.13113	5.73932e+06	   79.1032	   16.0239	   3.10431	6.20753e+06	   78.9677	   15.9164	   2.99973	6.11306e+06	   78.8401	   15.9839	   3.06543	5.90464e+06	   78.9756	   16.0914	   3.17001	5.99743e+06	
         R10	   3560	   79.1151	   16.1314	    3.2089	6.39345e+06	   78.8449	    16.224	   3.29901	5.77639e+06	   78.8758	   16.3628	   3.43406	 6.9977e+06	   79.1666	   16.3353	   3.40728	5.66361e+06	     78.98	   16.1777	   3.25395	6.03408e+06	   78.8604	   16.2934	   3.36653	6.24005e+06	   79.0212	    16.349	   3.42067	5.98603e+06	   79.1409	   16.2333	   3.30809	5.75063e+06	
         R10	   3561	   79.3352	   16.1034	   3.18167	6.26493e+06	   79.1151	   16.1314	    3.2089	6.73614e+06	   79.1666	   16.3353	   3.40728	8.36488e+06	   79.5367	    16.241	   3.31558	6.28924e+06	   79.2251	   16.1174	   3.19528	 5.6159e+06	   79.1409	   16.2333	   3.30809	7.48374e+06	   79.3517	   16.2881	   3.36143	7.05452e+06	   79.4359	   16.1722	   3.24863	4.90377e+06	
         R10	   3562	   79.3352	   16.1034	   3.18167	6.77665e+06	   79.5367	    16.241	   3.31558	6.19455e+06	   79.6703	   15.9164	   2.99973	6.17061e+06	   79.3667	   15.9164	   2.99973	6.11356e+06	   79.4359	   16.1722	   3.24863	5.88449e+06	   79.6035	   16.0787	   3.15765	 5.7867e+06	   79.5185	   15.9164	   2.99973	6.13248e+06	   79.3509	   16.0099	    3.0907	6.36867e+06	
         R10	   3563	   79.1151	   16.1314	    3.2089	6.27136e+06	   79.3352	   16.1034	   3.18167	4.75291e+06	   79.3667	   15.9164	   2.99973	6.27788e+06	   79.0913	   15.9164	   2.99973	6.15698e+06	   79.2251	   16.1174	   3.19528	5.44979e+06	   79.3509	   16.0099	    3.0907	5.44641e+06	    79.229	   15.9164	   2.99973	6.20073e+06	   79.1032	   16.0239	   3.10431	6.20953e+06	
         R10	   3564	   79.1151	   16.1314	    3.2089	6.88993e+06	   78.8361	   16.0514	   3.13113	5.73152e+06	   78.8449	    16.224	   3.29901	5.73602e+06	   78.9756	   16.0914	   3.17001	6.26168e+06	   78.8405	   16.1377	   3.21507	5.66427e+06	     78.98	   16.1777	   3.25395	6.30581e+06	       N/A	       N/A	       N/A	        N/A	       N/A	       N/A	       N/A	        N/A	
         R10	   3565	   78.8806	   16.5328	   3.59945	5.77082e+06	    78.625	   16.5328	   3.59945	5.97329e+06	    78.625	   16.7091	   3.77097	4.83864e+06	   78.8978	    16.722	   3.78357	  6.365e+06	   78.7528	   16.5328	   3.59945	5.86224e+06	    78.625	   16.6209	   3.68521	5.37238e+06	   78.7614	   16.7155	   3.77727	5.53671e+06	   78.8892	   16.6274	   3.69151	6.04012e+06	
         R10	   3566	   78.8978	    16.722	   3.78357	5.91223e+06	    78.625	   16.7091	   3.77097	5.12884e+06	    78.625	   16.9145	   3.97088	6.09895e+06	   78.9083	   16.9547	   4.00998	6.91082e+06	   78.7614	   16.7155	   3.77727	5.36831e+06	    78.625	   16.8118	   3.87093	5.61119e+06	   78.7666	   16.9346	   3.99043	6.42097e+06	    78.903	   16.8384	   3.89678	6.15767e+06	
         R10	   3567	   78.9083	   16.9547	   4.00998	6.28258e+06	    78.625	   16.9145	   3.97088	6.21155e+06	    78.625	   17.1492	   4.19918	7.86599e+06	   78.9289	   17.1492	   4.19918	7.62959e+06	   78.7666	   16.9346	   3.99043	  6.175e+06	    78.625	   17.0318	   4.08503	6.94904e+06	   78.7769	   17.1492	   4.19918	7.74415e+06	   78.9186	   17.0519	   4.10458	6.87607e+06	
         R10	   3568	   79.2372	   16.8439	    3.9022	5.55958e+06	   78.9083	   16.9547	   4.00998	6.71228e+06	   78.9289	   17.1492	   4.19918	7.74436e+06	   79.2529	   17.1492	   4.19918	7.99688e+06	   79.0727	   16.8993	   3.95609	6.01997e+06	   78.9186	   17.0519	   4.10458	7.14947e+06	   79.0909	   17.1492	   4.19918	7.86768e+06	    79.245	   16.9965	   4.05069	6.56693e+06	
         R10	   3569	   79.2372	   16.8439	    3.9022	5.83714e+06	   79.2529	   17.1492	   4.19918	8.07337e+06	    79.597	   17.1492	   4.19918	8.27415e+06	   79.5806	   16.8409	   3.89926	5.60519e+06	    79.245	   16.9965	   4.05069	6.71639e+06	   79.4249	   17.1492	   4.19918	 8.1711e+06	   79.5888	    16.995	   4.04922	6.61204e+06	   79.4089	   16.8424	   3.90073	5.42365e+06	
         R10	   3570	   79.5806	   16.8409	   3.89926	6.40191e+06	    79.597	   17.1492	   4.19918	8.40883e+06	   79.9612	   17.1492	   4.19918	 8.3905e+06	   79.9501	    16.839	   3.89739	4.65292e+06	   79.5888	    16.995	   4.04922	7.00862e+06	   79.7791	   17.1492	   4.19918	8.39435e+06	   79.9557	   16.9941	   4.04828	6.14446e+06	   79.7653	   16.8399	   3.89832	5.06859e+06	
         R10	   3571	   79.9501	    16.839	   3.89739	7.94164e+06	   79.9612	   17.1492	   4.19918	8.67889e+06	   80.3455	   17.1492	   4.19918	9.26151e+06	   80.3429	   16.8373	   3.89575	3.46417e+06	   79.9557	   16.9941	   4.04828	7.78246e+06	   80.1534	   17.1492	   4.19918	8.95779e+06	   80.3442	   16.9932	   4.04746	4.80468e+06	   80.1465	   16.8381	   3.89657	4.58902e+06	
         R10	   3572	   80.3429	   16.8373	   3.89575	8.08822e+06	   80.3455	   17.1492	   4.19918	9.33094e+06	     80.75	   17.1492	   4.19918	7.17255e+06	     80.75	    16.841	   3.89931	5.73209e+06	   80.3442	   16.9932	   4.04746	7.13293e+06	   80.5478	   17.1492	   4.19918	7.62129e+06	     80.75	   16.9951	   4.04924	5.81605e+06	   80.5464	   16.8391	   3.89753	5.96362e+06	
         R10	   3573	   80.3429	   16.8373	   3.89575	1.00917e+07	     80.75	    16.841	   3.89931	4.94721e+06	     80.75	   16.5328	   3.59945	5.47518e+06	   80.2972	   16.5328	   3.59945	5.43019e+06	   80.5464	   16.8391	   3.89753	6.83106e+06	     80.75	   16.6869	   3.74938	5.03916e+06	   80.5236	   16.5328	   3.59945	5.44934e+06	   80.3201	    16.685	    3.7476	7.48603e+06	
         R10	   3574	   79.9501	    16.839	   3.89739	8.02899e+06	   80.3429	   16.8373	   3.89575	5.52043e+06	   80.2972	   16.5328	   3.59945	5.73707e+06	   79.8839	   16.5328	   3.59945	5.75679e+06	   80.1465	   16.8381	   3.89657	 5.8384e+06	   80.3201	    16.685	    3.7476	 4.6315e+06	   80.0906	   16.5328	   3.59945	5.70857e+06	    79.917	   16.6859	   3.74842	6.85809e+06	
         R10	   3575	   79.5806	   16.8409	   3.89926	6.51466e+06	   79.9501	    16.839	   3.89739	4.78808e+06	   79.8839	   16.5328	   3.59945	5.77857e+06	     79.51	   16.5328	   3.59945	5.69351e+06	   79.7653	   16.8399	   3.89832	5.23522e+06	    79.917	   16.6859	   3.74842	5.05809e+06	    79.697	   16.5328	   3.59945	5.71838e+06	   79.5453	   16.6868	   3.74936	5.99238e+06	
         R10	   3576	   79.2372	   16.8439	    3.9022	5.91781e+06	   79.5806	   16.8409	   3.89926	5.63812e+06	     79.51	   16.5328	   3.59945	5.77015e+06	   79.1756	   16.5328	   3.59945	  5.701e+06	   79.4089	   16.8424	   3.90073	5.47085e+06	   79.5453	   16.6868	   3.74936	5.58723e+06	   79.3428	   16.5328	   3.59945	5.72561e+06	   79.2064	   16.6884	   3.75083	5.69769e+06	
         R10	   3577	   79.2372	   16.8439	    3.9022	5.61359e+06	   79.1756	   16.5328	   3.59945	5.74448e+06	   78.8806	   16.5328	   3.59945	5.71941e+06	   78.8978	    16.722	   3.78357	6.05383e+06	   79.2064	   16.6884	   3.75083	5.60064e+06	   79.0281	   16.5328	   3.59945	5.72507e+06	   78.8892	   16.6274	   3.69151	 5.8159e+06	   79.0675	    16.783	   3.84289	5.63961e+06	
         R10	   3578	   78.9083	   16.9547	   4.00998	7.10683e+06	   79.2372	   16.8439	    3.9022	5.97019e+06	   78.8978	    16.722	   3.78357	5.41645e+06	   79.0727	   16.8993	   3.95609	6.40975e+06	   79.0675	    16.783	   3.84289	5.53395e+06	    78.903	   16.8384	   3.89678	6.06153e+06	       N/A	       N/A	       N/A	        N/A	       N/A	       N/A	       N/A	        N/A	
         R10	   3579	   78.9289	   17.1492	   4.19918	5.12944e+06	    78.625	   17.1492	   4.19918	5.48135e+06	    78.625	   17.4281	   4.47054	6.39997e+06	   79.0451	   17.4391	   4.48126	6.03028e+06	   78.7769	   17.1492	   4.19918	5.29816e+06	    78.625	   17.2886	   4.33486	5.91464e+06	    78.835	   17.4336	    4.4759	6.17644e+06	    78.987	   17.2941	   4.34022	5.49447e+06	
         R10	   3580	   79.0451	   17.4391	   4.48126	5.39148e+06	    78.625	   17.4281	   4.47054	5.89118e+06	    78.625	   17.7655	    4.7989	7.42945e+06	   79.0096	   17.7655	    4.7989	7.54541e+06	    78.835	   17.4336	    4.4759	5.61985e+06	    78.625	   17.5968	   4.63472	6.52903e+06	   78.8173	   17.7655	    4.7989	7.48569e+06	   79.0274	   17.6023	   4.64008	6.39236e+06	
         R10	   3581	    79.438	   17.4334	   4.47576	5.63314e+06	   79.0451	   17.4391	   4.48126	5.50181e+06	   79.0096	   17.7655	    4.7989	7.63291e+06	   79.4144	   17.7655	    4.7989	7.90144e+06	   79.2415	   17.4362	   4.47851	5.46958e+06	   79.0274	   17.6023	   4.64008	6.41885e+06	    79.212	   17.7655	    4.7989	7.76279e+06	   79.4262	   17.5995	   4.63733	6.62379e+06	
         R10	   3582	    79.438	   17.4334	   4.47576	5.41398e+06	   79.4144	   17.7655	    4.7989	8.06088e+06	   79.8394	   17.7655	    4.7989	 8.3499e+06	   79.8553	   17.4577	   4.49937	5.44385e+06	   79.4262	   17.5995	   4.63733	6.49508e+06	   79.6269	   17.7655	    4.7989	8.18615e+06	   79.8474	   17.6116	   4.64914	6.68954e+06	   79.6466	   17.4456	   4.48757	5.21041e+06	
         R10	   3583	   79.8553	   17.4577	   4.49937	5.75071e+06	   79.8394	   17.7655	    4.7989	8.58969e+06	   80.2846	   17.7655	    4.7989	 9.6111e+06	   80.2969	    17.451	   4.49289	4.26333e+06	   79.8474	   17.6116	   4.64914	6.85943e+06	    80.062	   17.7655	    4.7989	9.06126e+06	   80.2907	   17.6083	    4.6459	6.04523e+06	   80.0761	   17.4544	   4.49613	4.53384e+06	
         R10	   3584	   80.2969	    17.451	   4.49289	5.85136e+06	   80.2846	   17.7655	    4.7989	1.01554e+07	     80.75	   17.7655	    4.7989	8.46713e+06	     80.75	   17.4427	   4.48476	7.30367e+06	   80.2907	   17.6083	    4.6459	6.49634e+06	   80.5173	   17.7655	    4.7989	8.29002e+06	     80.75	   17.6041	   4.64183	7.21132e+06	   80.5234	   17.4468	   4.48883	5.73553e+06	
         R10	   3585	   80.2969	    17.451	   4.49289	7.84647e+06	     80.75	   17.4427	   4.48476	6.10113e+06	     80.75	   17.1492	   4.19918	7.07326e+06	   80.3455	   17.1492	   4.19918	4.91121e+06	   80.5234	   17.4468	   4.48883	 6.4331e+06	     80.75	   17.2959	   4.34197	6.31019e+06	   80.5478	   17.1492	   4.19918	5.83747e+06	   80.3212	   17.3001	   4.34604	5.87141e+06	
         R10	   3586	   79.8553	   17.4577	   4.49937	5.37462e+06	   80.2969	    17.451	   4.49289	 8.1752e+06	   80.3455	   17.1492	   4.19918	5.58174e+06	   79.9612	   17.1492	   4.19918	5.38866e+06	   80.0761	   17.4544	   4.49613	6.20177e+06	   80.3212	   17.3001	   4.34604	5.97958e+06	   80.1534	   17.1492	   4.19918	5.39174e+06	   79.9082	   17.3034	   4.34927	5.34018e+06	
         R10	   3587	    79.438	   17.4334	   4.47576	4.83229e+06	   79.8553	   17.4577	   4.49937	6.13757e+06	   79.9612	   17.1492	   4.19918	5.50178e+06	    79.597	   17.1492	   4.19918	5.31137e+06	   79.6466	   17.4456	   4.48757	5.21143e+06	   79.9082	   17.3034	   4.34927	5.62629e+06	   79.7791	   17.1492	   4.19918	5.38945e+06	   79.5175	   17.2913	   4.33747	5.02784e+06	
         R10	   3588	   79.0451	   17.4391	   4.48126	5.32174e+06	    79.438	   17.4334	   4.47576	6.37443e+06	    79.597	   17.1492	   4.19918	5.44182e+06	   79.2529	   17.1492	   4.19918	5.13471e+06	   79.2415	   17.4362	   4.47851	 5.7086e+06	   79.5175	   17.2913	   4.33747	5.81461e+06	   79.4249	   17.1492	   4.19918	5.27186e+06	    79.149	   17.2941	   4.34022	5.19674e+06	
         R10	   3589	   78.9289	   17.1492	   4.19918	5.18521e+06	   79.0451	   17.4391	   4.48126	6.17885e+06	   79.2529	   17.1492	   4.19918	5.28185e+06	    78.987	   17.2941	   4.34022	5.60032e+06	    79.149	   17.2941	   4.34022	5.66929e+06	   79.0909	   17.1492	   4.19918	5.22166e+06	       N/A	       N/A	       N/A	        N/A	       N/A	       N/A	       N/A	        N/A	
         R10	   3590	   79.0096	   17.7655	    4.7989	4.36035e+06	    78.625	   17.7655	    4.7989	5.13274e+06	    78.625	   18.0444	   5.07027	 6.5667e+06	   79.1166	    18.083	   5.10782	6.38131e+06	   78.8173	   17.7655	    4.7989	4.69524e+06	    78.625	    17.905	   4.93459	5.80974e+06	   78.8708	   18.0637	   5.08905	6.18571e+06	   79.0631	   17.9243	   4.95336	4.94044e+06	
         R10	   3591	   79.1166	    18.083	   5.10782	5.49156e+06	    78.625	   18.0444	   5.07027	6.20351e+06	    78.625	   18.3819	   5.39863	 8.6288e+06	    79.131	   18.3819	   5.39863	8.94572e+06	   78.8708	   18.0637	   5.08905	5.63048e+06	    78.625	   18.2132	   5.23445	7.16548e+06	    78.878	   18.3819	   5.39863	8.78536e+06	   79.1238	   18.2325	   5.25322	7.16816e+06	
         R10	   3592	   79.1166	    18.083	   5.10782	7.05477e+06	    79.131	   18.3819	   5.39863	9.06475e+06	   79.6538	   18.3819	   5.39863	1.06179e+07	   79.6608	   18.0661	   5.09131	5.26486e+06	   79.1238	   18.2325	   5.25322	 7.8013e+06	   79.3924	   18.3819	   5.39863	9.80306e+06	   79.6573	    18.224	   5.24497	7.78277e+06	   79.3887	   18.0746	   5.09957	 6.0719e+06	
         R10	   3593	   80.1935	   18.3819	   5.39863	1.47504e+07	     80.75	   18.3819	   5.39863	1.02117e+07	     80.75	   18.0591	   5.08448	1.00195e+07	   80.2281	   18.0805	   5.10536	5.77014e+06	   80.4717	   18.3819	   5.39863	1.21007e+07	     80.75	   18.2205	   5.24156	9.89251e+06	   80.4891	   18.0698	   5.09492	6.10824e+06	   80.2108	   18.2312	   5.25199	8.19626e+06	
         R10	   3594	   80.2281	   18.0805	   5.10536	 1.0361e+07	     80.75	   18.0591	   5.08448	6.76456e+06	     80.75	   17.7655	    4.7989	9.36621e+06	   80.2846	   17.7655	    4.7989	3.65457e+06	   80.4891	   18.0698	   5.09492	8.24524e+06	     80.75	   17.9123	   4.94169	7.34968e+06	   80.5173	   17.7655	    4.7989	6.04032e+06	   80.2564	    17.923	   4.95213	 6.6109e+06	
         R10	   3595	   79.4144	   17.7655	    4.7989	4.23467e+06	   79.0096	   17.7655	    4.7989	4.57575e+06	   79.1166	    18.083	   5.10782	8.46062e+06	   79.6608	   18.0661	   5.09131	7.21929e+06	    79.212	   17.7655	    4.7989	4.37804e+06	   79.0631	   17.9243	   4.95336	6.25407e+06	   79.3887	   18.0746	   5.09957	 7.6875e+06	   79.5376	   17.9158	   4.94511	 5.1268e+06	
         R10	   3596	   79.6608	   18.0661	   5.09131	6.22086e+06	   79.6538	   18.3819	   5.39863	  1.119e+07	   80.1935	   18.3819	   5.39863	1.38487e+07	   80.2281	   18.0805	   5.10536	3.83773e+06	   79.6573	    18.224	   5.24497	8.31964e+06	   79.9236	   18.3819	   5.39863	1.24377e+07	   80.2108	   18.2312	   5.25199	7.49845e+06	   79.9445	   18.0733	   5.09834	3.98383e+06	
         R10	   3597	   79.6608	   18.0661	   5.09131	5.01494e+06	   80.2281	   18.0805	   5.10536	1.13621e+07	   80.2846	   17.7655	    4.7989	4.84923e+06	   79.8394	   17.7655	    4.7989	4.62563e+06	   79.9445	   18.0733	   5.09834	7.59346e+06	   80.2564	    17.923	   4.95213	6.88924e+06	    80.062	   17.7655	    4.7989	4.63587e+06	   79.7501	   17.9158	   4.94511	4.78836e+06	
         R10	   3598	   79.4144	   17.7655	    4.7989	4.20154e+06	   79.6608	   18.0661	   5.09131	7.05214e+06	   79.8394	   17.7655	    4.7989	5.17256e+06	   79.5376	   17.9158	   4.94511	5.00593e+06	   79.7501	   17.9158	   4.94511	5.82276e+06	   79.6269	   17.7655	    4.7989	4.42474e+06	       N/A	       N/A	       N/A	        N/A	       N/A	       N/A	       N/A	        N/A	
         R10	   3599	    79.131	   18.3819	   5.39863	4.93271e+06	    78.625	   18.3819	   5.39863	5.41937e+06	    78.625	   18.6762	   5.68499	3.83776e+06	   79.1374	   18.6909	   5.69929	6.50916e+06	    78.878	   18.3819	   5.39863	5.17292e+06	    78.625	   18.5291	   5.54181	4.61278e+06	   78.8812	   18.6836	   5.69214	5.10304e+06	   79.1342	   18.5364	   5.54896	5.70482e+06	
         R10	   3600	   79.1374	   18.6909	   5.69929	6.79805e+06	    78.625	   18.6762	   5.68499	3.62204e+06	    78.625	        19	         6	6.98197e+06	    79.131	        19	         6	2.99067e+06	   78.8812	   18.6836	   5.69214	5.19878e+06	    78.625	   18.8381	    5.8425	5.30025e+06	    78.878	        19	         6	4.88897e+06	   79.1342	   18.8455	   5.84965	4.75303e+06	
         R10	   3601	   79.6598	    18.691	   5.69931	1.00879e+07	   79.1374	   18.6909	   5.69929	3.39666e+06	    79.131	        19	         6	6.23076e+06	   79.6538	        19	         6	4.81392e+06	   79.3986	   18.6909	    5.6993	5.56021e+06	   79.1342	   18.8455	   5.84965	3.94682e+06	   79.3924	        19	         6	5.05608e+06	   79.6568	   18.8455	   5.84965	6.72564e+06	
         R10	   3602	   80.1935	        19	         6	8.70463e+06	     80.75	        19	         6	8.68198e+06	     80.75	   18.6762	   5.68499	1.14112e+07	   80.1999	    18.691	   5.69933	8.32386e+06	   80.4717	        19	         6	8.34776e+06	     80.75	   18.8381	    5.8425	 9.3123e+06	    80.475	   18.6836	   5.69216	6.02222e+06	   80.1967	   18.8455	   5.84966	5.69529e+06	
         R10	   3603	   80.1999	    18.691	   5.69933	9.08392e+06	     80.75	   18.6762	   5.68499	1.04407e+07	     80.75	   18.3819	   5.39863	9.18659e+06	   80.1935	   18.3819	   5.39863	5.18227e+06	    80.475	   18.6836	   5.69216	6.37391e+06	     80.75	   18.5291	   5.54181	9.18167e+06	   80.4717	   18.3819	   5.39863	6.55708e+06	   80.1967	   18.5364	   5.54898	5.31247e+06	
         R10	   3604	   79.6538	   18.3819	   5.39863	4.51507e+06	    79.131	   18.3819	   5.39863	4.87364e+06	   79.1374	   18.6909	   5.69929	2.54961e+06	   79.6598	    18.691	   5.69931	1.04038e+07	   79.3924	   18.3819	   5.39863	4.69255e+06	   79.1342	   18.5364	   5.54896	3.03999e+06	   79.3986	   18.6909	    5.6993	5.50495e+06	   79.6568	   18.5364	   5.54897	7.42043e+06	
         R10	   3605	   79.6598	    18.691	   5.69931	6.38939e+06	   79.6538	        19	         6	7.26954e+06	   80.1935	        19	         6	7.23617e+06	   80.1999	    18.691	   5.69933	1.30267e+07	   79.6568	   18.8455	   5.84965	3.99697e+06	   79.9236	        19	         6	6.72459e+06	   80.1967	   18.8455	   5.84966	8.43928e+06	   79.9299	    18.691	   5.69932	4.79163e+06	
         R10	   3606	   79.6538	   18.3819	   5.39863	4.13672e+06	   79.6598	    18.691	   5.69931	6.65628e+06	   80.1999	    18.691	   5.69933	1.40468e+07	   80.1935	   18.3819	   5.39863	5.68037e+06	   79.6568	   18.5364	   5.54897	3.03903e+06	   79.9299	    18.691	   5.69932	5.88961e+06	   80.1967	   18.5364	   5.54898	9.22106e+06	   79.9236	   18.3819	   5.39863	 4.6646e+06	
         R10	   3607	   80.1935	        19	      6.85	8.93453e+06	     80.75	        19	      6.85	1.16431e+07	     80.75	        19	         6	1.48779e+07	   80.1935	        19	         6	4.88984e+06	   80.4717	        19	      6.85	1.02218e+07	     80.75	        19	     6.425	1.28206e+07	   80.4717	        19	         6	9.67746e+06	   80.1935	        19	     6.425	 6.2197e+06	
         R10	   3608	   79.6538	        19	      6.85	7.34442e+06	   80.1935	        19	      6.85	 9.7763e+06	   80.1935	        19	         6	4.71622e+06	   79.6538	        19	         6	4.49877e+06	   79.9236	        19	      6.85	8.51994e+06	   80.1935	        19	     6.425	6.93943e+06	   79.9236	        19	         6	4.51914e+06	   79.6538	        19	     6.425	5.65533e+06	
         R10	   3609	    79.131	        19	      6.85	6.02298e+06	   79.6538	        19	      6.85	7.17645e+06	   79.6538	        19	         6	4.59658e+06	    79.131	        19	         6	 4.2807e+06	   79.3924	        19	      6.85	6.58352e+06	   79.6538	        19	     6.425	5.54634e+06	   79.3924	        19	         6	4.29269e+06	    79.131	        19	     6.425	4.97563e+06	
         R10	   3610	    78.625	        19	   6.40476	 3.5588e+06	    78.625	        19	      6.85	6.22891e+06	    79.131	        19	      6.85	 5.9988e+06	    79.131	        19	         6	5.07304e+06	    78.625	        19	   6.62738	4.82794e+06	    78.878	        19	      6.85	6.10977e+06	    79.131	        19	     6.425	5.25929e+06	    78.878	        19	   6.20238	4.22047e+06	
         R10	   3611	    78.625	        19	   6.40476	4.61704e+06	    79.131	        19	         6	4.57236e+06	    78.625	        19	         6	5.05981e+06	    78.878	        19	   6.20238	 3.9966e+06	    78.878	        19	         6	4.19719e+06	    78.625	        19	   6.20238	4.51702e+06	       N/A	       N/A	       N/A	        N/A	       N/A	       N/A	       N/A	        N/A	
         R10	   3612	      76.5	      9.35	       1.6	2.62179e+06	      76.5	      9.35	       2.4	6.47006e+06	      76.5	      10.2	       2.4	7.18827e+06	      76.5	      10.2	       1.6	4.06908e+06	      76.5	      9.35	         2	4.34256e+06	      76.5	     9.775	       2.4	6.68584e+06	      76.5	      10.2	         2	5.50187e+06	      76.5	     9.775	       1.6	3.14551e+06	
         R10	   3613	      76.5	      9.35	       0.8	4.22646e+06	      76.5	      9.35	       1.6	2.77801e+06	      76.5	      10.2	       1.6	4.23003e+06	      76.5	      10.2	       0.8	4.04264e+06	      76.5	      9.35	       1.2	2.63673e+06	      76.5	     9.775	       1.6	3.28463e+06	      76.5	      10.2	       1.2	3.77364e+06	      76.5	     9.775	       0.8	3.54349e+06	
         R10	   3614	      76.5	      9.35	         0	7.01952e+06	      76.5	      9.35	       0.8	 3.7847e+06	      76.5	      10.2	       0.8	 4.3908e+06	      76.5	      10.2	         0	6.83418e+06	      76.5	      9.35	       0.4	 5.1978e+06	      76.5	     9.775	       0.8	3.37876e+06	      76.5	      10.2	       0.4	4.58177e+06	      76.5	     9.775	         0	6.66413e+06	
         R10	   3615	   80.0079	        19	       7.7	7.35135e+06	     80.75	        19	       7.7	7.52362e+06	     80.75	        19	      6.85	7.82717e+06	   80.1935	        19	      6.85	5.13764e+06	    80.379	        19	       7.7	7.40367e+06	     80.75	        19	     7.275	7.61292e+06	   80.4717	        19	      6.85	6.32851e+06	   80.1007	        19	     7.275	6.17479e+06	
         R10	   3616	   79.2996	        19	       7.7	6.34653e+06	   80.0079	        19	       7.7	6.90007e+06	   80.1935	        19	      6.85	5.13356e+06	   79.6538	        19	      6.85	4.00834e+06	   79.6538	        19	       7.7	6.58109e+06	   80.1007	        19	     7.275	5.93109e+06	   79.9236	        19	      6.85	4.53344e+06	   79.4767	        19	     7.275	5.03227e+06	
         R10	   3617	    79.131	        19	      6.85	4.18981e+06	    78.625	        19	      6.85	4.24342e+06	    78.625	        19	       7.7	5.07365e+06	   79.2996	        19	       7.7	5.70089e+06	    78.878	        19	      6.85	4.20692e+06	    78.625	        19	     7.275	4.59532e+06	   78.9623	        19	       7.7	5.37177e+06	   79.2153	        19	     7.275	4.85204e+06	
         R10	   3618	    79.131	        19	      6.85	4.22912e+06	   79.2996	        19	       7.7	5.84678e+06	   79.6538	        19	      6.85	4.12011e+06	   79.2153	        19	     7.275	4.95074e+06	   79.4767	        19	     7.275	4.92505e+06	   79.3924	        19	      6.85	4.16801e+06	       N/A	       N/A	       N/A	        N/A	       N/A	       N/A	       N/A	        N/A	
         R10	   3619	   80.0079	        19	      8.55	7.53539e+06	     80.75	        19	      8.55	6.11354e+06	     80.75	        19	       7.7	6.11412e+06	   80.0079	        19	       7.7	3.96086e+06	    80.379	        19	      8.55	6.80249e+06	     80.75	        19	     8.125	6.10901e+06	    80.379	        19	       7.7	4.97427e+06	   80.0079	        19	     8.125	  5.732e+06	
         R10	   3620	   79.2996	        19	      8.55	7.68233e+06	   80.0079	        19	      8.55	7.34645e+06	   80.0079	        19	       7.7	4.08379e+06	   79.2996	        19	       7.7	2.79913e+06	   79.6538	        19	      8.55	7.50651e+06	   80.0079	        19	     8.125	5.63569e+06	   79.6538	        19	       7.7	3.31517e+06	   79.2996	        19	     8.125	5.09316e+06	
         R10	   3621	    78.625	        19	      8.55	6.44671e+06	   79.2996	        19	      8.55	7.70103e+06	   79.2996	        19	       7.7	2.92083e+06	    78.625	        19	       7.7	3.58523e+06	   78.9623	        19	      8.55	 7.0703e+06	   79.2996	        19	     8.125	5.13798e+06	   78.9623	        19	       7.7	 3.2332e+06	    78.625	        19	     8.125	4.90855e+06	
         R10	   3622	   80.0079	        19	       9.4	7.88529e+06	     80.75	        19	       9.4	5.52888e+06	     80.75	        19	      8.55	5.54402e+06	   80.0079	        19	      8.55	3.19657e+06	    80.379	        19	       9.4	6.65985e+06	     80.75	        19	     8.975	 5.5359e+06	    80.379	        19	      8.55	 4.2569e+06	   80.0079	        19	     8.975	5.49829e+06	
         R10	   3623	   79.2996	        19	       9.4	9.19362e+06	   80.0079	        19	       9.4	7.45315e+06	   80.0079	        19	      8.55	2.70135e+06	   79.2996	        19	      8.55	1.30994e+06	   79.6538	        19	       9.4	8.30873e+06	   80.0079	        19	     8.975	5.05549e+06	   79.6538	        19	      8.55	1.80171e+06	   79.2996	        19	     8.975	4.97665e+06	
         R10	   3624	    78.625	        19	       9.4	8.25117e+06	   79.2996	        19	       9.4	9.05551e+06	   79.2996	        19	      8.55	1.03802e+06	    78.625	        19	      8.55	 1.4406e+06	   78.9623	        19	       9.4	8.64761e+06	   79.2996	        19	     8.975	4.81296e+06	   78.9623	        19	      8.55	1.22799e+06	    78.625	        19	     8.975	4.69496e+06	
         R10	   3625	      76.5	      10.2	       1.6	4.28592e+06	      76.5	      10.2	       2.4	6.84388e+06	      76.5	     11.05	       2.4	8.44961e+06	      76.5	     11.05	   1.67602	6.18964e+06	      76.5	      10.2	         2	5.30266e+06	      76.5	    10.625	       2.4	7.51389e+06	      76.5	     11.05	   2.03801	7.18913e+06	      76.5	    10.625	   1.63801	5.21216e+06	
         R10	   3626	      76.5	      10.2	       0.8	4.05644e+06	      76.5	      10.2	       1.6	4.50014e+06	      76.5	     11.05	   1.67602	 6.2603e+06	      76.5	     11.05	  0.876018	7.00294e+06	      76.5	      10.2	       1.2	3.57895e+06	      76.5	    10.625	   1.63801	5.35233e+06	      76.5	     11.05	   1.27602	6.40007e+06	      76.5	    10.625	  0.838009	5.16974e+06	
         R10	   3627	      76.5	      10.2	         0	 9.1128e+06	      76.5	      10.2	       0.8	3.94329e+06	      76.5	     11.05	  0.876018	7.16251e+06	      76.5	     11.05	         0	6.08056e+06	      76.5	      10.2	       0.4	6.44388e+06	      76.5	    10.625	  0.838009	5.25525e+06	      76.5	     11.05	  0.438009	5.60637e+06	      76.5	    10.625	         0	7.32259e+06	
         R10	   3628	   80.0401	        19	     10.25	6.24705e+06	     80.75	        19	     10.25	4.37812e+06	     80.75	        19	       9.4	4.32521e+06	   80.0079	        19	       9.4	4.08095e+06	   80.3951	        19	     10.25	5.31203e+06	     80.75	        19	     9.825	 4.3408e+06	    80.379	        19	       9.4	4.09529e+06	    80.024	        19	     9.825	5.10712e+06	
         R10	   3629	   79.3318	        19	     10.25	6.93664e+06	   80.0401	        19	     10.25	6.37828e+06	   80.0079	        19	       9.4	3.75601e+06	   79.2996	        19	       9.4	1.88566e+06	    79.686	        19	     10.25	6.65263e+06	    80.024	        19	     9.825	 5.0101e+06	   79.6538	        19	       9.4	2.63526e+06	   79.3157	        19	     9.825	4.30411e+06	
         R10	   3630	    78.625	        19	     10.25	5.37841e+06	   79.3318	        19	     10.25	 7.0631e+06	   79.2996	        19	       9.4	1.77449e+06	    78.625	        19	       9.4	1.30024e+06	   78.9784	        19	     10.25	6.20892e+06	   79.3157	        19	     9.825	4.38999e+06	   78.9623	        19	       9.4	1.48636e+06	    78.625	        19	     9.825	3.26966e+06	
         R10	   3631	      76.5	   11.5844	       2.4	9.13683e+06	      76.5	      11.9	       2.4	1.04318e+07	      76.5	      11.9	   1.98816	9.13098e+06	      76.5	   11.5007	   2.01504	8.23055e+06	      76.5	   11.7422	       2.4	9.75848e+06	      76.5	      11.9	   2.19408	9.76663e+06	      76.5	   11.7004	    2.0016	8.67911e+06	      76.5	   11.5426	   2.20752	8.64064e+06	
         R10	   3632	      76.5	      11.9	   0.54816	9.70916e+06	      76.5	      11.9	         0	6.68555e+06	      76.5	     11.05	         0	1.14523e+07	      76.5	     11.05	  0.876018	5.62519e+06	      76.5	      11.9	   0.27408	7.17339e+06	      76.5	    11.475	         0	8.31364e+06	      76.5	     11.05	  0.438009	8.43277e+06	      76.5	    11.475	  0.712089	7.60012e+06	
         R10	   3633	      76.5	      11.9	   1.06224	9.04031e+06	      76.5	      11.9	   0.54816	9.39253e+06	      76.5	     11.05	  0.876018	5.48761e+06	      76.5	     11.05	   1.67602	6.85575e+06	      76.5	      11.9	    0.8052	9.17467e+06	      76.5	    11.475	  0.712089	 7.4237e+06	      76.5	     11.05	   1.27602	5.82846e+06	      76.5	    11.475	   1.36913	7.79885e+06	
         R10	   3634	      76.5	     11.05	   1.67602	6.90068e+06	      76.5	     11.05	       2.4	7.82414e+06	      76.5	   11.5844	       2.4	9.17905e+06	      76.5	   11.5007	   2.01504	7.97137e+06	      76.5	     11.05	   2.03801	7.18454e+06	      76.5	   11.3172	       2.4	8.46292e+06	      76.5	   11.5426	   2.20752	8.51888e+06	      76.5	   11.2754	   1.84553	7.42143e+06	
         R10	   3635	      76.5	     11.05	   1.67602	6.68817e+06	      76.5	   11.5007	   2.01504	8.29534e+06	      76.5	      11.9	   1.98816	9.59611e+06	      76.5	      11.9	   1.54224	8.69898e+06	      76.5	   11.2754	   1.84553	7.47949e+06	      76.5	   11.7004	    2.0016	8.93714e+06	      76.5	      11.9	    1.7652	9.09637e+06	      76.5	    11.475	   1.60913	7.63835e+06	
         R10	   3636	      76.5	      11.9	   1.06224	8.62958e+06	      76.5	     11.05	   1.67602	6.64998e+06	      76.5	      11.9	   1.54224	9.05992e+06	      76.5	    11.475	   1.36913	7.47928e+06	      76.5	    11.475	   1.60913	7.79903e+06	      76.5	      11.9	   1.30224	8.80496e+06	       N/A	       N/A	       N/A	        N/A	       N/A	       N/A	       N/A	        N/A	
         R10	   3637	      76.5	   12.3065	   1.07536	1.01121e+07	      76.5	      11.9	   1.06224	9.10216e+06	      76.5	      11.9	   1.54224	9.45092e+06	      76.5	   12.3087	   1.53963	1.06377e+07	      76.5	   12.1032	    1.0688	9.59572e+06	      76.5	      11.9	   1.30224	9.18811e+06	      76.5	   12.1044	   1.54093	1.00387e+07	      76.5	   12.3076	   1.30749	1.03523e+07	
         R10	   3638	      76.5	   12.3087	   1.53963	1.03982e+07	      76.5	      11.9	   1.54224	9.19192e+06	      76.5	      11.9	   1.98816	9.41821e+06	      76.5	   12.2999	   1.96094	1.04485e+07	      76.5	   12.1044	   1.54093	9.78526e+06	      76.5	      11.9	    1.7652	9.26156e+06	      76.5	   12.0999	   1.97455	9.91859e+06	      76.5	   12.3043	   1.75028	1.03956e+07	
         R10	   3639	      76.5	   12.2999	   1.96094	1.02258e+07	      76.5	      11.9	   1.98816	9.42035e+06	      76.5	      11.9	       2.4	9.35744e+06	      76.5	   12.2642	       2.4	1.04504e+07	      76.5	   12.0999	   1.97455	9.80896e+06	      76.5	      11.9	   2.19408	9.35099e+06	      76.5	   12.0821	       2.4	9.87412e+06	      76.5	    12.282	   2.18047	1.02659e+07	
         R10	   3640	      76.5	   12.5475	       2.4	1.08098e+07	      76.5	     12.75	       2.4	 1.3407e+07	      76.5	     12.75	   2.18411	1.17828e+07	      76.5	    12.534	   2.18773	1.14312e+07	      76.5	   12.6488	       2.4	 1.2074e+07	      76.5	     12.75	   2.29206	1.25878e+07	      76.5	    12.642	   2.18592	1.15917e+07	      76.5	   12.5408	   2.29386	1.11002e+07	
         R10	   3641	      76.5	   12.3324	  0.555547	1.14528e+07	      76.5	     12.75	  0.469829	1.14447e+07	      76.5	     12.75	         0	1.09031e+07	      76.5	   12.3452	         0	6.46966e+06	      76.5	   12.5412	  0.512688	1.12987e+07	      76.5	     12.75	  0.234915	9.93637e+06	      76.5	   12.5476	         0	6.14091e+06	      76.5	   12.3388	  0.277773	7.98443e+06	
         R10	   3642	      76.5	   12.3324	  0.555547	9.80686e+06	      76.5	   12.3452	         0	1.46714e+07	      76.5	      11.9	         0	1.44317e+07	      76.5	      11.9	   0.54816	9.37148e+06	      76.5	   12.3388	  0.277773	1.18212e+07	      76.5	   12.1226	         0	1.34735e+07	      76.5	      11.9	   0.27408	1.17691e+07	      76.5	   12.1162	  0.551853	9.53085e+06	
         R10	   3643	      76.5	   12.3324	  0.555547	 1.0623e+07	      76.5	      11.9	   0.54816	8.86937e+06	      76.5	      11.9	   1.06224	 9.4747e+06	      76.5	   12.3065	   1.07536	  1.023e+07	      76.5	   12.1162	  0.551853	9.70791e+06	      76.5	      11.9	    0.8052	9.15701e+06	      76.5	   12.1032	    1.0688	 9.8422e+06	      76.5	   12.3194	  0.815455	1.03167e+07	
         R10	   3644	      76.5	   12.2999	   1.96094	 1.0124e+07	      76.5	   12.2642	       2.4	1.08185e+07	      76.5	   12.5475	       2.4	1.07015e+07	      76.5	    12.534	   2.18773	 1.1364e+07	      76.5	    12.282	   2.18047	1.04317e+07	      76.5	   12.4059	       2.4	  1.076e+07	      76.5	   12.5408	   2.29386	1.10089e+07	      76.5	   12.4169	   2.07434	1.07409e+07	
         R10	   3645	      76.5	   12.2999	   1.96094	1.03818e+07	      76.5	    12.534	   2.18773	1.11606e+07	      76.5	     12.75	   2.18411	1.23027e+07	      76.5	     12.75	   1.92591	1.17019e+07	      76.5	   12.4169	   2.07434	1.07711e+07	      76.5	    12.642	   2.18592	1.17284e+07	      76.5	     12.75	   2.05501	1.19838e+07	      76.5	   12.5249	   1.94342	1.10337e+07	
         R10	   3646	      76.5	   12.3087	   1.53963	1.02811e+07	      76.5	   12.2999	   1.96094	1.06512e+07	      76.5	     12.75	   1.92591	1.17743e+07	      76.5	     12.75	   1.62537	 1.1723e+07	      76.5	   12.3043	   1.75028	1.04406e+07	      76.5	   12.5249	   1.94342	1.12079e+07	      76.5	     12.75	   1.77564	1.17353e+07	      76.5	   12.5294	    1.5825	1.10013e+07	
         R10	   3647	      76.5	   12.3065	   1.07536	1.02702e+07	      76.5	   12.3087	   1.53963	1.05388e+07	      76.5	     12.75	   1.62537	1.16683e+07	      76.5	     12.75	   1.28252	1.16948e+07	      76.5	   12.3076	   1.30749	1.03569e+07	      76.5	   12.5294	    1.5825	1.11025e+07	      76.5	     12.75	   1.45394	1.16698e+07	      76.5	   12.5282	   1.17894	1.09697e+07	
         R10	   3648	      76.5	   12.3324	  0.555547	9.91955e+06	      76.5	   12.3065	   1.07536	1.03708e+07	      76.5	     12.75	   1.28252	1.17619e+07	      76.5	     12.75	  0.897334	1.14978e+07	      76.5	   12.3194	  0.815455	1.00663e+07	      76.5	   12.5282	   1.17894	1.10571e+07	      76.5	     12.75	   1.08992	1.16168e+07	      76.5	   12.5412	   0.72644	1.06358e+07	
         R10	   3649	      76.5	     12.75	  0.469829	1.07197e+07	      76.5	   12.3324	  0.555547	9.43175e+06	      76.5	     12.75	  0.897334	1.14228e+07	      76.5	   12.5412	  0.512688	9.89136e+06	      76.5	   12.5412	   0.72644	1.02511e+07	      76.5	     12.75	  0.683582	1.10368e+07	       N/A	       N/A	       N/A	        N/A	       N/A	       N/A	       N/A	        N/A	
         R10	   3650	   79.9759	      21.5	      6.85	3.99215e+06	     80.75	      21.5	      6.85	4.06332e+06	     80.75	      21.5	         6	5.08128e+06	   80.0094	      21.5	         6	3.41336e+06	   80.3629	      21.5	      6.85	2.88923e+06	     80.75	      21.5	     6.425	4.05897e+06	   80.3797	      21.5	         6	 3.3856e+06	   79.9926	      21.5	     6.425	3.40448e+06	
         R10	   3651	   79.2675	      21.5	      6.85	4.30501e+06	   79.9759	      21.5	      6.85	3.55355e+06	   80.0094	      21.5	         6	2.07003e+06	   79.3011	      21.5	         6	2.76961e+06	   79.6217	      21.5	      6.85	3.88149e+06	   79.9926	      21.5	     6.425	  2.414e+06	   79.6553	      21.5	         6	1.91762e+06	   79.2843	      21.5	     6.425	2.06436e+06	
         R10	   3652	    78.625	      21.5	      6.85	 3.3893e+06	   79.2675	      21.5	      6.85	4.45676e+06	   79.3011	      21.5	         6	1.54906e+06	    78.625	      21.5	         6	1.96864e+06	   78.9463	      21.5	      6.85	3.90282e+06	   79.2843	      21.5	     6.425	1.67568e+06	   78.9631	      21.5	         6	1.27693e+06	    78.625	      21.5	     6.425	1.62493e+06	
         R10	   3653	   79.9989	      21.5	       7.7	4.24352e+06	     80.75	      21.5	       7.7	3.97688e+06	     80.75	      21.5	      6.85	4.08499e+06	   79.9759	      21.5	      6.85	3.08228e+06	   80.3745	      21.5	       7.7	2.90449e+06	     80.75	      21.5	     7.275	3.97508e+06	   80.3629	      21.5	      6.85	1.28508e+06	   79.9874	      21.5	     7.275	2.58624e+06	
         R10	   3654	   79.2906	      21.5	       7.7	5.66747e+06	   79.9989	      21.5	       7.7	3.79798e+06	   79.9759	      21.5	      6.85	1.90072e+06	   79.2675	      21.5	      6.85	3.87397e+06	   79.6447	      21.5	       7.7	4.66752e+06	   79.9874	      21.5	     7.275	1.32691e+06	   79.6217	      21.5	      6.85	2.78886e+06	    79.279	      21.5	     7.275	1.08034e+06	
         R10	   3655	    78.625	      21.5	       7.7	5.04592e+06	   79.2906	      21.5	       7.7	5.62477e+06	   79.2675	      21.5	      6.85	3.93311e+06	    78.625	      21.5	      6.85	3.34403e+06	   78.9578	      21.5	       7.7	5.33297e+06	    79.279	      21.5	     7.275	     962972	   78.9463	      21.5	      6.85	3.62305e+06	    78.625	      21.5	     7.275	     868948	
         R10	   3656	      76.5	   13.2385	         0	1.39033e+07	      76.5	     12.75	         0	1.89695e+07	      76.5	     12.75	  0.469829	1.07895e+07	      76.5	   13.1725	  0.442726	1.31012e+07	      76.5	   12.9942	         0	1.52485e+07	      76.5	     12.75	  0.234915	1.47119e+07	      76.5	   12.9612	  0.456278	1.18907e+07	      76.5	   13.2055	  0.221363	1.30687e+07	
         R10	   3657	      76.5	   13.1725	  0.442726	 1.3705e+07	      76.5	     12.75	  0.469829	1.22296e+07	      76.5	     12.75	  0.897334	1.15941e+07	      76.5	   13.0989	  0.880493	1.30239e+07	      76.5	   12.9612	  0.456278	1.28343e+07	      76.5	     12.75	  0.683582	1.18949e+07	      76.5	   12.9245	  0.888914	1.23038e+07	      76.5	   13.1357	   0.66161	1.32468e+07	
         R10	   3658	      76.5	   13.0989	  0.880493	1.25358e+07	      76.5	     12.75	  0.897334	1.17842e+07	      76.5	     12.75	   1.28252	1.21228e+07	      76.5	   13.0851	   1.26205	1.33435e+07	      76.5	   12.9245	  0.888914	1.21517e+07	      76.5	     12.75	   1.08992	1.19204e+07	      76.5	   12.9176	   1.27229	1.27322e+07	      76.5	    13.092	   1.07127	1.29352e+07	
         R10	   3659	      76.5	   13.0851	   1.26205	1.30414e+07	      76.5	     12.75	   1.28252	1.21757e+07	      76.5	     12.75	   1.62537	 1.2015e+07	      76.5	    13.064	   1.61015	1.31451e+07	      76.5	   12.9176	   1.27229	1.26071e+07	      76.5	     12.75	   1.45394	1.20828e+07	      76.5	    12.907	   1.61776	 1.2578e+07	      76.5	   13.0746	    1.4361	1.30818e+07	
         R10	   3660	      76.5	    13.064	   1.61015	1.29789e+07	      76.5	     12.75	   1.62537	1.20364e+07	      76.5	     12.75	   1.92591	1.19408e+07	      76.5	   13.0093	   1.92199	1.28215e+07	      76.5	    12.907	   1.61776	1.25065e+07	      76.5	     12.75	   1.77564	1.19784e+07	      76.5	   12.8797	   1.92395	 1.2379e+07	      76.5	   13.0366	   1.76607	  1.289e+07	
         R10	   3661	      76.5	   13.0093	   1.92199	1.26134e+07	      76.5	     12.75	   1.92591	 1.1813e+07	      76.5	     12.75	   2.18411	1.18671e+07	      76.5	   12.9804	   2.17144	1.21001e+07	      76.5	   12.8797	   1.92395	1.22108e+07	      76.5	     12.75	   2.05501	1.18249e+07	      76.5	   12.8652	   2.17778	1.19707e+07	      76.5	   12.9948	   2.04671	 1.2352e+07	
         R10	   3662	      76.5	   12.9804	   2.17144	1.19324e+07	      76.5	     12.75	   2.18411	1.18828e+07	      76.5	     12.75	       2.4	1.10026e+07	      76.5	    12.952	       2.4	1.17077e+07	      76.5	   12.8652	   2.17778	1.18955e+07	      76.5	     12.75	   2.29206	1.14278e+07	      76.5	    12.851	       2.4	1.12897e+07	      76.5	   12.9662	   2.28572	 1.1789e+07	
         R10	   3663	      76.5	   13.1987	    2.2051	1.28803e+07	      76.5	   12.9804	   2.17144	1.17526e+07	      76.5	    12.952	       2.4	1.23669e+07	      76.5	    13.138	       2.4	 1.2302e+07	      76.5	   13.0895	   2.18827	1.23103e+07	      76.5	   12.9662	   2.28572	1.20503e+07	      76.5	    13.045	       2.4	1.23339e+07	      76.5	   13.1684	   2.30255	1.25719e+07	
         R10	   3664	      76.5	   13.4354	   2.23523	1.39863e+07	      76.5	    13.462	       2.4	1.26861e+07	      76.5	      13.6	       2.4	 1.6801e+07	      76.5	      13.6	   2.24677	1.42554e+07	      76.5	   13.4487	   2.31761	1.33297e+07	      76.5	    13.531	       2.4	1.47139e+07	      76.5	      13.6	   2.32339	1.55048e+07	      76.5	   13.5177	     2.241	 1.4078e+07	
         R10	   3665	      76.5	   13.4354	   2.23523	1.37107e+07	      76.5	      13.6	   2.24677	1.47025e+07	      76.5	      13.6	   2.08018	1.41373e+07	      76.5	   13.4267	   2.08274	1.40163e+07	      76.5	   13.5177	     2.241	1.41763e+07	      76.5	      13.6	   2.16348	1.44032e+07	      76.5	   13.5134	   2.08146	1.40764e+07	      76.5	    13.431	   2.15898	1.38595e+07	
         R10	   3666	      76.5	   13.4267	   2.08274	1.38201e+07	      76.5	      13.6	   2.08018	1.41881e+07	      76.5	      13.6	   1.90023	1.43829e+07	      76.5	   13.4282	   1.89158	1.39194e+07	      76.5	   13.5134	   2.08146	1.40029e+07	      76.5	      13.6	   1.99021	1.42825e+07	      76.5	   13.5141	   1.89591	1.41507e+07	      76.5	   13.4275	   1.98716	1.38653e+07	
         R10	   3667	      76.5	   13.4282	   1.89158	1.38047e+07	      76.5	      13.6	   1.90023	1.44051e+07	      76.5	      13.6	   1.70691	1.45718e+07	      76.5	   13.3988	   1.70786	1.39707e+07	      76.5	   13.5141	   1.89591	1.41045e+07	      76.5	      13.6	   1.80357	1.44862e+07	      76.5	   13.4994	   1.70739	1.42708e+07	      76.5	   13.4135	   1.79972	1.38851e+07	
         R10	   3668	      76.5	   13.3988	   1.70786	1.38051e+07	      76.5	      13.6	   1.70691	1.45886e+07	      76.5	      13.6	   1.50023	1.46903e+07	      76.5	    13.369	   1.50062	 1.3944e+07	      76.5	   13.4994	   1.70739	1.41963e+07	      76.5	      13.6	   1.60357	1.46376e+07	      76.5	   13.4845	   1.50043	 1.4317e+07	      76.5	   13.3839	   1.60424	 1.3872e+07	
         R10	   3669	      76.5	    13.369	   1.50062	1.36722e+07	      76.5	      13.6	   1.50023	1.46872e+07	      76.5	      13.6	   1.28018	1.46738e+07	      76.5	     13.37	     1.301	 1.3935e+07	      76.5	   13.4845	   1.50043	1.41795e+07	      76.5	      13.6	   1.39021	1.46789e+07	      76.5	    13.485	   1.29059	 1.4304e+07	      76.5	   13.3695	   1.40081	1.38005e+07	
         R10	   3670	      76.5	     13.37	     1.301	1.37109e+07	      76.5	      13.6	   1.28018	1.46988e+07	      76.5	      13.6	   1.04677	1.45916e+07	      76.5	   13.3711	   1.04676	 1.3708e+07	      76.5	    13.485	   1.29059	1.42047e+07	      76.5	      13.6	   1.16348	1.46426e+07	      76.5	   13.4856	   1.04677	1.41495e+07	      76.5	   13.3706	   1.17388	1.37061e+07	
         R10	   3671	      76.5	   13.3711	   1.04676	 1.3499e+07	      76.5	      13.6	   1.04677	1.45776e+07	      76.5	      13.6	       0.8	1.40679e+07	      76.5	   13.3646	  0.822447	1.36993e+07	      76.5	   13.4856	   1.04677	1.40375e+07	      76.5	      13.6	  0.923387	1.43198e+07	      76.5	   13.4823	  0.811224	1.38786e+07	      76.5	   13.3679	  0.934604	1.35903e+07	
         R10	   3672	      76.5	      13.6	  0.316892	1.28912e+07	      76.5	      13.6	         0	1.19248e+07	      76.5	   13.2385	         0	1.00995e+07	      76.5	   13.1725	  0.442726	1.28651e+07	      76.5	      13.6	  0.158446	1.07618e+07	      76.5	   13.4192	         0	6.36459e+06	      76.5	   13.2055	  0.221363	1.03764e+07	      76.5	   13.3862	  0.379809	 1.2612e+07	
         R10	   3673	      76.5	   13.2413	   1.96962	1.34121e+07	      76.5	   13.0093	   1.92199	1.23969e+07	      76.5	   12.9804	   2.17144	 1.2137e+07	      76.5	   13.1987	    2.2051	1.30048e+07	      76.5	   13.1253	    1.9458	1.29034e+07	      76.5	   12.9948	   2.04671	1.22569e+07	      76.5	   13.0895	   2.18827	 1.2568e+07	      76.5	     13.22	   2.08736	1.32039e+07	
         R10	   3674	      76.5	   13.1987	    2.2051	1.26481e+07	      76.5	    13.308	       2.4	 1.2609e+07	      76.5	    13.462	       2.4	1.31631e+07	      76.5	   13.4354	   2.23523	1.41437e+07	      76.5	   13.2534	   2.30255	1.26257e+07	      76.5	    13.385	       2.4	1.28853e+07	      76.5	   13.4487	   2.31761	1.36461e+07	      76.5	    13.317	   2.22016	1.33944e+07	
         R10	   3675	      76.5	   13.2413	   1.96962	1.32614e+07	      76.5	   13.1987	    2.2051	1.28386e+07	      76.5	   13.4354	   2.23523	1.37066e+07	      76.5	   13.4267	   2.08274	1.39689e+07	      76.5	     13.22	   2.08736	1.30437e+07	      76.5	    13.317	   2.22016	1.32713e+07	      76.5	    13.431	   2.15898	1.38344e+07	      76.5	    13.334	   2.02618	1.36151e+07	
         R10	   3676	      76.5	   13.3938	   0.61712	1.19639e+07	      76.5	      13.6	  0.583559	1.30655e+07	      76.5	      13.6	  0.316892	1.32829e+07	      76.5	   13.1725	  0.442726	1.08132e+07	      76.5	   13.4969	  0.600339	1.25136e+07	      76.5	      13.6	  0.450225	1.31173e+07	      76.5	   13.3862	  0.379809	1.17377e+07	      76.5	   13.2831	  0.529923	1.12408e+07	
         R10	   3677	      76.5	   13.3938	   0.61712	1.30767e+07	      76.5	   13.1725	  0.442726	1.11983e+07	      76.5	   13.0989	  0.880493	1.33444e+07	      76.5	   13.3646	  0.822447	1.31949e+07	      76.5	   13.2831	  0.529923	1.20425e+07	      76.5	   13.1357	   0.66161	1.21694e+07	      76.5	   13.2318	   0.85147	 1.3268e+07	      76.5	   13.3792	  0.719784	1.31348e+07	
         R10	   3678	      76.5	   13.3938	   0.61712	 1.2531e+07	      76.5	   13.3646	  0.822447	1.32317e+07	      76.5	      13.6	       0.8	1.41961e+07	      76.5	      13.6	  0.583559	1.39635e+07	      76.5	   13.3792	  0.719784	1.28751e+07	      76.5	   13.4823	  0.811224	1.37077e+07	      76.5	      13.6	  0.691779	1.40652e+07	      76.5	   13.4969	  0.600339	1.32374e+07	
         R10	   3679	      76.5	   13.0851	   1.26205	1.31478e+07	      76.5	   13.3711	   1.04676	1.37709e+07	      76.5	   13.3646	  0.822447	 1.3423e+07	      76.5	   13.0989	  0.880493	1.27661e+07	      76.5	   13.2281	   1.15441	1.34568e+07	      76.5	   13.3679	  0.934604	1.35947e+07	      76.5	   13.2318	   0.85147	1.30945e+07	      76.5	    13.092	   1.07127	1.29464e+07	
         R10	   3680	      76.5	    13.064	   1.61015	1.31217e+07	      76.5	    13.369	   1.50062	1.39459e+07	      76.5	     13.37	     1.301	1.40623e+07	      76.5	   13.0851	   1.26205	1.28268e+07	      76.5	   13.2165	   1.55539	1.35324e+07	      76.5	   13.3695	   1.40081	 1.3999e+07	      76.5	   13.2276	   1.28153	 1.3443e+07	      76.5	   13.0746	    1.4361	1.29704e+07	
         R10	   3681	      76.5	   13.2413	   1.76153	1.35414e+07	      76.5	   13.3988	   1.70786	1.40487e+07	      76.5	    13.369	   1.50062	1.40982e+07	      76.5	    13.064	   1.61015	1.29051e+07	      76.5	   13.3201	    1.7347	1.37944e+07	      76.5	   13.3839	   1.60424	1.40705e+07	      76.5	   13.2165	   1.55539	1.34976e+07	      76.5	   13.1527	   1.68584	 1.3223e+07	
         R10	   3682	      76.5	   13.2413	   1.76153	1.34355e+07	      76.5	    13.064	   1.61015	1.29458e+07	      76.5	   13.0093	   1.92199	1.26256e+07	      76.5	   13.2413	   1.96962	1.34838e+07	      76.5	   13.1527	   1.68584	1.31901e+07	      76.5	   13.0366	   1.76607	1.27768e+07	      76.5	   13.1253	    1.9458	1.30538e+07	      76.5	   13.2413	   1.86557	1.34538e+07	
         R10	   3683	      76.5	   13.2413	   1.76153	1.33846e+07	      76.5	   13.2413	   1.96962	1.32138e+07	      76.5	   13.4282	   1.89158	1.40162e+07	      76.5	   13.3988	   1.70786	1.41452e+07	      76.5	   13.2413	   1.86557	1.32971e+07	      76.5	   13.3348	    1.9306	1.36141e+07	      76.5	   13.4135	   1.79972	1.40784e+07	      76.5	   13.3201	    1.7347	1.37636e+07	
         R10	   3684	      76.5	   13.1987	    2.2051	1.26891e+07	      76.5	    13.138	       2.4	1.24882e+07	      76.5	    13.308	       2.4	1.28746e+07	      76.5	   13.1684	   2.30255	1.25802e+07	      76.5	    13.223	       2.4	1.26811e+07	      76.5	   13.2534	   2.30255	1.27758e+07	       N/A	       N/A	       N/A	        N/A	       N/A	       N/A	       N/A	        N/A	
         R10	   3685	      76.5	   13.2413	   1.96962	1.31913e+07	      76.5	   13.4267	   2.08274	1.39067e+07	      76.5	   13.4282	   1.89158	1.41803e+07	      76.5	    13.334	   2.02618	1.35486e+07	      76.5	   13.4275	   1.98716	1.40409e+07	      76.5	   13.3348	    1.9306	 1.3684e+07	       N/A	       N/A	       N/A	        N/A	       N/A	       N/A	       N/A	        N/A	
         R10	   3686	      76.5	     13.37	     1.301	1.38181e+07	      76.5	   13.3711	   1.04676	1.39582e+07	      76.5	   13.0851	   1.26205	 1.2875e+07	      76.5	   13.3706	   1.17388	1.38835e+07	      76.5	   13.2281	   1.15441	1.34072e+07	      76.5	   13.2276	   1.28153	1.33443e+07	       N/A	       N/A	       N/A	        N/A	       N/A	       N/A	       N/A	        N/A	
         R10	   3687	      76.5	   13.9103	         0	1.49038e+07	      76.5	      13.6	         0	 2.5887e+07	      76.5	      13.6	  0.316892	1.25837e+07	      76.5	    13.869	  0.288542	 1.7608e+07	      76.5	   13.7551	         0	1.91512e+07	      76.5	      13.6	  0.158446	1.90494e+07	      76.5	   13.7345	  0.302717	1.48271e+07	      76.5	   13.8896	  0.144271	1.60301e+07	
         R10	   3688	      76.5	    13.869	  0.288542	1.65573e+07	      76.5	      13.6	  0.316892	1.53764e+07	      76.5	      13.6	  0.583559	1.40784e+07	      76.5	   13.8461	  0.560848	1.62476e+07	      76.5	   13.7345	  0.302717	1.57847e+07	      76.5	      13.6	  0.450225	1.47017e+07	      76.5	   13.7231	  0.572203	1.51539e+07	      76.5	   13.8576	  0.424695	1.63135e+07	
         R10	   3689	      76.5	   13.8461	  0.560848	1.58435e+07	      76.5	      13.6	  0.583559	1.41818e+07	      76.5	      13.6	       0.8	1.46794e+07	      76.5	   13.8427	       0.8	1.55721e+07	      76.5	   13.7231	  0.572203	1.50065e+07	      76.5	      13.6	  0.691779	1.44242e+07	      76.5	   13.7213	       0.8	1.51242e+07	      76.5	   13.8444	  0.680424	1.57056e+07	
         R10	   3690	      76.5	   14.1522	  0.573376	1.50362e+07	      76.5	   13.8461	  0.560848	 1.5838e+07	      76.5	   13.8427	       0.8	 1.5315e+07	      76.5	   14.0652	       0.8	1.61679e+07	      76.5	   13.9992	  0.567112	1.54323e+07	      76.5	   13.8444	  0.680424	1.55674e+07	      76.5	    13.954	       0.8	1.57412e+07	      76.5	   14.1087	  0.686688	1.55978e+07	
         R10	   3691	      76.5	   14.1522	  0.573376	1.48715e+07	      76.5	   14.2677	       0.8	1.62173e+07	      76.5	     14.45	       0.8	1.71894e+07	      76.5	     14.45	  0.595698	 1.6587e+07	      76.5	   14.2099	  0.686688	1.55435e+07	      76.5	   14.3588	       0.8	1.66998e+07	      76.5	     14.45	  0.697849	1.68847e+07	      76.5	   14.3011	  0.584537	1.57292e+07	
         R10	   3692	      76.5	   14.1673	  0.304207	1.33358e+07	      76.5	   14.1522	  0.573376	1.44802e+07	      76.5	     14.45	  0.595698	1.61123e+07	      76.5	     14.45	  0.329031	1.58651e+07	      76.5	   14.1597	  0.438792	1.37987e+07	      76.5	   14.3011	  0.584537	 1.5293e+07	      76.5	     14.45	  0.462364	1.58713e+07	      76.5	   14.3086	  0.316619	1.42346e+07	
         R10	   3693	      76.5	   14.1673	  0.304207	1.20241e+07	      76.5	     14.45	  0.329031	1.71826e+07	      76.5	     14.45	         0	1.40165e+07	      76.5	   14.1936	         0	6.99171e+06	      76.5	   14.3086	  0.316619	1.41027e+07	      76.5	     14.45	  0.164515	1.42319e+07	      76.5	   14.3218	         0	8.68032e+06	      76.5	   14.1804	  0.152104	9.41424e+06	
         R10	   3694	      76.5	   14.1673	  0.304207	1.07932e+07	      76.5	   14.1936	         0	 1.9007e+07	      76.5	   13.9103	         0	6.80669e+06	      76.5	    13.869	  0.288542	1.88974e+07	      76.5	   14.1804	  0.152104	1.48596e+07	      76.5	   14.0519	         0	1.25102e+07	      76.5	   13.8896	  0.144271	1.22874e+07	      76.5	   14.0181	  0.296375	1.48307e+07	
         R10	   3695	      76.5	   14.1522	  0.573376	1.51011e+07	      76.5	   14.1673	  0.304207	 1.2619e+07	      76.5	    13.869	  0.288542	1.54311e+07	      76.5	   13.8461	  0.560848	1.61302e+07	      76.5	   14.1597	  0.438792	1.38549e+07	      76.5	   14.0181	  0.296375	1.40218e+07	      76.5	   13.8576	  0.424695	1.57715e+07	      76.5	   13.9992	  0.567112	1.56148e+07	
         R10	   3696	      76.5	   14.1522	  0.573376	1.50769e+07	      76.5	   14.0652	       0.8	1.57701e+07	      76.5	   14.2677	       0.8	1.64285e+07	      76.5	   14.1087	  0.686688	 1.5423e+07	      76.5	   14.1665	       0.8	1.60966e+07	      76.5	   14.2099	  0.686688	1.57486e+07	       N/A	       N/A	       N/A	        N/A	       N/A	       N/A	       N/A	        N/A	
         R10	   3697	   79.1058	      16.9	         0	1.60875e+07	    78.625	      16.9	         0	1.74996e+07	    78.625	    17.281	         0	1.52543e+07	   79.0656	   17.2928	         0	1.44694e+07	   78.8654	      16.9	         0	1.67884e+07	    78.625	   17.0905	         0	1.13883e+07	   78.8453	   17.2869	         0	1.48458e+07	   79.0857	   17.0964	         0	1.13045e+07	
         R10	   3698	   79.0656	   17.2928	         0	1.63911e+07	    78.625	    17.281	         0	1.66654e+07	    78.625	      17.7	         0	1.71062e+07	   79.1058	      17.7	         0	1.71269e+07	   78.8453	   17.2869	         0	1.65249e+07	    78.625	   17.4905	         0	1.13027e+07	   78.8654	      17.7	         0	1.71096e+07	   79.0857	   17.4964	         0	1.12515e+07	
         R10	   3699	   79.5585	   17.3058	         0	8.61075e+06	   79.0656	   17.2928	         0	1.80691e+07	   79.1058	      17.7	         0	1.71362e+07	   79.6202	      17.7	         0	1.15841e+07	   79.3121	   17.2993	         0	 1.3079e+07	   79.0857	   17.4964	         0	1.23675e+07	    79.363	      17.7	         0	1.40977e+07	   79.5893	   17.5029	         0	9.28307e+06	
         R10	   3700	   80.1683	      17.7	         0	8.84421e+06	     80.75	      17.7	         0	5.37962e+06	     80.75	      16.9	         0	5.46802e+06	   80.1683	      16.9	         0	8.93885e+06	   80.4591	      17.7	         0	6.94251e+06	     80.75	      17.3	         0	5.40815e+06	   80.4591	      16.9	         0	7.08294e+06	   80.1683	      17.3	         0	8.40403e+06	
         R10	   3701	   79.6202	      16.9	         0	1.17748e+07	   79.1058	      16.9	         0	1.59906e+07	   79.0656	   17.2928	         0	1.60732e+07	   79.5585	   17.3058	         0	8.89064e+06	    79.363	      16.9	         0	1.37122e+07	   79.0857	   17.0964	         0	1.21651e+07	   79.3121	   17.2993	         0	1.24522e+07	   79.5893	   17.1029	         0	9.18205e+06	
         R10	   3702	   80.1683	      16.9	         0	8.20119e+06	   79.5585	   17.3058	         0	1.01025e+07	   79.6202	      17.7	         0	1.04321e+07	   80.1683	      17.7	         0	 8.6751e+06	   79.8634	   17.1029	         0	8.88894e+06	   79.5893	   17.5029	         0	9.67309e+06	   79.8942	      17.7	         0	9.32346e+06	   80.1683	      17.3	         0	8.15181e+06	
         R10	   3703	   80.1683	      16.9	         0	9.11634e+06	   79.6202	      16.9	         0	1.19549e+07	   79.5585	   17.3058	         0	1.04563e+07	   79.8942	      16.9	         0	1.04625e+07	   79.5893	   17.1029	         0	9.97621e+06	   79.8634	   17.1029	         0	8.97488e+06	       N/A	       N/A	       N/A	        N/A	       N/A	       N/A	       N/A	        N/A	
         R10	   3704	   79.1058	      17.7	         0	1.20154e+07	    78.625	      17.7	         0	1.58767e+07	    78.625	   18.0999	         0	1.72032e+07	   79.0744	   18.1108	         0	1.10105e+07	   78.8654	      17.7	         0	1.36609e+07	    78.625	      17.9	         0	1.24669e+07	   78.8497	   18.1054	         0	1.40788e+07	   79.0901	   17.9054	         0	1.03328e+07	
         R10	   3705	   79.0744	   18.1108	         0	1.02094e+07	    78.625	   18.0999	         0	1.87437e+07	    78.625	      18.5	         0	1.81126e+07	   79.1563	      18.5	         0	1.26322e+07	   78.8497	   18.1054	         0	1.42357e+07	    78.625	      18.3	         0	1.26896e+07	   78.8906	      18.5	         0	1.50218e+07	   79.1153	   18.3054	         0	1.04994e+07	
         R10	   3706	   80.2188	      18.5	         0	8.14781e+06	     80.75	      18.5	         0	2.81609e+06	     80.75	    18.138	         0	 2.5547e+06	   80.2832	   18.1085	         0	 1.2898e+07	   80.4844	      18.5	         0	5.24252e+06	     80.75	    18.319	         0	2.67448e+06	   80.5166	   18.1232	         0	7.55726e+06	    80.251	   18.3043	         0	 9.7877e+06	
         R10	   3707	   80.2832	   18.1085	         0	1.22438e+07	     80.75	    18.138	         0	2.78714e+06	     80.75	      17.7	         0	4.53348e+06	   80.1683	      17.7	         0	 7.1852e+06	   80.5166	   18.1232	         0	7.39853e+06	     80.75	    17.919	         0	 3.6197e+06	   80.4591	      17.7	         0	5.85924e+06	   80.2257	   17.9043	         0	9.69238e+06	
         R10	   3708	   79.6202	      17.7	         0	8.70776e+06	   79.0744	   18.1108	         0	1.16767e+07	   79.1563	      18.5	         0	1.17624e+07	   79.6875	      18.5	         0	 1.0019e+07	   79.3473	   17.9054	         0	1.01485e+07	   79.1153	   18.3054	         0	1.10381e+07	   79.4219	      18.5	         0	1.06762e+07	   79.6538	      18.1	         0	9.25642e+06	
         R10	   3709	   79.6875	      18.5	         0	1.06944e+07	   80.2832	   18.1085	         0	 5.0599e+06	   80.1683	      17.7	         0	8.62621e+06	   79.6202	      17.7	         0	1.07864e+07	   79.9853	   18.3043	         0	7.66783e+06	   80.2257	   17.9043	         0	6.83245e+06	   79.8942	      17.7	         0	9.69637e+06	   79.6538	      18.1	         0	1.05359e+07	
         R10	   3710	   79.6202	      17.7	         0	1.01585e+07	   79.1058	      17.7	         0	 1.2009e+07	   79.0744	   18.1108	         0	1.37497e+07	    79.363	      17.7	         0	1.09638e+07	   79.0901	   17.9054	         0	1.17307e+07	   79.3473	   17.9054	         0	1.14979e+07	       N/A	       N/A	       N/A	        N/A	       N/A	       N/A	       N/A	        N/A	
         R10	   3711	   79.6875	      18.5	         0	1.06327e+07	   80.2188	      18.5	         0	8.80915e+06	   80.2832	   18.1085	         0	 1.0634e+07	   79.9531	      18.5	         0	9.66301e+06	    80.251	   18.3043	         0	8.84949e+06	   79.9853	   18.3043	         0	1.00485e+07	       N/A	       N/A	       N/A	        N/A	       N/A	       N/A	       N/A	        N/A	
         R10	   3712	   79.1563	      18.5	         0	1.65887e+07	    78.625	      18.5	         0	1.86723e+07	    78.625	    18.919	         0	1.85866e+07	   79.0748	   18.8873	         0	1.54907e+07	   78.8906	      18.5	         0	1.76176e+07	    78.625	   18.7095	         0	1.13233e+07	   78.8499	   18.9032	         0	1.69143e+07	   79.1155	   18.6936	         0	1.15815e+07	
         R10	   3713	   79.0748	   18.8873	         0	1.75842e+07	    78.625	    18.919	         0	1.56918e+07	    78.625	      19.3	         0	1.29568e+07	     79.05	      19.3	         0	1.26062e+07	   78.8499	   18.9032	         0	1.66132e+07	    78.625	   19.1095	         0	 1.1096e+07	   78.8375	      19.3	         0	1.27813e+07	   79.0624	   19.0936	         0	1.16813e+07	
         R10	   3714	   79.0748	   18.8873	         0	1.74567e+07	     79.05	      19.3	         0	1.26694e+07	    79.475	      19.3	         0	1.18336e+07	   79.4621	   18.9378	         0	1.49306e+07	   79.0624	   19.0936	         0	1.16534e+07	   79.2625	      19.3	         0	1.22485e+07	   79.4686	   19.1189	         0	1.03656e+07	   79.2684	   18.9125	         0	1.61637e+07	
         R10	   3715	   79.4621	   18.9378	         0	1.53825e+07	    79.475	      19.3	         0	1.17394e+07	      79.9	      19.3	         0	1.10443e+07	   79.9116	   18.9377	         0	1.29207e+07	   79.4686	   19.1189	         0	1.06662e+07	   79.6875	      19.3	         0	1.13779e+07	   79.9058	   19.1188	         0	8.80397e+06	   79.6869	   18.9377	         0	1.39322e+07	
         R10	   3716	   79.9116	   18.9377	         0	1.52854e+07	      79.9	      19.3	         0	1.12223e+07	    80.325	      19.3	         0	1.03833e+07	   80.2991	   18.8874	         0	1.16696e+07	   79.9058	   19.1188	         0	1.06109e+07	   80.1125	      19.3	         0	1.07793e+07	   80.3121	   19.0937	         0	7.30947e+06	   80.1054	   18.9125	         0	1.32768e+07	
         R10	   3717	   80.2991	   18.8874	         0	2.10053e+07	    80.325	      19.3	         0	1.04666e+07	     80.75	      19.3	         0	4.36065e+06	     80.75	    18.919	         0	 3.5243e+06	   80.3121	   19.0937	         0	1.32273e+07	   80.5375	      19.3	         0	6.80916e+06	     80.75	   19.1095	         0	     932637	   80.5246	   18.9032	         0	9.20742e+06	
         R10	   3718	   80.2991	   18.8874	         0	2.02636e+07	     80.75	    18.919	         0	5.29535e+06	     80.75	      18.5	         0	3.33201e+06	   80.2188	      18.5	         0	1.16976e+07	   80.5246	   18.9032	         0	8.67177e+06	     80.75	   18.7095	         0	2.87063e+06	   80.4844	      18.5	         0	 6.7811e+06	   80.2589	   18.6937	         0	1.27519e+07	
         R10	   3719	   79.9116	   18.9377	         0	  1.198e+07	   80.2991	   18.8874	         0	9.46348e+06	   80.2188	      18.5	         0	1.17982e+07	   79.6875	      18.5	         0	1.15453e+07	   80.1054	   18.9125	         0	1.03503e+07	   80.2589	   18.6937	         0	6.73313e+06	   79.9531	      18.5	         0	1.14915e+07	   79.7996	   18.7188	         0	1.05823e+07	
         R10	   3720	   79.6875	      18.5	         0	1.11122e+07	   79.1563	      18.5	         0	1.65133e+07	   79.0748	   18.8873	         0	 1.4948e+07	   79.4621	   18.9378	         0	1.10509e+07	   79.4219	      18.5	         0	1.36619e+07	   79.1155	   18.6936	         0	1.15705e+07	   79.2684	   18.9125	         0	1.29116e+07	   79.5748	   18.7189	         0	9.75469e+06	
         R10	   3721	   79.9116	   18.9377	         0	8.15903e+06	   79.6875	      18.5	         0	1.01107e+07	   79.4621	   18.9378	         0	1.08427e+07	   79.7996	   18.7188	         0	7.83457e+06	   79.5748	   18.7189	         0	9.33333e+06	   79.6869	   18.9377	         0	9.35082e+06	       N/A	       N/A	       N/A	        N/A	       N/A	       N/A	       N/A	        N/A	
         R10	   3722	   79.3034	     11.05	         0	1.07671e+07	    78.625	     11.05	         0	1.12875e+07	    78.625	      11.9	         0	 1.1763e+07	   79.2698	      11.9	         0	1.12375e+07	   78.9642	     11.05	         0	1.10164e+07	    78.625	    11.475	         0	1.15022e+07	   78.9474	      11.9	         0	1.14651e+07	   79.2866	    11.475	         0	1.09348e+07	
         R10	   3723	   80.0118	     11.05	         0	9.46947e+06	   79.3034	     11.05	         0	1.07426e+07	   79.2698	      11.9	         0	1.15297e+07	   79.9782	      11.9	         0	1.02336e+07	   79.6576	     11.05	         0	1.00257e+07	   79.2866	    11.475	         0	1.10589e+07	    79.624	      11.9	         0	1.07723e+07	    79.995	    11.475	         0	9.44679e+06	
         R10	   3724	     80.75	     11.05	         0	 6.9073e+06	   80.0118	     11.05	         0	9.21252e+06	   79.9782	      11.9	         0	9.84622e+06	     80.75	      11.9	         0	7.57143e+06	   80.3809	     11.05	         0	7.73255e+06	    79.995	    11.475	         0	9.14019e+06	   80.3641	      11.9	         0	8.51572e+06	     80.75	    11.475	         0	7.22349e+06	
         R10	   3725	   79.2698	      11.9	         0	1.08354e+07	    78.625	      11.9	         0	1.13249e+07	    78.625	     12.75	         0	1.19678e+07	   79.2327	     12.75	         0	1.13692e+07	   78.9474	      11.9	         0	1.10738e+07	    78.625	    12.325	         0	1.16271e+07	   78.9289	     12.75	         0	1.16281e+07	   79.2513	    12.325	         0	1.10759e+07	
         R10	   3726	   79.9782	      11.9	         0	9.41869e+06	   79.2698	      11.9	         0	1.09756e+07	   79.2327	     12.75	         0	1.14191e+07	   79.9411	     12.75	         0	 1.0696e+07	    79.624	      11.9	         0	1.01496e+07	   79.2513	    12.325	         0	 1.1173e+07	   79.5869	     12.75	         0	1.08982e+07	   79.9596	    12.325	         0	9.67921e+06	
         R10	   3727	     80.75	      11.9	         0	7.08038e+06	   79.9782	      11.9	         0	9.18881e+06	   79.9411	     12.75	         0	1.00111e+07	     80.75	     12.75	         0	7.75023e+06	   80.3641	      11.9	         0	7.70816e+06	   79.9596	    12.325	         0	9.22015e+06	   80.3455	     12.75	         0	8.69491e+06	     80.75	    12.325	         0	7.40609e+06	
         R10	   3728	   79.2327	     12.75	         0	1.11078e+07	    78.625	     12.75	         0	1.55074e+07	    78.625	   13.1952	         0	 2.0294e+07	   79.0097	   13.2119	         0	1.41077e+07	   78.9289	     12.75	         0	 1.2095e+07	    78.625	   12.9726	         0	1.17635e+07	   78.8173	   13.2036	         0	1.65202e+07	   79.1212	    12.981	         0	1.24738e+07	
         R10	   3729	   79.0097	   13.2119	         0	1.56791e+07	    78.625	   13.1952	         0	1.83091e+07	    78.625	      13.6	         0	1.64786e+07	   79.0808	      13.6	         0	1.16655e+07	   78.8173	   13.2036	         0	1.67331e+07	    78.625	   13.3976	         0	1.13853e+07	   78.8529	      13.6	         0	1.36758e+07	   79.0452	    13.406	         0	1.23516e+07	
         R10	   3730	   79.2327	     12.75	         0	8.75967e+06	   79.0097	   13.2119	         0	1.00098e+07	   79.0808	      13.6	         0	1.13562e+07	   79.5869	      13.6	         0	1.09374e+07	   79.1212	    12.981	         0	8.99124e+06	   79.0452	    13.406	         0	9.48217e+06	   79.3339	      13.6	         0	1.07398e+07	   79.4098	    13.175	         0	9.84791e+06	
         R10	   3731	   79.9411	     12.75	         0	9.70547e+06	   79.2327	     12.75	         0	1.12308e+07	   79.5869	      13.6	         0	1.06495e+07	   80.1433	      13.6	         0	 9.7962e+06	   79.5869	     12.75	         0	1.04536e+07	   79.4098	    13.175	         0	1.08039e+07	   79.8651	      13.6	         0	1.00722e+07	   80.0422	    13.175	         0	9.21897e+06	
         R10	   3732	     80.75	     12.75	         0	7.16735e+06	   79.9411	     12.75	         0	9.17703e+06	   80.1433	      13.6	         0	1.02621e+07	     80.75	      13.6	         0	 7.5384e+06	   80.3455	     12.75	         0	7.56773e+06	   80.0422	    13.175	         0	9.09006e+06	   80.4467	      13.6	         0	8.76351e+06	     80.75	    13.175	         0	7.35149e+06	
         R10	   3733	      76.5	   14.7736	         0	 1.2244e+07	      76.5	     14.45	         0	2.85007e+07	      76.5	     14.45	  0.329031	 1.5796e+07	      76.5	   14.7449	  0.288565	1.98903e+07	      76.5	   14.6118	         0	1.96157e+07	      76.5	     14.45	  0.164515	2.19425e+07	      76.5	   14.5974	  0.308798	1.76343e+07	      76.5	   14.7592	  0.144282	1.59187e+07	
         R10	   3734	      76.5	   14.7449	  0.288565	2.02468e+07	      76.5	     14.45	  0.329031	 1.6917e+07	      76.5	     14.45	  0.595698	1.73448e+07	      76.5	   14.6661	    0.5615	1.87294e+07	      76.5	   14.5974	  0.308798	1.83747e+07	      76.5	     14.45	  0.462364	1.70753e+07	      76.5	    14.558	  0.578599	 1.8034e+07	      76.5	   14.7055	  0.425033	1.94512e+07	
         R10	   3735	      76.5	   14.6661	    0.5615	1.82684e+07	      76.5	     14.45	  0.595698	1.74671e+07	      76.5	     14.45	       0.8	 1.7577e+07	      76.5	   14.6362	       0.8	1.84705e+07	      76.5	    14.558	  0.578599	1.78652e+07	      76.5	     14.45	  0.697849	1.75196e+07	      76.5	   14.5431	       0.8	1.80218e+07	      76.5	   14.6511	   0.68075	 1.8366e+07	
         R10	   3736	      76.5	   14.8822	   0.61217	1.83645e+07	      76.5	   14.6661	    0.5615	1.89121e+07	      76.5	   14.6362	       0.8	1.80052e+07	      76.5	   14.8142	       0.8	1.87319e+07	      76.5	   14.7741	  0.586835	1.86199e+07	      76.5	   14.6511	   0.68075	1.84565e+07	      76.5	   14.7252	       0.8	1.83664e+07	      76.5	   14.8482	  0.706085	1.85454e+07	
         R10	   3737	      76.5	   15.1139	  0.621311	1.77649e+07	      76.5	   15.1462	       0.8	1.76367e+07	      76.5	      15.3	       0.8	1.69216e+07	      76.5	      15.3	  0.637669	 1.7194e+07	      76.5	     15.13	  0.710655	   1.77e+07	      76.5	   15.2231	       0.8	1.72792e+07	      76.5	      15.3	  0.718834	1.70558e+07	      76.5	    15.207	   0.62949	1.74791e+07	
         R10	   3738	      76.5	   15.1139	  0.621311	1.78055e+07	      76.5	      15.3	  0.637669	1.69875e+07	      76.5	      15.3	  0.450225	1.66508e+07	      76.5	   15.0849	  0.425928	1.78545e+07	      76.5	    15.207	   0.62949	1.73959e+07	      76.5	      15.3	  0.543947	1.68173e+07	      76.5	   15.1925	  0.438077	1.72515e+07	      76.5	   15.0994	   0.52362	1.78288e+07	
         R10	   3739	      76.5	   15.0849	  0.425928	1.78545e+07	      76.5	      15.3	  0.450225	1.70818e+07	      76.5	      15.3	  0.237669	 1.6098e+07	      76.5	   15.0432	  0.219832	1.81661e+07	      76.5	   15.1925	  0.438077	1.74667e+07	      76.5	      15.3	  0.343947	1.65849e+07	      76.5	   15.1716	  0.228751	1.71105e+07	      76.5	    15.064	   0.32288	 1.7996e+07	
         R10	   3740	      76.5	   15.0432	  0.219832	1.77215e+07	      76.5	      15.3	  0.237669	 1.6676e+07	      76.5	      15.3	         0	1.78674e+07	      76.5	   15.0569	         0	1.53242e+07	      76.5	   15.1716	  0.228751	1.71909e+07	      76.5	      15.3	  0.118834	1.69908e+07	      76.5	   15.1784	         0	1.64358e+07	      76.5	     15.05	  0.109916	 1.6431e+07	
         R10	   3741	      76.5	   15.0432	  0.219832	1.77468e+07	      76.5	   15.0569	         0	1.50163e+07	      76.5	   14.7736	         0	1.30069e+07	      76.5	   14.7449	  0.288565	1.87735e+07	      76.5	     15.05	  0.109916	1.63269e+07	      76.5	   14.9152	         0	1.39593e+07	      76.5	   14.7592	  0.144282	1.58009e+07	      76.5	    14.894	  0.254198	1.81844e+07	
         R10	   3742	      76.5	   14.8822	   0.61217	 1.8604e+07	      76.5	   14.9842	       0.8	1.81559e+07	      76.5	   15.1462	       0.8	1.78088e+07	      76.5	   15.1139	  0.621311	 1.7812e+07	      76.5	   14.9332	  0.706085	1.83798e+07	      76.5	   15.0652	       0.8	  1.798e+07	      76.5	     15.13	  0.710655	1.78099e+07	      76.5	   14.9981	   0.61674	1.82041e+07	
         R10	   3743	      76.5	   14.8822	   0.61217	1.83573e+07	      76.5	   15.1139	  0.621311	1.78357e+07	      76.5	   15.0849	  0.425928	1.80535e+07	      76.5	   14.9088	  0.452798	 1.8235e+07	      76.5	   14.9981	   0.61674	1.80948e+07	      76.5	   15.0994	   0.52362	1.79426e+07	      76.5	   14.9969	  0.439363	1.81336e+07	      76.5	   14.8955	  0.532484	1.82943e+07	
         R10	   3744	      76.5	   14.7449	  0.288565	1.72819e+07	      76.5	   14.6661	    0.5615	 1.9266e+07	      76.5	   14.8822	   0.61217	1.86018e+07	      76.5	   14.9088	  0.452798	1.82359e+07	      76.5	   14.7055	  0.425033	1.82539e+07	      76.5	   14.7741	  0.586835	1.89157e+07	      76.5	   14.8955	  0.532484	1.84183e+07	      76.5	   14.8268	  0.370681	1.77582e+07	
         R10	   3745	      76.5	   15.0432	  0.219832	1.76509e+07	      76.5	   14.7449	  0.288565	1.74327e+07	      76.5	   14.9088	  0.452798	1.79977e+07	      76.5	   15.0849	  0.425928	1.80879e+07	      76.5	    14.894	  0.254198	1.75335e+07	      76.5	   14.8268	  0.370681	1.77123e+07	      76.5	   14.9969	  0.439363	1.80364e+07	      76.5	    15.064	   0.32288	1.78563e+07	
         R10	   3746	      76.5	   14.8822	   0.61217	1.84931e+07	      76.5	   14.8142	       0.8	1.84326e+07	      76.5	   14.9842	       0.8	  1.841e+07	      76.5	   14.8482	  0.706085	1.84601e+07	      76.5	   14.8992	       0.8	 1.8417e+07	      76.5	   14.9332	  0.706085	1.84514e+07	       N/A	       N/A	       N/A	        N/A	       N/A	       N/A	       N/A	        N/A	
         R10	   3747	   79.0808	      13.6	         0	1.40918e+07	    78.625	      13.6	         0	1.58749e+07	    78.625	   14.0452	         0	1.96329e+07	     79.05	   14.0452	         0	1.72329e+07	   78.8529	      13.6	         0	1.49602e+07	    78.625	   13.8226	         0	1.15228e+07	   78.8375	   14.0452	         0	1.84028e+07	   79.0654	   13.8226	         0	1.13951e+07	
         R10	   3748	     79.05	   14.0452	         0	1.97548e+07	    78.625	   14.0452	         0	1.96828e+07	    78.625	     14.45	         0	1.59252e+07	   79.0808	     14.45	         0	1.52281e+07	   78.8375	   14.0452	         0	1.97179e+07	    78.625	   14.2476	         0	1.13114e+07	   78.8529	     14.45	         0	1.55668e+07	   79.0654	   14.2476	         0	1.14424e+07	
         R10	   3749	   79.5123	   14.0436	         0	1.07238e+07	     79.05	   14.0452	         0	2.13122e+07	   79.0808	     14.45	         0	1.52883e+07	   79.5869	     14.45	         0	1.07289e+07	   79.2811	   14.0444	         0	 1.5928e+07	   79.0654	   14.2476	         0	1.27469e+07	   79.3339	     14.45	         0	1.25175e+07	   79.5496	   14.2468	         0	9.52508e+06	
         R10	   3750	   80.1433	     14.45	         0	9.02686e+06	     80.75	     14.45	         0	1.07603e+07	     80.75	      13.6	         0	7.06256e+06	   80.1433	      13.6	         0	8.52978e+06	   80.4467	     14.45	         0	9.44697e+06	     80.75	    14.025	         0	8.89671e+06	   80.4467	      13.6	         0	7.46326e+06	   80.1433	    14.025	         0	  8.704e+06	
         R10	   3751	   79.5869	      13.6	         0	1.04581e+07	   79.0808	      13.6	         0	1.40635e+07	     79.05	   14.0452	         0	1.91927e+07	   79.5123	   14.0436	         0	9.83367e+06	   79.3339	      13.6	         0	1.18464e+07	   79.0654	   13.8226	         0	1.26758e+07	   79.2811	   14.0444	         0	1.44761e+07	   79.5496	   13.8218	         0	9.37054e+06	
         R10	   3752	   80.1433	      13.6	         0	8.73725e+06	   79.5123	   14.0436	         0	 1.2146e+07	   79.5869	     14.45	         0	9.79232e+06	   80.1433	     14.45	         0	1.08783e+07	   79.8278	   13.8218	         0	1.03658e+07	   79.5496	   14.2468	         0	1.02065e+07	   79.8651	     14.45	         0	9.90073e+06	   80.1433	    14.025	         0	9.61341e+06	
         R10	   3753	   80.1433	      13.6	         0	8.43913e+06	   79.5869	      13.6	         0	1.07721e+07	   79.5123	   14.0436	         0	1.17573e+07	   79.8651	      13.6	         0	9.48885e+06	   79.5496	   13.8218	         0	1.04965e+07	   79.8278	   13.8218	         0	9.86603e+06	       N/A	       N/A	       N/A	        N/A	       N/A	       N/A	       N/A	        N/A	
         R10	   3754	   79.0808	     14.45	         0	1.31963e+07	    78.625	     14.45	         0	1.24132e+07	    78.625	    14.955	         0	 1.5715e+07	   79.0769	    14.872	         0	1.79868e+07	   78.8529	     14.45	         0	1.27725e+07	    78.625	   14.7025	         0	1.06776e+07	    78.851	   14.9135	         0	1.66633e+07	   79.0789	    14.661	         0	1.16079e+07	
         R10	   3755	   79.0769	    14.872	         0	1.32691e+07	    78.625	    14.955	         0	9.33832e+06	    78.625	      15.3	         0	1.27885e+07	   78.9125	      15.3	         0	1.17806e+07	    78.851	   14.9135	         0	1.12401e+07	    78.625	   15.1275	         0	9.93885e+06	   78.7687	      15.3	         0	  1.207e+07	   78.9947	    15.086	         0	1.00278e+07	
         R10	   3756	   79.0769	    14.872	         0	1.18626e+07	   79.2266	      15.3	         0	1.29507e+07	   79.5674	      15.3	         0	1.49158e+07	   79.4829	   14.9087	         0	1.44486e+07	   79.1518	    15.086	         0	1.00085e+07	    79.397	      15.3	         0	1.38754e+07	   79.5252	   15.1044	         0	9.31127e+06	   79.2799	   14.8904	         0	1.28507e+07	
         R10	   3757	   79.4829	   14.9087	         0	1.27517e+07	   79.5674	      15.3	         0	1.62522e+07	   79.9349	      15.3	         0	1.59841e+07	   79.9129	   14.9069	         0	1.72886e+07	   79.5252	   15.1044	         0	9.94076e+06	   79.7512	      15.3	         0	1.58062e+07	   79.9239	   15.1034	         0	8.82177e+06	   79.6979	   14.9078	         0	1.49963e+07	
         R10	   3758	   79.9129	   14.9069	         0	 1.4579e+07	   79.9349	      15.3	         0	1.97813e+07	   80.3291	      15.3	         0	1.11312e+07	   80.2919	   14.8536	         0	1.71968e+07	   79.9239	   15.1034	         0	1.05152e+07	    80.132	      15.3	         0	1.52722e+07	   80.3105	   15.0768	         0	9.43692e+06	   80.1024	   14.8803	         0	1.53527e+07	
         R10	   3759	   80.2919	   14.8536	         0	1.73067e+07	   80.3291	      15.3	         0	1.89879e+07	     80.75	      15.3	         0	5.17022e+06	     80.75	   14.9353	         0	3.35492e+06	   80.3105	   15.0768	         0	1.51583e+07	   80.5396	      15.3	         0	1.19128e+07	     80.75	   15.1177	         0	4.09145e+06	   80.5209	   14.8945	         0	8.89765e+06	
         R10	   3760	   80.2919	   14.8536	         0	 1.5747e+07	     80.75	   14.9353	         0	 5.5425e+06	     80.75	     14.45	         0	1.07801e+07	   80.1433	     14.45	         0	9.05349e+06	   80.5209	   14.8945	         0	9.12766e+06	     80.75	   14.6927	         0	8.09699e+06	   80.4467	     14.45	         0	8.91141e+06	   80.2176	   14.6518	         0	 1.0858e+07	
         R10	   3761	   79.9129	   14.9069	         0	7.69526e+06	   80.2919	   14.8536	         0	1.56601e+07	   80.1433	     14.45	         0	1.10085e+07	   79.5869	     14.45	         0	 1.1109e+07	   80.1024	   14.8803	         0	1.14039e+07	   80.2176	   14.6518	         0	1.10302e+07	   79.8651	     14.45	         0	1.06137e+07	   79.7499	   14.6784	         0	8.84765e+06	
         R10	   3762	   79.5869	     14.45	         0	1.07614e+07	   79.0808	     14.45	         0	1.32412e+07	   79.0769	    14.872	         0	 1.7645e+07	   79.4829	   14.9087	         0	1.14708e+07	   79.3339	     14.45	         0	1.17539e+07	   79.0789	    14.661	         0	1.13388e+07	   79.2799	   14.8904	         0	1.41154e+07	   79.5349	   14.6794	         0	1.01192e+07	
         R10	   3763	   79.0769	    14.872	         0	7.58878e+06	   78.9125	      15.3	         0	1.48456e+07	   79.2266	      15.3	         0	1.19934e+07	   78.9947	    15.086	         0	8.71996e+06	   79.0695	      15.3	         0	1.32727e+07	   79.1518	    15.086	         0	6.79486e+06	       N/A	       N/A	       N/A	        N/A	       N/A	       N/A	       N/A	        N/A	
         R10	   3764	   79.9129	   14.9069	         0	1.24945e+07	   79.5869	     14.45	         0	9.61065e+06	   79.4829	   14.9087	         0	9.95861e+06	   79.7499	   14.6784	         0	1.01794e+07	   79.5349	   14.6794	         0	8.69818e+06	   79.6979	   14.9078	         0	1.11749e+07	       N/A	       N/A	       N/A	        N/A	       N/A	       N/A	       N/A	        N/A	
         R10	   3765	   78.9125	      15.3	         0	1.24031e+07	    78.625	      15.3	         0	1.60426e+07	    78.625	    15.662	         0	1.18488e+07	   79.0479	   15.6893	         0	1.01839e+07	   78.7687	      15.3	         0	1.40656e+07	    78.625	    15.481	         0	1.06463e+07	   78.8365	   15.6757	         0	 1.0901e+07	   78.9802	   15.4947	         0	9.33256e+06	
         R10	   3766	   79.0479	   15.6893	         0	1.72183e+07	    78.625	    15.662	         0	1.62346e+07	    78.625	      16.1	         0	1.32968e+07	   78.9896	      16.1	         0	1.38592e+07	   78.8365	   15.6757	         0	1.65628e+07	    78.625	    15.881	         0	1.09318e+07	   78.8073	      16.1	         0	1.35618e+07	   79.0188	   15.8947	         0	1.07259e+07	
         R10	   3767	   79.4741	   15.7067	         0	1.59014e+07	   79.0479	   15.6893	         0	1.71195e+07	   78.9896	      16.1	         0	1.37729e+07	   79.3845	      16.1	         0	 1.3909e+07	    79.261	    15.698	         0	 1.6367e+07	   79.0188	   15.8947	         0	1.06527e+07	   79.1871	      16.1	         0	1.38248e+07	   79.4293	   15.9034	         0	 1.0722e+07	
         R10	   3768	   79.4741	   15.7067	         0	1.47453e+07	   79.3845	      16.1	         0	1.41603e+07	   79.8095	      16.1	         0	 1.5025e+07	   79.8829	   15.7071	         0	1.70972e+07	   79.4293	   15.9034	         0	1.05194e+07	    79.597	      16.1	         0	 1.4531e+07	   79.8462	   15.9036	         0	1.09722e+07	   79.6785	   15.7069	         0	1.59031e+07	
         R10	   3769	   79.8829	   15.7071	         0	1.46958e+07	   79.8095	      16.1	         0	 1.5463e+07	   80.2646	      16.1	         0	 1.3516e+07	   80.3121	   15.7072	         0	1.41101e+07	   79.8462	   15.9036	         0	9.79958e+06	   80.0371	      16.1	         0	1.44856e+07	   80.2884	   15.9036	         0	1.02866e+07	   80.0975	   15.7071	         0	1.42382e+07	
         R10	   3770	   80.3121	   15.7072	         0	1.80989e+07	   80.2646	      16.1	         0	1.30168e+07	     80.75	      16.1	         0	5.97223e+06	     80.75	    15.681	         0	2.82567e+06	   80.2884	   15.9036	         0	1.22674e+07	   80.5073	      16.1	         0	9.19933e+06	     80.75	   15.8905	         0	3.88352e+06	   80.5311	   15.6941	         0	8.85405e+06	
         R10	   3771	   80.3121	   15.7072	         0	1.99454e+07	     80.75	    15.681	         0	4.90473e+06	     80.75	      15.3	         0	6.81863e+06	   80.3291	      15.3	         0	2.21721e+07	   80.5311	   15.6941	         0	1.01115e+07	     80.75	   15.4905	         0	5.59625e+06	   80.5396	      15.3	         0	1.42919e+07	   80.3206	   15.5036	         0	1.72881e+07	
         R10	   3772	   79.8829	   15.7071	         0	1.38568e+07	   80.3121	   15.7072	         0	1.54668e+07	   80.3291	      15.3	         0	1.53759e+07	   79.9349	      15.3	         0	1.84208e+07	   80.0975	   15.7071	         0	1.46223e+07	   80.3206	   15.5036	         0	8.98226e+06	    80.132	      15.3	         0	1.63704e+07	   79.9089	   15.5036	         0	1.14925e+07	
         R10	   3773	   79.4741	   15.7067	         0	1.44808e+07	   79.8829	   15.7071	         0	1.61559e+07	   79.9349	      15.3	         0	1.41044e+07	   79.5674	      15.3	         0	1.68762e+07	   79.6785	   15.7069	         0	1.52913e+07	   79.9089	   15.5036	         0	  9.348e+06	   79.7512	      15.3	         0	1.52845e+07	   79.5208	   15.5034	         0	1.07062e+07	
         R10	   3774	   79.0479	   15.6893	         0	1.02587e+07	   79.4741	   15.7067	         0	1.54507e+07	   79.5674	      15.3	         0	1.55063e+07	   79.2266	      15.3	         0	1.26117e+07	    79.261	    15.698	         0	1.23628e+07	   79.5208	   15.5034	         0	 9.6135e+06	    79.397	      15.3	         0	 1.3971e+07	   79.1373	   15.4947	         0	9.71969e+06	
         R10	   3775	   78.9125	      15.3	         0	1.55702e+07	   79.0479	   15.6893	         0	6.10276e+06	   79.2266	      15.3	         0	1.21677e+07	   78.9802	   15.4947	         0	9.39184e+06	   79.1373	   15.4947	         0	7.29482e+06	   79.0695	      15.3	         0	1.36918e+07	       N/A	       N/A	       N/A	        N/A	       N/A	       N/A	       N/A	        N/A	
         R10	   3776	   78.9896	      16.1	         0	1.40795e+07	    78.625	      16.1	         0	1.41972e+07	    78.625	    16.462	         0	1.32167e+07	   79.0346	   16.5155	         0	1.83422e+07	   78.8073	      16.1	         0	1.41354e+07	    78.625	    16.281	         0	 1.0272e+07	   78.8298	   16.4887	         0	1.57767e+07	   79.0121	   16.3077	         0	1.21993e+07	
         R10	   3777	   79.0346	   16.5155	         0	1.58996e+07	    78.625	    16.462	         0	1.72949e+07	    78.625	      16.9	         0	1.59069e+07	   79.1058	      16.9	         0	1.40609e+07	   78.8298	   16.4887	         0	1.62937e+07	    78.625	    16.681	         0	1.07771e+07	   78.8654	      16.9	         0	1.49644e+07	   79.0702	   16.7077	         0	1.21453e+07	
         R10	   3778	   80.1683	      16.9	         0	7.58085e+06	     80.75	      16.9	         0	5.08204e+06	     80.75	    16.481	         0	3.49271e+06	   80.3745	   16.4631	         0	1.65714e+07	   80.4591	      16.9	         0	 6.2994e+06	     80.75	   16.6905	         0	4.04492e+06	   80.5622	    16.472	         0	8.93925e+06	   80.2714	   16.6815	         0	1.18467e+07	
         R10	   3779	   80.3745	   16.4631	         0	1.64149e+07	     80.75	    16.481	         0	2.17407e+06	     80.75	      16.1	         0	5.94725e+06	   80.2646	      16.1	         0	8.27491e+06	   80.5622	    16.472	         0	8.86479e+06	     80.75	   16.2905	         0	3.94072e+06	   80.5073	      16.1	         0	7.11082e+06	   80.3195	   16.2815	         0	 1.2074e+07	
         R10	   3780	   79.3661	   16.4659	         0	 1.4247e+07	   79.3845	      16.1	         0	1.15609e+07	   78.9896	      16.1	         0	  1.431e+07	   79.0346	   16.5155	         0	 1.6311e+07	   79.3753	   16.2829	         0	1.18472e+07	   79.1871	      16.1	         0	1.27351e+07	   79.0121	   16.3077	         0	1.08654e+07	   79.2004	   16.4907	         0	1.49416e+07	
         R10	   3781	   79.3661	   16.4659	         0	1.25099e+07	   79.0346	   16.5155	         0	1.39043e+07	   79.1058	      16.9	         0	 1.3773e+07	   79.6202	      16.9	         0	1.03221e+07	   79.2004	   16.4907	         0	1.28608e+07	   79.0702	   16.7077	         0	1.07423e+07	    79.363	      16.9	         0	1.15748e+07	   79.4931	   16.6829	         0	1.12496e+07	
         R10	   3782	   79.8095	      16.1	         0	9.82989e+06	   79.3845	      16.1	         0	1.09556e+07	   79.3661	   16.4659	         0	9.67529e+06	   79.6202	      16.9	         0	8.41083e+06	    79.597	      16.1	         0	   1.01e+07	   79.3753	   16.2829	         0	9.43459e+06	   79.4931	   16.6829	         0	8.63095e+06	   79.7148	      16.5	         0	9.07436e+06	
         R10	   3783	   80.1683	      16.9	         0	9.84719e+06	   80.3745	   16.4631	         0	2.66524e+06	   80.2646	      16.1	         0	 9.9299e+06	   79.8095	      16.1	         0	1.03732e+07	   80.2714	   16.6815	         0	6.01612e+06	   80.3195	   16.2815	         0	6.17554e+06	   80.0371	      16.1	         0	1.01235e+07	   79.9889	      16.5	         0	9.83159e+06	
         R10	   3784	   79.6202	      16.9	         0	1.06781e+07	   80.1683	      16.9	         0	8.86974e+06	   79.8095	      16.1	         0	8.30853e+06	   79.8942	      16.9	         0	 9.7558e+06	   79.9889	      16.5	         0	8.47743e+06	   79.7148	      16.5	         0	9.44622e+06	       N/A	       N/A	       N/A	        N/A	       N/A	       N/A	       N/A	        N/A	
         R10	   3785	      76.5	   17.6508	         2	1.17142e+07	      76.5	    17.451	         2	1.38344e+07	      76.5	    17.415	   2.19311	 1.7867e+07	      76.5	   17.6349	   2.20314	1.37312e+07	      76.5	   17.5509	         2	1.23092e+07	      76.5	    17.433	   2.09655	1.57151e+07	      76.5	   17.5249	   2.19813	1.56221e+07	      76.5	   17.6428	   2.10157	1.25254e+07	
         R10	   3786	      76.5	   17.8674	    2.2369	4.25445e+06	      76.5	   18.1279	    2.0616	1.32463e+07	      76.5	   18.1431	         2	1.07195e+07	      76.5	   17.8815	         2	1.01088e+07	      76.5	    17.989	   2.13635	6.81118e+06	      76.5	   18.1355	    2.0308	1.18646e+07	      76.5	   18.0123	         2	9.56748e+06	      76.5	   17.8745	   2.11845	6.76157e+06	
         R10	   3787	      76.5	   17.6349	   2.20314	1.48782e+07	      76.5	   17.8674	    2.2369	6.44282e+06	      76.5	   17.8815	         2	1.03648e+07	      76.5	   17.6508	         2	1.23445e+07	      76.5	   17.7512	   2.22002	9.37278e+06	      76.5	   17.8745	   2.11845	7.69906e+06	      76.5	   17.7662	         2	1.12274e+07	      76.5	   17.6428	   2.10157	1.34307e+07	
         R10	   3788	      76.5	   17.5664	   2.36682	1.81043e+07	      76.5	   17.3778	   2.39265	1.78886e+07	      76.5	   17.3394	   2.59863	 1.9297e+07	      76.5	   17.6945	   2.49892	2.14726e+07	      76.5	   17.4721	   2.37974	1.78507e+07	      76.5	   17.3586	   2.49564	1.85009e+07	      76.5	    17.517	   2.54878	1.85029e+07	      76.5	   17.6305	   2.43287	1.91795e+07	
         R10	   3789	      76.5	   17.5664	   2.36682	 1.5953e+07	      76.5	   17.6945	   2.49892	2.20042e+07	      76.5	   17.8674	    2.2369	 6.5089e+06	      76.5	   17.6349	   2.20314	1.44135e+07	      76.5	   17.6305	   2.43287	1.83704e+07	      76.5	    17.768	   2.35935	1.34536e+07	      76.5	   17.7512	   2.22002	 9.1267e+06	      76.5	   17.6007	   2.28498	1.51517e+07	
         R10	   3790	      76.5	   17.5664	   2.36682	1.84684e+07	      76.5	   17.6349	   2.20314	1.42543e+07	      76.5	    17.415	   2.19311	1.59743e+07	      76.5	   17.3778	   2.39265	1.68401e+07	      76.5	   17.6007	   2.28498	1.62292e+07	      76.5	   17.5249	   2.19813	1.48624e+07	      76.5	   17.3964	   2.29288	1.62694e+07	      76.5	   17.4721	   2.37974	1.75801e+07	
         R10	   3791	      76.5	   17.2999	   2.81105	1.64266e+07	      76.5	   17.6357	   2.80731	3.54273e+07	      76.5	   17.6945	   2.49892	2.50257e+07	      76.5	   17.3394	   2.59863	1.85964e+07	      76.5	   17.4678	   2.80918	2.51437e+07	      76.5	   17.6498	    2.6502	2.95417e+07	      76.5	    17.517	   2.54878	1.99792e+07	      76.5	   17.3196	   2.70484	 1.6988e+07	
         R10	   3792	      76.5	   17.6578	   3.15932	2.66295e+07	      76.5	   17.7001	   3.11456	4.12164e+07	      76.5	   17.6357	   2.80731	3.77724e+07	      76.5	   17.4652	   2.97188	 2.2734e+07	      76.5	    17.679	   3.13694	3.36895e+07	      76.5	   17.6527	   2.96412	 3.8094e+07	      76.5	   17.5504	   2.88959	2.99031e+07	      76.5	   17.5615	    3.0656	2.45697e+07	
         R10	   3793	      76.5	   17.6578	   3.15932	3.32661e+07	      76.5	   17.8778	   3.37338	4.33225e+07	      76.5	   17.7001	   3.11456	 3.7344e+07	      76.5	   17.7678	   3.26635	3.01183e+07	      76.5	   17.7761	   3.25277	3.61617e+07	      76.5	    17.679	   3.13694	3.44106e+07	       N/A	       N/A	       N/A	        N/A	       N/A	       N/A	       N/A	        N/A	
         R10	   3794	      76.5	   18.4357	         2	1.74645e+07	      76.5	   18.1431	         2	1.18717e+07	      76.5	   18.1279	    2.0616	1.27676e+07	      76.5	   18.2894	         2	1.45106e+07	      76.5	   18.1355	    2.0308	1.21955e+07	      76.5	   18.2787	   2.01555	1.50195e+07	       N/A	       N/A	       N/A	        N/A	       N/A	       N/A	       N/A	        N/A	
         R10	   3795	      76.5	   17.2999	   2.81105	1.44907e+07	      76.5	   17.4652	   2.97188	2.10614e+07	      76.5	   17.6357	   2.80731	3.47135e+07	      76.5	   17.3825	   2.89147	 1.7599e+07	      76.5	   17.5504	   2.88959	 2.7576e+07	      76.5	   17.4678	   2.80918	2.38446e+07	       N/A	       N/A	       N/A	        N/A	       N/A	       N/A	       N/A	        N/A	
         R10	   3796	   79.7576	   20.2712	  0.135735	9.10046e+06	   79.2012	   20.2467	  0.125959	8.81782e+06	   79.1563	   20.7284	  0.396646	8.69841e+06	   79.6875	   20.7284	  0.396646	8.86267e+06	   79.4794	    20.259	  0.130807	8.94954e+06	   79.1787	    20.497	  0.244587	8.70857e+06	   79.4219	   20.7284	  0.396646	8.75546e+06	   79.7226	   20.5084	   0.25108	8.97265e+06	
         R10	   3797	   80.2601	   20.2722	  0.136157	9.02646e+06	   79.7576	   20.2712	  0.135735	8.66324e+06	   79.6875	   20.7284	  0.396646	8.25441e+06	   80.2188	   20.7284	  0.396646	8.95587e+06	   80.0089	   20.2717	  0.135946	8.81022e+06	   79.7226	   20.5084	   0.25108	8.41597e+06	   79.9531	   20.7284	  0.396646	8.55214e+06	   80.2394	   20.5089	  0.251358	8.94504e+06	
         R10	   3798	     80.75	   20.2104	   0.11214	4.29789e+06	   80.2601	   20.2722	  0.136157	 9.4173e+06	   80.2188	   20.7284	  0.396646	1.00116e+07	     80.75	   20.7284	  0.396646	7.36291e+06	    80.505	   20.2414	  0.123892	6.84047e+06	   80.2394	   20.5089	  0.251358	9.71306e+06	   80.4844	   20.7284	  0.396646	8.53093e+06	     80.75	     20.48	  0.235152	5.66067e+06	
         R10	   3799	    80.325	   19.7344	         0	 1.0798e+07	   80.2601	   20.2722	  0.136157	9.50693e+06	     80.75	   20.2104	   0.11214	4.72037e+06	     80.75	   19.7344	         0	4.66864e+06	   80.2925	   20.0081	 0.0493405	1.00498e+07	    80.505	   20.2414	  0.123892	 7.1016e+06	     80.75	   19.9759	  0.041468	4.61566e+06	   80.5375	   19.7344	         0	7.67153e+06	
         R10	   3800	      79.9	   19.7344	         0	9.11798e+06	   79.7576	   20.2712	  0.135735	8.15922e+06	   80.2601	   20.2722	  0.136157	8.89442e+06	    80.325	   19.7344	         0	9.38202e+06	   79.8288	   20.0075	 0.0492034	8.44296e+06	   80.0089	   20.2717	  0.135946	8.52003e+06	   80.2925	   20.0081	 0.0493405	9.12576e+06	   80.1125	   19.7344	         0	9.07284e+06	
         R10	   3801	    79.475	   19.7344	         0	9.83962e+06	   79.2012	   20.2467	  0.125959	9.01002e+06	   79.7576	   20.2712	  0.135735	 8.8916e+06	      79.9	   19.7344	         0	9.38943e+06	   79.3381	   19.9947	 0.0460147	9.34933e+06	   79.4794	    20.259	  0.130807	8.92332e+06	   79.8288	   20.0075	 0.0492034	 9.0581e+06	   79.6875	   19.7344	         0	9.53315e+06	
         R10	   3802	    78.625	   20.2104	   0.11214	9.11449e+06	   79.2012	   20.2467	  0.125959	9.07774e+06	     79.05	   19.7344	         0	9.66671e+06	    78.625	   19.7344	         0	1.03393e+07	   78.9131	   20.2286	  0.118962	 9.0829e+06	   79.1256	   19.9947	 0.0460147	9.36274e+06	   78.8375	   19.7344	         0	 9.9637e+06	    78.625	   19.9759	  0.041468	9.62769e+06	
         R10	   3803	    78.625	   20.7284	  0.396646	8.85111e+06	   79.1563	   20.7284	  0.396646	 8.9065e+06	   79.2012	   20.2467	  0.125959	8.85899e+06	    78.625	   20.2104	   0.11214	9.23429e+06	   78.8906	   20.7284	  0.396646	8.86597e+06	   79.1787	    20.497	  0.244587	8.85506e+06	   78.9131	   20.2286	  0.118962	9.04004e+06	    78.625	     20.48	  0.235152	9.01598e+06	
         R10	   3804	     79.05	   19.7344	         0	1.10091e+07	   79.2012	   20.2467	  0.125959	8.45447e+06	    79.475	   19.7344	         0	9.22739e+06	   79.1256	   19.9947	 0.0460147	9.58737e+06	   79.3381	   19.9947	 0.0460147	8.72734e+06	   79.2625	   19.7344	         0	1.00655e+07	       N/A	       N/A	       N/A	        N/A	       N/A	       N/A	       N/A	        N/A	
         R10	   3805	   80.0094	      21.5	         6	5.46554e+06	     80.75	      21.5	         6	 5.3632e+06	     80.75	      21.5	      5.25	5.12549e+06	   80.0323	      21.5	      5.25	4.03556e+06	   80.3797	      21.5	         6	4.83088e+06	     80.75	      21.5	     5.625	5.16339e+06	   80.3911	      21.5	      5.25	2.99765e+06	   80.0209	      21.5	     5.625	2.41157e+06	
         R10	   3806	   79.3011	      21.5	         6	4.75875e+06	   80.0094	      21.5	         6	5.87637e+06	   80.0323	      21.5	      5.25	3.62265e+06	    79.324	      21.5	      5.25	4.16557e+06	   79.6553	      21.5	         6	4.95711e+06	   80.0209	      21.5	     5.625	2.95686e+06	   79.6781	      21.5	      5.25	3.87419e+06	   79.3125	      21.5	     5.625	1.24647e+06	
         R10	   3807	    78.625	      21.5	         6	3.74265e+06	   79.3011	      21.5	         6	5.28861e+06	    79.324	      21.5	      5.25	4.13987e+06	    78.625	      21.5	      5.25	3.57774e+06	   78.9631	      21.5	         6	4.16308e+06	   79.3125	      21.5	     5.625	1.87566e+06	   78.9745	      21.5	      5.25	 3.8338e+06	    78.625	      21.5	     5.625	     873631	
         R10	   3808	      76.5	   14.6362	       0.8	1.85165e+07	      76.5	     14.45	       0.8	1.77093e+07	      76.5	     14.45	  0.970451	1.78069e+07	      76.5	   14.6305	  0.958123	 1.8487e+07	      76.5	   14.5431	       0.8	1.81081e+07	      76.5	     14.45	  0.885226	1.77569e+07	      76.5	   14.5403	  0.964287	1.81461e+07	      76.5	   14.6333	  0.879061	1.85017e+07	
         R10	   3809	      76.5	   14.6305	  0.958123	1.84605e+07	      76.5	     14.45	  0.970451	1.77832e+07	      76.5	     14.45	   1.12606	1.78698e+07	      76.5	   14.6213	   1.10565	1.84458e+07	      76.5	   14.5403	  0.964287	1.81207e+07	      76.5	     14.45	   1.04825	1.78262e+07	      76.5	   14.5356	   1.11585	1.81571e+07	      76.5	   14.6259	   1.03189	1.84531e+07	
         R10	   3810	      76.5	   14.6213	   1.10565	 1.8435e+07	      76.5	     14.45	   1.12606	1.78658e+07	      76.5	     14.45	   1.26681	1.78447e+07	      76.5	    14.596	   1.24398	1.84071e+07	      76.5	   14.5356	   1.11585	1.81498e+07	      76.5	     14.45	   1.19643	1.78551e+07	      76.5	    14.523	   1.25539	1.81255e+07	      76.5	   14.6087	   1.17481	 1.8421e+07	
         R10	   3811	      76.5	    14.596	   1.24398	1.84055e+07	      76.5	     14.45	   1.26681	1.78415e+07	      76.5	     14.45	   1.39272	1.77848e+07	      76.5	   14.5731	   1.37461	1.83369e+07	      76.5	    14.523	   1.25539	1.81231e+07	      76.5	     14.45	   1.32977	1.78131e+07	      76.5	   14.5115	   1.38366	1.80605e+07	      76.5	   14.5846	   1.30929	1.83712e+07	
         R10	   3812	      76.5	   14.5731	   1.37461	1.83302e+07	      76.5	     14.45	   1.39272	1.77877e+07	      76.5	     14.45	   1.50378	1.76936e+07	      76.5	   14.5604	      1.49	1.82603e+07	      76.5	   14.5115	   1.38366	1.80586e+07	      76.5	     14.45	   1.44825	1.77406e+07	      76.5	   14.5052	   1.49689	1.79767e+07	      76.5	   14.5668	    1.4323	1.82952e+07	
         R10	   3813	      76.5	   14.5604	      1.49	1.82573e+07	      76.5	     14.45	   1.50378	1.76912e+07	      76.5	     14.45	       1.6	1.76076e+07	      76.5	   14.5579	       1.6	1.81573e+07	      76.5	   14.5052	   1.49689	 1.7974e+07	      76.5	     14.45	   1.55189	1.76493e+07	      76.5	   14.5039	       1.6	1.78822e+07	      76.5	   14.5591	     1.545	1.82073e+07	
         R10	   3814	      76.5	   14.6527	   1.50338	1.83053e+07	      76.5	   14.5604	      1.49	  1.795e+07	      76.5	   14.5579	       1.6	1.78549e+07	      76.5	   14.6624	       1.6	 1.8231e+07	      76.5	   14.6066	   1.49669	1.81275e+07	      76.5	   14.5591	     1.545	1.79024e+07	      76.5	   14.6101	       1.6	1.80428e+07	      76.5	   14.6575	   1.55169	1.82681e+07	
         R10	   3815	      76.5	   14.6527	   1.50338	 1.8125e+07	      76.5	   14.6624	       1.6	1.80401e+07	      76.5	   14.7635	       1.6	1.82846e+07	      76.5	   14.7639	   1.50448	1.83422e+07	      76.5	   14.6575	   1.55169	1.80825e+07	      76.5	   14.7129	       1.6	1.81622e+07	      76.5	   14.7637	   1.55224	1.83134e+07	      76.5	   14.7083	   1.50393	1.82335e+07	
         R10	   3816	      76.5	   14.7639	   1.50448	1.82549e+07	      76.5	   14.7635	       1.6	1.81816e+07	      76.5	   14.8613	       1.6	1.83202e+07	      76.5	   14.8483	   1.49128	1.83434e+07	      76.5	   14.7637	   1.55224	1.82182e+07	      76.5	   14.8124	       1.6	1.82509e+07	      76.5	   14.8548	   1.54564	1.83318e+07	      76.5	   14.8061	   1.49788	1.82991e+07	
         R10	   3817	      76.5	   14.8483	   1.49128	1.83333e+07	      76.5	   14.8613	       1.6	1.82437e+07	      76.5	   14.9557	       1.6	1.83197e+07	      76.5	   14.9485	   1.49216	1.83323e+07	      76.5	   14.8548	   1.54564	1.82885e+07	      76.5	   14.9085	       1.6	1.82817e+07	      76.5	   14.9521	   1.54608	 1.8326e+07	      76.5	   14.8984	   1.49172	1.83328e+07	
         R10	   3818	      76.5	   14.9485	   1.49216	1.83245e+07	      76.5	   14.9557	       1.6	1.82746e+07	      76.5	   15.0468	       1.6	 1.8252e+07	      76.5	   15.0386	   1.49537	1.82888e+07	      76.5	   14.9521	   1.54608	1.82995e+07	      76.5	   15.0013	       1.6	1.82633e+07	      76.5	   15.0427	   1.54769	1.82704e+07	      76.5	   14.9936	   1.49377	1.83066e+07	
         R10	   3819	      76.5	   15.0386	   1.49537	1.82844e+07	      76.5	   15.0468	       1.6	 1.8214e+07	      76.5	   15.1346	       1.6	1.81439e+07	      76.5	    15.128	   1.50259	1.81941e+07	      76.5	   15.0427	   1.54769	1.82491e+07	      76.5	   15.0907	       1.6	1.81788e+07	      76.5	   15.1313	   1.55129	1.81688e+07	      76.5	   15.0833	   1.49898	1.82392e+07	
         R10	   3820	      76.5	    15.128	   1.50259	1.82062e+07	      76.5	   15.1346	       1.6	1.81276e+07	      76.5	    15.219	       1.6	1.79115e+07	      76.5	   15.2137	   1.50938	1.81842e+07	      76.5	   15.1313	   1.55129	1.81666e+07	      76.5	   15.1768	       1.6	 1.8019e+07	      76.5	   15.2163	   1.55469	 1.8047e+07	      76.5	   15.1709	   1.50598	1.81946e+07	
         R10	   3821	      76.5	   15.2137	   1.50938	1.82211e+07	      76.5	    15.219	       1.6	1.76417e+07	      76.5	      15.3	       1.6	1.81461e+07	      76.5	      15.3	   1.52248	 1.8541e+07	      76.5	   15.2163	   1.55469	1.79304e+07	      76.5	   15.2595	       1.6	1.78857e+07	      76.5	      15.3	   1.56124	1.83308e+07	      76.5	   15.2569	   1.51593	1.83798e+07	
         R10	   3822	      76.5	   15.2148	   1.41622	1.79824e+07	      76.5	   15.2137	   1.50938	1.83394e+07	      76.5	      15.3	   1.52248	1.76531e+07	      76.5	      15.3	   1.43271	1.78565e+07	      76.5	   15.2143	    1.4628	1.81609e+07	      76.5	   15.2569	   1.51593	1.79953e+07	      76.5	      15.3	    1.4776	 1.7754e+07	      76.5	   15.2574	   1.42447	1.79195e+07	
         R10	   3823	      76.5	   15.2148	   1.41622	1.79951e+07	      76.5	      15.3	   1.43271	1.77532e+07	      76.5	      15.3	   1.33068	1.76716e+07	      76.5	   15.2038	      1.31	1.79438e+07	      76.5	   15.2574	   1.42447	1.78741e+07	      76.5	      15.3	    1.3817	1.77121e+07	      76.5	   15.2519	   1.32034	1.78077e+07	      76.5	   15.2093	   1.36311	1.79691e+07	
         R10	   3824	      76.5	   15.2038	      1.31	1.79161e+07	      76.5	      15.3	   1.33068	1.76903e+07	      76.5	      15.3	    1.2164	1.75254e+07	      76.5	   15.1734	   1.19556	1.79709e+07	      76.5	   15.2519	   1.32034	1.78032e+07	      76.5	      15.3	   1.27354	1.76074e+07	      76.5	   15.2367	   1.20598	1.77481e+07	      76.5	   15.1886	   1.25278	1.79432e+07	
         R10	   3825	      76.5	   15.1734	   1.19556	1.78935e+07	      76.5	      15.3	    1.2164	1.76691e+07	      76.5	      15.3	   1.08986	1.73728e+07	      76.5	   15.1518	   1.07681	1.79534e+07	      76.5	   15.2367	   1.20598	1.77813e+07	      76.5	      15.3	   1.15313	1.75204e+07	      76.5	   15.2259	   1.08333	1.76631e+07	      76.5	   15.1626	   1.13618	1.79231e+07	
         R10	   3826	      76.5	   15.1518	   1.07681	1.78254e+07	      76.5	      15.3	   1.08986	1.77232e+07	      76.5	      15.3	  0.951056	1.70654e+07	      76.5	   15.1432	  0.941626	1.80155e+07	      76.5	   15.2259	   1.08333	1.77743e+07	      76.5	      15.3	   1.02046	1.73932e+07	      76.5	   15.2216	  0.946341	1.75401e+07	      76.5	   15.1475	   1.00922	  1.792e+07	
         R10	   3827	      76.5	   15.1432	  0.941626	1.78148e+07	      76.5	      15.3	  0.951056	1.78861e+07	      76.5	      15.3	       0.8	1.70474e+07	      76.5	   15.1462	       0.8	1.76417e+07	      76.5	   15.2216	  0.946341	1.78503e+07	      76.5	      15.3	  0.875528	1.74654e+07	      76.5	   15.2231	       0.8	1.73439e+07	      76.5	   15.1447	  0.870813	1.77282e+07	
         R10	   3828	      76.5	   14.9759	    0.9491	1.82531e+07	      76.5	   15.1432	  0.941626	1.78696e+07	      76.5	   15.1462	       0.8	 1.7892e+07	      76.5	   14.9842	       0.8	1.81598e+07	      76.5	   15.0595	  0.945363	1.80605e+07	      76.5	   15.1447	  0.870813	1.78806e+07	      76.5	   15.0652	       0.8	1.80255e+07	      76.5	     14.98	   0.87455	1.82058e+07	
         R10	   3829	      76.5	   14.9759	    0.9491	1.83496e+07	      76.5	   14.9842	       0.8	 1.8415e+07	      76.5	   14.8142	       0.8	1.82692e+07	      76.5	   14.8078	  0.957289	1.84316e+07	      76.5	     14.98	   0.87455	1.83817e+07	      76.5	   14.8992	       0.8	 1.8339e+07	      76.5	    14.811	  0.878644	1.83503e+07	      76.5	   14.8919	  0.953194	1.83901e+07	
         R10	   3830	      76.5	   14.8078	  0.957289	1.85624e+07	      76.5	   14.8142	       0.8	1.86931e+07	      76.5	   14.6362	       0.8	 1.8075e+07	      76.5	   14.6305	  0.958123	1.83016e+07	      76.5	    14.811	  0.878644	1.86276e+07	      76.5	   14.7252	       0.8	1.83819e+07	      76.5	   14.6333	  0.879061	1.81883e+07	      76.5	   14.7192	  0.957706	1.84296e+07	
         R10	   3831	      76.5	   14.8152	   1.11757	 1.8534e+07	      76.5	   14.8078	  0.957289	 1.8502e+07	      76.5	   14.6305	  0.958123	1.82675e+07	      76.5	   14.6213	   1.10565	1.82765e+07	      76.5	   14.8115	   1.03743	 1.8518e+07	      76.5	   14.7192	  0.957706	1.83836e+07	      76.5	   14.6259	   1.03189	1.82719e+07	      76.5	   14.7183	   1.11161	1.84041e+07	
         R10	   3832	      76.5	   14.8152	   1.11757	1.85128e+07	      76.5	   14.6213	   1.10565	1.82507e+07	      76.5	    14.596	   1.24398	1.81405e+07	      76.5	   14.7102	   1.26299	1.84741e+07	      76.5	   14.7183	   1.11161	1.83809e+07	      76.5	   14.6087	   1.17481	1.81955e+07	      76.5	   14.6531	   1.25348	1.83072e+07	      76.5	   14.7627	   1.19028	 1.8493e+07	
         R10	   3833	      76.5	   14.7102	   1.26299	1.84822e+07	      76.5	    14.596	   1.24398	 1.8124e+07	      76.5	   14.5731	   1.37461	1.80901e+07	      76.5	   14.7073	   1.38846	1.84046e+07	      76.5	   14.6531	   1.25348	1.83029e+07	      76.5	   14.5846	   1.30929	 1.8107e+07	      76.5	   14.6402	   1.38153	1.82471e+07	      76.5	   14.7087	   1.32572	1.84434e+07	
         R10	   3834	      76.5	   14.7073	   1.38846	1.83825e+07	      76.5	   14.5731	   1.37461	1.80832e+07	      76.5	   14.5604	      1.49	1.79492e+07	      76.5	   14.6527	   1.50338	1.83009e+07	      76.5	   14.6402	   1.38153	1.82327e+07	      76.5	   14.5668	    1.4323	1.80161e+07	      76.5	   14.6066	   1.49669	1.81249e+07	      76.5	     14.68	   1.44592	1.83416e+07	
         R10	   3835	      76.5	   14.8316	   1.38653	1.83559e+07	      76.5	   14.8483	   1.49128	1.83383e+07	      76.5	   14.9485	   1.49216	1.83408e+07	      76.5	   14.9474	   1.37609	1.83701e+07	      76.5	   14.8399	   1.43891	1.83471e+07	      76.5	   14.8984	   1.49172	1.83395e+07	      76.5	    14.948	   1.43413	1.83555e+07	      76.5	   14.8895	   1.38131	 1.8363e+07	
         R10	   3836	      76.5	   14.9474	   1.37609	1.83291e+07	      76.5	   14.9485	   1.49216	1.83316e+07	      76.5	   15.0386	   1.49537	1.82799e+07	      76.5	   15.0347	    1.3776	1.83183e+07	      76.5	    14.948	   1.43413	1.83303e+07	      76.5	   14.9936	   1.49377	1.83057e+07	      76.5	   15.0367	   1.43649	1.82991e+07	      76.5	   14.9911	   1.37684	1.83237e+07	
         R10	   3837	      76.5	   15.0347	    1.3776	1.82756e+07	      76.5	   15.0386	   1.49537	 1.8284e+07	      76.5	    15.128	   1.50259	1.82197e+07	      76.5	   15.1242	   1.40045	1.81914e+07	      76.5	   15.0367	   1.43649	1.82798e+07	      76.5	   15.0833	   1.49898	1.82518e+07	      76.5	   15.1261	   1.45152	1.82055e+07	      76.5	   15.0795	   1.38902	1.82335e+07	
         R10	   3838	      76.5	   15.1242	   1.40045	1.81764e+07	      76.5	    15.128	   1.50259	1.82024e+07	      76.5	   15.2137	   1.50938	1.81563e+07	      76.5	   15.2148	   1.41622	1.80202e+07	      76.5	   15.1261	   1.45152	1.81894e+07	      76.5	   15.1709	   1.50598	1.81793e+07	      76.5	   15.2143	    1.4628	1.80882e+07	      76.5	   15.1695	   1.40834	1.80982e+07	
         R10	   3839	      76.5	   15.0384	   1.23029	1.82543e+07	      76.5	   15.1734	   1.19556	1.78913e+07	      76.5	   15.1518	   1.07681	1.80322e+07	      76.5	   14.9939	   1.08971	1.82374e+07	      76.5	   15.1059	   1.21293	1.80728e+07	      76.5	   15.1626	   1.13618	1.79613e+07	      76.5	   15.0729	   1.08326	1.81343e+07	      76.5	   15.0162	      1.16	1.82458e+07	
         R10	   3840	      76.5	   14.9939	   1.08971	 1.8256e+07	      76.5	   15.1518	   1.07681	1.78993e+07	      76.5	   15.1432	  0.941626	1.80356e+07	      76.5	   14.9759	    0.9491	 1.8235e+07	      76.5	   15.0729	   1.08326	1.80774e+07	      76.5	   15.1475	   1.00922	1.79671e+07	      76.5	   15.0595	  0.945363	1.81347e+07	      76.5	   14.9849	    1.0194	1.82454e+07	
         R10	   3841	      76.5	   14.9939	   1.08971	1.83462e+07	      76.5	   14.9759	    0.9491	1.83456e+07	      76.5	   14.8078	  0.957289	1.83978e+07	      76.5	   14.8152	   1.11757	1.84065e+07	      76.5	   14.9849	    1.0194	1.83458e+07	      76.5	   14.8919	  0.953194	1.83704e+07	      76.5	   14.8115	   1.03743	1.84021e+07	      76.5	   14.9046	   1.10364	1.83758e+07	
         R10	   3842	      76.5	   14.7073	   1.38846	1.82819e+07	      76.5	   14.7639	   1.50448	1.82692e+07	      76.5	   14.8483	   1.49128	1.83577e+07	      76.5	   14.8316	   1.38653	1.84156e+07	      76.5	   14.7356	   1.44647	1.82755e+07	      76.5	   14.8061	   1.49788	1.83133e+07	      76.5	   14.8399	   1.43891	1.83866e+07	      76.5	   14.7694	    1.3875	1.83487e+07	
         R10	   3843	      76.5	   14.8237	   1.29541	1.83389e+07	      76.5	   14.8316	   1.38653	1.83681e+07	      76.5	   14.9474	   1.37609	1.83888e+07	      76.5	   14.9386	   1.24981	1.83879e+07	      76.5	   14.8277	   1.34097	1.83535e+07	      76.5	   14.8895	   1.38131	1.83784e+07	      76.5	    14.943	   1.31295	1.83883e+07	      76.5	   14.8811	   1.27261	1.83633e+07	
         R10	   3844	      76.5	   14.7102	   1.26299	1.82799e+07	      76.5	   14.7073	   1.38846	1.82849e+07	      76.5	   14.8316	   1.38653	1.83961e+07	      76.5	   14.8237	   1.29541	1.84833e+07	      76.5	   14.7087	   1.32572	1.82823e+07	      76.5	   14.7694	    1.3875	1.83404e+07	      76.5	   14.8277	   1.34097	1.84397e+07	      76.5	   14.7669	    1.2792	1.83813e+07	
         R10	   3845	      76.5	   15.1285	   1.31838	1.81202e+07	      76.5	   15.2038	      1.31	1.79093e+07	      76.5	   15.1734	   1.19556	1.79575e+07	      76.5	   15.0384	   1.23029	1.82502e+07	      76.5	   15.1662	   1.31419	1.80147e+07	      76.5	   15.1886	   1.25278	1.79331e+07	      76.5	   15.1059	   1.21293	1.81038e+07	      76.5	   15.0835	   1.27433	1.81852e+07	
         R10	   3846	      76.5	   15.1285	   1.31838	1.81096e+07	      76.5	   15.0384	   1.23029	1.82461e+07	      76.5	   15.0347	    1.3776	1.82614e+07	      76.5	   15.1242	   1.40045	1.81929e+07	      76.5	   15.0835	   1.27433	1.81778e+07	      76.5	   15.0365	   1.30394	1.82536e+07	      76.5	   15.0795	   1.38902	1.82271e+07	      76.5	   15.1264	   1.35941	1.81512e+07	
         R10	   3847	      76.5	   15.1285	   1.31838	 1.8115e+07	      76.5	   15.1242	   1.40045	1.81691e+07	      76.5	   15.2148	   1.41622	  1.803e+07	      76.5	   15.2038	      1.31	1.79448e+07	      76.5	   15.1264	   1.35941	 1.8142e+07	      76.5	   15.1695	   1.40834	1.80995e+07	      76.5	   15.2093	   1.36311	1.79873e+07	      76.5	   15.1662	   1.31419	1.80299e+07	
         R10	   3848	      76.5	   15.0384	   1.23029	1.82382e+07	      76.5	   14.9386	   1.24981	1.83486e+07	      76.5	   14.9474	   1.37609	1.83365e+07	      76.5	   15.0347	    1.3776	1.83017e+07	      76.5	   14.9885	   1.24005	1.82933e+07	      76.5	    14.943	   1.31295	1.83426e+07	      76.5	   14.9911	   1.37684	1.83191e+07	      76.5	   15.0365	   1.30394	1.82698e+07	
         R10	   3849	      76.5	   14.9386	   1.24981	1.83755e+07	      76.5	   15.0384	   1.23029	1.82494e+07	      76.5	   14.9939	   1.08971	1.83321e+07	      76.5	   14.8152	   1.11757	1.83823e+07	      76.5	   14.9885	   1.24005	1.83124e+07	      76.5	   15.0162	      1.16	1.82906e+07	      76.5	   14.9046	   1.10364	1.83565e+07	      76.5	   14.8769	   1.18369	1.83788e+07	
         R10	   3850	      76.5	   14.7073	   1.38846	1.82698e+07	      76.5	   14.6527	   1.50338	1.81416e+07	      76.5	   14.7639	   1.50448	1.83482e+07	      76.5	     14.68	   1.44592	1.82056e+07	      76.5	   14.7083	   1.50393	1.82448e+07	      76.5	   14.7356	   1.44647	 1.8309e+07	       N/A	       N/A	       N/A	        N/A	       N/A	       N/A	       N/A	        N/A	
         R10	   3851	      76.5	   14.8152	   1.11757	1.83904e+07	      76.5	   14.7102	   1.26299	 1.8321e+07	      76.5	   14.8237	   1.29541	 1.8481e+07	      76.5	   14.7627	   1.19028	1.83555e+07	      76.5	   14.7669	    1.2792	 1.8401e+07	      76.5	   14.8195	   1.20649	1.84355e+07	       N/A	       N/A	       N/A	        N/A	       N/A	       N/A	       N/A	        N/A	
         R10	   3852	      76.5	   14.8152	   1.11757	 1.8457e+07	      76.5	   14.8237	   1.29541	1.83717e+07	      76.5	   14.9386	   1.24981	 1.8377e+07	      76.5	   14.8195	   1.20649	1.84141e+07	      76.5	   14.8811	   1.27261	1.83739e+07	      76.5	   14.8769	   1.18369	1.84169e+07	       N/A	       N/A	       N/A	        N/A	       N/A	       N/A	       N/A	        N/A	
         R10	   3853	   80.2188	      21.5	         3	 7.1189e+06	     80.75	      21.5	         3	 4.7946e+06	     80.75	      21.5	      2.25	6.60606e+06	   80.2188	      21.5	      2.25	7.72357e+06	   80.4844	      21.5	         3	 5.0773e+06	     80.75	      21.5	     2.625	5.51005e+06	   80.4844	      21.5	      2.25	6.58714e+06	   80.2188	      21.5	     2.625	6.38535e+06	
         R10	   3854	   79.6875	      21.5	         3	8.21075e+06	   80.2188	      21.5	         3	6.80675e+06	   80.2188	      21.5	      2.25	7.55896e+06	   79.6875	      21.5	      2.25	7.80799e+06	   79.9531	      21.5	         3	7.49219e+06	   80.2188	      21.5	     2.625	6.11074e+06	   79.9531	      21.5	      2.25	7.66114e+06	   79.6875	      21.5	     2.625	6.23194e+06	
         R10	   3855	   79.1563	      21.5	         3	  8.229e+06	   79.6875	      21.5	         3	8.10395e+06	   79.6875	      21.5	      2.25	7.80987e+06	   79.1563	      21.5	      2.25	7.56795e+06	   79.4219	      21.5	         3	8.16282e+06	   79.6875	      21.5	     2.625	6.18426e+06	   79.4219	      21.5	      2.25	 7.6888e+06	   79.1563	      21.5	     2.625	 6.1061e+06	
         R10	   3856	    78.625	      21.5	         3	7.81349e+06	   79.1563	      21.5	         3	8.18307e+06	   79.1563	      21.5	      2.25	7.60007e+06	    78.625	      21.5	      2.25	7.26427e+06	   78.8906	      21.5	         3	7.99636e+06	   79.1563	      21.5	     2.625	6.10037e+06	   78.8906	      21.5	      2.25	 7.4271e+06	    78.625	      21.5	     2.625	6.04352e+06	
         R10	   3857	   80.2188	      21.5	      3.75	6.86513e+06	     80.75	      21.5	      3.75	 5.0913e+06	     80.75	      21.5	         3	4.61836e+06	   80.2188	      21.5	         3	6.96515e+06	   80.4844	      21.5	      3.75	5.34772e+06	     80.75	      21.5	     3.375	4.84626e+06	   80.4844	      21.5	         3	5.31109e+06	   80.2188	      21.5	     3.375	5.46949e+06	
         R10	   3858	   79.6875	      21.5	      3.75	6.17028e+06	   80.2188	      21.5	      3.75	6.81083e+06	   80.2188	      21.5	         3	6.25545e+06	   79.6875	      21.5	         3	6.19893e+06	   79.9531	      21.5	      3.75	6.44254e+06	   80.2188	      21.5	     3.375	5.04261e+06	   79.9531	      21.5	         3	 6.2076e+06	   79.6875	      21.5	     3.375	5.03256e+06	
         R10	   3859	   79.1563	      21.5	      3.75	5.71716e+06	   79.6875	      21.5	      3.75	6.05682e+06	   79.6875	      21.5	         3	 6.3402e+06	   79.1563	      21.5	         3	6.05849e+06	   79.4219	      21.5	      3.75	5.88004e+06	   79.6875	      21.5	     3.375	5.05285e+06	   79.4219	      21.5	         3	6.18056e+06	   79.1563	      21.5	     3.375	5.13197e+06	
         R10	   3860	    78.625	      21.5	      3.75	5.66799e+06	   79.1563	      21.5	      3.75	5.75425e+06	   79.1563	      21.5	         3	5.95914e+06	    78.625	      21.5	         3	5.79867e+06	   78.8906	      21.5	      3.75	5.71032e+06	   79.1563	      21.5	     3.375	5.10254e+06	   78.8906	      21.5	         3	 5.8736e+06	    78.625	      21.5	     3.375	 5.1446e+06	
         R10	   3861	   80.0417	      21.5	       4.5	6.38461e+06	     80.75	      21.5	       4.5	5.91743e+06	     80.75	      21.5	      3.75	 5.8184e+06	   80.2188	      21.5	      3.75	5.77322e+06	   80.3958	      21.5	       4.5	5.08083e+06	     80.75	      21.5	     4.125	5.74606e+06	   80.4844	      21.5	      3.75	4.79291e+06	   80.1302	      21.5	     4.125	5.18975e+06	
         R10	   3862	   79.3333	      21.5	       4.5	4.85824e+06	   80.0417	      21.5	       4.5	6.28071e+06	   80.2188	      21.5	      3.75	 5.0351e+06	   79.6875	      21.5	      3.75	 4.3134e+06	   79.6875	      21.5	       4.5	5.55865e+06	   80.1302	      21.5	     4.125	4.52938e+06	   79.9531	      21.5	      3.75	4.60449e+06	   79.5104	      21.5	     4.125	4.09805e+06	
         R10	   3863	   79.1563	      21.5	      3.75	4.31816e+06	    78.625	      21.5	      3.75	4.35976e+06	    78.625	      21.5	       4.5	4.38136e+06	   79.3333	      21.5	       4.5	 4.7135e+06	   78.8906	      21.5	      3.75	4.33825e+06	    78.625	      21.5	     4.125	4.14006e+06	   78.9792	      21.5	       4.5	4.54701e+06	   79.2448	      21.5	     4.125	4.23993e+06	
         R10	   3864	   79.1563	      21.5	      3.75	4.32007e+06	   79.3333	      21.5	       4.5	5.11528e+06	   79.6875	      21.5	      3.75	4.25853e+06	   79.2448	      21.5	     4.125	4.40391e+06	   79.5104	      21.5	     4.125	4.25556e+06	   79.4219	      21.5	      3.75	4.27405e+06	       N/A	       N/A	       N/A	        N/A	       N/A	       N/A	       N/A	        N/A	
         R10	   3865	   80.0323	      21.5	      5.25	6.38804e+06	     80.75	      21.5	      5.25	4.94376e+06	     80.75	      21.5	       4.5	5.69626e+06	   80.0417	      21.5	       4.5	4.98405e+06	   80.3911	      21.5	      5.25	4.91774e+06	     80.75	      21.5	     4.875	5.31391e+06	   80.3958	      21.5	       4.5	3.70143e+06	    80.037	      21.5	     4.875	4.39817e+06	
         R10	   3866	    79.324	      21.5	      5.25	5.75587e+06	   80.0323	      21.5	      5.25	5.76742e+06	   80.0417	      21.5	       4.5	4.33734e+06	   79.3333	      21.5	       4.5	 4.1197e+06	   79.6781	      21.5	      5.25	5.75927e+06	    80.037	      21.5	     4.875	3.50053e+06	   79.6875	      21.5	       4.5	4.20994e+06	   79.3286	      21.5	     4.875	3.14133e+06	
         R10	   3867	    78.625	      21.5	      5.25	 4.9049e+06	    79.324	      21.5	      5.25	5.78579e+06	   79.3333	      21.5	       4.5	4.19173e+06	    78.625	      21.5	       4.5	3.71973e+06	   78.9745	      21.5	      5.25	5.33153e+06	   79.3286	      21.5	     4.875	3.17355e+06	   78.9792	      21.5	       4.5	3.93578e+06	    78.625	      21.5	     4.875	2.98101e+06	
         R10	   3868	   80.0326	      21.5	      8.55	 2.8833e+06	     80.75	      21.5	      8.55	 4.5342e+06	     80.75	      21.5	       7.7	 3.8535e+06	   79.9989	      21.5	       7.7	2.23489e+06	   80.3913	      21.5	      8.55	2.31815e+06	     80.75	      21.5	     8.125	4.18262e+06	   80.3745	      21.5	       7.7	     915997	   80.0157	      21.5	     8.125	1.85077e+06	
         R10	   3869	   79.3243	      21.5	      8.55	3.78975e+06	   80.0326	      21.5	      8.55	2.51257e+06	   79.9989	      21.5	       7.7	1.34223e+06	   79.2906	      21.5	       7.7	2.86632e+06	   79.6784	      21.5	      8.55	3.09923e+06	   80.0157	      21.5	     8.125	1.14321e+06	   79.6447	      21.5	       7.7	 1.9407e+06	   79.3074	      21.5	     8.125	     535493	
         R10	   3870	    78.625	      21.5	      8.55	3.92287e+06	   79.3243	      21.5	      8.55	3.78748e+06	   79.2906	      21.5	       7.7	 2.8435e+06	    78.625	      21.5	       7.7	2.66658e+06	   78.9746	      21.5	      8.55	3.85401e+06	   79.3074	      21.5	     8.125	     544711	   78.9578	      21.5	       7.7	2.75481e+06	    78.625	      21.5	     8.125	     699392	
         R10	   3871	   79.6875	      21.5	       9.4	1.84002e+06	     80.75	      21.5	       9.4	4.28124e+06	     80.75	      21.5	      8.55	 4.4751e+06	   80.0326	      21.5	      8.55	2.13518e+06	   80.2188	      21.5	       9.4	1.99168e+06	     80.75	      21.5	     8.975	4.33628e+06	   80.3913	      21.5	      8.55	1.50368e+06	   79.8601	      21.5	     8.975	1.91096e+06	
         R10	   3872	   79.3243	      21.5	      8.55	1.29547e+06	    78.625	      21.5	      8.55	2.32646e+06	    78.625	      21.5	       9.4	3.64094e+06	   79.6875	      21.5	       9.4	2.76428e+06	   78.9746	      21.5	      8.55	 1.8001e+06	    78.625	      21.5	     8.975	1.28191e+06	   79.1563	      21.5	       9.4	2.89941e+06	   79.5059	      21.5	     8.975	1.49013e+06	
         R10	   3873	   79.3243	      21.5	      8.55	     949997	   79.6875	      21.5	       9.4	2.46731e+06	   80.0326	      21.5	      8.55	     762489	   79.5059	      21.5	     8.975	1.22546e+06	   79.8601	      21.5	     8.975	1.59231e+06	   79.6784	      21.5	      8.55	     658244	       N/A	       N/A	       N/A	        N/A	       N/A	       N/A	       N/A	        N/A	
         R10	   3874	   79.6875	      21.5	     10.25	2.49608e+06	     80.75	      21.5	     10.25	2.81289e+06	     80.75	      21.5	       9.4	4.36068e+06	   79.6875	      21.5	       9.4	2.38246e+06	   80.2188	      21.5	     10.25	2.63091e+06	     80.75	      21.5	     9.825	3.39029e+06	   80.2188	      21.5	       9.4	1.79868e+06	   79.6875	      21.5	     9.825	1.96056e+06	
         R10	   3875	    78.625	      21.5	     10.25	 2.7279e+06	   79.6875	      21.5	     10.25	2.53941e+06	   79.6875	      21.5	       9.4	 2.2328e+06	    78.625	      21.5	       9.4	2.12764e+06	   79.1563	      21.5	     10.25	2.44993e+06	   79.6875	      21.5	     9.825	2.32924e+06	   79.1563	      21.5	       9.4	1.74061e+06	    78.625	      21.5	     9.825	1.93811e+06	
         R10	   3876	      76.5	   13.8427	       0.8	 1.5759e+07	      76.5	      13.6	       0.8	1.47323e+07	      76.5	      13.6	   1.04677	1.49804e+07	      76.5	   13.8323	   1.03695	1.58038e+07	      76.5	   13.7213	       0.8	1.52443e+07	      76.5	      13.6	  0.923387	1.48541e+07	      76.5	   13.7161	   1.04186	1.53917e+07	      76.5	   13.8375	  0.918473	1.57786e+07	
         R10	   3877	      76.5	   13.8323	   1.03695	1.58775e+07	      76.5	      13.6	   1.04677	1.49377e+07	      76.5	      13.6	   1.28018	1.50721e+07	      76.5	   13.7811	   1.28003	1.57939e+07	      76.5	   13.7161	   1.04186	1.54072e+07	      76.5	      13.6	   1.16348	1.50028e+07	      76.5	   13.6905	   1.28011	 1.5433e+07	      76.5	   13.8067	   1.15849	1.58344e+07	
         R10	   3878	      76.5	   13.7811	   1.28003	1.58262e+07	      76.5	      13.6	   1.28018	 1.5077e+07	      76.5	      13.6	   1.50023	1.50279e+07	      76.5	   13.7727	   1.49169	1.57441e+07	      76.5	   13.6905	   1.28011	1.54513e+07	      76.5	      13.6	   1.39021	1.50508e+07	      76.5	   13.6863	   1.49596	1.53858e+07	      76.5	   13.7769	   1.38586	1.57838e+07	
         R10	   3879	      76.5	   13.7727	   1.49169	1.57773e+07	      76.5	      13.6	   1.50023	  1.502e+07	      76.5	      13.6	   1.70691	1.49004e+07	      76.5	   13.7649	   1.69543	1.55481e+07	      76.5	   13.6863	   1.49596	1.53985e+07	      76.5	      13.6	   1.60357	1.49584e+07	      76.5	   13.6824	   1.70117	1.52237e+07	      76.5	   13.7688	   1.59356	1.56615e+07	
         R10	   3880	      76.5	   13.7649	   1.69543	1.55723e+07	      76.5	      13.6	   1.70691	1.48891e+07	      76.5	      13.6	   1.90023	1.46308e+07	      76.5	   13.7606	   1.88646	1.52258e+07	      76.5	   13.6824	   1.70117	1.52301e+07	      76.5	      13.6	   1.80357	1.47579e+07	      76.5	   13.6803	   1.89334	1.49267e+07	      76.5	   13.7628	   1.79094	1.53981e+07	
         R10	   3881	      76.5	   13.7606	   1.88646	1.52441e+07	      76.5	      13.6	   1.90023	1.46278e+07	      76.5	      13.6	   2.08018	1.42519e+07	      76.5	   13.7562	   2.06552	1.48259e+07	      76.5	   13.6803	   1.89334	1.49341e+07	      76.5	      13.6	   1.99021	1.44381e+07	      76.5	   13.6781	   2.07285	1.45367e+07	      76.5	   13.7584	   1.97599	1.50336e+07	
         R10	   3882	      76.5	   13.7562	   2.06552	1.48299e+07	      76.5	      13.6	   2.08018	1.41652e+07	      76.5	      13.6	   2.24677	1.40699e+07	      76.5	   13.7537	   2.23641	1.38847e+07	      76.5	   13.6781	   2.07285	 1.4495e+07	      76.5	      13.6	   2.16348	1.41143e+07	      76.5	   13.6768	   2.24159	1.39688e+07	      76.5	   13.7549	   2.15096	1.43543e+07	
         R10	   3883	      76.5	   13.7537	   2.23641	1.39361e+07	      76.5	      13.6	   2.24677	 1.4037e+07	      76.5	      13.6	       2.4	1.28187e+07	      76.5	   13.7605	       2.4	1.32621e+07	      76.5	   13.6768	   2.24159	 1.3983e+07	      76.5	      13.6	   2.32339	1.34075e+07	      76.5	   13.6802	       2.4	1.29224e+07	      76.5	   13.7571	   2.31821	 1.3569e+07	
         R10	   3884	      76.5	   13.8986	     2.237	1.47441e+07	      76.5	   13.7537	   2.23641	1.36508e+07	      76.5	   13.7605	       2.4	1.41012e+07	      76.5	    13.908	       2.4	1.41376e+07	      76.5	   13.8262	    2.2367	1.41858e+07	      76.5	   13.7571	   2.31821	1.38512e+07	      76.5	   13.8342	       2.4	 1.4114e+07	      76.5	   13.9033	    2.3185	1.44332e+07	
         R10	   3885	      76.5	   13.8986	     2.237	1.44713e+07	      76.5	    13.908	       2.4	1.43205e+07	      76.5	   14.0424	       2.4	1.45355e+07	      76.5	   14.0294	   2.24985	1.50835e+07	      76.5	   13.9033	    2.3185	1.43944e+07	      76.5	   13.9752	       2.4	1.44277e+07	      76.5	   14.0359	   2.32493	1.48056e+07	      76.5	    13.964	   2.24342	1.47764e+07	
         R10	   3886	      76.5	   14.0294	   2.24985	1.48586e+07	      76.5	   14.0424	       2.4	1.45275e+07	      76.5	   14.1639	       2.4	  1.497e+07	      76.5	   14.1475	   2.27638	1.53221e+07	      76.5	   14.0359	   2.32493	1.46911e+07	      76.5	   14.1031	       2.4	 1.4748e+07	      76.5	   14.1557	   2.33819	1.51445e+07	      76.5	   14.0884	   2.26312	1.50896e+07	
         R10	   3887	      76.5	   14.1475	   2.27638	1.51538e+07	      76.5	   14.1639	       2.4	1.48404e+07	      76.5	   14.2723	       2.4	 1.5244e+07	      76.5	    14.259	   2.29782	1.55985e+07	      76.5	   14.1557	   2.33819	1.49954e+07	      76.5	   14.2181	       2.4	 1.5041e+07	      76.5	   14.2656	   2.34891	1.54193e+07	      76.5	   14.2033	    2.2871	 1.5375e+07	
         R10	   3888	      76.5	    14.259	   2.29782	1.53794e+07	      76.5	   14.2723	       2.4	1.50966e+07	      76.5	   14.3676	       2.4	1.54269e+07	      76.5	   14.3566	   2.30621	1.69889e+07	      76.5	   14.2656	   2.34891	 1.5235e+07	      76.5	   14.3199	       2.4	1.52602e+07	      76.5	   14.3621	   2.35311	1.62074e+07	      76.5	   14.3078	   2.30202	1.61841e+07	
         R10	   3889	      76.5	   14.3566	   2.30621	1.68191e+07	      76.5	   14.3676	       2.4	1.49357e+07	      76.5	     14.45	       2.4	2.10703e+07	      76.5	     14.45	   2.32373	1.76765e+07	      76.5	   14.3621	   2.35311	1.58707e+07	      76.5	   14.4088	       2.4	1.79396e+07	      76.5	     14.45	   2.36187	1.92788e+07	      76.5	   14.4033	   2.31497	1.71377e+07	
         R10	   3890	      76.5	   14.3607	   2.19553	1.66376e+07	      76.5	   14.3566	   2.30621	 1.6765e+07	      76.5	     14.45	   2.32373	1.79375e+07	      76.5	     14.45	   2.24431	1.66738e+07	      76.5	   14.3586	   2.25087	 1.6683e+07	      76.5	   14.4033	   2.31497	 1.7252e+07	      76.5	     14.45	   2.28402	1.72918e+07	      76.5	   14.4053	   2.21992	1.66512e+07	
         R10	   3891	      76.5	   14.3479	   2.09043	1.64312e+07	      76.5	     14.45	     2.076	1.66625e+07	      76.5	     14.45	   1.98711	1.68538e+07	      76.5	   14.3422	   1.99574	1.64446e+07	      76.5	    14.399	   2.08322	1.65467e+07	      76.5	     14.45	   2.03156	1.67577e+07	      76.5	   14.3961	   1.99143	1.66491e+07	      76.5	   14.3451	   2.04309	1.64377e+07	
         R10	   3892	      76.5	   14.3422	   1.99574	1.64364e+07	      76.5	     14.45	   1.98711	1.68512e+07	      76.5	     14.45	   1.89507	1.70443e+07	      76.5	    14.358	   1.90738	1.65061e+07	      76.5	   14.3961	   1.99143	1.66436e+07	      76.5	     14.45	   1.94109	1.69476e+07	      76.5	    14.404	   1.90122	1.67751e+07	      76.5	   14.3501	   1.95156	1.64711e+07	
         R10	   3893	      76.5	    14.358	   1.90738	1.65288e+07	      76.5	     14.45	   1.89507	1.70391e+07	      76.5	     14.45	   1.79987	1.71441e+07	      76.5	    14.332	   1.79861	1.66697e+07	      76.5	    14.404	   1.90122	1.67838e+07	      76.5	     14.45	   1.84747	1.70915e+07	      76.5	    14.391	   1.79924	1.69068e+07	      76.5	    14.345	   1.85299	1.65991e+07	
         R10	   3894	      76.5	    14.332	   1.79861	1.66608e+07	      76.5	     14.45	   1.79987	1.71476e+07	      76.5	     14.45	   1.70151	1.73302e+07	      76.5	   14.3569	   1.70302	1.67215e+07	      76.5	    14.391	   1.79924	1.69041e+07	      76.5	     14.45	   1.75069	1.72388e+07	      76.5	   14.4035	   1.70227	1.70258e+07	      76.5	   14.3445	   1.75081	1.66911e+07	
         R10	   3895	      76.5	   14.3569	   1.70302	1.67382e+07	      76.5	     14.45	   1.70151	 1.7325e+07	      76.5	     14.45	       1.6	1.74087e+07	      76.5	    14.345	    1.5985	1.68364e+07	      76.5	   14.4035	   1.70227	1.70314e+07	      76.5	     14.45	   1.65076	1.73668e+07	      76.5	   14.3975	   1.59925	1.71225e+07	      76.5	   14.3509	   1.65076	1.67872e+07	
         R10	   3896	      76.5	    14.345	    1.5985	1.68301e+07	      76.5	     14.45	       1.6	1.74084e+07	      76.5	     14.45	   1.50378	1.74611e+07	      76.5	   14.3263	   1.50488	1.68685e+07	      76.5	   14.3975	   1.59925	1.71191e+07	      76.5	     14.45	   1.55189	1.74347e+07	      76.5	   14.3882	   1.50433	1.71646e+07	      76.5	   14.3356	   1.55169	1.68492e+07	
         R10	   3897	      76.5	   14.3263	   1.50488	1.68603e+07	      76.5	     14.45	   1.50378	1.74619e+07	      76.5	     14.45	   1.39272	1.75012e+07	      76.5	   14.3167	   1.38081	1.69149e+07	      76.5	   14.3882	   1.50433	1.71609e+07	      76.5	     14.45	   1.44825	1.74815e+07	      76.5	   14.3833	   1.38677	1.72079e+07	      76.5	   14.3215	   1.44284	1.68874e+07	
         R10	   3898	      76.5	   14.3167	   1.38081	1.69049e+07	      76.5	     14.45	   1.39272	1.75028e+07	      76.5	     14.45	   1.26681	1.75202e+07	      76.5	   14.3003	   1.24948	  1.687e+07	      76.5	   14.3833	   1.38677	1.72036e+07	      76.5	     14.45	   1.32977	1.75114e+07	      76.5	   14.3752	   1.25815	1.71948e+07	      76.5	   14.3085	   1.31515	1.68873e+07	
         R10	   3899	      76.5	   14.3003	   1.24948	1.68509e+07	      76.5	     14.45	   1.26681	1.75244e+07	      76.5	     14.45	   1.12606	1.74745e+07	      76.5	   14.2797	   1.10619	 1.6769e+07	      76.5	   14.3752	   1.25815	1.71872e+07	      76.5	     14.45	   1.19643	1.74993e+07	      76.5	   14.3649	   1.11612	1.71213e+07	      76.5	     14.29	   1.17784	1.68097e+07	
         R10	   3900	      76.5	   14.2797	   1.10619	1.67573e+07	      76.5	     14.45	   1.12606	1.74836e+07	      76.5	     14.45	  0.970451	1.73591e+07	      76.5	   14.2641	  0.955469	1.65568e+07	      76.5	   14.3649	   1.11612	1.71199e+07	      76.5	     14.45	   1.04825	 1.7421e+07	      76.5	    14.357	   0.96296	1.69571e+07	      76.5	   14.2719	   1.03083	1.66566e+07	
         R10	   3901	      76.5	   14.2641	  0.955469	1.65034e+07	      76.5	     14.45	  0.970451	1.73436e+07	      76.5	     14.45	       0.8	1.70854e+07	      76.5	   14.2677	       0.8	1.62246e+07	      76.5	    14.357	   0.96296	 1.6923e+07	      76.5	     14.45	  0.885226	 1.7213e+07	      76.5	   14.3588	       0.8	1.66514e+07	      76.5	   14.2659	  0.877735	1.63624e+07	
         R10	   3902	      76.5	   14.0615	  0.962639	1.61215e+07	      76.5	   14.2641	  0.955469	1.67341e+07	      76.5	   14.2677	       0.8	1.64735e+07	      76.5	   14.0652	       0.8	1.55227e+07	      76.5	   14.1628	  0.959054	1.64268e+07	      76.5	   14.2659	  0.877735	1.66028e+07	      76.5	   14.1665	       0.8	1.59961e+07	      76.5	   14.0634	   0.88132	1.58218e+07	
         R10	   3903	      76.5	   14.0615	  0.962639	1.62813e+07	      76.5	   14.0652	       0.8	1.59931e+07	      76.5	   13.8427	       0.8	1.55389e+07	      76.5	   13.8323	   1.03695	1.56461e+07	      76.5	   14.0634	   0.88132	1.61358e+07	      76.5	    13.954	       0.8	1.57649e+07	      76.5	   13.8375	  0.918473	1.55898e+07	      76.5	   13.9469	  0.999793	1.59636e+07	
         R10	   3904	      76.5	   13.9694	   1.31825	 1.6274e+07	      76.5	   13.7811	   1.28003	 1.5623e+07	      76.5	   13.7727	   1.49169	1.54979e+07	      76.5	   13.9302	   1.51756	1.61922e+07	      76.5	   13.8752	   1.29914	1.59482e+07	      76.5	   13.7769	   1.38586	1.55592e+07	      76.5	   13.8514	   1.50462	1.58449e+07	      76.5	   13.9498	    1.4179	1.62325e+07	
         R10	   3905	      76.5	   13.9302	   1.51756	1.61496e+07	      76.5	   13.7727	   1.49169	1.55366e+07	      76.5	   13.7649	   1.69543	 1.5322e+07	      76.5	   13.9239	   1.70443	1.59813e+07	      76.5	   13.8514	   1.50462	1.58429e+07	      76.5	   13.7688	   1.59356	1.54281e+07	      76.5	   13.8444	   1.69993	1.56513e+07	      76.5	    13.927	     1.611	1.60647e+07	
         R10	   3906	      76.5	   13.9239	   1.70443	1.59456e+07	      76.5	   13.7649	   1.69543	1.53572e+07	      76.5	   13.7606	   1.88646	1.50201e+07	      76.5	   13.9134	   1.89339	1.56121e+07	      76.5	   13.8444	   1.69993	1.56511e+07	      76.5	   13.7628	   1.79094	1.51876e+07	      76.5	    13.837	   1.88993	1.53153e+07	      76.5	   13.9186	   1.79891	1.57778e+07	
         R10	   3907	      76.5	   13.9134	   1.89339	1.55875e+07	      76.5	   13.7606	   1.88646	1.50452e+07	      76.5	   13.7562	   2.06552	1.45468e+07	      76.5	   13.9054	   2.06835	1.51627e+07	      76.5	    13.837	   1.88993	1.53159e+07	      76.5	   13.7584	   1.97599	1.47939e+07	      76.5	   13.8308	   2.06693	1.48514e+07	      76.5	   13.9094	   1.98087	1.53742e+07	
         R10	   3908	      76.5	   13.9054	   2.06835	1.51246e+07	      76.5	   13.7562	   2.06552	1.44831e+07	      76.5	   13.7537	   2.23641	1.38547e+07	      76.5	   13.8986	     2.237	1.48166e+07	      76.5	   13.8308	   2.06693	1.48008e+07	      76.5	   13.7549	   2.15096	1.41679e+07	      76.5	   13.8262	    2.2367	1.43342e+07	      76.5	    13.902	   2.15267	1.49693e+07	
         R10	   3909	      76.5	   14.0593	   2.07831	1.56346e+07	      76.5	   13.9054	   2.06835	1.50234e+07	      76.5	   13.8986	     2.237	1.44215e+07	      76.5	   14.0294	   2.24985	1.51274e+07	      76.5	   13.9824	   2.07333	1.53284e+07	      76.5	    13.902	   2.15267	1.47208e+07	      76.5	    13.964	   2.24342	1.47729e+07	      76.5	   14.0444	   2.16408	1.53799e+07	
         R10	   3910	      76.5	   14.0593	   2.07831	1.55418e+07	      76.5	   14.0294	   2.24985	 1.4926e+07	      76.5	   14.1475	   2.27638	1.53414e+07	      76.5	   14.1648	   2.16587	  1.586e+07	      76.5	   14.0444	   2.16408	1.52318e+07	      76.5	   14.0884	   2.26312	1.51331e+07	      76.5	   14.1561	   2.22112	1.56001e+07	      76.5	   14.1121	   2.12209	1.57006e+07	
         R10	   3911	      76.5	   14.1648	   2.16587	 1.5692e+07	      76.5	   14.1475	   2.27638	1.51751e+07	      76.5	    14.259	   2.29782	1.57755e+07	      76.5	   14.2728	   2.20423	1.63374e+07	      76.5	   14.1561	   2.22112	1.54329e+07	      76.5	   14.2033	    2.2871	1.54744e+07	      76.5	   14.2659	   2.25102	1.60562e+07	      76.5	   14.2188	   2.18505	1.60147e+07	
         R10	   3912	      76.5	   14.2728	   2.20423	1.61119e+07	      76.5	    14.259	   2.29782	1.56106e+07	      76.5	   14.3566	   2.30621	1.66638e+07	      76.5	   14.3607	   2.19553	 1.6887e+07	      76.5	   14.2659	   2.25102	1.58609e+07	      76.5	   14.3078	   2.30202	1.61369e+07	      76.5	   14.3586	   2.25087	 1.6774e+07	      76.5	   14.3167	   2.19988	 1.6498e+07	
         R10	   3913	      76.5	   14.3607	   2.19553	1.65532e+07	      76.5	     14.45	   2.16173	1.65137e+07	      76.5	     14.45	     2.076	1.66521e+07	      76.5	   14.3479	   2.09043	1.64213e+07	      76.5	   14.4053	   2.17863	 1.6533e+07	      76.5	     14.45	   2.11887	1.65818e+07	      76.5	    14.399	   2.08322	1.65366e+07	      76.5	   14.3543	   2.14298	1.64865e+07	
         R10	   3914	      76.5	   14.2728	   2.20423	1.60674e+07	      76.5	   14.3607	   2.19553	1.68775e+07	      76.5	   14.3479	   2.09043	1.66831e+07	      76.5	   14.2441	   2.10023	1.62464e+07	      76.5	   14.3167	   2.19988	1.64716e+07	      76.5	   14.3543	   2.14298	1.67802e+07	      76.5	    14.296	   2.09533	1.64647e+07	      76.5	   14.2585	   2.15223	1.61566e+07	
         R10	   3915	      76.5	   14.2441	   2.10023	1.62232e+07	      76.5	   14.3479	   2.09043	1.66999e+07	      76.5	   14.3422	   1.99574	 1.6695e+07	      76.5	   14.1988	   2.00205	1.62372e+07	      76.5	    14.296	   2.09533	1.64612e+07	      76.5	   14.3451	   2.04309	1.66973e+07	      76.5	   14.2705	   1.99889	1.64661e+07	      76.5	   14.2215	   2.05114	  1.623e+07	
         R10	   3916	      76.5	   14.1988	   2.00205	1.62357e+07	      76.5	   14.3422	   1.99574	1.67197e+07	      76.5	    14.358	   1.90738	1.68469e+07	      76.5	   14.2569	    1.8888	1.64441e+07	      76.5	   14.2705	   1.99889	1.64775e+07	      76.5	   14.3501	   1.95156	1.67831e+07	      76.5	   14.3075	   1.89809	1.66452e+07	      76.5	   14.2279	   1.94542	1.63398e+07	
         R10	   3917	      76.5	   14.2372	   1.76844	1.66059e+07	      76.5	    14.332	   1.79861	1.68557e+07	      76.5	   14.3569	   1.70302	1.70414e+07	      76.5	   14.2208	    1.6547	1.65943e+07	      76.5	   14.2846	   1.78352	1.67308e+07	      76.5	   14.3445	   1.75081	1.69484e+07	      76.5	   14.2889	   1.67886	1.68178e+07	      76.5	    14.229	   1.71157	1.65999e+07	
         R10	   3918	      76.5	   14.2069	   1.54193	1.66155e+07	      76.5	   14.3263	   1.50488	1.71617e+07	      76.5	   14.3167	   1.38081	1.71653e+07	      76.5	   14.1896	    1.3927	1.66799e+07	      76.5	   14.2666	   1.52341	1.68884e+07	      76.5	   14.3215	   1.44284	1.71634e+07	      76.5	   14.2531	   1.38675	1.69224e+07	      76.5	   14.1983	   1.46731	1.66474e+07	
         R10	   3919	      76.5	   14.1896	    1.3927	1.66825e+07	      76.5	   14.3167	   1.38081	1.71523e+07	      76.5	   14.3003	   1.24948	 1.7136e+07	      76.5	   14.1528	   1.26353	1.65591e+07	      76.5	   14.2531	   1.38675	1.69172e+07	      76.5	   14.3085	   1.31515	 1.7144e+07	      76.5	   14.2266	   1.25651	1.68471e+07	      76.5	   14.1712	   1.32811	1.66202e+07	
         R10	   3920	      76.5	   14.1528	   1.26353	1.65791e+07	      76.5	   14.3003	   1.24948	1.71223e+07	      76.5	   14.2797	   1.10619	1.69745e+07	      76.5	   14.1089	   1.12081	1.63781e+07	      76.5	   14.2266	   1.25651	1.68506e+07	      76.5	     14.29	   1.17784	1.70481e+07	      76.5	   14.1943	    1.1135	1.66759e+07	      76.5	   14.1309	   1.19217	 1.6478e+07	
         R10	   3921	      76.5	   14.1089	   1.12081	1.64124e+07	      76.5	   14.2797	   1.10619	1.69547e+07	      76.5	   14.2641	  0.955469	1.67422e+07	      76.5	   14.0615	  0.962639	1.60276e+07	      76.5	   14.1943	    1.1135	1.66834e+07	      76.5	   14.2719	   1.03083	 1.6848e+07	      76.5	   14.1628	  0.959054	1.63837e+07	      76.5	   14.0852	   1.04173	1.62184e+07	
         R10	   3922	      76.5	   13.8323	   1.03695	1.56915e+07	      76.5	   13.7811	   1.28003	1.55761e+07	      76.5	   13.9694	   1.31825	1.62947e+07	      76.5	   13.9747	   1.16007	1.62815e+07	      76.5	   13.8067	   1.15849	1.56326e+07	      76.5	   13.8752	   1.29914	1.59352e+07	      76.5	    13.972	   1.23916	1.62878e+07	      76.5	   13.9035	   1.09851	1.59853e+07	
         R10	   3923	      76.5	    14.073	    1.5543	 1.6523e+07	      76.5	   13.9302	   1.51756	1.59101e+07	      76.5	   13.9239	   1.70443	1.58032e+07	      76.5	   14.0747	   1.71447	1.63514e+07	      76.5	   14.0016	   1.53593	1.62163e+07	      76.5	    13.927	     1.611	1.58558e+07	      76.5	   13.9993	   1.70945	1.60771e+07	      76.5	   14.0738	   1.63438	1.64369e+07	
         R10	   3924	      76.5	   14.0747	   1.71447	1.63491e+07	      76.5	   13.9239	   1.70443	1.57568e+07	      76.5	   13.9134	   1.89339	1.54517e+07	      76.5	   14.0399	   1.90877	1.59995e+07	      76.5	   13.9993	   1.70945	1.60526e+07	      76.5	   13.9186	   1.79891	1.56034e+07	      76.5	   13.9766	   1.90108	1.57254e+07	      76.5	   14.0573	   1.81162	1.61738e+07	
         R10	   3925	      76.5	   14.0399	   1.90877	1.59812e+07	      76.5	   13.9134	   1.89339	1.54188e+07	      76.5	   13.9054	   2.06835	1.50321e+07	      76.5	   14.0593	   2.07831	1.56457e+07	      76.5	   13.9766	   1.90108	1.56995e+07	      76.5	   13.9094	   1.98087	1.52243e+07	      76.5	   13.9824	   2.07333	1.53382e+07	      76.5	   14.0496	   1.99354	1.58128e+07	
         R10	   3926	      76.5	   14.1846	   1.82715	1.64401e+07	      76.5	   14.2569	    1.8888	1.65505e+07	      76.5	    14.332	   1.79861	1.68502e+07	      76.5	   14.2372	   1.76844	1.65735e+07	      76.5	   14.2208	   1.85798	1.64949e+07	      76.5	   14.2945	    1.8437	1.66999e+07	      76.5	   14.2846	   1.78352	1.67118e+07	      76.5	   14.2109	   1.79779	1.65067e+07	
         R10	   3927	      76.5	   14.2208	    1.6547	1.66018e+07	      76.5	    14.345	    1.5985	1.70981e+07	      76.5	   14.3263	   1.50488	1.71706e+07	      76.5	   14.2069	   1.54193	 1.6621e+07	      76.5	   14.2829	    1.6266	1.68497e+07	      76.5	   14.3356	   1.55169	1.71343e+07	      76.5	   14.2666	   1.52341	1.68956e+07	      76.5	   14.2139	   1.59831	1.66113e+07	
         R10	   3928	      76.5	   14.1089	   1.12081	 1.6593e+07	      76.5	   14.0615	  0.962639	 1.6222e+07	      76.5	   13.8323	   1.03695	1.56675e+07	      76.5	   13.9747	   1.16007	1.61589e+07	      76.5	   14.0852	   1.04173	1.64067e+07	      76.5	   13.9469	  0.999793	1.59447e+07	      76.5	   13.9035	   1.09851	1.59125e+07	      76.5	   14.0418	   1.14044	1.63747e+07	
         R10	   3929	      76.5	   14.1528	   1.26353	1.67613e+07	      76.5	   14.1089	   1.12081	1.65332e+07	      76.5	   13.9747	   1.16007	1.60504e+07	      76.5	   13.9694	   1.31825	1.61692e+07	      76.5	   14.1309	   1.19217	1.66466e+07	      76.5	   14.0418	   1.14044	1.62918e+07	      76.5	    13.972	   1.23916	1.61095e+07	      76.5	   14.0611	   1.29089	1.64648e+07	
         R10	   3930	      76.5	   14.0842	   1.42163	1.64814e+07	      76.5	   14.1896	    1.3927	1.68492e+07	      76.5	   14.1528	   1.26353	1.67433e+07	      76.5	   13.9694	   1.31825	1.61198e+07	      76.5	   14.1369	   1.40716	1.66645e+07	      76.5	   14.1712	   1.32811	1.67959e+07	      76.5	   14.0611	   1.29089	1.64314e+07	      76.5	   14.0268	   1.36994	1.63006e+07	
         R10	   3931	      76.5	   14.0842	   1.42163	1.65622e+07	      76.5	   13.9694	   1.31825	1.61362e+07	      76.5	   13.9302	   1.51756	1.59662e+07	      76.5	    14.073	    1.5543	1.65369e+07	      76.5	   14.0268	   1.36994	1.63488e+07	      76.5	   13.9498	    1.4179	1.60504e+07	      76.5	   14.0016	   1.53593	1.62515e+07	      76.5	   14.0786	   1.48796	1.65492e+07	
         R10	   3932	      76.5	   14.0842	   1.42163	1.64003e+07	      76.5	    14.073	    1.5543	1.63009e+07	      76.5	   14.2069	   1.54193	1.68663e+07	      76.5	   14.1896	    1.3927	1.68266e+07	      76.5	   14.0786	   1.48796	1.63504e+07	      76.5	     14.14	   1.54812	1.65833e+07	      76.5	   14.1983	   1.46731	1.68461e+07	      76.5	   14.1369	   1.40716	1.66134e+07	
         R10	   3933	      76.5	   14.0747	   1.71447	1.62177e+07	      76.5	   14.2208	    1.6547	1.67704e+07	      76.5	   14.2069	   1.54193	1.68588e+07	      76.5	    14.073	    1.5543	1.62872e+07	      76.5	   14.1477	   1.68458	1.64939e+07	      76.5	   14.2139	   1.59831	1.68144e+07	      76.5	     14.14	   1.54812	1.65729e+07	      76.5	   14.0738	   1.63438	1.62521e+07	
         R10	   3934	      76.5	   14.1846	   1.82715	1.64796e+07	      76.5	   14.2372	   1.76844	 1.6682e+07	      76.5	   14.2208	    1.6547	1.67731e+07	      76.5	   14.0747	   1.71447	1.61842e+07	      76.5	   14.2109	   1.79779	1.65807e+07	      76.5	    14.229	   1.71157	1.67275e+07	      76.5	   14.1477	   1.68458	1.64784e+07	      76.5	   14.1297	   1.77081	1.63318e+07	
         R10	   3935	      76.5	   14.1361	   1.91932	1.61152e+07	      76.5	   14.1988	   2.00205	1.63042e+07	      76.5	   14.2569	    1.8888	1.66375e+07	      76.5	   14.1846	   1.82715	1.64029e+07	      76.5	   14.1675	   1.96069	1.62097e+07	      76.5	   14.2279	   1.94542	1.64707e+07	      76.5	   14.2208	   1.85798	  1.652e+07	      76.5	   14.1604	   1.87324	1.62586e+07	
         R10	   3936	      76.5	   14.1361	   1.91932	 1.6289e+07	      76.5	   14.1846	   1.82715	1.64453e+07	      76.5	   14.0747	   1.71447	1.62536e+07	      76.5	   14.0399	   1.90877	1.58182e+07	      76.5	   14.1604	   1.87324	 1.6367e+07	      76.5	   14.1297	   1.77081	1.63494e+07	      76.5	   14.0573	   1.81162	1.60352e+07	      76.5	    14.088	   1.91405	1.60535e+07	
         R10	   3937	      76.5	   14.1361	   1.91932	1.62653e+07	      76.5	   14.0399	   1.90877	1.58002e+07	      76.5	   14.0593	   2.07831	1.55817e+07	      76.5	   14.1988	   2.00205	1.62979e+07	      76.5	    14.088	   1.91405	1.60323e+07	      76.5	   14.0496	   1.99354	1.56902e+07	      76.5	   14.1291	   2.04018	1.59394e+07	      76.5	   14.1675	   1.96069	1.62815e+07	
         R10	   3938	      76.5	   14.1648	   2.16587	1.58164e+07	      76.5	   14.2441	   2.10023	1.63171e+07	      76.5	   14.1988	   2.00205	1.63292e+07	      76.5	   14.0593	   2.07831	1.55563e+07	      76.5	   14.2045	   2.13305	1.60666e+07	      76.5	   14.2215	   2.05114	 1.6323e+07	      76.5	   14.1291	   2.04018	1.59422e+07	      76.5	   14.1121	   2.12209	1.56864e+07	
         R10	   3939	      76.5	   14.3607	   2.19553	1.65517e+07	      76.5	     14.45	   2.24431	1.66426e+07	      76.5	     14.45	   2.16173	1.64818e+07	      76.5	   14.4053	   2.21992	1.65935e+07	      76.5	     14.45	   2.20302	1.65605e+07	      76.5	   14.4053	   2.17863	1.65162e+07	       N/A	       N/A	       N/A	        N/A	       N/A	       N/A	       N/A	        N/A	
         R10	   3940	      76.5	   14.2569	    1.8888	1.64332e+07	      76.5	    14.358	   1.90738	1.68405e+07	      76.5	    14.332	   1.79861	1.68826e+07	      76.5	   14.3075	   1.89809	1.66368e+07	      76.5	    14.345	   1.85299	1.68615e+07	      76.5	   14.2945	    1.8437	1.66576e+07	       N/A	       N/A	       N/A	        N/A	       N/A	       N/A	       N/A	        N/A	
         R10	   3941	      76.5	   14.2208	    1.6547	1.66162e+07	      76.5	   14.3569	   1.70302	1.70482e+07	      76.5	    14.345	    1.5985	1.71083e+07	      76.5	   14.2889	   1.67886	1.68321e+07	      76.5	   14.3509	   1.65076	1.70782e+07	      76.5	   14.2829	    1.6266	 1.6862e+07	       N/A	       N/A	       N/A	        N/A	       N/A	       N/A	       N/A	        N/A	
         R10	   3942	      76.5	   14.1648	   2.16587	 1.5728e+07	      76.5	   14.2728	   2.20423	1.63088e+07	      76.5	   14.2441	   2.10023	1.63553e+07	      76.5	   14.2188	   2.18505	1.60184e+07	      76.5	   14.2585	   2.15223	1.63316e+07	      76.5	   14.2045	   2.13305	 1.6041e+07	       N/A	       N/A	       N/A	        N/A	       N/A	       N/A	       N/A	        N/A	
         R10	   3943	      76.5	    17.154	         0	 3.7497e+06	      76.5	      16.9	         0	2.09424e+07	      76.5	    16.834	  0.304533	9.72584e+06	      76.5	   17.1152	  0.341878	6.90534e+06	      76.5	    17.027	         0	1.01817e+07	      76.5	    16.867	  0.152267	 1.3187e+07	      76.5	   16.9746	  0.323206	7.44985e+06	      76.5	   17.1346	  0.170939	3.52831e+06	
         R10	   3944	      76.5	   17.1216	  0.574847	6.67193e+06	      76.5	   17.1358	       0.8	7.96088e+06	      76.5	   17.3612	       0.8	7.96696e+06	      76.5	   17.3688	  0.563152	6.27888e+06	      76.5	   17.1287	  0.687424	7.29978e+06	      76.5	   17.2485	       0.8	7.93968e+06	      76.5	    17.365	  0.681576	7.10354e+06	      76.5	   17.2452	     0.569	6.35528e+06	
         R10	   3945	      76.5	   17.3688	  0.563152	6.72136e+06	      76.5	   17.3612	       0.8	8.11255e+06	      76.5	   17.6004	       0.8	8.08328e+06	      76.5	   17.6304	  0.558673	6.68219e+06	      76.5	    17.365	  0.681576	7.40648e+06	      76.5	   17.4808	       0.8	8.08639e+06	      76.5	   17.6154	  0.679336	7.36867e+06	      76.5	   17.4996	  0.560912	6.69241e+06	
         R10	   3946	      76.5	   17.3652	  0.307495	4.10935e+06	      76.5	   17.3688	  0.563152	7.08816e+06	      76.5	   17.6304	  0.558673	6.79874e+06	      76.5	   17.6636	  0.292006	8.50403e+06	      76.5	    17.367	  0.435323	5.30884e+06	      76.5	   17.4996	  0.560912	6.93991e+06	      76.5	    17.647	  0.425339	7.64327e+06	      76.5	   17.5144	   0.29975	6.01192e+06	
         R10	   3947	      76.5	   17.3652	  0.307495	3.77211e+06	      76.5	   17.6636	  0.292006	8.09565e+06	      76.5	      17.7	         0	1.45222e+07	      76.5	   17.4206	         0	 5.0341e+06	      76.5	   17.5144	   0.29975	5.38554e+06	      76.5	   17.6818	  0.146003	1.05103e+07	      76.5	   17.5603	         0	8.40595e+06	      76.5	   17.3929	  0.153747	3.92052e+06	
         R10	   3948	      76.5	   17.3652	  0.307495	 4.6295e+06	      76.5	   17.4206	         0	3.58499e+06	      76.5	    17.154	         0	5.60625e+06	      76.5	   17.1152	  0.341878	7.99136e+06	      76.5	   17.3929	  0.153747	2.49342e+06	      76.5	   17.2873	         0	1.58205e+06	      76.5	   17.1346	  0.170939	3.15403e+06	      76.5	   17.2402	  0.324686	4.82066e+06	
         R10	   3949	      76.5	   16.7761	    0.5712	7.61953e+06	      76.5	   16.9242	       0.8	8.33022e+06	      76.5	   17.1358	       0.8	8.17464e+06	      76.5	   17.1216	  0.574847	7.37889e+06	      76.5	   16.8502	    0.6856	7.96497e+06	      76.5	     17.03	       0.8	 8.2346e+06	      76.5	   17.1287	  0.687424	7.77293e+06	      76.5	   16.9488	  0.573023	7.48454e+06	
         R10	   3950	      76.5	   17.1216	  0.574847	6.33813e+06	      76.5	   17.3688	  0.563152	6.53368e+06	      76.5	   17.3652	  0.307495	 4.2267e+06	      76.5	   17.1152	  0.341878	4.69815e+06	      76.5	   17.2452	     0.569	6.28543e+06	      76.5	    17.367	  0.435323	5.37465e+06	      76.5	   17.2402	  0.324686	4.24305e+06	      76.5	   17.1184	  0.458363	5.49778e+06	
         R10	   3951	      76.5	   16.7761	    0.5712	 7.4558e+06	      76.5	   17.1216	  0.574847	7.77212e+06	      76.5	   17.1152	  0.341878	5.57799e+06	      76.5	    16.834	  0.304533	9.42237e+06	      76.5	   16.9488	  0.573023	7.60766e+06	      76.5	   17.1184	  0.458363	 6.4376e+06	      76.5	   16.9746	  0.323206	7.17519e+06	      76.5	    16.805	  0.437866	8.41507e+06	
         R10	   3952	      76.5	   16.7761	    0.5712	7.51519e+06	      76.5	   16.7265	       0.8	8.22599e+06	      76.5	   16.9242	       0.8	8.26829e+06	      76.5	   16.7513	    0.6856	7.86781e+06	      76.5	   16.8254	       0.8	8.23392e+06	      76.5	   16.8502	    0.6856	  7.883e+06	       N/A	       N/A	       N/A	        N/A	       N/A	       N/A	       N/A	        N/A	
         R10	   3953	      76.5	    15.554	         0	 5.8093e+06	      76.5	      15.3	         0	6.97716e+06	      76.5	      15.3	  0.237669	4.00275e+06	      76.5	   15.5629	  0.231698	2.77133e+06	      76.5	    15.427	         0	5.61989e+06	      76.5	      15.3	  0.118834	4.23701e+06	      76.5	   15.4315	  0.234683	2.90788e+06	      76.5	   15.5584	  0.115849	4.18571e+06	
         R10	   3954	      76.5	   15.5629	  0.231698	3.28856e+06	      76.5	      15.3	  0.237669	2.84768e+06	      76.5	      15.3	  0.450225	3.85311e+06	      76.5	   15.5432	  0.440834	2.53125e+06	      76.5	   15.4315	  0.234683	2.58552e+06	      76.5	      15.3	  0.343947	3.29558e+06	      76.5	   15.4216	   0.44553	3.05468e+06	      76.5	   15.5531	  0.336266	2.75208e+06	
         R10	   3955	      76.5	   15.5432	  0.440834	2.75189e+06	      76.5	      15.3	  0.450225	3.45961e+06	      76.5	      15.3	  0.637669	4.37775e+06	      76.5	   15.4981	   0.61914	3.53902e+06	      76.5	   15.4216	   0.44553	2.95909e+06	      76.5	      15.3	  0.543947	3.90839e+06	      76.5	    15.399	  0.628404	3.88599e+06	      76.5	   15.5206	  0.529987	3.12331e+06	
         R10	   3956	      76.5	   15.4981	   0.61914	3.59875e+06	      76.5	      15.3	  0.637669	4.61115e+06	      76.5	      15.3	       0.8	4.58859e+06	      76.5	   15.4447	       0.8	4.67135e+06	      76.5	    15.399	  0.628404	4.02298e+06	      76.5	      15.3	  0.718834	4.59329e+06	      76.5	   15.3724	       0.8	4.60974e+06	      76.5	   15.4714	   0.70957	4.12411e+06	
         R10	   3957	      76.5	   15.6821	  0.652991	4.26575e+06	      76.5	   15.4981	   0.61914	3.45056e+06	      76.5	   15.4447	       0.8	 4.5676e+06	      76.5	   15.5991	       0.8	4.62442e+06	      76.5	   15.5901	  0.636065	3.76537e+06	      76.5	   15.4714	   0.70957	4.00165e+06	      76.5	   15.5219	       0.8	4.54932e+06	      76.5	   15.6406	  0.726495	 4.4043e+06	
         R10	   3958	      76.5	   15.9326	  0.640757	6.25173e+06	      76.5	   15.9365	       0.8	6.57045e+06	      76.5	   16.1196	       0.8	7.45486e+06	      76.5	   16.1125	  0.604497	7.75039e+06	      76.5	   15.9346	  0.720379	6.39851e+06	      76.5	    16.028	       0.8	7.01028e+06	      76.5	    16.116	  0.702249	7.59506e+06	      76.5	   16.0226	  0.622627	7.00079e+06	
         R10	   3959	      76.5	   16.1125	  0.604497	7.78286e+06	      76.5	   16.1196	       0.8	7.53094e+06	      76.5	   16.3123	       0.8	8.02679e+06	      76.5	   16.3297	  0.570973	7.69581e+06	      76.5	    16.116	  0.702249	7.64868e+06	      76.5	    16.216	       0.8	7.76923e+06	      76.5	    16.321	  0.685486	7.85375e+06	      76.5	   16.2211	  0.587735	7.73261e+06	
         R10	   3960	      76.5	   16.3297	  0.570973	7.73369e+06	      76.5	   16.3123	       0.8	8.03394e+06	      76.5	   16.5146	       0.8	8.30004e+06	      76.5	    16.552	  0.537142	6.87148e+06	      76.5	    16.321	  0.685486	7.88135e+06	      76.5	   16.4135	       0.8	8.16068e+06	      76.5	   16.5333	  0.668571	7.58003e+06	      76.5	   16.4409	  0.554057	7.27718e+06	
         R10	   3961	      76.5	    16.552	  0.537142	7.10065e+06	      76.5	   16.5146	       0.8	8.29644e+06	      76.5	   16.7265	       0.8	8.47743e+06	      76.5	   16.7761	    0.5712	7.39089e+06	      76.5	   16.5333	  0.668571	7.69238e+06	      76.5	   16.6206	       0.8	8.35577e+06	      76.5	   16.7513	    0.6856	7.92372e+06	      76.5	   16.6641	  0.554171	7.22088e+06	
         R10	   3962	      76.5	    16.552	  0.537142	7.27939e+06	      76.5	   16.7761	    0.5712	6.99529e+06	      76.5	    16.834	  0.304533	8.72479e+06	      76.5	    16.571	  0.285904	3.89172e+06	      76.5	   16.6641	  0.554171	7.09419e+06	      76.5	    16.805	  0.437866	7.82587e+06	      76.5	   16.7025	  0.295219	5.82398e+06	      76.5	   16.5615	  0.411523	5.30986e+06	
         R10	   3963	      76.5	    16.571	  0.285904	1.80231e+06	      76.5	    16.834	  0.304533	8.89517e+06	      76.5	      16.9	         0	1.39944e+07	      76.5	    16.608	         0	4.62273e+06	      76.5	   16.7025	  0.295219	5.03724e+06	      76.5	    16.867	  0.152267	 1.0402e+07	      76.5	    16.754	         0	7.08749e+06	      76.5	   16.5895	  0.142952	2.36128e+06	
         R10	   3964	      76.5	    16.315	  0.171296	1.11627e+07	      76.5	    16.571	  0.285904	3.34322e+06	      76.5	    16.608	         0	7.87218e+06	      76.5	   16.3413	         0	4.84165e+06	      76.5	    16.443	    0.2286	6.59783e+06	      76.5	   16.5895	  0.142952	4.73703e+06	      76.5	   16.4747	         0	2.79852e+06	      76.5	   16.3282	  0.085648	4.08978e+06	
         R10	   3965	      76.5	    16.315	  0.171296	1.33538e+07	      76.5	   16.3413	         0	 8.1907e+06	      76.5	      16.1	         0	3.40724e+07	      76.5	   16.0536	  0.215017	1.46662e+07	      76.5	   16.3282	  0.085648	9.14171e+06	      76.5	   16.2207	         0	1.67767e+07	      76.5	   16.0768	  0.107508	2.16328e+07	      76.5	   16.1843	  0.193157	9.82879e+06	
         R10	   3966	      76.5	   16.0536	  0.215017	1.30709e+07	      76.5	      16.1	         0	2.16944e+07	      76.5	   15.8206	         0	8.56019e+06	      76.5	   15.8108	  0.235053	1.61594e+06	      76.5	   16.0768	  0.107508	1.43848e+07	      76.5	   15.9603	         0	7.51374e+06	      76.5	   15.8157	  0.117527	3.68683e+06	      76.5	   15.9322	  0.225035	6.55123e+06	
         R10	   3967	      76.5	   15.8108	  0.235053	4.94283e+06	      76.5	   15.8206	         0	6.05556e+06	      76.5	    15.554	         0	5.61548e+06	      76.5	   15.5629	  0.231698	2.75935e+06	      76.5	   15.8157	  0.117527	 4.3583e+06	      76.5	   15.6873	         0	5.57353e+06	      76.5	   15.5584	  0.115849	4.17548e+06	      76.5	   15.6868	  0.233375	3.42396e+06	
         R10	   3968	      76.5	   15.7949	  0.452914	4.39498e+06	      76.5	   15.8108	  0.235053	3.18164e+06	      76.5	   15.5629	  0.231698	3.51062e+06	      76.5	   15.5432	  0.440834	2.64102e+06	      76.5	   15.8028	  0.343984	3.70674e+06	      76.5	   15.6868	  0.233375	3.31163e+06	      76.5	   15.5531	  0.336266	3.05133e+06	      76.5	   15.6691	  0.446874	3.27479e+06	
         R10	   3969	      76.5	   15.7949	  0.452914	 4.1461e+06	      76.5	   15.5432	  0.440834	2.84325e+06	      76.5	   15.4981	   0.61914	3.49884e+06	      76.5	   15.6821	  0.652991	4.19526e+06	      76.5	   15.6691	  0.446874	3.27153e+06	      76.5	   15.5206	  0.529987	3.14431e+06	      76.5	   15.5901	  0.636065	3.74483e+06	      76.5	   15.7385	  0.552952	4.06086e+06	
         R10	   3970	      76.5	   15.6821	  0.652991	4.12607e+06	      76.5	    15.763	       0.8	5.37529e+06	      76.5	   15.9365	       0.8	6.40624e+06	      76.5	   15.9326	  0.640757	6.30662e+06	      76.5	   15.7225	  0.726495	4.75061e+06	      76.5	   15.8497	       0.8	5.87092e+06	      76.5	   15.9346	  0.720379	 6.3462e+06	      76.5	   15.8073	  0.646874	5.16827e+06	
         R10	   3971	      76.5	   15.7949	  0.452914	5.16377e+06	      76.5	   15.9326	  0.640757	6.26562e+06	      76.5	   16.1125	  0.604497	7.84163e+06	      76.5	   16.0746	  0.429174	 7.9253e+06	      76.5	   15.8638	  0.546836	5.69686e+06	      76.5	   16.0226	  0.622627	7.05037e+06	      76.5	   16.0936	  0.516835	7.83008e+06	      76.5	   15.9348	  0.441044	6.51775e+06	
         R10	   3972	      76.5	   16.0746	  0.429174	7.82197e+06	      76.5	   16.1125	  0.604497	7.76838e+06	      76.5	   16.3297	  0.570973	7.78947e+06	      76.5	   16.3133	  0.416652	8.67024e+06	      76.5	   16.0936	  0.516835	7.79028e+06	      76.5	   16.2211	  0.587735	 7.7762e+06	      76.5	   16.3215	  0.493812	 8.2237e+06	      76.5	   16.1939	  0.422913	8.23525e+06	
         R10	   3973	      76.5	   16.0536	  0.215017	1.23339e+07	      76.5	   15.8108	  0.235053	3.19088e+06	      76.5	   15.7949	  0.452914	5.54858e+06	      76.5	   16.0746	  0.429174	6.93359e+06	      76.5	   15.9322	  0.225035	6.95544e+06	      76.5	   15.8028	  0.343984	3.62972e+06	      76.5	   15.9348	  0.441044	6.23795e+06	      76.5	   16.0641	  0.322095	9.62777e+06	
         R10	   3974	      76.5	    16.315	  0.171296	1.18385e+07	      76.5	   16.0536	  0.215017	 1.3642e+07	      76.5	   16.0746	  0.429174	8.66699e+06	      76.5	   16.3133	  0.416652	9.36074e+06	      76.5	   16.1843	  0.193157	1.02725e+07	      76.5	   16.0641	  0.322095	1.09134e+07	      76.5	   16.1939	  0.422913	9.00636e+06	      76.5	   16.3141	  0.293974	9.73457e+06	
         R10	   3975	      76.5	    16.571	  0.285904	4.11158e+06	      76.5	   16.3133	  0.416652	8.52286e+06	      76.5	   16.3297	  0.570973	 7.5854e+06	      76.5	    16.552	  0.537142	6.82147e+06	      76.5	   16.4421	  0.351278	 6.1627e+06	      76.5	   16.3215	  0.493812	7.95748e+06	      76.5	   16.4409	  0.554057	7.18505e+06	      76.5	   16.5615	  0.411523	5.46035e+06	
         R10	   3976	      76.5	   15.6821	  0.652991	4.14798e+06	      76.5	   15.5991	       0.8	4.57628e+06	      76.5	    15.763	       0.8	5.38961e+06	      76.5	   15.6406	  0.726495	4.31843e+06	      76.5	    15.681	       0.8	4.92659e+06	      76.5	   15.7225	  0.726495	4.76784e+06	       N/A	       N/A	       N/A	        N/A	       N/A	       N/A	       N/A	        N/A	
         R10	   3977	      76.5	   15.7949	  0.452914	4.65109e+06	      76.5	   15.6821	  0.652991	4.05538e+06	      76.5	   15.9326	  0.640757	6.36201e+06	      76.5	   15.7385	  0.552952	4.26217e+06	      76.5	   15.8073	  0.646874	5.15329e+06	      76.5	   15.8638	  0.546836	5.49787e+06	       N/A	       N/A	       N/A	        N/A	       N/A	       N/A	       N/A	        N/A	
         R10	   3978	      76.5	    16.571	  0.285904	3.73489e+06	      76.5	    16.315	  0.171296	 6.4663e+06	      76.5	   16.3133	  0.416652	8.29651e+06	      76.5	    16.443	    0.2286	 4.6892e+06	      76.5	   16.3141	  0.293974	7.34859e+06	      76.5	   16.4421	  0.351278	5.71535e+06	       N/A	       N/A	       N/A	        N/A	       N/A	       N/A	       N/A	        N/A	
         R10	   3979	    80.325	   19.7344	         0	1.21982e+07	     80.75	   19.7344	         0	5.79916e+06	     80.75	      19.3	         0	 4.3229e+06	    80.325	      19.3	         0	8.03451e+06	   80.5375	   19.7344	         0	7.82588e+06	     80.75	   19.5172	         0	4.80862e+06	   80.5375	      19.3	         0	6.13238e+06	    80.325	   19.5172	         0	9.96282e+06	
         R10	   3980	      79.9	   19.7344	         0	9.44619e+06	    80.325	   19.7344	         0	8.73867e+06	    80.325	      19.3	         0	8.16719e+06	      79.9	      19.3	         0	1.01871e+07	   80.1125	   19.7344	         0	9.00346e+06	    80.325	   19.5172	         0	8.41213e+06	   80.1125	      19.3	         0	9.14543e+06	      79.9	   19.5172	         0	9.45536e+06	
         R10	   3981	    79.475	   19.7344	         0	9.17148e+06	      79.9	   19.7344	         0	9.54785e+06	      79.9	      19.3	         0	1.00387e+07	    79.475	      19.3	         0	1.09889e+07	   79.6875	   19.7344	         0	9.26834e+06	      79.9	   19.5172	         0	9.43963e+06	   79.6875	      19.3	         0	1.05137e+07	    79.475	   19.5172	         0	9.92012e+06	
         R10	   3982	     79.05	   19.7344	         0	1.02412e+07	    79.475	   19.7344	         0	9.16499e+06	    79.475	      19.3	         0	1.08728e+07	     79.05	      19.3	         0	1.16408e+07	   79.2625	   19.7344	         0	9.65149e+06	    79.475	   19.5172	         0	9.82931e+06	   79.2625	      19.3	         0	1.12457e+07	     79.05	   19.5172	         0	 1.0701e+07	
         R10	   3983	    78.625	   19.7344	         0	9.92569e+06	     79.05	   19.7344	         0	9.12118e+06	     79.05	      19.3	         0	1.17206e+07	    78.625	      19.3	         0	1.20776e+07	   78.8375	   19.7344	         0	9.50772e+06	     79.05	   19.5172	         0	1.02146e+07	   78.8375	      19.3	         0	1.18936e+07	    78.625	   19.5172	         0	1.07361e+07	
         R10	   3984	   79.6875	   21.0994	  0.764833	  8.085e+06	   79.1563	   21.0994	  0.764835	 8.4528e+06	   79.1563	   21.3636	    1.2195	8.03181e+06	   79.6875	   21.3636	    1.2195	6.97297e+06	   79.4219	   21.0994	  0.764834	8.23605e+06	   79.1563	   21.2465	  0.983449	8.22498e+06	   79.4219	   21.3636	    1.2195	7.49962e+06	   79.6875	   21.2465	  0.983448	7.51544e+06	
         R10	   3985	   80.2188	   21.0994	  0.764835	7.07969e+06	   79.6875	   21.0994	  0.764833	8.61923e+06	   79.6875	   21.3636	    1.2195	7.75187e+06	   80.2188	   21.3636	    1.2195	8.60614e+06	   79.9531	   21.0994	  0.764834	7.84734e+06	   79.6875	   21.2465	  0.983448	8.18511e+06	   79.9531	   21.3636	    1.2195	8.17644e+06	   80.2188	   21.2465	  0.983449	7.84113e+06	
         R10	   3986	     80.75	   21.0996	  0.765063	2.21071e+06	   80.2188	   21.0994	  0.764835	9.81617e+06	   80.2188	   21.3636	    1.2195	8.36504e+06	     80.75	   21.3636	    1.2195	8.71624e+06	   80.4844	   21.0995	  0.764949	5.96766e+06	   80.2188	   21.2465	  0.983449	9.08048e+06	   80.4844	   21.3636	    1.2195	8.33793e+06	     80.75	   21.2466	  0.983574	5.40287e+06	
         R10	   3987	   80.2188	   20.7284	  0.396646	1.03749e+07	   80.2188	   21.0994	  0.764835	9.46365e+06	     80.75	   21.0996	  0.765063	2.43517e+06	     80.75	   20.7284	  0.396646	6.29264e+06	   80.2188	    20.926	  0.568568	9.90271e+06	   80.4844	   21.0995	  0.764949	5.88431e+06	     80.75	   20.9261	   0.56867	4.01448e+06	   80.4844	   20.7284	  0.396646	8.00245e+06	
         R10	   3988	   79.6875	   20.7284	  0.396646	8.32517e+06	   79.6875	   21.0994	  0.764833	8.67322e+06	   80.2188	   21.0994	  0.764835	 7.0201e+06	   80.2188	   20.7284	  0.396646	8.74125e+06	   79.6875	    20.926	  0.568567	 8.4934e+06	   79.9531	   21.0994	  0.764834	7.82166e+06	   80.2188	    20.926	  0.568568	7.85859e+06	   79.9531	   20.7284	  0.396646	 8.5092e+06	
         R10	   3989	   79.1563	   20.7284	  0.396646	8.85973e+06	   79.1563	   21.0994	  0.764835	8.50257e+06	   79.6875	   21.0994	  0.764833	8.03275e+06	   79.6875	   20.7284	  0.396646	8.65929e+06	   79.1563	    20.926	  0.568568	8.67916e+06	   79.4219	   21.0994	  0.764834	8.25501e+06	   79.6875	    20.926	  0.568567	8.33478e+06	   79.4219	   20.7284	  0.396646	8.73516e+06	
         R10	   3990	    78.625	   21.0996	  0.765063	8.45002e+06	   79.1563	   21.0994	  0.764835	8.46114e+06	   79.1563	   20.7284	  0.396646	 8.8637e+06	    78.625	   20.7284	  0.396646	9.04545e+06	   78.8906	   21.0995	  0.764949	8.43258e+06	   79.1563	    20.926	  0.568568	8.66127e+06	   78.8906	   20.7284	  0.396646	8.94615e+06	    78.625	   20.9261	   0.56867	8.74496e+06	
         R10	   3991	    78.625	   21.3636	    1.2195	7.69661e+06	   79.1563	   21.3636	    1.2195	6.97673e+06	   79.1563	   21.0994	  0.764835	8.44206e+06	    78.625	   21.0996	  0.765063	8.34632e+06	   78.8906	   21.3636	    1.2195	7.33661e+06	   79.1563	   21.2465	  0.983449	7.69123e+06	   78.8906	   21.0995	  0.764949	8.37779e+06	    78.625	   21.2466	  0.983574	8.00615e+06	
         R10	   3992	      76.5	   15.4447	       0.8	4.59914e+06	      76.5	      15.3	       0.8	4.66485e+06	      76.5	      15.3	  0.951056	 6.2412e+06	      76.5	   15.4471	  0.948442	5.46285e+06	      76.5	   15.3724	       0.8	4.60737e+06	      76.5	      15.3	  0.875528	5.44958e+06	      76.5	   15.3736	  0.949749	5.82557e+06	      76.5	   15.4459	  0.874221	5.02924e+06	
         R10	   3993	      76.5	   15.4471	  0.948442	5.58705e+06	      76.5	      15.3	  0.951056	5.41757e+06	      76.5	      15.3	   1.08986	6.59398e+06	      76.5	   15.4372	   1.08661	6.13482e+06	      76.5	   15.3736	  0.949749	5.48136e+06	      76.5	      15.3	   1.02046	6.00534e+06	      76.5	   15.3686	   1.08823	6.34358e+06	      76.5	   15.4422	   1.01753	5.86092e+06	
         R10	   3994	      76.5	   15.4372	   1.08661	6.22075e+06	      76.5	      15.3	   1.08986	 6.2408e+06	      76.5	      15.3	    1.2164	 7.0516e+06	      76.5	   15.4238	   1.21291	 6.7649e+06	      76.5	   15.3686	   1.08823	6.21144e+06	      76.5	      15.3	   1.15313	6.64599e+06	      76.5	   15.3619	   1.21465	6.89344e+06	      76.5	   15.4305	   1.14976	 6.4927e+06	
         R10	   3995	      76.5	   15.4238	   1.21291	6.80814e+06	      76.5	      15.3	    1.2164	6.91188e+06	      76.5	      15.3	   1.33068	7.48241e+06	      76.5	   15.4108	   1.32815	7.32365e+06	      76.5	   15.3619	   1.21465	 6.8458e+06	      76.5	      15.3	   1.27354	7.19696e+06	      76.5	   15.3554	   1.32942	7.39236e+06	      76.5	   15.4173	   1.27053	7.06584e+06	
         R10	   3996	      76.5	   15.4108	   1.32815	7.35571e+06	      76.5	      15.3	   1.33068	7.46184e+06	      76.5	      15.3	   1.43271	7.88002e+06	      76.5	    15.399	   1.42981	 7.7831e+06	      76.5	   15.3554	   1.32942	 7.3976e+06	      76.5	      15.3	    1.3817	7.67059e+06	      76.5	   15.3495	   1.43126	7.82509e+06	      76.5	   15.4049	   1.37898	7.56931e+06	
         R10	   3997	      76.5	    15.399	   1.42981	7.82446e+06	      76.5	      15.3	   1.43271	7.96461e+06	      76.5	      15.3	   1.52248	 8.1285e+06	      76.5	    15.387	   1.52533	8.36467e+06	      76.5	   15.3495	   1.43126	7.88566e+06	      76.5	      15.3	    1.4776	 8.0456e+06	      76.5	   15.3435	   1.52391	8.24209e+06	      76.5	    15.393	   1.47757	8.09455e+06	
         R10	   3998	      76.5	    15.387	   1.52533	 8.4476e+06	      76.5	      15.3	   1.52248	9.03896e+06	      76.5	      15.3	       1.6	8.66932e+06	      76.5	   15.3728	   1.62497	8.16133e+06	      76.5	   15.3435	   1.52391	8.73231e+06	      76.5	      15.3	   1.56124	8.82205e+06	      76.5	   15.3364	   1.61249	8.40777e+06	      76.5	   15.3799	   1.57515	8.29768e+06	
         R10	   3999	      76.5	   15.4773	   1.54028	8.33688e+06	      76.5	    15.387	   1.52533	8.46594e+06	      76.5	   15.3728	   1.62497	8.27976e+06	      76.5	   15.4484	   1.65091	8.31976e+06	      76.5	   15.4321	   1.53281	 8.3899e+06	      76.5	   15.3799	   1.57515	 8.3673e+06	      76.5	   15.4106	   1.63794	8.29928e+06	      76.5	   15.4628	    1.5956	8.32767e+06	
         R10	   4000	      76.5	   15.4773	   1.54028	 8.3189e+06	      76.5	   15.4484	   1.65091	8.29689e+06	      76.5	   15.5269	   1.67782	8.41639e+06	      76.5	   15.5552	   1.58707	8.38175e+06	      76.5	   15.4628	    1.5956	8.30724e+06	      76.5	   15.4877	   1.66437	8.35382e+06	      76.5	    15.541	   1.63244	8.39776e+06	      76.5	   15.5162	   1.56367	8.34629e+06	
         R10	   4001	      76.5	   15.5552	   1.58707	8.38022e+06	      76.5	   15.5269	   1.67782	8.41223e+06	      76.5	   15.6082	   1.70569	8.54287e+06	      76.5	   15.6383	   1.61981	8.47721e+06	      76.5	    15.541	   1.63244	8.39499e+06	      76.5	   15.5675	   1.69176	8.47354e+06	      76.5	   15.6232	   1.66275	8.50892e+06	      76.5	   15.5967	   1.60344	8.42501e+06	
         R10	   4002	      76.5	   15.6383	   1.61981	8.47982e+06	      76.5	   15.6082	   1.70569	  8.544e+06	      76.5	   15.6922	   1.73453	8.66355e+06	      76.5	   15.7227	    1.6478	 8.6042e+06	      76.5	   15.6232	   1.66275	 8.5108e+06	      76.5	   15.6502	   1.72011	8.59974e+06	      76.5	   15.7075	   1.69116	8.63285e+06	      76.5	   15.6805	    1.6338	8.53822e+06	
         R10	   4003	      76.5	   15.7227	    1.6478	8.61255e+06	      76.5	   15.6922	   1.73453	8.66198e+06	      76.5	   15.7791	   1.76433	8.78131e+06	      76.5	   15.8106	   1.67476	8.75667e+06	      76.5	   15.7075	   1.69116	8.63624e+06	      76.5	   15.7357	   1.74943	8.71806e+06	      76.5	   15.7949	   1.71955	8.76797e+06	      76.5	   15.7667	   1.66128	8.68115e+06	
         R10	   4004	      76.5	   15.8106	   1.67476	8.77356e+06	      76.5	   15.7791	   1.76433	8.77923e+06	      76.5	   15.8689	    1.7951	8.91395e+06	      76.5	   15.9018	   1.70209	8.92936e+06	      76.5	   15.7949	   1.71955	 8.7754e+06	      76.5	    15.824	   1.77972	8.84374e+06	      76.5	   15.8853	   1.74859	8.92052e+06	      76.5	   15.8562	   1.68842	8.84851e+06	
         R10	   4005	      76.5	   15.9018	   1.70209	8.95797e+06	      76.5	   15.8689	    1.7951	8.91219e+06	      76.5	   15.9614	   1.82684	9.06878e+06	      76.5	   15.9952	   1.73026	9.13198e+06	      76.5	   15.8853	   1.74859	8.93396e+06	      76.5	   15.9151	   1.81097	8.98838e+06	      76.5	   15.9783	   1.77855	9.09904e+06	      76.5	   15.9485	   1.71617	 9.0427e+06	
         R10	   4006	      76.5	   15.9952	   1.73026	9.17523e+06	      76.5	   15.9614	   1.82684	9.06702e+06	      76.5	   16.0567	   1.85954	9.25563e+06	      76.5	    16.091	   1.76071	 9.3774e+06	      76.5	   15.9783	   1.77855	9.11977e+06	      76.5	   16.0091	   1.84319	9.15989e+06	      76.5	   16.0739	   1.81012	9.31481e+06	      76.5	   16.0431	   1.74548	9.27467e+06	
         R10	   4007	      76.5	    16.091	   1.76071	9.44625e+06	      76.5	   16.0567	   1.85954	9.25525e+06	      76.5	   16.1549	    1.8932	9.45491e+06	      76.5	   16.1873	   1.79422	9.67212e+06	      76.5	   16.0739	   1.81012	9.34919e+06	      76.5	   16.1058	   1.87637	9.35427e+06	      76.5	   16.1711	   1.84371	9.56113e+06	      76.5	   16.1391	   1.77747	9.55799e+06	
         R10	   4008	      76.5	   16.1873	   1.79422	9.78655e+06	      76.5	   16.1549	    1.8932	9.45365e+06	      76.5	   16.2559	   1.92784	 9.6861e+06	      76.5	   16.2882	   1.82816	1.00388e+07	      76.5	   16.1711	   1.84371	9.61807e+06	      76.5	   16.2054	   1.91052	 9.5696e+06	      76.5	    16.272	     1.878	 9.8591e+06	      76.5	   16.2377	   1.81119	9.91203e+06	
         R10	   4009	      76.5	   16.2882	   1.82816	1.02144e+07	      76.5	   16.2559	   1.92784	9.65989e+06	      76.5	   16.3597	   1.96344	1.00248e+07	      76.5	    16.394	   1.85418	1.04956e+07	      76.5	    16.272	     1.878	9.93479e+06	      76.5	   16.3078	   1.94564	9.84223e+06	      76.5	   16.3768	   1.90881	1.02489e+07	      76.5	   16.3411	   1.84117	1.03522e+07	
         R10	   4010	      76.5	    16.394	   1.85418	1.07302e+07	      76.5	   16.3597	   1.96344	9.93332e+06	      76.5	   16.4663	         2	1.13357e+07	      76.5	   16.4915	   1.88373	1.03468e+07	      76.5	   16.3768	   1.90881	1.03237e+07	      76.5	    16.413	   1.98172	1.06334e+07	      76.5	   16.4789	   1.94186	1.08209e+07	      76.5	   16.4427	   1.86895	1.05342e+07	
         R10	   4011	      76.5	    16.394	   1.85418	1.05994e+07	      76.5	   16.4915	   1.88373	1.06496e+07	      76.5	   16.5207	   1.74907	1.07386e+07	      76.5	    16.385	   1.71129	1.04983e+07	      76.5	   16.4427	   1.86895	1.06201e+07	      76.5	   16.5061	    1.8164	1.06905e+07	      76.5	   16.4528	   1.73018	1.06163e+07	      76.5	   16.3895	   1.78273	1.05412e+07	
         R10	   4012	      76.5	    16.385	   1.71129	1.03989e+07	      76.5	   16.5207	   1.74907	 1.0817e+07	      76.5	   16.5539	   1.59602	1.07866e+07	      76.5	   16.4042	   1.54963	1.02297e+07	      76.5	   16.4528	   1.73018	1.06056e+07	      76.5	   16.5373	   1.67255	1.07902e+07	      76.5	    16.479	   1.57283	1.05052e+07	      76.5	   16.3946	   1.63046	1.03067e+07	
         R10	   4013	      76.5	   16.4042	   1.54963	1.02391e+07	      76.5	   16.5539	   1.59602	1.07642e+07	      76.5	   16.5911	    1.4246	1.05618e+07	      76.5	   16.4147	   1.38067	9.85497e+06	      76.5	    16.479	   1.57283	1.04985e+07	      76.5	   16.5725	   1.51031	1.06508e+07	      76.5	   16.5029	   1.40264	1.02016e+07	      76.5	   16.4095	   1.46515	1.00411e+07	
         R10	   4014	      76.5	   16.4147	   1.38067	9.89324e+06	      76.5	   16.5911	    1.4246	1.05444e+07	      76.5	   16.6322	   1.23478	1.01036e+07	      76.5	   16.4414	   1.19228	 9.4019e+06	      76.5	   16.5029	   1.40264	1.02119e+07	      76.5	   16.6116	   1.32969	1.03117e+07	      76.5	   16.5368	   1.21353	9.74134e+06	      76.5	   16.4281	   1.28648	9.64112e+06	
         R10	   4015	      76.5	   16.4414	   1.19228	 9.4293e+06	      76.5	   16.6322	   1.23478	1.00976e+07	      76.5	   16.6774	   1.02658	9.39405e+06	      76.5	   16.4758	  0.989053	8.88988e+06	      76.5	   16.5368	   1.21353	9.75159e+06	      76.5	   16.6548	   1.13068	9.73715e+06	      76.5	   16.5766	   1.00782	9.12807e+06	      76.5	   16.4586	   1.09067	9.15355e+06	
         R10	   4016	      76.5	   16.4758	  0.989053	8.91552e+06	      76.5	   16.6774	   1.02658	9.37131e+06	      76.5	   16.7265	       0.8	8.52712e+06	      76.5	   16.5146	       0.8	8.23176e+06	      76.5	   16.5766	   1.00782	9.12713e+06	      76.5	   16.7019	  0.913292	8.94275e+06	      76.5	   16.6206	       0.8	8.35648e+06	      76.5	   16.4952	  0.894527	8.57082e+06	
         R10	   4017	      76.5	   16.4758	  0.989053	8.79901e+06	      76.5	   16.5146	       0.8	  8.229e+06	      76.5	   16.3123	       0.8	8.06259e+06	      76.5	   16.3016	  0.989632	8.43319e+06	      76.5	   16.4952	  0.894527	8.51137e+06	      76.5	   16.4135	       0.8	8.13219e+06	      76.5	    16.307	  0.894816	8.24729e+06	      76.5	   16.3887	  0.989343	8.60853e+06	
         R10	   4018	      76.5	   16.3016	  0.989632	8.34476e+06	      76.5	   16.3123	       0.8	8.06799e+06	      76.5	   16.1196	       0.8	7.50926e+06	      76.5	   16.1185	  0.979508	7.82876e+06	      76.5	    16.307	  0.894816	8.20564e+06	      76.5	    16.216	       0.8	7.78609e+06	      76.5	    16.119	  0.889754	7.66323e+06	      76.5	     16.21	   0.98457	8.07628e+06	
         R10	   4019	      76.5	   16.1185	  0.979508	7.78801e+06	      76.5	   16.1196	       0.8	7.44532e+06	      76.5	   15.9365	       0.8	6.56558e+06	      76.5	   15.9358	  0.973854	6.89231e+06	      76.5	    16.119	  0.889754	7.60957e+06	      76.5	    16.028	       0.8	6.99878e+06	      76.5	   15.9362	  0.886927	6.72071e+06	      76.5	   16.0272	  0.976681	7.33126e+06	
         R10	   4020	      76.5	   15.9358	  0.973854	6.85238e+06	      76.5	   15.9365	       0.8	  6.446e+06	      76.5	    15.763	       0.8	5.36823e+06	      76.5	    15.766	  0.966955	6.08039e+06	      76.5	   15.9362	  0.886927	6.64073e+06	      76.5	   15.8497	       0.8	5.88662e+06	      76.5	   15.7645	  0.883477	5.71741e+06	      76.5	   15.8509	  0.970404	6.44548e+06	
         R10	   4021	      76.5	    15.766	  0.966955	6.04551e+06	      76.5	    15.763	       0.8	5.30939e+06	      76.5	   15.5991	       0.8	4.65471e+06	      76.5	   15.6016	  0.956263	5.49398e+06	      76.5	   15.7645	  0.883477	5.67066e+06	      76.5	    15.681	       0.8	4.93417e+06	      76.5	   15.6003	  0.878131	5.07293e+06	      76.5	   15.6838	  0.961609	5.73226e+06	
         R10	   4022	      76.5	   15.6016	  0.956263	5.49126e+06	      76.5	   15.5991	       0.8	4.69496e+06	      76.5	   15.4447	       0.8	4.52643e+06	      76.5	   15.4471	  0.948442	5.44169e+06	      76.5	   15.6003	  0.878131	 5.0914e+06	      76.5	   15.5219	       0.8	4.55706e+06	      76.5	   15.4459	  0.874221	4.98338e+06	      76.5	   15.5244	  0.952353	 5.4295e+06	
         R10	   4023	      76.5	   15.5936	   1.10089	6.27011e+06	      76.5	   15.6016	  0.956263	5.50913e+06	      76.5	   15.4471	  0.948442	5.53262e+06	      76.5	   15.4372	   1.08661	6.13668e+06	      76.5	   15.5976	   1.02857	 5.8886e+06	      76.5	   15.5244	  0.952353	5.48249e+06	      76.5	   15.4422	   1.01753	5.83464e+06	      76.5	   15.5154	   1.09375	6.17338e+06	
         R10	   4024	      76.5	   15.5936	   1.10089	 6.2688e+06	      76.5	   15.4372	   1.08661	6.23197e+06	      76.5	   15.4238	   1.21291	6.79205e+06	      76.5	   15.5577	   1.22648	6.85075e+06	      76.5	   15.5154	   1.09375	6.22075e+06	      76.5	   15.4305	   1.14976	6.51197e+06	      76.5	   15.4908	   1.21969	6.80266e+06	      76.5	   15.5757	   1.16368	6.55743e+06	
         R10	   4025	      76.5	   15.5577	   1.22648	6.86739e+06	      76.5	   15.4238	   1.21291	 6.8347e+06	      76.5	   15.4108	   1.32815	7.33445e+06	      76.5	   15.5314	   1.34239	7.39647e+06	      76.5	   15.4908	   1.21969	6.83251e+06	      76.5	   15.4173	   1.27053	7.08452e+06	      76.5	   15.4711	   1.33527	7.35143e+06	      76.5	   15.5446	   1.28443	7.13104e+06	
         R10	   4026	      76.5	   15.5314	   1.34239	 7.4214e+06	      76.5	   15.4108	   1.32815	7.36466e+06	      76.5	    15.399	   1.42981	7.81595e+06	      76.5	   15.5038	   1.44587	7.86055e+06	      76.5	   15.4711	   1.33527	7.37948e+06	      76.5	   15.4049	   1.37898	7.59021e+06	      76.5	   15.4514	   1.43784	7.82665e+06	      76.5	   15.5176	   1.39413	7.64057e+06	
         R10	   4027	      76.5	   15.5038	   1.44587	 7.9306e+06	      76.5	    15.399	   1.42981	7.85778e+06	      76.5	    15.387	   1.52533	8.30976e+06	      76.5	   15.4773	   1.54028	 8.1849e+06	      76.5	   15.4514	   1.43784	7.88374e+06	      76.5	    15.393	   1.47757	8.08362e+06	      76.5	   15.4321	   1.53281	8.23999e+06	      76.5	   15.4905	   1.49307	8.05757e+06	
         R10	   4028	      76.5	   15.6036	    1.4761	8.01835e+06	      76.5	   15.5038	   1.44587	7.90902e+06	      76.5	   15.4773	   1.54028	8.23541e+06	      76.5	   15.5552	   1.58707	8.31156e+06	      76.5	   15.5537	   1.46098	7.95472e+06	      76.5	   15.4905	   1.49307	8.07199e+06	      76.5	   15.5162	   1.56367	8.26805e+06	      76.5	   15.5794	   1.53159	8.16356e+06	
         R10	   4029	      76.5	   15.6036	    1.4761	8.01273e+06	      76.5	   15.5552	   1.58707	8.32106e+06	      76.5	   15.6383	   1.61981	8.38466e+06	      76.5	   15.6651	   1.52806	8.22879e+06	      76.5	   15.5794	   1.53159	8.16549e+06	      76.5	   15.5967	   1.60344	 8.3488e+06	      76.5	   15.6517	   1.57393	8.30577e+06	      76.5	   15.6344	   1.50208	 8.1177e+06	
         R10	   4030	      76.5	   15.6651	   1.52806	8.23714e+06	      76.5	   15.6383	   1.61981	8.38196e+06	      76.5	   15.7227	    1.6478	8.51204e+06	      76.5	   15.7541	   1.55755	8.38989e+06	      76.5	   15.6517	   1.57393	8.30886e+06	      76.5	   15.6805	    1.6338	 8.4432e+06	      76.5	   15.7384	   1.60268	8.44988e+06	      76.5	   15.7096	   1.54281	8.30901e+06	
         R10	   4031	      76.5	   15.7541	   1.55755	8.38924e+06	      76.5	   15.7227	    1.6478	8.52244e+06	      76.5	   15.8106	   1.67476	8.66025e+06	      76.5	    15.837	   1.57675	8.56602e+06	      76.5	   15.7384	   1.60268	8.45478e+06	      76.5	   15.7667	   1.66128	8.58789e+06	      76.5	   15.8238	   1.62576	8.61212e+06	      76.5	   15.7956	   1.56715	8.47438e+06	
         R10	   4032	      76.5	    15.837	   1.57675	8.55347e+06	      76.5	   15.8106	   1.67476	8.67639e+06	      76.5	   15.9018	   1.70209	8.84548e+06	      76.5	    15.933	    1.6028	8.81114e+06	      76.5	   15.8238	   1.62576	8.61381e+06	      76.5	   15.8562	   1.68842	8.75795e+06	      76.5	   15.9174	   1.65244	  8.827e+06	      76.5	    15.885	   1.58978	8.67916e+06	
         R10	   4033	      76.5	    15.933	    1.6028	8.76716e+06	      76.5	   15.9018	   1.70209	8.87674e+06	      76.5	   15.9952	   1.73026	9.06052e+06	      76.5	    16.021	   1.62568	9.06989e+06	      76.5	   15.9174	   1.65244	8.82044e+06	      76.5	   15.9485	   1.71617	8.96644e+06	      76.5	   16.0081	   1.67797	9.06356e+06	      76.5	    15.977	   1.61424	8.91634e+06	
         R10	   4034	      76.5	    16.021	   1.62568	9.03495e+06	      76.5	   15.9952	   1.73026	9.10048e+06	      76.5	    16.091	   1.76071	9.31956e+06	      76.5	   16.1253	   1.65386	9.37609e+06	      76.5	   16.0081	   1.67797	9.06604e+06	      76.5	   16.0431	   1.74548	9.20838e+06	      76.5	   16.1081	   1.70728	9.34526e+06	      76.5	   16.0732	   1.63977	9.20324e+06	
         R10	   4035	      76.5	   16.1253	   1.65386	9.34205e+06	      76.5	    16.091	   1.76071	9.39863e+06	      76.5	   16.1873	   1.79422	9.59757e+06	      76.5	   16.2151	   1.67809	9.74142e+06	      76.5	   16.1081	   1.70728	9.36682e+06	      76.5	   16.1391	   1.77747	9.49681e+06	      76.5	   16.2012	   1.73616	9.66678e+06	      76.5	   16.1702	   1.66598	9.54085e+06	
         R10	   4036	      76.5	   16.2453	   1.53875	9.59602e+06	      76.5	   16.4042	   1.54963	1.01247e+07	      76.5	   16.4147	   1.38067	9.73844e+06	      76.5	   16.2435	   1.35799	9.20549e+06	      76.5	   16.3248	   1.54419	9.85157e+06	      76.5	   16.4095	   1.46515	9.92582e+06	      76.5	   16.3291	   1.36933	9.46292e+06	      76.5	   16.2444	   1.44837	  9.396e+06	
         R10	   4037	      76.5	   16.2435	   1.35799	9.16723e+06	      76.5	   16.4147	   1.38067	9.76829e+06	      76.5	   16.4414	   1.19228	9.31478e+06	      76.5	   16.2504	   1.17397	 8.7371e+06	      76.5	   16.3291	   1.36933	9.45927e+06	      76.5	   16.4281	   1.28648	9.53414e+06	      76.5	   16.3459	   1.18313	 9.0139e+06	      76.5	   16.2469	   1.26598	8.94826e+06	
         R10	   4038	      76.5	   16.2504	   1.17397	8.73269e+06	      76.5	   16.4414	   1.19228	 9.3347e+06	      76.5	   16.4758	  0.989053	8.77152e+06	      76.5	   16.3016	  0.989632	8.47317e+06	      76.5	   16.3459	   1.18313	9.02311e+06	      76.5	   16.4586	   1.09067	9.04731e+06	      76.5	   16.3887	  0.989343	8.61201e+06	      76.5	    16.276	    1.0818	8.59759e+06	
         R10	   4039	      76.5	   16.0856	   1.15142	 8.1082e+06	      76.5	   16.2504	   1.17397	8.62745e+06	      76.5	   16.3016	  0.989632	8.37779e+06	      76.5	   16.1185	  0.979508	7.76893e+06	      76.5	    16.168	   1.16269	8.35765e+06	      76.5	    16.276	    1.0818	8.49743e+06	      76.5	     16.21	   0.98457	8.06748e+06	      76.5	   16.1021	   1.06546	7.93016e+06	
         R10	   4040	      76.5	   16.0856	   1.15142	8.02284e+06	      76.5	   16.1185	  0.979508	    7.7e+06	      76.5	   15.9358	  0.973854	6.92689e+06	      76.5	   15.9247	   1.15055	 7.4281e+06	      76.5	   16.1021	   1.06546	7.85302e+06	      76.5	   16.0272	  0.976681	7.29979e+06	      76.5	   15.9303	    1.0622	7.17173e+06	      76.5	   16.0052	   1.15098	7.71378e+06	
         R10	   4041	      76.5	   15.9247	   1.15055	7.36155e+06	      76.5	   15.9358	  0.973854	 6.8957e+06	      76.5	    15.766	  0.966955	6.08229e+06	      76.5	   15.7561	   1.13048	6.77356e+06	      76.5	   15.9303	    1.0622	7.12285e+06	      76.5	   15.8509	  0.970404	6.46843e+06	      76.5	    15.761	   1.04872	6.42324e+06	      76.5	   15.8404	   1.14051	7.04621e+06	
         R10	   4042	      76.5	   15.7561	   1.13048	6.71937e+06	      76.5	    15.766	  0.966955	6.06052e+06	      76.5	   15.6016	  0.956263	5.53075e+06	      76.5	   15.5936	   1.10089	6.30016e+06	      76.5	    15.761	   1.04872	6.38565e+06	      76.5	   15.6838	  0.961609	5.76031e+06	      76.5	   15.5976	   1.02857	5.91443e+06	      76.5	   15.6749	   1.11568	6.48199e+06	
         R10	   4043	      76.5	   15.7285	   1.27024	7.28173e+06	      76.5	   15.7561	   1.13048	6.74549e+06	      76.5	   15.5936	   1.10089	6.29489e+06	      76.5	   15.5577	   1.22648	6.87759e+06	      76.5	   15.7423	   1.20036	7.01001e+06	      76.5	   15.6749	   1.11568	6.49221e+06	      76.5	   15.5757	   1.16368	6.58385e+06	      76.5	   15.6431	   1.24836	7.05251e+06	
         R10	   4044	      76.5	   15.7285	   1.27024	7.29358e+06	      76.5	   15.5577	   1.22648	6.89376e+06	      76.5	   15.5314	   1.34239	7.39412e+06	      76.5	   15.6542	   1.36791	7.59038e+06	      76.5	   15.6431	   1.24836	7.06666e+06	      76.5	   15.5446	   1.28443	7.14309e+06	      76.5	   15.5928	   1.35515	7.47872e+06	      76.5	   15.6913	   1.31907	 7.4352e+06	
         R10	   4045	      76.5	   15.6542	   1.36791	7.60905e+06	      76.5	   15.5314	   1.34239	 7.4335e+06	      76.5	   15.5038	   1.44587	7.84754e+06	      76.5	   15.6036	    1.4761	7.98183e+06	      76.5	   15.5928	   1.35515	7.50752e+06	      76.5	   15.5176	   1.39413	7.64002e+06	      76.5	   15.5537	   1.46098	7.90617e+06	      76.5	   15.6289	   1.42201	7.79288e+06	
         R10	   4046	      76.5	   15.7532	   1.42698	7.99402e+06	      76.5	   15.6542	   1.36791	7.59658e+06	      76.5	   15.6036	    1.4761	7.97647e+06	      76.5	   15.6651	   1.52806	8.17134e+06	      76.5	   15.7037	   1.39745	7.78906e+06	      76.5	   15.6289	   1.42201	7.78347e+06	      76.5	   15.6344	   1.50208	8.07109e+06	      76.5	   15.7092	   1.47752	8.07573e+06	
         R10	   4047	      76.5	   15.7532	   1.42698	7.97533e+06	      76.5	   15.7541	   1.55755	8.34034e+06	      76.5	    15.837	   1.57675	8.50967e+06	      76.5	   15.8607	   1.48147	8.34468e+06	      76.5	   15.7537	   1.49227	8.15762e+06	      76.5	   15.7956	   1.56715	8.42179e+06	      76.5	   15.8488	   1.52911	8.42585e+06	      76.5	   15.8069	   1.45423	8.15383e+06	
         R10	   4048	      76.5	   15.8607	   1.48147	 8.3763e+06	      76.5	    15.837	   1.57675	8.47835e+06	      76.5	    15.933	    1.6028	8.77797e+06	      76.5	   15.9614	   1.49047	8.55529e+06	      76.5	   15.8488	   1.52911	8.42639e+06	      76.5	    15.885	   1.58978	8.62459e+06	      76.5	   15.9472	   1.54664	8.66436e+06	      76.5	    15.911	   1.48597	8.46042e+06	
         R10	   4049	      76.5	   15.9614	   1.49047	8.63537e+06	      76.5	    15.933	    1.6028	8.74721e+06	      76.5	    16.021	   1.62568	9.02755e+06	      76.5	   16.0793	   1.49729	8.89507e+06	      76.5	   15.9472	   1.54664	8.68968e+06	      76.5	    15.977	   1.61424	8.88555e+06	      76.5	   16.0502	   1.56148	8.95502e+06	      76.5	   16.0204	   1.49388	8.75858e+06	
         R10	   4050	      76.5	   16.0854	   1.34952	8.62512e+06	      76.5	   16.2435	   1.35799	9.09053e+06	      76.5	   16.2504	   1.17397	8.66848e+06	      76.5	   16.0856	   1.15142	8.04417e+06	      76.5	   16.1644	   1.35376	8.84651e+06	      76.5	   16.2469	   1.26598	8.87543e+06	      76.5	    16.168	   1.16269	8.34835e+06	      76.5	   16.0855	   1.25047	 8.3289e+06	
         R10	   4051	      76.5	   16.0854	   1.34952	8.57134e+06	      76.5	   16.0856	   1.15142	7.96563e+06	      76.5	   15.9247	   1.15055	 7.4658e+06	      76.5	   15.9138	   1.31243	7.93705e+06	      76.5	   16.0855	   1.25047	8.26276e+06	      76.5	   16.0052	   1.15098	 7.7005e+06	      76.5	   15.9193	   1.23149	7.69849e+06	      76.5	   15.9996	   1.33097	8.24254e+06	
         R10	   4052	      76.5	   15.9138	   1.31243	7.88638e+06	      76.5	   15.9247	   1.15055	7.40271e+06	      76.5	   15.7561	   1.13048	6.79588e+06	      76.5	   15.7285	   1.27024	7.29327e+06	      76.5	   15.9193	   1.23149	7.64104e+06	      76.5	   15.8404	   1.14051	7.07891e+06	      76.5	   15.7423	   1.20036	7.04149e+06	      76.5	   15.8212	   1.29133	7.56827e+06	
         R10	   4053	      76.5	   15.9138	   1.31243	7.91479e+06	      76.5	   15.7285	   1.27024	7.34274e+06	      76.5	   15.6542	   1.36791	7.58554e+06	      76.5	   15.7532	   1.42698	7.91734e+06	      76.5	   15.8212	   1.29133	7.60703e+06	      76.5	   15.6913	   1.31907	7.45661e+06	      76.5	   15.7037	   1.39745	7.74469e+06	      76.5	   15.8335	   1.36971	7.89153e+06	
         R10	   4054	      76.5	   16.0854	   1.34952	8.53012e+06	      76.5	   15.9138	   1.31243	7.95139e+06	      76.5	   15.9614	   1.49047	8.59094e+06	      76.5	   16.0793	   1.49729	8.92608e+06	      76.5	   15.9996	   1.33097	8.22668e+06	      76.5	   15.9376	   1.40145	8.27095e+06	      76.5	   16.0204	   1.49388	8.75285e+06	      76.5	   16.0823	   1.42341	8.72491e+06	
         R10	   4055	      76.5	   16.2453	   1.53875	9.49406e+06	      76.5	   16.2435	   1.35799	9.13026e+06	      76.5	   16.0854	   1.34952	8.58609e+06	      76.5	   16.0793	   1.49729	8.99168e+06	      76.5	   16.2444	   1.44837	 9.3075e+06	      76.5	   16.1644	   1.35376	8.84849e+06	      76.5	   16.0823	   1.42341	8.78592e+06	      76.5	   16.1623	   1.51802	9.23476e+06	
         R10	   4056	      76.5	   16.2947	   1.73752	1.00564e+07	      76.5	   16.2151	   1.67809	9.69812e+06	      76.5	   16.1873	   1.79422	9.70101e+06	      76.5	   16.2882	   1.82816	9.99341e+06	      76.5	   16.2549	   1.70781	9.87689e+06	      76.5	   16.2012	   1.73616	9.69557e+06	      76.5	   16.2377	   1.81119	9.84575e+06	      76.5	   16.2915	   1.78284	1.00225e+07	
         R10	   4057	      76.5	   16.2947	   1.73752	1.00569e+07	      76.5	   16.2882	   1.82816	1.01641e+07	      76.5	    16.394	   1.85418	 1.0363e+07	      76.5	    16.385	   1.71129	1.04124e+07	      76.5	   16.2915	   1.78284	1.01078e+07	      76.5	   16.3411	   1.84117	1.02607e+07	      76.5	   16.3895	   1.78273	1.03833e+07	      76.5	   16.3399	    1.7244	1.02307e+07	
         R10	   4058	      76.5	   16.2947	   1.73752	 1.0029e+07	      76.5	    16.385	   1.71129	1.02631e+07	      76.5	   16.2453	   1.53875	 9.6382e+06	      76.5	   16.2151	   1.67809	 9.6626e+06	      76.5	   16.3399	    1.7244	1.01429e+07	      76.5	   16.3152	   1.62502	9.95034e+06	      76.5	   16.2302	   1.60842	9.64525e+06	      76.5	   16.2549	   1.70781	9.84543e+06	
         R10	   4059	      76.5	   16.0793	   1.49729	8.95155e+06	      76.5	   16.1253	   1.65386	 9.3588e+06	      76.5	   16.2151	   1.67809	9.67348e+06	      76.5	   16.2453	   1.53875	9.56592e+06	      76.5	   16.1023	   1.57558	9.15463e+06	      76.5	   16.1702	   1.66598	9.51525e+06	      76.5	   16.2302	   1.60842	 9.6124e+06	      76.5	   16.1623	   1.51802	 9.2494e+06	
         R10	   4060	      76.5	   15.7532	   1.42698	7.96296e+06	      76.5	   15.6651	   1.52806	8.16755e+06	      76.5	   15.7541	   1.55755	8.34662e+06	      76.5	   15.7092	   1.47752	8.05843e+06	      76.5	   15.7096	   1.54281	8.25219e+06	      76.5	   15.7537	   1.49227	8.15458e+06	       N/A	       N/A	       N/A	        N/A	       N/A	       N/A	       N/A	        N/A	
         R10	   4061	      76.5	   15.9138	   1.31243	7.94532e+06	      76.5	   15.7532	   1.42698	7.93812e+06	      76.5	   15.8607	   1.48147	8.28511e+06	      76.5	   15.8335	   1.36971	7.91884e+06	      76.5	   15.8069	   1.45423	8.10639e+06	      76.5	   15.8873	   1.39695	8.10872e+06	       N/A	       N/A	       N/A	        N/A	       N/A	       N/A	       N/A	        N/A	
         R10	   4062	      76.5	   15.9138	   1.31243	7.92013e+06	      76.5	   15.8607	   1.48147	8.32224e+06	      76.5	   15.9614	   1.49047	8.56538e+06	      76.5	   15.8873	   1.39695	8.11329e+06	      76.5	    15.911	   1.48597	8.43745e+06	      76.5	   15.9376	   1.40145	8.24253e+06	       N/A	       N/A	       N/A	        N/A	       N/A	       N/A	       N/A	        N/A	
         R10	   4063	      76.5	   16.0793	   1.49729	8.91302e+06	      76.5	    16.021	   1.62568	9.00258e+06	      76.5	   16.1253	   1.65386	9.38943e+06	      76.5	   16.0502	   1.56148	8.95112e+06	      76.5	   16.0732	   1.63977	 9.1933e+06	      76.5	   16.1023	   1.57558	9.15002e+06	       N/A	       N/A	       N/A	        N/A	       N/A	       N/A	       N/A	        N/A	
         R10	   4064	      76.5	    16.385	   1.71129	1.02892e+07	      76.5	   16.4042	   1.54963	1.01019e+07	      76.5	   16.2453	   1.53875	9.62134e+06	      76.5	   16.3946	   1.63046	 1.0189e+07	      76.5	   16.3248	   1.54419	9.85349e+06	      76.5	   16.3152	   1.62502	 9.9548e+06	       N/A	       N/A	       N/A	        N/A	       N/A	       N/A	       N/A	        N/A	
         R10	   4065	      76.5	   16.4719	   2.23625	9.54815e+06	      76.5	   16.3535	     2.205	9.00202e+06	      76.5	   16.2993	   2.30363	8.61832e+06	      76.5	    16.412	   2.34672	9.14256e+06	      76.5	   16.4127	   2.22063	9.27257e+06	      76.5	   16.3264	   2.25431	 8.8089e+06	      76.5	   16.3556	   2.32517	8.87776e+06	      76.5	   16.4419	   2.29148	 9.3432e+06	
         R10	   4066	      76.5	    16.412	   2.34672	9.10939e+06	      76.5	   16.2993	   2.30363	8.62288e+06	      76.5	   16.2464	   2.39967	8.17665e+06	      76.5	   16.3458	   2.45114	8.51846e+06	      76.5	   16.3556	   2.32517	8.86324e+06	      76.5	   16.2729	   2.35165	 8.3989e+06	      76.5	   16.2961	   2.42541	8.34518e+06	      76.5	   16.3789	   2.39893	8.81305e+06	
         R10	   4067	      76.5	   16.3458	   2.45114	8.49393e+06	      76.5	   16.2464	   2.39967	 8.1676e+06	      76.5	    16.195	   2.49314	7.71334e+06	      76.5	   16.2928	   2.54344	7.90963e+06	      76.5	   16.2961	   2.42541	8.32825e+06	      76.5	   16.2207	    2.4464	7.93991e+06	      76.5	   16.2439	   2.51829	7.80927e+06	      76.5	   16.3193	   2.49729	8.20133e+06	
         R10	   4068	      76.5	   16.2928	   2.54344	7.91016e+06	      76.5	    16.195	   2.49314	7.71173e+06	      76.5	    16.145	   2.58402	7.25479e+06	      76.5	    16.244	   2.63689	7.30551e+06	      76.5	   16.2439	   2.51829	7.80877e+06	      76.5	     16.17	   2.53858	7.48228e+06	      76.5	   16.1945	   2.61046	7.27775e+06	      76.5	   16.2684	   2.59016	7.60714e+06	
         R10	   4069	      76.5	    16.244	   2.63689	7.31115e+06	      76.5	    16.145	   2.58402	7.24944e+06	      76.5	   16.0965	   2.67232	 6.8156e+06	      76.5	   16.1955	   2.72176	6.80079e+06	      76.5	   16.1945	   2.61046	7.27793e+06	      76.5	   16.1208	   2.62817	7.03015e+06	      76.5	    16.146	   2.69704	6.80606e+06	      76.5	   16.2198	   2.67933	7.05426e+06	
         R10	   4070	      76.5	   16.1955	   2.72176	6.78926e+06	      76.5	   16.0965	   2.67232	6.81142e+06	      76.5	   16.0493	   2.75805	6.44961e+06	      76.5	   16.1435	   2.80872	6.32245e+06	      76.5	    16.146	   2.69704	6.79816e+06	      76.5	   16.0729	   2.71519	6.62483e+06	      76.5	   16.0964	   2.78338	6.38267e+06	      76.5	   16.1695	   2.76524	 6.5516e+06	
         R10	   4071	      76.5	   16.1435	   2.80872	6.34223e+06	      76.5	   16.0493	   2.75805	6.46449e+06	      76.5	   16.0036	   2.84119	6.36412e+06	      76.5	   16.0944	   2.89592	5.86038e+06	      76.5	   16.0964	   2.78338	    6.4e+06	      76.5	   16.0265	   2.79962	6.40575e+06	      76.5	    16.049	   2.86855	6.11216e+06	      76.5	   16.1189	   2.85232	6.08689e+06	
         R10	   4072	      76.5	   16.0944	   2.89592	5.84821e+06	      76.5	   16.0036	   2.84119	6.40171e+06	      76.5	   15.9593	   2.92175	6.86103e+06	      76.5	   16.0432	   2.97903	5.06656e+06	      76.5	    16.049	   2.86855	6.12463e+06	      76.5	   15.9814	   2.88147	6.60853e+06	      76.5	   16.0012	   2.95039	5.96364e+06	      76.5	   16.0688	   2.93748	5.44022e+06	
         R10	   4073	      76.5	   16.0432	   2.97903	4.56536e+06	      76.5	   15.9593	   2.92175	7.53415e+06	      76.5	   15.9164	   2.99973	7.78939e+06	      76.5	   15.9761	   3.05784	2.84031e+06	      76.5	   16.0012	   2.95039	6.02686e+06	      76.5	   15.9378	   2.96074	7.53533e+06	      76.5	   15.9462	   3.02878	5.01065e+06	      76.5	   16.0097	   3.01843	3.50783e+06	
         R10	   4074	      76.5	   16.1238	   3.04399	5.26391e+06	      76.5	   16.0432	   2.97903	4.54586e+06	      76.5	   15.9761	   3.05784	5.73309e+06	      76.5	   16.0453	   3.12513	5.11989e+06	      76.5	   16.0835	   3.01151	4.82453e+06	      76.5	   16.0097	   3.01843	4.98059e+06	      76.5	   16.0107	   3.09148	5.41413e+06	      76.5	   16.0845	   3.08456	5.15872e+06	
         R10	   4075	      76.5	   16.1238	   3.04399	5.23792e+06	      76.5	   16.0453	   3.12513	5.19117e+06	      76.5	   16.1239	   3.20162	5.32555e+06	      76.5	   16.2126	   3.11834	5.22668e+06	      76.5	   16.0845	   3.08456	5.18691e+06	      76.5	   16.0846	   3.16338	5.25222e+06	      76.5	   16.1683	   3.15998	 5.2328e+06	      76.5	   16.1682	   3.08117	5.23091e+06	
         R10	   4076	      76.5	   16.2126	   3.11834	 5.3545e+06	      76.5	   16.1239	   3.20162	5.26674e+06	      76.5	   16.2119	    3.2873	5.44496e+06	      76.5	   16.3122	   3.19848	5.29454e+06	      76.5	   16.1683	   3.15998	5.28184e+06	      76.5	   16.1679	   3.24446	 5.3463e+06	      76.5	   16.2621	   3.24289	 5.3116e+06	      76.5	   16.2624	   3.15841	5.32379e+06	
         R10	   4077	      76.5	   16.3122	   3.19848	5.55746e+06	      76.5	   16.2119	    3.2873	5.22288e+06	      76.5	   16.3094	   3.38216	5.87337e+06	      76.5	   16.4214	   3.28461	5.55029e+06	      76.5	   16.2621	   3.24289	5.36408e+06	      76.5	   16.2607	   3.33473	5.53142e+06	      76.5	   16.3654	   3.33338	5.63313e+06	      76.5	   16.3668	   3.24154	5.55341e+06	
         R10	   4078	      76.5	   16.4214	   3.28461	6.04914e+06	      76.5	   16.3094	   3.38216	 5.2534e+06	      76.5	   16.4164	   3.48621	6.97505e+06	      76.5	    16.534	   3.37969	6.03748e+06	      76.5	   16.3654	   3.33338	5.63389e+06	      76.5	   16.3629	   3.43418	6.07004e+06	      76.5	   16.4752	   3.43295	6.40689e+06	      76.5	   16.4777	   3.33215	6.04105e+06	
         R10	   4079	      76.5	    16.534	   3.37969	7.17902e+06	      76.5	   16.4164	   3.48621	4.87461e+06	      76.5	   16.5328	   3.59945	9.44823e+06	      76.5	   16.6425	   3.48671	7.75417e+06	      76.5	   16.4752	   3.43295	6.01195e+06	      76.5	   16.4746	   3.54283	7.11576e+06	      76.5	   16.5876	   3.54308	8.57042e+06	      76.5	   16.5883	    3.4332	7.42447e+06	
         R10	   4080	      76.5	   16.6485	   3.25506	 7.0985e+06	      76.5	    16.534	   3.37969	7.14434e+06	      76.5	   16.6425	   3.48671	7.84933e+06	      76.5	   16.7594	    3.3665	7.69137e+06	      76.5	   16.5913	   3.31738	7.09756e+06	      76.5	   16.5883	    3.4332	7.45122e+06	      76.5	   16.7009	   3.42661	7.69891e+06	      76.5	   16.7039	   3.31078	7.38278e+06	
         R10	   4081	      76.5	   16.6485	   3.25506	7.10256e+06	      76.5	   16.7594	    3.3665	7.86513e+06	      76.5	   16.8836	   3.23884	8.57039e+06	      76.5	   16.7633	    3.1187	7.83169e+06	      76.5	   16.7039	   3.31078	7.46813e+06	      76.5	   16.8215	   3.30267	8.18416e+06	      76.5	   16.8235	   3.17877	8.17071e+06	      76.5	   16.7059	   3.18688	7.42775e+06	
         R10	   4082	      76.5	   16.7633	    3.1187	7.80576e+06	      76.5	   16.8836	   3.23884	8.51585e+06	      76.5	   17.0151	   3.10371	9.71983e+06	      76.5	   16.8874	   2.96713	9.25858e+06	      76.5	   16.8235	   3.17877	8.13241e+06	      76.5	   16.9494	   3.17127	9.09241e+06	      76.5	   16.9512	   3.03542	9.43775e+06	      76.5	   16.8254	   3.04292	8.50888e+06	
         R10	   4083	      76.5	   16.8874	   2.96713	9.26041e+06	      76.5	   17.0151	   3.10371	9.59561e+06	      76.5	   17.1539	   2.96111	1.15796e+07	      76.5	   17.0151	    2.8181	1.20834e+07	      76.5	   16.9512	   3.03542	9.38402e+06	      76.5	   17.0845	   3.03241	1.05845e+07	      76.5	   17.0845	   2.88961	1.17897e+07	      76.5	   16.9512	   2.89261	1.06691e+07	
         R10	   4084	      76.5	   17.0151	    2.8181	1.20575e+07	      76.5	   17.1539	   2.96111	1.15879e+07	      76.5	   17.2999	   2.81105	1.64518e+07	      76.5	   17.1425	   2.65791	1.43073e+07	      76.5	   17.0845	   2.88961	1.17509e+07	      76.5	   17.2269	   2.88608	1.40135e+07	      76.5	   17.2212	   2.73448	 1.5374e+07	      76.5	   17.0788	     2.738	1.31239e+07	
         R10	   4085	      76.5	   16.8806	   2.68278	1.13117e+07	      76.5	   17.0151	    2.8181	 1.1371e+07	      76.5	   17.1425	   2.65791	1.45448e+07	      76.5	   16.9978	   2.51719	 1.2694e+07	      76.5	   16.9479	   2.75044	1.13374e+07	      76.5	   17.0788	     2.738	1.29004e+07	      76.5	   17.0702	   2.58755	1.35935e+07	      76.5	   16.9392	   2.59998	1.19804e+07	
         R10	   4086	      76.5	   16.8806	   2.68278	1.10607e+07	      76.5	   16.9978	   2.51719	1.27804e+07	      76.5	    16.866	    2.3889	1.16501e+07	      76.5	   16.7494	   2.54656	1.06501e+07	      76.5	   16.9392	   2.59998	1.18902e+07	      76.5	   16.9319	   2.45305	1.22032e+07	      76.5	   16.8077	   2.46773	1.11344e+07	      76.5	    16.815	   2.61467	1.08457e+07	
         R10	   4087	      76.5	   16.7494	   2.54656	1.04024e+07	      76.5	    16.866	    2.3889	  1.164e+07	      76.5	   16.7469	   2.27304	1.08818e+07	      76.5	   16.6786	   2.37849	 1.0571e+07	      76.5	   16.8077	   2.46773	1.09984e+07	      76.5	   16.8064	   2.33097	1.12523e+07	      76.5	   16.7128	   2.32576	1.07192e+07	      76.5	    16.714	   2.46252	1.04793e+07	
         R10	   4088	      76.5	    16.547	   2.07859	1.01325e+07	      76.5	   16.4092	   2.10379	9.50645e+06	      76.5	   16.3535	     2.205	9.01358e+06	      76.5	   16.4719	   2.23625	9.57058e+06	      76.5	   16.4781	   2.09119	9.81456e+06	      76.5	   16.3814	   2.15439	9.25606e+06	      76.5	   16.4127	   2.22063	9.29035e+06	      76.5	   16.5095	   2.15742	9.84824e+06	
         R10	   4089	      76.5	   16.6406	    2.1696	1.02617e+07	      76.5	    16.547	   2.07859	9.94015e+06	      76.5	   16.4719	   2.23625	9.59548e+06	      76.5	   16.5717	   2.27604	9.94488e+06	      76.5	   16.5938	   2.12409	1.00939e+07	      76.5	   16.5095	   2.15742	9.76484e+06	      76.5	   16.5218	   2.25615	9.76629e+06	      76.5	   16.6061	   2.22282	1.00929e+07	
         R10	   4090	      76.5	   16.5717	   2.27604	1.01095e+07	      76.5	   16.4719	   2.23625	9.58884e+06	      76.5	    16.412	   2.34672	9.23073e+06	      76.5	   16.5324	   2.42737	9.37519e+06	      76.5	   16.5218	   2.25615	9.84501e+06	      76.5	   16.4419	   2.29148	9.40772e+06	      76.5	   16.4722	   2.38704	 9.2975e+06	      76.5	   16.5521	    2.3517	9.73865e+06	
         R10	   4091	      76.5	   16.5324	   2.42737	9.47516e+06	      76.5	    16.412	   2.34672	9.17325e+06	      76.5	   16.3458	   2.45114	8.46855e+06	      76.5	   16.4463	   2.50592	8.74001e+06	      76.5	   16.4722	   2.38704	9.32074e+06	      76.5	   16.3789	   2.39893	8.82026e+06	      76.5	    16.396	   2.47853	 8.6013e+06	      76.5	   16.4893	   2.46664	 9.1068e+06	
         R10	   4092	      76.5	   16.4463	   2.50592	8.83078e+06	      76.5	   16.3458	   2.45114	8.44907e+06	      76.5	   16.2928	   2.54344	7.93229e+06	      76.5	   16.3874	   2.60499	8.04507e+06	      76.5	    16.396	   2.47853	8.63763e+06	      76.5	   16.3193	   2.49729	8.19024e+06	      76.5	   16.3401	   2.57421	7.98598e+06	      76.5	   16.4168	   2.55546	8.43738e+06	
         R10	   4093	      76.5	   16.3874	   2.60499	 8.0402e+06	      76.5	   16.2928	   2.54344	7.91753e+06	      76.5	    16.244	   2.63689	7.33876e+06	      76.5	   16.3503	   2.69142	7.48786e+06	      76.5	   16.3401	   2.57421	7.97613e+06	      76.5	   16.2684	   2.59016	7.62746e+06	      76.5	   16.2971	   2.66416	7.41053e+06	      76.5	   16.3688	   2.64821	7.76364e+06	
         R10	   4094	      76.5	   16.3503	   2.69142	7.48114e+06	      76.5	    16.244	   2.63689	7.35277e+06	      76.5	   16.1955	   2.72176	6.78591e+06	      76.5	   16.2898	   2.77208	6.83643e+06	      76.5	   16.2971	   2.66416	  7.414e+06	      76.5	   16.2198	   2.67933	7.06779e+06	      76.5	   16.2427	   2.74692	6.80945e+06	      76.5	     16.32	   2.73175	7.15741e+06	
         R10	   4095	      76.5	   16.2898	   2.77208	6.87708e+06	      76.5	   16.1955	   2.72176	6.79055e+06	      76.5	   16.1435	   2.80872	6.32069e+06	      76.5	   16.2344	   2.86806	 6.0899e+06	      76.5	   16.2427	   2.74692	6.83232e+06	      76.5	   16.1695	   2.76524	6.55066e+06	      76.5	   16.1889	   2.83839	6.20293e+06	      76.5	   16.2621	   2.82007	6.48046e+06	
         R10	   4096	      76.5	   16.2344	   2.86806	6.10445e+06	      76.5	   16.1435	   2.80872	6.31365e+06	      76.5	   16.0944	   2.89592	5.78174e+06	      76.5	   16.1861	    2.9565	5.46174e+06	      76.5	   16.1889	   2.83839	6.20703e+06	      76.5	   16.1189	   2.85232	6.03345e+06	      76.5	   16.1402	   2.92621	  5.611e+06	      76.5	   16.2102	   2.91228	5.78106e+06	
         R10	   4097	      76.5	   16.1861	    2.9565	5.47981e+06	      76.5	   16.0944	   2.89592	5.71713e+06	      76.5	   16.0432	   2.97903	5.00573e+06	      76.5	   16.1238	   3.04399	5.07374e+06	      76.5	   16.1402	   2.92621	5.59138e+06	      76.5	   16.0688	   2.93748	5.35041e+06	      76.5	   16.0835	   3.01151	5.01416e+06	      76.5	   16.1549	   3.00025	5.26855e+06	
         R10	   4098	      76.5	   16.2916	   3.02067	5.58955e+06	      76.5	   16.1861	    2.9565	5.63936e+06	      76.5	   16.1238	   3.04399	5.09728e+06	      76.5	   16.2126	   3.11834	5.23778e+06	      76.5	   16.2388	   2.98858	5.61194e+06	      76.5	   16.1549	   3.00025	5.36442e+06	      76.5	   16.1682	   3.08117	5.16352e+06	      76.5	   16.2521	   3.06951	5.39369e+06	
         R10	   4099	      76.5	   16.2916	   3.02067	5.74898e+06	      76.5	   16.2126	   3.11834	5.36145e+06	      76.5	   16.3122	   3.19848	5.30168e+06	      76.5	   16.4084	   3.08616	5.85467e+06	      76.5	   16.2521	   3.06951	5.53296e+06	      76.5	   16.2624	   3.15841	5.33087e+06	      76.5	   16.3603	   3.14232	5.54966e+06	      76.5	     16.35	   3.05342	5.80178e+06	
         R10	   4100	      76.5	   16.4084	   3.08616	6.02792e+06	      76.5	   16.3122	   3.19848	5.56498e+06	      76.5	   16.4214	   3.28461	5.56505e+06	      76.5	   16.5262	   3.16116	6.21885e+06	      76.5	   16.3603	   3.14232	5.75532e+06	      76.5	   16.3668	   3.24154	 5.5647e+06	      76.5	   16.4738	   3.22288	5.86113e+06	      76.5	   16.4673	   3.12366	6.12008e+06	
         R10	   4101	      76.5	   16.5262	   3.16116	6.40233e+06	      76.5	   16.4214	   3.28461	6.11957e+06	      76.5	    16.534	   3.37969	 6.1066e+06	      76.5	   16.6485	   3.25506	6.89298e+06	      76.5	   16.4738	   3.22288	 6.2084e+06	      76.5	   16.4777	   3.33215	6.11098e+06	      76.5	   16.5913	   3.31738	6.45729e+06	      76.5	   16.5873	   3.20811	6.63554e+06	
         R10	   4102	      76.5	    16.629	   3.02683	7.43028e+06	      76.5	   16.5262	   3.16116	6.35958e+06	      76.5	   16.6485	   3.25506	6.84503e+06	      76.5	   16.7633	    3.1187	7.61302e+06	      76.5	   16.5776	     3.094	6.87011e+06	      76.5	   16.5873	   3.20811	6.59191e+06	      76.5	   16.7059	   3.18688	7.19642e+06	      76.5	   16.6962	   3.07277	7.50664e+06	
         R10	   4103	      76.5	    16.629	   3.02683	7.38516e+06	      76.5	   16.7633	    3.1187	7.60435e+06	      76.5	   16.8874	   2.96713	9.26049e+06	      76.5	   16.7503	   2.84737	9.07193e+06	      76.5	   16.6962	   3.07277	7.47569e+06	      76.5	   16.8254	   3.04292	8.41207e+06	      76.5	   16.8188	   2.90725	9.15301e+06	      76.5	   16.6896	    2.9371	8.21943e+06	
         R10	   4104	      76.5	   16.7503	   2.84737	9.10563e+06	      76.5	   16.8874	   2.96713	 9.3339e+06	      76.5	   17.0151	    2.8181	1.13609e+07	      76.5	   16.8806	   2.68278	1.11711e+07	      76.5	   16.8188	   2.90725	9.20461e+06	      76.5	   16.9512	   2.89261	1.03456e+07	      76.5	   16.9479	   2.75044	 1.1243e+07	      76.5	   16.8155	   2.76507	1.01375e+07	
         R10	   4105	      76.5	   16.6786	   2.37849	 1.0255e+07	      76.5	   16.7469	   2.27304	1.08107e+07	      76.5	   16.6406	    2.1696	 1.0242e+07	      76.5	   16.5717	   2.27604	1.00287e+07	      76.5	   16.7128	   2.32576	1.05268e+07	      76.5	   16.6937	   2.22132	1.05241e+07	      76.5	   16.6061	   2.22282	1.01255e+07	      76.5	   16.6252	   2.32726	1.01292e+07	
         R10	   4106	      76.5	   16.5974	    2.5288	9.41839e+06	      76.5	   16.5324	   2.42737	9.64188e+06	      76.5	   16.4463	   2.50592	8.76269e+06	      76.5	   16.5353	    2.6252	 8.8122e+06	      76.5	   16.5649	   2.47808	  9.526e+06	      76.5	   16.4893	   2.46664	9.20168e+06	      76.5	   16.4908	   2.56556	8.78384e+06	      76.5	   16.5664	     2.577	9.11501e+06	
         R10	   4107	      76.5	   16.4558	   2.76874	7.56906e+06	      76.5	   16.3503	   2.69142	7.53887e+06	      76.5	   16.2898	   2.77208	6.83232e+06	      76.5	   16.3693	   2.82845	6.93292e+06	      76.5	    16.403	   2.73008	7.54887e+06	      76.5	     16.32	   2.73175	7.18493e+06	      76.5	   16.3296	   2.80026	6.88246e+06	      76.5	   16.4126	    2.7986	7.24687e+06	
         R10	   4108	      76.5	   16.3693	   2.82845	 6.8703e+06	      76.5	   16.2898	   2.77208	6.84959e+06	      76.5	   16.2344	   2.86806	6.14644e+06	      76.5	   16.3472	   2.92205	6.33574e+06	      76.5	   16.3296	   2.80026	6.85955e+06	      76.5	   16.2621	   2.82007	6.49407e+06	      76.5	   16.2908	   2.89505	6.23882e+06	      76.5	   16.3583	   2.87525	6.60229e+06	
         R10	   4109	      76.5	   16.3472	   2.92205	6.27261e+06	      76.5	   16.2344	   2.86806	 6.1702e+06	      76.5	   16.1861	    2.9565	5.62705e+06	      76.5	   16.2916	   3.02067	5.62222e+06	      76.5	   16.2908	   2.89505	6.21907e+06	      76.5	   16.2102	   2.91228	 5.8953e+06	      76.5	   16.2388	   2.98858	5.62396e+06	      76.5	   16.3194	   2.97136	  5.941e+06	
         R10	   4110	      76.5	   16.4904	   2.95847	6.72988e+06	      76.5	   16.3472	   2.92205	6.38739e+06	      76.5	   16.2916	   3.02067	5.77652e+06	      76.5	   16.4084	   3.08616	5.86985e+06	      76.5	   16.4188	   2.94026	6.55472e+06	      76.5	   16.3194	   2.97136	6.07683e+06	      76.5	     16.35	   3.05342	 5.8229e+06	      76.5	   16.4494	   3.02231	6.28209e+06	
         R10	   4111	      76.5	   16.4904	   2.95847	6.89048e+06	      76.5	   16.4084	   3.08616	6.04336e+06	      76.5	   16.5262	   3.16116	6.20882e+06	      76.5	    16.629	   3.02683	7.16469e+06	      76.5	   16.4494	   3.02231	6.45368e+06	      76.5	   16.4673	   3.12366	6.12231e+06	      76.5	   16.5776	     3.094	6.66101e+06	      76.5	   16.5597	   2.99265	7.02343e+06	
         R10	   4112	      76.5	   16.7494	   2.54656	1.04717e+07	      76.5	   16.6786	   2.37849	1.05225e+07	      76.5	   16.5324	   2.42737	9.59271e+06	      76.5	   16.5974	    2.5288	9.43779e+06	      76.5	    16.714	   2.46252	1.04893e+07	      76.5	   16.6055	   2.40293	1.00505e+07	      76.5	   16.5649	   2.47808	9.51371e+06	      76.5	   16.6734	   2.53768	9.95105e+06	
         R10	   4113	      76.5	   16.7494	   2.54656	1.05411e+07	      76.5	   16.5974	    2.5288	9.59409e+06	      76.5	   16.5353	    2.6252	8.90897e+06	      76.5	   16.6639	   2.68752	9.16495e+06	      76.5	   16.6734	   2.53768	1.00633e+07	      76.5	   16.5664	     2.577	9.25131e+06	      76.5	   16.5996	   2.65636	9.03271e+06	      76.5	   16.7066	   2.61704	9.84752e+06	
         R10	   4114	      76.5	   16.5353	    2.6252	8.75508e+06	      76.5	   16.3874	   2.60499	8.11668e+06	      76.5	   16.3503	   2.69142	 7.5555e+06	      76.5	   16.4558	   2.76874	7.58902e+06	      76.5	   16.4614	    2.6151	8.43337e+06	      76.5	   16.3688	   2.64821	7.83582e+06	      76.5	    16.403	   2.73008	7.56855e+06	      76.5	   16.4956	   2.69697	8.17154e+06	
         R10	   4115	      76.5	   16.6639	   2.68752	9.28778e+06	      76.5	   16.5353	    2.6252	8.81895e+06	      76.5	   16.4558	   2.76874	7.70854e+06	      76.5	    16.584	   2.83342	7.97354e+06	      76.5	   16.5996	   2.65636	 9.0474e+06	      76.5	   16.4956	   2.69697	8.26345e+06	      76.5	   16.5199	   2.80108	 7.8385e+06	      76.5	   16.6239	   2.76047	8.63059e+06	
         R10	   4116	      76.5	   16.4558	   2.76874	7.71775e+06	      76.5	   16.3693	   2.82845	6.84328e+06	      76.5	   16.3472	   2.92205	6.39289e+06	      76.5	   16.4904	   2.95847	6.77351e+06	      76.5	   16.4126	    2.7986	7.27941e+06	      76.5	   16.3583	   2.87525	6.61563e+06	      76.5	   16.4188	   2.94026	6.58092e+06	      76.5	   16.4731	   2.86361	7.24203e+06	
         R10	   4117	      76.5	   16.7503	   2.84737	9.01758e+06	      76.5	   16.8806	   2.68278	1.09679e+07	      76.5	   16.7494	   2.54656	1.06298e+07	      76.5	   16.6639	   2.68752	 9.4205e+06	      76.5	   16.8155	   2.76507	9.99143e+06	      76.5	    16.815	   2.61467	1.07865e+07	      76.5	   16.7066	   2.61704	1.00202e+07	      76.5	   16.7071	   2.76745	9.21036e+06	
         R10	   4118	      76.5	   16.4904	   2.95847	6.96733e+06	      76.5	    16.629	   3.02683	7.07557e+06	      76.5	   16.7503	   2.84737	  8.887e+06	      76.5	    16.584	   2.83342	8.14577e+06	      76.5	   16.5597	   2.99265	7.01731e+06	      76.5	   16.6896	    2.9371	7.97492e+06	      76.5	   16.6672	    2.8404	8.51139e+06	      76.5	   16.5372	   2.89595	7.55186e+06	
         R10	   4119	      76.5	    16.547	   2.07859	9.87621e+06	      76.5	   16.4663	         2	1.03952e+07	      76.5	   16.4092	   2.10379	9.40297e+06	      76.5	   16.5067	   2.03929	1.01267e+07	      76.5	   16.4377	   2.05189	9.89863e+06	      76.5	   16.4781	   2.09119	9.63422e+06	       N/A	       N/A	       N/A	        N/A	       N/A	       N/A	       N/A	        N/A	
         R10	   4120	      76.5	   16.6786	   2.37849	1.03327e+07	      76.5	   16.5717	   2.27604	1.01323e+07	      76.5	   16.5324	   2.42737	9.48742e+06	      76.5	   16.6252	   2.32726	1.02262e+07	      76.5	   16.5521	    2.3517	9.80162e+06	      76.5	   16.6055	   2.40293	9.90693e+06	       N/A	       N/A	       N/A	        N/A	       N/A	       N/A	       N/A	        N/A	
         R10	   4121	      76.5	   16.5353	    2.6252	 8.8028e+06	      76.5	   16.4463	   2.50592	8.82182e+06	      76.5	   16.3874	   2.60499	8.04143e+06	      76.5	   16.4908	   2.56556	8.80696e+06	      76.5	   16.4168	   2.55546	8.43137e+06	      76.5	   16.4614	    2.6151	8.41903e+06	       N/A	       N/A	       N/A	        N/A	       N/A	       N/A	       N/A	        N/A	
         R10	   4122	      76.5	   16.7503	   2.84737	9.04086e+06	      76.5	   16.6639	   2.68752	9.36768e+06	      76.5	    16.584	   2.83342	8.05362e+06	      76.5	   16.7071	   2.76745	9.19985e+06	      76.5	   16.6239	   2.76047	8.71056e+06	      76.5	   16.6672	    2.8404	8.54195e+06	       N/A	       N/A	       N/A	        N/A	       N/A	       N/A	       N/A	        N/A	
         R10	   4123	      76.5	   16.4558	   2.76874	7.67417e+06	      76.5	   16.4904	   2.95847	 6.7942e+06	      76.5	    16.584	   2.83342	 7.9184e+06	      76.5	   16.4731	   2.86361	7.23222e+06	      76.5	   16.5372	   2.89595	7.35301e+06	      76.5	   16.5199	   2.80108	7.79358e+06	       N/A	       N/A	       N/A	        N/A	       N/A	       N/A	       N/A	        N/A	
         R10	   4124	      76.5	   16.9242	       0.8	8.47942e+06	      76.5	   16.7265	       0.8	 8.2951e+06	      76.5	   16.6774	   1.02658	9.19121e+06	      76.5	   16.8857	   1.03255	9.49845e+06	      76.5	   16.8254	       0.8	8.37263e+06	      76.5	   16.7019	  0.913292	8.73662e+06	      76.5	   16.7815	   1.02957	9.32897e+06	      76.5	    16.905	  0.916273	 8.9823e+06	
         R10	   4125	      76.5	   16.8857	   1.03255	9.57864e+06	      76.5	   16.6774	   1.02658	9.21109e+06	      76.5	   16.6322	   1.23478	9.91488e+06	      76.5	   16.8499	   1.25503	1.05374e+07	      76.5	   16.7815	   1.02957	9.38085e+06	      76.5	   16.6548	   1.13068	 9.5507e+06	      76.5	   16.7411	   1.24491	1.02069e+07	      76.5	   16.8678	   1.14379	1.00489e+07	
         R10	   4126	      76.5	   16.8499	   1.25503	1.06636e+07	      76.5	   16.6322	   1.23478	9.91823e+06	      76.5	   16.5911	    1.4246	1.04151e+07	      76.5	   16.7969	   1.44166	1.12782e+07	      76.5	   16.7411	   1.24491	1.02752e+07	      76.5	   16.6116	   1.32969	1.01519e+07	      76.5	    16.694	   1.43313	1.08296e+07	      76.5	   16.8234	   1.34835	1.09562e+07	
         R10	   4127	      76.5	   16.7969	   1.44166	1.13459e+07	      76.5	   16.5911	    1.4246	1.04269e+07	      76.5	   16.5539	   1.59602	1.06569e+07	      76.5	   16.7297	   1.62516	1.16043e+07	      76.5	    16.694	   1.43313	 1.0873e+07	      76.5	   16.5725	   1.51031	1.05261e+07	      76.5	   16.6418	   1.61059	1.11192e+07	      76.5	   16.7633	   1.53341	1.14555e+07	
         R10	   4128	      76.5	   16.7297	   1.62516	1.17619e+07	      76.5	   16.5539	   1.59602	1.06645e+07	      76.5	   16.5207	   1.74907	1.07739e+07	      76.5	   16.6942	   1.81267	1.16567e+07	      76.5	   16.6418	   1.61059	1.12042e+07	      76.5	   16.5373	   1.67255	1.07074e+07	      76.5	   16.6074	   1.78087	1.12112e+07	      76.5	   16.7119	   1.71892	1.16881e+07	
         R10	   4129	      76.5	   16.8707	   1.81703	1.25948e+07	      76.5	   16.8764	         2	1.22771e+07	      76.5	   17.0496	         2	1.33326e+07	      76.5	   17.0595	   1.78526	1.41445e+07	      76.5	   16.8736	   1.90851	 1.2418e+07	      76.5	    16.963	         2	1.28005e+07	      76.5	   17.0546	   1.89263	1.36734e+07	      76.5	   16.9651	   1.80114	1.33396e+07	
         R10	   4130	      76.5	   17.0595	   1.78526	1.40109e+07	      76.5	   17.0496	         2	1.35943e+07	      76.5	   17.2412	         2	1.48606e+07	      76.5	   17.2503	   1.77589	1.49744e+07	      76.5	   17.0546	   1.89263	 1.3713e+07	      76.5	   17.1454	         2	1.41902e+07	      76.5	   17.2458	   1.88795	1.48352e+07	      76.5	   17.1549	   1.78058	1.44635e+07	
         R10	   4131	      76.5	   17.2503	   1.77589	1.53433e+07	      76.5	   17.2412	         2	1.57674e+07	      76.5	    17.451	         2	1.48176e+07	      76.5	   17.4766	   1.79408	1.35539e+07	      76.5	   17.2458	   1.88795	1.53479e+07	      76.5	   17.3461	         2	1.49072e+07	      76.5	   17.4638	   1.89704	1.41649e+07	      76.5	   17.3635	   1.78499	1.44257e+07	
         R10	   4132	      76.5	   17.2558	   1.54195	1.29366e+07	      76.5	   17.2503	   1.77589	1.44117e+07	      76.5	   17.4766	   1.79408	1.33729e+07	      76.5	   17.5044	   1.57112	1.25452e+07	      76.5	   17.2531	   1.65892	1.36544e+07	      76.5	   17.3635	   1.78499	 1.3858e+07	      76.5	   17.4905	    1.6826	 1.2913e+07	      76.5	   17.3801	   1.55654	1.27098e+07	
         R10	   4133	      76.5	   17.2558	   1.54195	1.28521e+07	      76.5	   17.5044	   1.57112	1.25334e+07	      76.5	   17.5343	   1.33112	1.09166e+07	      76.5	   17.2908	   1.31056	1.13888e+07	      76.5	   17.3801	   1.55654	1.26684e+07	      76.5	   17.5193	   1.45112	1.17075e+07	      76.5	   17.4125	   1.32084	1.11288e+07	      76.5	   17.2733	   1.42625	1.21044e+07	
         R10	   4134	      76.5	   17.2908	   1.31056	1.13993e+07	      76.5	   17.5343	   1.33112	1.09118e+07	      76.5	   17.5663	   1.07408	9.47347e+06	      76.5	   17.3367	   1.04767	 9.5831e+06	      76.5	   17.4125	   1.32084	1.11398e+07	      76.5	   17.5503	    1.2026	1.01818e+07	      76.5	   17.4515	   1.06088	9.51548e+06	      76.5	   17.3138	   1.17911	1.04793e+07	
         R10	   4135	      76.5	   17.3367	   1.04767	9.61098e+06	      76.5	   17.5663	   1.07408	9.42613e+06	      76.5	   17.6004	       0.8	8.04529e+06	      76.5	   17.3612	       0.8	 7.8512e+06	      76.5	   17.4515	   1.06088	9.50644e+06	      76.5	   17.5833	   0.93704	8.72642e+06	      76.5	   17.4808	       0.8	7.93715e+06	      76.5	   17.3489	  0.923835	8.72283e+06	
         R10	   4136	      76.5	   17.1045	   1.03384	9.62936e+06	      76.5	   17.3367	   1.04767	9.67041e+06	      76.5	   17.3612	       0.8	7.87779e+06	      76.5	   17.1358	       0.8	8.15237e+06	      76.5	   17.2206	   1.04076	  9.623e+06	      76.5	   17.3489	  0.923835	 8.7699e+06	      76.5	   17.2485	       0.8	7.99096e+06	      76.5	   17.1201	  0.916922	8.88606e+06	
         R10	   4137	      76.5	   17.1045	   1.03384	9.63558e+06	      76.5	   17.1358	       0.8	8.20101e+06	      76.5	   16.9242	       0.8	8.63689e+06	      76.5	   16.8857	   1.03255	9.52434e+06	      76.5	   17.1201	  0.916922	8.91512e+06	      76.5	     17.03	       0.8	 8.4053e+06	      76.5	    16.905	  0.916273	9.07607e+06	      76.5	   16.9951	    1.0332	9.56068e+06	
         R10	   4138	      76.5	   17.0655	   1.28611	1.12017e+07	      76.5	   17.1045	   1.03384	9.67749e+06	      76.5	   16.8857	   1.03255	9.61529e+06	      76.5	   16.8499	   1.25503	1.05662e+07	      76.5	    17.085	   1.15998	1.04266e+07	      76.5	   16.9951	    1.0332	9.62614e+06	      76.5	   16.8678	   1.14379	1.00808e+07	      76.5	   16.9577	   1.27057	1.08649e+07	
         R10	   4139	      76.5	   17.0217	   1.52723	1.24837e+07	      76.5	   16.7969	   1.44166	1.14812e+07	      76.5	   16.7297	   1.62516	1.16605e+07	      76.5	   16.8577	   1.66989	1.24248e+07	      76.5	   16.9093	   1.48444	1.19661e+07	      76.5	   16.7633	   1.53341	 1.1551e+07	      76.5	   16.7937	   1.64753	1.20387e+07	      76.5	   16.9397	   1.59856	1.24091e+07	
         R10	   4140	      76.5	   16.6942	   1.81267	1.17146e+07	      76.5	   16.5207	   1.74907	1.08083e+07	      76.5	   16.4915	   1.88373	1.08141e+07	      76.5	   16.5847	         2	1.07376e+07	      76.5	   16.6074	   1.78087	1.12579e+07	      76.5	   16.5061	    1.8164	 1.0787e+07	      76.5	   16.5381	   1.94186	1.07594e+07	      76.5	   16.6395	   1.90633	1.12172e+07	
         R10	   4141	      76.5	   16.6942	   1.81267	1.18433e+07	      76.5	   16.7214	         2	1.13079e+07	      76.5	   16.8764	         2	1.22871e+07	      76.5	   16.8707	   1.81703	1.25336e+07	      76.5	   16.7078	   1.90633	1.15645e+07	      76.5	   16.7989	         2	1.17939e+07	      76.5	   16.8736	   1.90851	1.23987e+07	      76.5	   16.7825	   1.81485	1.21838e+07	
         R10	   4142	      76.5	   17.2908	   1.31056	1.14321e+07	      76.5	   17.3367	   1.04767	9.59896e+06	      76.5	   17.1045	   1.03384	9.64386e+06	      76.5	   17.0655	   1.28611	1.12501e+07	      76.5	   17.3138	   1.17911	1.05026e+07	      76.5	   17.2206	   1.04076	9.59648e+06	      76.5	    17.085	   1.15998	1.04346e+07	      76.5	   17.1781	   1.29833	1.13128e+07	
         R10	   4143	      76.5	   17.0655	   1.28611	1.12108e+07	      76.5	   16.8499	   1.25503	1.07005e+07	      76.5	   16.7969	   1.44166	1.13859e+07	      76.5	   17.0217	   1.52723	1.25019e+07	      76.5	   16.9577	   1.27057	1.09337e+07	      76.5	   16.8234	   1.34835	1.10275e+07	      76.5	   16.9093	   1.48444	1.19278e+07	      76.5	   17.0436	   1.40667	1.18319e+07	
         R10	   4144	      76.5	   16.8577	   1.66989	 1.2544e+07	      76.5	   16.7297	   1.62516	1.18393e+07	      76.5	   16.6942	   1.81267	1.17674e+07	      76.5	   16.8707	   1.81703	1.25819e+07	      76.5	   16.7937	   1.64753	 1.2187e+07	      76.5	   16.7119	   1.71892	1.17908e+07	      76.5	   16.7825	   1.81485	1.21693e+07	      76.5	   16.8642	   1.74346	1.25504e+07	
         R10	   4145	      76.5	   17.2558	   1.54195	1.30393e+07	      76.5	   17.2908	   1.31056	1.14044e+07	      76.5	   17.0655	   1.28611	1.12979e+07	      76.5	   17.0217	   1.52723	1.25774e+07	      76.5	   17.2733	   1.42625	1.22095e+07	      76.5	   17.1781	   1.29833	1.13279e+07	      76.5	   17.0436	   1.40667	1.19105e+07	      76.5	   17.1387	   1.53459	1.27603e+07	
         R10	   4146	      76.5	   17.0595	   1.78526	1.36029e+07	      76.5	   17.2503	   1.77589	1.43489e+07	      76.5	   17.2558	   1.54195	1.31606e+07	      76.5	   17.0217	   1.52723	1.26216e+07	      76.5	   17.1549	   1.78058	1.39543e+07	      76.5	   17.2531	   1.65892	 1.3716e+07	      76.5	   17.1387	   1.53459	1.28495e+07	      76.5	   17.0406	   1.65624	1.30955e+07	
         R10	   4147	      76.5	   17.0217	   1.52723	1.26206e+07	      76.5	   16.8577	   1.66989	1.25513e+07	      76.5	   16.8707	   1.81703	1.28041e+07	      76.5	   17.0595	   1.78526	1.38094e+07	      76.5	   16.9397	   1.59856	1.25363e+07	      76.5	   16.8642	   1.74346	1.26694e+07	      76.5	   16.9651	   1.80114	1.32778e+07	      76.5	   17.0406	   1.65624	1.31917e+07	
         R10	   4148	      76.5	   16.4915	   1.88373	1.05409e+07	      76.5	   16.4663	         2	1.11632e+07	      76.5	   16.5847	         2	 1.0562e+07	      76.5	   16.4789	   1.94186	1.08413e+07	      76.5	   16.5255	         2	1.08461e+07	      76.5	   16.5381	   1.94186	1.05338e+07	       N/A	       N/A	       N/A	        N/A	       N/A	       N/A	       N/A	        N/A	
         R10	   4149	      76.5	   16.6942	   1.81267	1.16825e+07	      76.5	   16.5847	         2	 1.0722e+07	      76.5	   16.7214	         2	1.12783e+07	      76.5	   16.6395	   1.90633	1.11878e+07	      76.5	   16.6531	         2	1.09977e+07	      76.5	   16.7078	   1.90633	1.14754e+07	       N/A	       N/A	       N/A	        N/A	       N/A	       N/A	       N/A	        N/A	
         R10	   4150	      76.5	   16.6425	   3.48671	7.76807e+06	      76.5	   16.5328	   3.59945	9.40602e+06	      76.5	   16.6578	   3.72114	7.08284e+06	      76.5	   16.8233	   3.57317	9.02144e+06	      76.5	   16.5876	   3.54308	8.53025e+06	      76.5	   16.5953	    3.6603	 8.2216e+06	      76.5	   16.7406	   3.64716	7.95311e+06	      76.5	   16.7329	   3.52994	8.38127e+06	
         R10	   4151	      76.5	   16.8233	   3.57317	9.31995e+06	      76.5	   16.6578	   3.72114	 9.0561e+06	      76.5	   16.8023	   3.86166	1.14537e+07	      76.5	   16.9663	   3.73393	1.13183e+07	      76.5	   16.7406	   3.64716	9.11291e+06	      76.5	   16.7301	    3.7914	1.02473e+07	      76.5	   16.8843	    3.7978	1.12776e+07	      76.5	   16.8948	   3.65355	 1.0318e+07	
         R10	   4152	      76.5	   16.9663	   3.73393	1.19377e+07	      76.5	   16.8023	   3.86166	1.06149e+07	      76.5	    16.966	   4.02101	1.44542e+07	      76.5	   17.1388	   3.85298	1.38238e+07	      76.5	   16.8843	    3.7978	1.12277e+07	      76.5	   16.8841	   3.94133	1.25235e+07	      76.5	   17.0524	   3.93699	1.40684e+07	      76.5	   17.0525	   3.79346	1.28658e+07	
         R10	   4153	      76.5	   17.1388	   3.85298	1.44813e+07	      76.5	    16.966	   4.02101	 1.2622e+07	      76.5	   17.1492	   4.19918	1.54254e+07	      76.5	    17.314	   4.01234	 1.7767e+07	      76.5	   17.0524	   3.93699	1.35195e+07	      76.5	   17.0576	   4.11009	1.39247e+07	      76.5	   17.2316	   4.10576	1.65016e+07	      76.5	   17.2264	   3.93266	1.61114e+07	
         R10	   4154	      76.5	   17.3062	   3.66701	1.62895e+07	      76.5	   17.1388	   3.85298	1.47994e+07	      76.5	    17.314	   4.01234	1.78794e+07	      76.5	   17.4904	   3.81243	1.82914e+07	      76.5	   17.2225	   3.75999	1.55036e+07	      76.5	   17.2264	   3.93266	1.63207e+07	      76.5	   17.4022	   3.91239	  1.803e+07	      76.5	   17.3983	   3.73972	1.72841e+07	
         R10	   4155	      76.5	   17.3062	   3.66701	1.64119e+07	      76.5	   17.4904	   3.81243	 1.8704e+07	      76.5	   17.6783	   3.59945	2.05177e+07	      76.5	   17.4629	    3.4053	 1.7839e+07	      76.5	   17.3983	   3.73972	1.75447e+07	      76.5	   17.5844	   3.70594	1.94187e+07	      76.5	   17.5706	   3.50237	1.90943e+07	      76.5	   17.3846	   3.53616	1.70368e+07	
         R10	   4156	      76.5	   17.4629	    3.4053	1.82324e+07	      76.5	   17.6783	   3.59945	2.08916e+07	      76.5	   17.8778	   3.37338	2.27003e+07	      76.5	   17.6578	   3.15932	2.97894e+07	      76.5	   17.5706	   3.50237	1.94088e+07	      76.5	   17.7781	   3.48641	2.11822e+07	      76.5	   17.7678	   3.26635	2.60412e+07	      76.5	   17.5604	   3.28231	 2.3495e+07	
         R10	   4157	      76.5	   17.2856	   3.18699	1.39922e+07	      76.5	   17.4629	    3.4053	1.84373e+07	      76.5	   17.6578	   3.15932	2.70734e+07	      76.5	   17.4652	   2.97188	2.10358e+07	      76.5	   17.3743	   3.29614	1.61252e+07	      76.5	   17.5604	   3.28231	2.23095e+07	      76.5	   17.5615	    3.0656	2.37311e+07	      76.5	   17.3754	   3.07943	1.74711e+07	
         R10	   4158	      76.5	   17.2856	   3.18699	1.37363e+07	      76.5	   17.4652	   2.97188	 2.1705e+07	      76.5	   17.2999	   2.81105	1.50021e+07	      76.5	   17.1539	   2.96111	1.24198e+07	      76.5	   17.3754	   3.07943	1.76764e+07	      76.5	   17.3825	   2.89147	1.83033e+07	      76.5	   17.2269	   2.88608	 1.3706e+07	      76.5	   17.2197	   3.07405	1.30308e+07	
         R10	   4159	      76.5	   17.0339	   3.35426	1.06484e+07	      76.5	   17.2856	   3.18699	1.43101e+07	      76.5	   17.1539	   2.96111	1.21136e+07	      76.5	   17.0151	   3.10371	9.91724e+06	      76.5	   17.1597	   3.27062	1.23838e+07	      76.5	   17.2197	   3.07405	1.31345e+07	      76.5	   17.0845	   3.03241	1.10009e+07	      76.5	   17.0245	   3.22898	1.02082e+07	
         R10	   4160	      76.5	   17.1116	   3.56952	 1.2961e+07	      76.5	   16.9663	   3.73393	 1.2343e+07	      76.5	   17.1388	   3.85298	1.43022e+07	      76.5	   17.3062	   3.66701	1.55983e+07	      76.5	   17.0389	   3.65172	1.25356e+07	      76.5	   17.0525	   3.79346	1.33172e+07	      76.5	   17.2225	   3.75999	1.49196e+07	      76.5	   17.2089	   3.61826	1.42445e+07	
         R10	   4161	      76.5	    17.189	   3.45412	1.18941e+07	      76.5	   17.1116	   3.56952	1.36116e+07	      76.5	   17.3062	   3.66701	1.60584e+07	      76.5	   17.4629	    3.4053	1.78291e+07	      76.5	   17.1503	   3.51182	 1.2721e+07	      76.5	   17.2089	   3.61826	1.48288e+07	      76.5	   17.3846	   3.53616	1.67953e+07	      76.5	    17.326	   3.42971	1.46778e+07	
         R10	   4162	      76.5	    17.189	   3.45412	1.40127e+07	      76.5	   17.4629	    3.4053	1.75006e+07	      76.5	   17.2856	   3.18699	1.54406e+07	      76.5	   17.0339	   3.35426	1.00699e+07	      76.5	    17.326	   3.42971	1.57461e+07	      76.5	   17.3743	   3.29614	 1.6371e+07	      76.5	   17.1597	   3.27062	1.26803e+07	      76.5	   17.1114	   3.40419	1.20318e+07	
         R10	   4163	      76.5	    17.189	   3.45412	1.21044e+07	      76.5	   17.0339	   3.35426	1.08028e+07	      76.5	   16.8233	   3.57317	9.59457e+06	      76.5	   17.1116	   3.56952	1.25056e+07	      76.5	   17.1114	   3.40419	1.14536e+07	      76.5	   16.9286	   3.46371	1.01205e+07	      76.5	   16.9674	   3.57134	1.10424e+07	      76.5	   17.1503	   3.51182	1.22599e+07	
         R10	   4164	      76.5	   17.0339	   3.35426	1.00107e+07	      76.5	   16.7594	    3.3665	 7.6911e+06	      76.5	   16.6425	   3.48671	7.90641e+06	      76.5	   16.8233	   3.57317	9.05967e+06	      76.5	   16.8966	   3.36038	8.82926e+06	      76.5	   16.7009	   3.42661	7.76929e+06	      76.5	   16.7329	   3.52994	8.46296e+06	      76.5	   16.9286	   3.46371	9.39444e+06	
         R10	   4165	      76.5	   17.0339	   3.35426	1.04468e+07	      76.5	   17.0151	   3.10371	1.00438e+07	      76.5	   16.8836	   3.23884	 8.8513e+06	      76.5	   17.0245	   3.22898	1.01705e+07	      76.5	   16.9494	   3.17127	9.42984e+06	      76.5	   16.9587	   3.29655	9.61827e+06	       N/A	       N/A	       N/A	        N/A	       N/A	       N/A	       N/A	        N/A	
         R10	   4166	      76.5	   17.0339	   3.35426	 1.0047e+07	      76.5	   16.8836	   3.23884	8.91005e+06	      76.5	   16.7594	    3.3665	7.79031e+06	      76.5	   16.9587	   3.29655	9.46081e+06	      76.5	   16.8215	   3.30267	8.31381e+06	      76.5	   16.8966	   3.36038	8.90093e+06	       N/A	       N/A	       N/A	        N/A	       N/A	       N/A	       N/A	        N/A	
         R10	   4167	      76.5	   16.9663	   3.73393	1.17847e+07	      76.5	   17.1116	   3.56952	1.24946e+07	      76.5	   16.8233	   3.57317	9.11628e+06	      76.5	   17.0389	   3.65172	1.20538e+07	      76.5	   16.9674	   3.57134	1.07843e+07	      76.5	   16.8948	   3.65355	1.04343e+07	       N/A	       N/A	       N/A	        N/A	       N/A	       N/A	       N/A	        N/A	
         R10	   4168	      76.5	   16.8565	   2.16031	1.15329e+07	      76.5	   16.7469	   2.27304	1.10608e+07	      76.5	    16.866	    2.3889	1.19729e+07	      76.5	   16.9881	   2.26347	1.29326e+07	      76.5	   16.8017	   2.21667	1.12794e+07	      76.5	   16.8064	   2.33097	1.15041e+07	      76.5	    16.927	   2.32618	1.24315e+07	      76.5	   16.9223	   2.21189	1.22258e+07	
         R10	   4169	      76.5	   16.9881	   2.26347	1.22951e+07	      76.5	    16.866	    2.3889	1.19918e+07	      76.5	   16.9978	   2.51719	1.30455e+07	      76.5	   17.1323	   2.37892	1.43774e+07	      76.5	    16.927	   2.32618	1.21187e+07	      76.5	   16.9319	   2.45305	 1.2502e+07	      76.5	   17.0651	   2.44805	1.36572e+07	      76.5	   17.0602	   2.32119	1.33194e+07	
         R10	   4170	      76.5	   17.2187	   2.15653	1.25453e+07	      76.5	    17.415	   2.19311	1.72319e+07	      76.5	    17.451	         2	1.14767e+07	      76.5	   17.2412	         2	1.41186e+07	      76.5	   17.3168	   2.17482	1.47647e+07	      76.5	    17.433	   2.09655	1.40845e+07	      76.5	   17.3461	         2	1.22846e+07	      76.5	   17.2299	   2.07826	1.32939e+07	
         R10	   4171	      76.5	   17.1323	   2.37892	1.43479e+07	      76.5	   16.9978	   2.51719	1.29493e+07	      76.5	   17.1425	   2.65791	1.46416e+07	      76.5	   17.3394	   2.59863	1.66868e+07	      76.5	   17.0651	   2.44805	1.36161e+07	      76.5	   17.0702	   2.58755	 1.3759e+07	      76.5	    17.241	   2.62827	 1.5632e+07	      76.5	   17.2359	   2.48878	1.53852e+07	
         R10	   4172	      76.5	   17.1323	   2.37892	1.31061e+07	      76.5	   17.3778	   2.39265	 1.7829e+07	      76.5	    17.415	   2.19311	1.53479e+07	      76.5	   17.2187	   2.15653	1.41411e+07	      76.5	   17.2551	   2.38578	 1.5421e+07	      76.5	   17.3964	   2.29288	1.63477e+07	      76.5	   17.3168	   2.17482	1.45811e+07	      76.5	   17.1755	   2.26772	1.35613e+07	
         R10	   4173	      76.5	   17.0855	      2.14	1.28544e+07	      76.5	   17.2187	   2.15653	1.25438e+07	      76.5	   17.2412	         2	1.37417e+07	      76.5	   17.0496	         2	1.36784e+07	      76.5	   17.1521	   2.14826	1.26641e+07	      76.5	   17.2299	   2.07826	1.31248e+07	      76.5	   17.1454	         2	1.36799e+07	      76.5	   17.0676	      2.07	1.32659e+07	
         R10	   4174	      76.5	   17.0855	      2.14	1.26081e+07	      76.5	   17.0496	         2	1.35523e+07	      76.5	   16.8565	   2.16031	1.15116e+07	      76.5	   16.9881	   2.26347	1.29625e+07	      76.5	   17.0676	      2.07	1.30768e+07	      76.5	   16.9531	   2.08016	1.25025e+07	      76.5	   16.9223	   2.21189	1.22303e+07	      76.5	   17.0368	   2.20173	1.27516e+07	
         R10	   4175	      76.5	   17.0855	      2.14	1.30859e+07	      76.5	   16.9881	   2.26347	1.22822e+07	      76.5	   17.1323	   2.37892	 1.3963e+07	      76.5	   17.2187	   2.15653	1.41523e+07	      76.5	   17.0368	   2.20173	1.26464e+07	      76.5	   17.0602	   2.32119	1.31055e+07	      76.5	   17.1755	   2.26772	1.39802e+07	      76.5	   17.1521	   2.14826	1.36069e+07	
         R10	   4176	      76.5	   16.7395	   2.10997	1.10385e+07	      76.5	   16.6406	    2.1696	 1.0713e+07	      76.5	   16.7469	   2.27304	1.11168e+07	      76.5	   16.8565	   2.16031	1.24288e+07	      76.5	     16.69	   2.13978	1.08688e+07	      76.5	   16.6937	   2.22132	1.09108e+07	      76.5	   16.8017	   2.21667	 1.1765e+07	      76.5	    16.798	   2.13514	1.17273e+07	
         R10	   4177	      76.5	   16.7395	   2.10997	1.09571e+07	      76.5	   16.8565	   2.16031	1.19159e+07	      76.5	   16.8764	         2	1.24738e+07	      76.5	   16.7214	         2	1.13533e+07	      76.5	    16.798	   2.13514	1.14313e+07	      76.5	   16.8665	   2.08016	1.21665e+07	      76.5	   16.7989	         2	1.19074e+07	      76.5	   16.7305	   2.05499	1.11452e+07	
         R10	   4178	      76.5	   16.7395	   2.10997	1.13256e+07	      76.5	   16.7214	         2	1.13207e+07	      76.5	   16.5847	         2	1.05315e+07	      76.5	   16.6406	    2.1696	1.07236e+07	      76.5	   16.7305	   2.05499	1.13181e+07	      76.5	   16.6531	         2	 1.0925e+07	      76.5	   16.6126	    2.0848	1.06137e+07	      76.5	     16.69	   2.13978	1.10187e+07	
         R10	   4179	      76.5	   17.1425	   2.65791	1.43035e+07	      76.5	   17.2999	   2.81105	  1.806e+07	      76.5	   17.3394	   2.59863	1.79214e+07	      76.5	   17.2212	   2.73448	1.60673e+07	      76.5	   17.3196	   2.70484	1.79088e+07	      76.5	    17.241	   2.62827	1.60853e+07	       N/A	       N/A	       N/A	        N/A	       N/A	       N/A	       N/A	        N/A	
         R10	   4180	      76.5	   17.1323	   2.37892	1.41917e+07	      76.5	   17.3394	   2.59863	1.70542e+07	      76.5	   17.3778	   2.39265	1.59502e+07	      76.5	   17.2359	   2.48878	1.55224e+07	      76.5	   17.3586	   2.49564	1.63589e+07	      76.5	   17.2551	   2.38578	1.50256e+07	       N/A	       N/A	       N/A	        N/A	       N/A	       N/A	       N/A	        N/A	
         R10	   4181	      76.5	   17.0496	         2	 1.3548e+07	      76.5	   16.8764	         2	1.24172e+07	      76.5	   16.8565	   2.16031	1.18471e+07	      76.5	    16.963	         2	1.29743e+07	      76.5	   16.8665	   2.08016	1.21196e+07	      76.5	   16.9531	   2.08016	1.26576e+07	       N/A	       N/A	       N/A	        N/A	       N/A	       N/A	       N/A	        N/A	
         R10	   4182	      76.5	    16.547	   2.07859	1.00962e+07	      76.5	   16.6406	    2.1696	1.05378e+07	      76.5	   16.5847	         2	1.08941e+07	      76.5	   16.5938	   2.12409	1.03161e+07	      76.5	   16.6126	    2.0848	1.06648e+07	      76.5	   16.5659	   2.03929	1.04454e+07	       N/A	       N/A	       N/A	        N/A	       N/A	       N/A	       N/A	        N/A	
         R10	   4183	      76.5	    16.547	   2.07859	1.00414e+07	      76.5	   16.5847	         2	 1.0367e+07	      76.5	   16.4663	         2	1.02774e+07	      76.5	   16.5659	   2.03929	1.01633e+07	      76.5	   16.5255	         2	1.03165e+07	      76.5	   16.5067	   2.03929	1.01416e+07	       N/A	       N/A	       N/A	        N/A	       N/A	       N/A	       N/A	        N/A	
         R10	   4184	      76.5	    17.314	   4.01234	1.67011e+07	      76.5	   17.1492	   4.19918	2.01133e+07	      76.5	   17.3254	    4.3707	1.52201e+07	      76.5	   17.5528	    4.1818	1.95614e+07	      76.5	   17.2316	   4.10576	1.82915e+07	      76.5	   17.2373	   4.28494	1.76216e+07	      76.5	   17.4391	   4.27625	1.73858e+07	      76.5	   17.4334	   4.09707	1.81155e+07	
         R10	   4185	      76.5	   17.5528	    4.1818	1.93593e+07	      76.5	   17.3254	    4.3707	1.75178e+07	      76.5	   17.5309	   4.57061	 1.8631e+07	      76.5	   17.7936	   4.35121	1.90288e+07	      76.5	   17.4391	   4.27625	1.84024e+07	      76.5	   17.4282	   4.47065	1.80636e+07	      76.5	   17.6622	   4.46091	1.88227e+07	      76.5	   17.6732	    4.2665	1.91859e+07	
         R10	   4186	      76.5	   17.7936	   4.35121	1.94291e+07	      76.5	   17.5309	   4.57061	1.83811e+07	      76.5	   17.7655	    4.7989	2.09845e+07	      76.5	   18.0091	   4.54862	1.86378e+07	      76.5	   17.6622	   4.46091	1.88915e+07	      76.5	   17.6482	   4.68475	1.96283e+07	      76.5	   17.8873	   4.67376	1.97717e+07	      76.5	   17.9013	   4.44991	1.90131e+07	
         R10	   4187	      76.5	   18.0158	   4.03916	1.57187e+07	      76.5	   17.7936	   4.35121	2.02778e+07	      76.5	   18.0091	   4.54862	1.91082e+07	      76.5	   18.2648	   4.28582	1.40704e+07	      76.5	   17.9047	   4.19518	1.79585e+07	      76.5	   17.9013	   4.44991	1.96664e+07	      76.5	   18.1369	   4.41722	 1.6585e+07	      76.5	   18.1403	   4.16249	1.47717e+07	
         R10	   4188	      76.5	   18.0158	   4.03916	1.62492e+07	      76.5	   18.2648	   4.28582	1.47177e+07	      76.5	   18.5326	    4.0105	3.46757e+06	      76.5	   18.2936	   3.77795	8.04926e+06	      76.5	   18.1403	   4.16249	1.53655e+07	      76.5	   18.3987	   4.14816	9.06792e+06	      76.5	   18.4131	   3.89423	5.04387e+06	      76.5	   18.1547	   3.90855	1.15477e+07	
         R10	   4189	      76.5	   18.0158	   4.03916	1.64214e+07	      76.5	   18.2936	   3.77795	7.92934e+06	      76.5	   18.0753	   3.56557	1.49599e+07	      76.5	   17.9332	   3.74037	1.66461e+07	      76.5	   18.1547	   3.90855	1.15579e+07	      76.5	   18.1845	   3.67176	1.13495e+07	      76.5	   18.0043	   3.65297	1.46769e+07	      76.5	   17.9745	   3.88976	1.64565e+07	
         R10	   4190	      76.5	   17.9332	   3.74037	1.79384e+07	      76.5	   18.0753	   3.56557	1.40283e+07	      76.5	   17.8778	   3.37338	2.55882e+07	      76.5	   17.6783	   3.59945	1.85393e+07	      76.5	   18.0043	   3.65297	1.50557e+07	      76.5	   17.9766	   3.46948	1.96268e+07	      76.5	   17.7781	   3.48641	 2.1231e+07	      76.5	   17.8058	   3.66991	1.81612e+07	
         R10	   4191	      76.5	   17.4904	   3.81243	  1.782e+07	      76.5	    17.314	   4.01234	1.73026e+07	      76.5	   17.5528	    4.1818	1.88331e+07	      76.5	   17.7033	   3.97408	1.87451e+07	      76.5	   17.4022	   3.91239	1.75186e+07	      76.5	   17.4334	   4.09707	1.80557e+07	      76.5	    17.628	   4.07794	1.87217e+07	      76.5	   17.5968	   3.89326	1.82789e+07	
         R10	   4192	      76.5	   17.7033	   3.97408	1.91792e+07	      76.5	   17.5528	    4.1818	1.85248e+07	      76.5	   17.7936	   4.35121	1.99499e+07	      76.5	   18.0158	   4.03916	1.56546e+07	      76.5	    17.628	   4.07794	1.88205e+07	      76.5	   17.6732	    4.2665	1.92352e+07	      76.5	   17.9047	   4.19518	1.77437e+07	      76.5	   17.8596	   4.00662	1.74123e+07	
         R10	   4193	      76.5	   17.7033	   3.97408	1.84446e+07	      76.5	   18.0158	   4.03916	1.63149e+07	      76.5	   17.9332	   3.74037	1.60702e+07	      76.5	   17.6783	   3.59945	1.85905e+07	      76.5	   17.8596	   4.00662	1.73785e+07	      76.5	   17.9745	   3.88976	1.58879e+07	      76.5	   17.8058	   3.66991	1.72444e+07	      76.5	   17.6908	   3.78676	1.83483e+07	
         R10	   4194	      76.5	   17.4904	   3.81243	1.82187e+07	      76.5	   17.7033	   3.97408	1.77759e+07	      76.5	   17.6783	   3.59945	1.83123e+07	      76.5	   17.5968	   3.89326	1.79882e+07	      76.5	   17.6908	   3.78676	1.78801e+07	      76.5	   17.5844	   3.70594	1.81184e+07	       N/A	       N/A	       N/A	        N/A	       N/A	       N/A	       N/A	        N/A	
         R10	   4195	      76.5	    17.869	  0.812795	7.40886e+06	      76.5	   17.6004	       0.8	7.99417e+06	      76.5	   17.5663	   1.07408	9.39486e+06	      76.5	   17.8503	   1.08642	 9.1081e+06	      76.5	   17.7347	  0.806398	7.69154e+06	      76.5	   17.5833	   0.93704	8.69112e+06	      76.5	   17.7083	   1.08025	9.23074e+06	      76.5	   17.8596	  0.949606	8.24862e+06	
         R10	   4196	      76.5	   17.8503	   1.08642	9.10126e+06	      76.5	   17.5663	   1.07408	9.43923e+06	      76.5	   17.5343	   1.33112	1.11616e+07	      76.5	   17.7994	   1.31999	1.03196e+07	      76.5	   17.7083	   1.08025	9.24873e+06	      76.5	   17.5503	    1.2026	1.02886e+07	      76.5	   17.6668	   1.32556	1.06961e+07	      76.5	   17.8248	   1.20321	9.70751e+06	
         R10	   4197	      76.5	   17.7994	   1.31999	1.06998e+07	      76.5	   17.5343	   1.33112	1.11671e+07	      76.5	   17.5044	   1.57112	 1.2444e+07	      76.5	     17.79	   1.61423	1.27365e+07	      76.5	   17.6668	   1.32556	1.08986e+07	      76.5	   17.5193	   1.45112	1.17798e+07	      76.5	   17.6472	   1.59267	1.24241e+07	      76.5	   17.7947	   1.46711	1.16932e+07	
         R10	   4198	      76.5	     17.79	   1.61423	1.36135e+07	      76.5	   17.5044	   1.57112	1.25494e+07	      76.5	   17.4766	   1.79408	1.34954e+07	      76.5	   17.6866	   1.80975	1.40015e+07	      76.5	   17.6472	   1.59267	1.29855e+07	      76.5	   17.4905	    1.6826	1.29804e+07	      76.5	   17.5816	   1.80192	1.34462e+07	      76.5	   17.7383	   1.71199	 1.3783e+07	
         R10	   4199	      76.5	   17.6866	   1.80975	1.52535e+07	      76.5	   17.4766	   1.79408	1.32955e+07	      76.5	    17.451	         2	1.63875e+07	      76.5	   17.6508	         2	1.43276e+07	      76.5	   17.5816	   1.80192	1.40793e+07	      76.5	   17.4638	   1.89704	1.47193e+07	      76.5	   17.5509	         2	 1.4932e+07	      76.5	   17.6687	   1.90488	1.47767e+07	
         R10	   4200	      76.5	   17.9593	   1.74572	 1.1687e+07	      76.5	   17.8815	         2	 1.0364e+07	      76.5	   18.1431	         2	9.95795e+06	      76.5	   18.1641	   1.70362	1.02723e+07	      76.5	   17.9204	   1.87286	1.09813e+07	      76.5	   18.0123	         2	9.46181e+06	      76.5	   18.1536	   1.85181	 9.4204e+06	      76.5	   18.0617	   1.72467	1.09542e+07	
         R10	   4201	      76.5	   18.1641	   1.70362	1.09211e+07	      76.5	   18.1431	         2	1.10183e+07	      76.5	   18.4357	         2	1.49231e+07	      76.5	   18.4454	   1.69834	8.35617e+06	      76.5	   18.1536	   1.85181	1.01456e+07	      76.5	   18.2894	         2	1.28093e+07	      76.5	   18.4405	   1.84917	1.13616e+07	      76.5	   18.3047	   1.70098	9.45873e+06	
         R10	   4202	      76.5	   18.1641	   1.70362	1.02559e+07	      76.5	   18.4454	   1.69834	8.56583e+06	      76.5	   18.4555	   1.38401	7.19704e+06	      76.5	   18.1311	   1.39263	9.59407e+06	      76.5	   18.3047	   1.70098	 9.3332e+06	      76.5	   18.4504	   1.54118	7.78027e+06	      76.5	   18.2933	   1.38832	 8.3509e+06	      76.5	   18.1476	   1.54813	9.80336e+06	
         R10	   4203	      76.5	   18.1311	   1.39263	9.64655e+06	      76.5	   18.4555	   1.38401	7.17111e+06	      76.5	    18.466	   1.05701	 6.4091e+06	      76.5	   18.1498	   1.05551	 7.4462e+06	      76.5	   18.2933	   1.38832	8.35633e+06	      76.5	   18.4608	   1.22051	6.76141e+06	      76.5	   18.3079	   1.05626	6.89828e+06	      76.5	   18.1405	   1.22407	8.52974e+06	
         R10	   4204	      76.5	   18.1498	   1.05551	7.69802e+06	      76.5	    18.466	   1.05701	 6.4249e+06	      76.5	   18.4769	  0.717345	5.41647e+06	      76.5	   18.1671	  0.727741	6.42821e+06	      76.5	   18.3079	   1.05626	7.02236e+06	      76.5	   18.4715	  0.887179	5.86566e+06	      76.5	    18.322	  0.722543	5.91804e+06	      76.5	   18.1585	  0.891624	7.04862e+06	
         R10	   4205	      76.5	   18.1671	  0.727741	6.82576e+06	      76.5	   18.4769	  0.717345	5.67052e+06	      76.5	   18.4883	  0.365008	7.67869e+06	      76.5	   18.0962	  0.355216	5.54278e+06	      76.5	    18.322	  0.722543	6.23493e+06	      76.5	   18.4826	  0.541176	6.63405e+06	      76.5	   18.2922	  0.360112	6.00964e+06	      76.5	   18.1317	  0.541478	5.70525e+06	
         R10	   4206	      76.5	   18.0962	  0.355216	4.93517e+06	      76.5	   18.4883	  0.365008	 5.9017e+06	      76.5	      18.5	         0	1.61395e+07	      76.5	    18.081	         0	4.08182e+06	      76.5	   18.2922	  0.360112	4.88638e+06	      76.5	   18.4941	  0.182504	1.02222e+07	      76.5	   18.2905	         0	7.99661e+06	      76.5	   18.0886	  0.177608	3.24322e+06	
         R10	   4207	      76.5	   18.0962	  0.355216	3.63966e+06	      76.5	    18.081	         0	3.45327e+06	      76.5	      17.7	         0	1.33291e+07	      76.5	   17.6636	  0.292006	7.29512e+06	      76.5	   18.0886	  0.177608	1.14895e+06	      76.5	   17.8905	         0	5.09984e+06	      76.5	   17.6818	  0.146003	9.07125e+06	      76.5	   17.8799	  0.323611	5.15802e+06	
         R10	   4208	      76.5	   18.0962	  0.355216	2.79827e+06	      76.5	   17.6636	  0.292006	8.10162e+06	      76.5	   17.6304	  0.558673	7.02001e+06	      76.5	   17.8661	  0.574572	6.86901e+06	      76.5	   17.8799	  0.323611	5.23565e+06	      76.5	    17.647	  0.425339	7.55079e+06	      76.5	   17.7483	  0.566622	6.94116e+06	      76.5	   17.9811	  0.464894	4.61915e+06	
         R10	   4209	      76.5	   17.8661	  0.574572	6.94987e+06	      76.5	   17.6304	  0.558673	6.69412e+06	      76.5	   17.6004	       0.8	 8.0416e+06	      76.5	    17.869	  0.812795	7.11694e+06	      76.5	   17.7483	  0.566622	6.81049e+06	      76.5	   17.6154	  0.679336	7.35682e+06	      76.5	   17.7347	  0.806398	 7.5641e+06	      76.5	   17.8676	  0.693684	7.02263e+06	
         R10	   4210	      76.5	     17.79	   1.61423	1.33766e+07	      76.5	   17.6866	   1.80975	1.35097e+07	      76.5	   17.8815	         2	1.21935e+07	      76.5	   17.9593	   1.74572	1.16349e+07	      76.5	   17.7383	   1.71199	 1.3411e+07	      76.5	   17.7841	   1.90488	1.27643e+07	      76.5	   17.9204	   1.87286	1.18725e+07	      76.5	   17.8747	   1.67998	 1.2357e+07	
         R10	   4211	      76.5	   18.1671	  0.727741	7.06954e+06	      76.5	   18.0962	  0.355216	2.31644e+06	      76.5	   17.8661	  0.574572	6.73471e+06	      76.5	    17.869	  0.812795	7.35826e+06	      76.5	   18.1317	  0.541478	4.61954e+06	      76.5	   17.9811	  0.464894	4.44969e+06	      76.5	   17.8676	  0.693684	7.03019e+06	      76.5	   18.0181	  0.770268	 7.2026e+06	
         R10	   4212	      76.5	   18.1498	   1.05551	7.67824e+06	      76.5	   18.1671	  0.727741	6.41404e+06	      76.5	    17.869	  0.812795	7.25703e+06	      76.5	   17.8503	   1.08642	9.03407e+06	      76.5	   18.1585	  0.891624	7.01321e+06	      76.5	   18.0181	  0.770268	6.81971e+06	      76.5	   17.8596	  0.949606	8.14088e+06	      76.5	        18	   1.07096	8.34088e+06	
         R10	   4213	      76.5	   18.1311	   1.39263	9.20929e+06	      76.5	   18.1498	   1.05551	7.56669e+06	      76.5	   17.8503	   1.08642	9.15268e+06	      76.5	   17.7994	   1.31999	1.06865e+07	      76.5	   18.1405	   1.22407	8.38334e+06	      76.5	        18	   1.07096	8.34023e+06	      76.5	   17.8248	   1.20321	9.90715e+06	      76.5	   17.9653	   1.35631	9.91103e+06	
         R10	   4214	      76.5	     17.79	   1.61423	1.25835e+07	      76.5	   17.9593	   1.74572	1.23663e+07	      76.5	   18.1641	   1.70362	9.19251e+06	      76.5	   18.1311	   1.39263	 9.5456e+06	      76.5	   17.8747	   1.67998	1.24078e+07	      76.5	   18.0617	   1.72467	1.06951e+07	      76.5	   18.1476	   1.54813	9.30286e+06	      76.5	   17.9606	   1.50343	1.09726e+07	
         R10	   4215	      76.5	   17.6866	   1.80975	1.44101e+07	      76.5	   17.6508	         2	1.37192e+07	      76.5	   17.8815	         2	1.16778e+07	      76.5	   17.6687	   1.90488	1.40599e+07	      76.5	   17.7662	         2	1.25926e+07	      76.5	   17.7841	   1.90488	1.29566e+07	       N/A	       N/A	       N/A	        N/A	       N/A	       N/A	       N/A	        N/A	
         R10	   4216	      76.5	   17.7994	   1.31999	 1.1022e+07	      76.5	     17.79	   1.61423	1.23784e+07	      76.5	   18.1311	   1.39263	8.92943e+06	      76.5	   17.7947	   1.46711	1.16958e+07	      76.5	   17.9606	   1.50343	1.06029e+07	      76.5	   17.9653	   1.35631	9.91682e+06	       N/A	       N/A	       N/A	        N/A	       N/A	       N/A	       N/A	        N/A	
         R10	   4217	      76.5	   18.0091	   4.54862	1.91866e+07	      76.5	   17.7655	    4.7989	1.77058e+07	      76.5	   18.0444	   5.07027	1.77126e+07	      76.5	   18.3486	   4.81725	1.77351e+07	      76.5	   17.8873	   4.67376	1.83999e+07	      76.5	    17.905	   4.93459	 1.7549e+07	      76.5	   18.1965	   4.94376	1.75251e+07	      76.5	   18.1789	   4.68293	1.84601e+07	
         R10	   4218	      76.5	   18.3486	   4.81725	1.87971e+07	      76.5	   18.0444	   5.07027	1.77409e+07	      76.5	   18.3819	   5.39863	2.20715e+07	      76.5	   18.6483	   5.16518	1.39339e+07	      76.5	   18.1965	   4.94376	1.81458e+07	      76.5	   18.2132	   5.23445	 1.9297e+07	      76.5	   18.5151	    5.2819	1.76989e+07	      76.5	   18.4985	   4.99121	1.63558e+07	
         R10	   4219	      76.5	   18.6102	   4.56092	1.44622e+07	      76.5	   18.3486	   4.81725	1.99409e+07	      76.5	   18.6483	   5.16518	1.48241e+07	      76.5	    18.925	   4.92276	1.56987e+07	      76.5	   18.4794	   4.68908	1.67209e+07	      76.5	   18.4985	   4.99121	1.73347e+07	      76.5	   18.7867	   5.04397	1.47427e+07	      76.5	   18.7676	   4.74184	1.50375e+07	
         R10	   4220	      76.5	   18.6102	   4.56092	1.49487e+07	      76.5	    18.925	   4.92276	1.70479e+07	      76.5	   19.2119	   4.67137	2.49493e+07	      76.5	   18.8436	   4.31303	 1.0078e+07	      76.5	   18.7676	   4.74184	1.59918e+07	      76.5	   19.0684	   4.79706	1.88209e+07	      76.5	   19.0277	    4.4922	1.75064e+07	      76.5	   18.7269	   4.43697	1.10333e+07	
         R10	   4221	      76.5	   18.6102	   4.56092	1.51792e+07	      76.5	   18.8436	   4.31303	1.08332e+07	      76.5	   18.5326	    4.0105	3.38316e+06	      76.5	   18.2648	   4.28582	  1.486e+07	      76.5	   18.7269	   4.43697	1.13683e+07	      76.5	   18.6881	   4.16176	6.24395e+06	      76.5	   18.3987	   4.14816	9.10227e+06	      76.5	   18.4375	   4.42337	1.48179e+07	
         R10	   4222	      76.5	   18.3486	   4.81725	1.81592e+07	      76.5	   18.6102	   4.56092	1.42074e+07	      76.5	   18.2648	   4.28582	   1.43e+07	      76.5	   18.0091	   4.54862	1.92551e+07	      76.5	   18.4794	   4.68908	1.58326e+07	      76.5	   18.4375	   4.42337	1.40253e+07	      76.5	   18.1369	   4.41722	1.67697e+07	      76.5	   18.1789	   4.68293	1.86911e+07	
         R10	   4223	      76.5	    18.862	         0	7.84432e+06	      76.5	      18.5	         0	1.53808e+07	      76.5	   18.4883	  0.365008	7.33058e+06	      76.5	   18.9329	  0.388645	  3.206e+06	      76.5	    18.681	         0	7.87796e+06	      76.5	   18.4941	  0.182504	1.01617e+07	      76.5	   18.7106	  0.376826	4.73258e+06	      76.5	   18.8974	  0.194322	3.47277e+06	
         R10	   4224	      76.5	   18.9329	  0.388645	2.85253e+06	      76.5	   18.4883	  0.365008	7.27727e+06	      76.5	   18.4769	  0.717345	 4.9876e+06	      76.5	   18.9218	  0.762062	4.22993e+06	      76.5	   18.7106	  0.376826	4.36079e+06	      76.5	   18.4826	  0.541176	6.05311e+06	      76.5	   18.6993	  0.739703	4.45227e+06	      76.5	   18.9273	  0.575353	2.90333e+06	
         R10	   4225	      76.5	   18.9218	  0.762062	4.08861e+06	      76.5	   18.4769	  0.717345	5.09571e+06	      76.5	    18.466	   1.05701	 6.2075e+06	      76.5	   18.8331	   1.04225	5.08906e+06	      76.5	   18.6993	  0.739703	4.48771e+06	      76.5	   18.4715	  0.887179	5.58811e+06	      76.5	   18.6496	   1.04963	5.52414e+06	      76.5	   18.8774	  0.902158	4.55739e+06	
         R10	   4226	      76.5	   18.8331	   1.04225	4.85821e+06	      76.5	    18.466	   1.05701	6.18754e+06	      76.5	   18.4555	   1.38401	7.31399e+06	      76.5	   18.7431	   1.41462	7.06976e+06	      76.5	   18.6496	   1.04963	5.41238e+06	      76.5	   18.4608	   1.22051	6.70889e+06	      76.5	   18.5993	   1.39932	7.12471e+06	      76.5	   18.7881	   1.22844	5.93633e+06	
         R10	   4227	      76.5	   18.7431	   1.41462	6.94894e+06	      76.5	   18.4555	   1.38401	7.14578e+06	      76.5	   18.4454	   1.69834	8.46965e+06	      76.5	   18.7838	   1.69431	1.14577e+07	      76.5	   18.5993	   1.39932	6.97261e+06	      76.5	   18.4504	   1.54118	7.73975e+06	      76.5	   18.6146	   1.69633	 9.9368e+06	      76.5	   18.7634	   1.55447	 9.1874e+06	
         R10	   4228	      76.5	   18.7838	   1.69431	1.09942e+07	      76.5	   18.4454	   1.69834	7.85495e+06	      76.5	   18.4357	         2	1.83372e+07	      76.5	   18.7687	         2	1.54296e+07	      76.5	   18.6146	   1.69633	9.32981e+06	      76.5	   18.4405	   1.84917	1.28694e+07	      76.5	   18.6022	         2	1.66641e+07	      76.5	   18.7762	   1.84716	1.31508e+07	
         R10	   4229	      76.5	   19.1661	   1.66259	1.02413e+07	      76.5	   18.7838	   1.69431	1.07639e+07	      76.5	   18.7687	         2	 1.5664e+07	      76.5	   19.1568	         2	1.45975e+07	      76.5	    18.975	   1.67845	1.04782e+07	      76.5	   18.7762	   1.84716	1.31829e+07	      76.5	   18.9627	         2	1.51297e+07	      76.5	   19.1615	   1.83129	1.24179e+07	
         R10	   4230	      76.5	   19.1661	   1.66259	1.03289e+07	      76.5	   19.1568	         2	1.44063e+07	      76.5	      19.6	         2	1.55703e+07	      76.5	   19.5429	   1.61905	6.93207e+06	      76.5	   19.1615	   1.83129	1.23659e+07	      76.5	   19.3784	         2	1.48293e+07	      76.5	   19.5714	   1.80952	1.10122e+07	      76.5	   19.3545	   1.64082	 8.5895e+06	
         R10	   4231	      76.5	   19.1119	   1.26138	5.56988e+06	      76.5	   19.1661	   1.66259	 1.0607e+07	      76.5	   19.5429	   1.61905	7.11517e+06	      76.5	   19.4843	   1.22857	5.82468e+06	      76.5	    19.139	   1.46199	8.03552e+06	      76.5	   19.3545	   1.64082	8.85699e+06	      76.5	   19.5136	   1.42381	6.32555e+06	      76.5	   19.2981	   1.24498	 5.6393e+06	
         R10	   4232	      76.5	   19.3629	  0.419048	 7.0118e+06	      76.5	      19.3	         0	 1.0709e+07	      76.5	    18.862	         0	4.72652e+06	      76.5	   18.9329	  0.388645	3.35689e+06	      76.5	   19.3314	  0.209524	7.38819e+06	      76.5	    19.081	         0	5.39813e+06	      76.5	   18.8974	  0.194322	2.19456e+06	      76.5	   19.1479	  0.403846	4.68892e+06	
         R10	   4233	      76.5	   19.4243	  0.828571	4.42023e+06	      76.5	   19.3629	  0.419048	6.56684e+06	      76.5	   18.9329	  0.388645	2.47558e+06	      76.5	   18.9218	  0.762062	4.51919e+06	      76.5	   19.3936	   0.62381	5.45129e+06	      76.5	   19.1479	  0.403846	3.84183e+06	      76.5	   18.9273	  0.575353	3.02251e+06	      76.5	    19.173	  0.795316	4.24745e+06	
         R10	   4234	      76.5	   18.7431	   1.41462	7.22922e+06	      76.5	   18.7838	   1.69431	1.03214e+07	      76.5	   19.1661	   1.66259	 9.7962e+06	      76.5	   19.1119	   1.26138	6.21618e+06	      76.5	   18.7634	   1.55447	8.77346e+06	      76.5	    18.975	   1.67845	1.00539e+07	      76.5	    19.139	   1.46199	7.97805e+06	      76.5	   18.9275	     1.338	6.67664e+06	
         R10	   4235	      76.5	   19.4243	  0.828571	4.84579e+06	      76.5	   18.9218	  0.762062	4.18602e+06	      76.5	   18.8331	   1.04225	5.05521e+06	      76.5	   19.1119	   1.26138	5.75832e+06	      76.5	    19.173	  0.795316	4.24393e+06	      76.5	   18.8774	  0.902158	4.58212e+06	      76.5	   18.9725	   1.15182	5.36167e+06	      76.5	   19.2681	   1.04498	4.96657e+06	
         R10	   4236	      76.5	   18.8331	   1.04225	4.75223e+06	      76.5	   18.7431	   1.41462	7.36236e+06	      76.5	   19.1119	   1.26138	6.23204e+06	      76.5	   18.7881	   1.22844	 6.0216e+06	      76.5	   18.9275	     1.338	6.76261e+06	      76.5	   18.9725	   1.15182	5.44087e+06	       N/A	       N/A	       N/A	        N/A	       N/A	       N/A	       N/A	        N/A	
         R10	   4237	      76.5	   19.4843	   1.22857	5.93852e+06	      76.5	   19.4243	  0.828571	4.88415e+06	      76.5	   19.1119	   1.26138	5.72026e+06	      76.5	   19.4543	   1.02857	5.26982e+06	      76.5	   19.2681	   1.04498	4.98395e+06	      76.5	   19.2981	   1.24498	5.76972e+06	       N/A	       N/A	       N/A	        N/A	       N/A	       N/A	       N/A	        N/A	
         R10	   4238	      76.5	   19.1479	   5.36211	8.46536e+06	      76.5	   19.3758	   5.02378	1.60019e+07	      76.5	   19.2119	   4.67137	2.87072e+07	      76.5	    18.925	   4.92276	1.79245e+07	      76.5	   19.2619	   5.19295	1.15186e+07	      76.5	   19.2938	   4.84757	2.20698e+07	      76.5	   19.0684	   4.79706	  2.192e+07	      76.5	   19.0365	   5.14243	1.31276e+07	
         R10	   4239	      76.5	    18.767	   5.38027	1.11615e+07	      76.5	   19.1479	   5.36211	1.16238e+07	      76.5	    18.925	   4.92276	1.58035e+07	      76.5	   18.6483	   5.16518	1.65079e+07	      76.5	   18.9574	   5.37119	 1.0145e+07	      76.5	   19.0365	   5.14243	1.36168e+07	      76.5	   18.7867	   5.04397	1.57819e+07	      76.5	   18.7076	   5.27272	1.33894e+07	
         R10	   4240	      76.5	   19.1479	   5.36211	1.00234e+07	      76.5	   19.5249	   5.34415	1.46011e+07	      76.5	   19.3758	   5.02378	1.55595e+07	      76.5	   19.3364	   5.35313	1.12001e+07	      76.5	   19.4503	   5.18396	1.43549e+07	      76.5	   19.2619	   5.19295	1.20292e+07	       N/A	       N/A	       N/A	        N/A	       N/A	       N/A	       N/A	        N/A	
         R10	   4241	      76.5	   18.3819	   5.39863	1.27678e+07	      76.5	    18.767	   5.38027	1.06505e+07	      76.5	   18.6483	   5.16518	1.46474e+07	      76.5	   18.5744	   5.38945	1.13453e+07	      76.5	   18.7076	   5.27272	1.25694e+07	      76.5	   18.5151	    5.2819	1.32011e+07	       N/A	       N/A	       N/A	        N/A	       N/A	       N/A	       N/A	        N/A	
         R10	   4242	      76.5	        19	         6	3.08805e+07	      76.5	   19.1479	   5.36211	1.11705e+07	      76.5	    18.767	   5.38027	1.13274e+07	      76.5	   18.6649	   5.67392	1.60913e+07	      76.5	    19.074	   5.68106	1.91333e+07	      76.5	   18.9574	   5.37119	9.39762e+06	      76.5	   18.7159	   5.52709	1.33958e+07	      76.5	   18.8324	   5.83696	2.17497e+07	
         R10	   4243	      76.5	   19.4176	   5.67286	1.83055e+07	      76.5	   19.4348	         6	1.28797e+07	      76.5	     19.83	         6	1.57881e+07	      76.5	   19.6702	   5.65646	1.47013e+07	      76.5	   19.4262	   5.83643	1.51375e+07	      76.5	   19.6324	         6	1.41831e+07	      76.5	   19.7501	   5.82823	1.51528e+07	      76.5	   19.5439	   5.66466	1.62972e+07	
         R10	   4244	      76.5	   19.4176	   5.67286	 1.3002e+07	      76.5	   19.6702	   5.65646	1.70219e+07	      76.5	   19.5249	   5.34415	1.52891e+07	      76.5	   19.1479	   5.36211	1.13655e+07	      76.5	   19.5439	   5.66466	1.50089e+07	      76.5	   19.5975	    5.5003	1.58949e+07	      76.5	   19.3364	   5.35313	1.19475e+07	      76.5	   19.2828	   5.51748	1.06325e+07	
         R10	   4245	      76.5	   19.4176	   5.67286	1.52763e+07	      76.5	   19.1479	   5.36211	1.25256e+07	      76.5	        19	         6	2.85084e+07	      76.5	   19.4348	         6	1.41694e+07	      76.5	   19.2828	   5.51748	1.09335e+07	      76.5	    19.074	   5.68106	1.77854e+07	      76.5	   19.2174	         6	2.03339e+07	      76.5	   19.4262	   5.83643	1.47041e+07	
         R10	   4246	      76.5	    18.767	   5.38027	1.40583e+07	      76.5	   18.3819	   5.39863	1.46394e+07	      76.5	   18.6649	   5.67392	1.12664e+07	      76.5	   18.5744	   5.38945	1.41324e+07	      76.5	   18.5234	   5.53627	1.16212e+07	      76.5	   18.7159	   5.52709	1.13793e+07	       N/A	       N/A	       N/A	        N/A	       N/A	       N/A	       N/A	        N/A	
         R10	   4247	      76.5	   19.7063	  0.419101	6.07018e+06	      76.5	   19.7344	         0	3.19161e+06	      76.5	      19.3	         0	1.35921e+07	      76.5	   19.3629	  0.419048	4.89704e+06	      76.5	   19.7203	   0.20955	4.33928e+06	      76.5	   19.5172	         0	7.60147e+06	      76.5	   19.3314	  0.209524	8.94389e+06	      76.5	   19.5346	  0.419074	5.11056e+06	
         R10	   4248	      76.5	   19.6787	  0.828651	 5.8198e+06	      76.5	   19.7063	  0.419101	6.37419e+06	      76.5	   19.3629	  0.419048	6.02872e+06	      76.5	   19.4243	  0.828571	5.09889e+06	      76.5	   19.6925	  0.623876	5.84864e+06	      76.5	   19.5346	  0.419074	5.78828e+06	      76.5	   19.3936	   0.62381	5.45283e+06	      76.5	   19.5515	  0.828611	5.43441e+06	
         R10	   4249	      76.5	   19.6518	   1.22865	5.57359e+06	      76.5	   19.6787	  0.828651	5.45853e+06	      76.5	   19.4243	  0.828571	5.34609e+06	      76.5	   19.4843	   1.22857	5.50037e+06	      76.5	   19.6653	   1.02865	5.43235e+06	      76.5	   19.5515	  0.828611	5.39094e+06	      76.5	   19.4543	   1.02857	 5.3007e+06	      76.5	   19.5681	   1.22861	5.51205e+06	
         R10	   4250	      76.5	   19.6256	    1.6191	6.84727e+06	      76.5	   19.6518	   1.22865	 5.6468e+06	      76.5	   19.4843	   1.22857	5.67018e+06	      76.5	   19.5429	   1.61905	7.65429e+06	      76.5	   19.6387	   1.42388	5.92199e+06	      76.5	   19.5681	   1.22861	5.64281e+06	      76.5	   19.5136	   1.42381	6.50222e+06	      76.5	   19.5842	   1.61907	7.24761e+06	
         R10	   4251	      76.5	      19.6	         2	1.18448e+07	      76.5	   19.6256	    1.6191	6.85385e+06	      76.5	   19.5429	   1.61905	7.66657e+06	      76.5	   19.6128	   1.80955	 9.2434e+06	      76.5	   19.5842	   1.61907	7.24512e+06	      76.5	   19.5714	   1.80952	9.53395e+06	       N/A	       N/A	       N/A	        N/A	       N/A	       N/A	       N/A	        N/A	
         R10	   4252	      76.5	   19.5249	   5.34415	 1.5388e+07	      76.5	   19.9109	   5.32574	2.57831e+07	      76.5	   19.9723	   4.81453	1.49693e+07	      76.5	   19.5705	   4.85758	3.01539e+07	      76.5	   19.7179	   5.33495	2.04623e+07	      76.5	   19.9416	   5.07014	1.93807e+07	      76.5	   19.7746	   4.86568	2.17562e+07	      76.5	   19.5477	   5.10086	1.99132e+07	
         R10	   4253	      76.5	   19.5705	   4.85758	3.93443e+07	      76.5	   19.2119	   4.67137	2.91365e+07	      76.5	   19.3758	   5.02378	1.47558e+07	      76.5	   19.3774	   4.79092	3.35983e+07	      76.5	   19.2938	   4.84757	2.13341e+07	      76.5	   19.4732	   4.94068	2.68643e+07	       N/A	       N/A	       N/A	        N/A	       N/A	       N/A	       N/A	        N/A	
         R10	   4254	      76.5	   19.5705	   4.85758	2.85979e+07	      76.5	   19.3758	   5.02378	1.31492e+07	      76.5	   19.5249	   5.34415	 1.2089e+07	      76.5	   19.4732	   4.94068	2.08102e+07	      76.5	   19.4503	   5.18396	1.09403e+07	      76.5	   19.5477	   5.10086	1.84702e+07	       N/A	       N/A	       N/A	        N/A	       N/A	       N/A	       N/A	        N/A	
         R10	   4255	      76.5	   19.8724	   5.64682	1.89476e+07	      76.5	   19.9109	   5.32574	2.19632e+07	      76.5	   19.5249	   5.34415	1.45157e+07	      76.5	   19.6702	   5.65646	 1.8258e+07	      76.5	   19.8917	   5.48628	 2.0224e+07	      76.5	   19.7179	   5.33495	1.81581e+07	      76.5	   19.5975	    5.5003	 1.6144e+07	      76.5	   19.7713	   5.65164	1.84975e+07	
         R10	   4256	      76.5	     19.83	         6	1.68101e+07	      76.5	   19.8724	   5.64682	 1.8676e+07	      76.5	   19.6702	   5.65646	1.80818e+07	      76.5	   19.8512	   5.82341	1.76245e+07	      76.5	   19.7713	   5.65164	1.83439e+07	      76.5	   19.7501	   5.82823	1.73995e+07	       N/A	       N/A	       N/A	        N/A	       N/A	       N/A	       N/A	        N/A	
         R10	   4257	      76.5	   20.0835	  0.855856	5.53339e+06	      76.5	   19.6787	  0.828651	5.76026e+06	      76.5	   19.6518	   1.22865	6.03402e+06	      76.5	   20.0471	   1.25521	6.40617e+06	      76.5	   19.8811	  0.842253	5.64288e+06	      76.5	   19.6653	   1.02865	5.74274e+06	      76.5	   19.8495	   1.24193	6.20423e+06	      76.5	   20.0653	   1.05553	5.91786e+06	
         R10	   4258	      76.5	   20.0471	   1.25521	 6.3108e+06	      76.5	   19.6518	   1.22865	 6.0191e+06	      76.5	   19.6256	    1.6191	7.42631e+06	      76.5	   20.0113	   1.64502	7.05734e+06	      76.5	   19.8495	   1.24193	6.15329e+06	      76.5	   19.6387	   1.42388	6.55065e+06	      76.5	   19.8184	   1.63206	7.22814e+06	      76.5	   20.0292	   1.45012	6.50072e+06	
         R10	   4259	      76.5	   20.0113	   1.64502	7.08084e+06	      76.5	   19.6256	    1.6191	7.25358e+06	      76.5	      19.6	         2	1.30222e+07	      76.5	    19.981	         2	8.61001e+06	      76.5	   19.8184	   1.63206	7.13876e+06	      76.5	   19.6128	   1.80955	9.75968e+06	      76.5	   19.7905	         2	1.07911e+07	      76.5	   19.9961	   1.82251	7.30479e+06	
         R10	   4260	      76.5	   20.0113	   1.64502	7.48012e+06	      76.5	    19.981	         2	 7.8453e+06	      76.5	      20.4	         2	6.41838e+06	      76.5	   20.4991	    1.5164	7.34226e+06	      76.5	   19.9961	   1.82251	7.22527e+06	      76.5	   20.1905	         2	6.80446e+06	      76.5	   20.4495	    1.7582	6.77439e+06	      76.5	   20.2552	   1.58071	7.35626e+06	
         R10	   4261	      76.5	   20.0471	   1.25521	6.65852e+06	      76.5	   20.0113	   1.64502	 7.1709e+06	      76.5	   20.4991	    1.5164	7.40851e+06	      76.5	   20.6085	  0.981953	6.21973e+06	      76.5	   20.0292	   1.45012	6.82797e+06	      76.5	   20.2552	   1.58071	7.18344e+06	      76.5	   20.5538	   1.24918	6.76771e+06	      76.5	   20.3278	   1.11858	6.36868e+06	
         R10	   4262	      76.5	   20.2104	   0.11214	3.32894e+06	      76.5	   19.7063	  0.419101	5.07868e+06	      76.5	   19.6787	  0.828651	6.15258e+06	      76.5	   20.0835	  0.855856	5.64985e+06	      76.5	   19.9583	   0.26562	4.16134e+06	      76.5	   19.6925	  0.623876	5.50186e+06	      76.5	   19.8811	  0.842253	5.89545e+06	      76.5	    20.147	  0.483998	4.38571e+06	
         R10	   4263	      76.5	   20.6085	  0.981953	6.08858e+06	      76.5	   20.7284	  0.396646	4.20946e+06	      76.5	   20.2104	   0.11214	3.92072e+06	      76.5	   20.0835	  0.855856	5.88107e+06	      76.5	   20.6685	  0.689299	5.13194e+06	      76.5	     20.48	  0.235152	3.83323e+06	      76.5	    20.147	  0.483998	4.79956e+06	      76.5	    20.346	  0.918904	5.86371e+06	
         R10	   4264	      76.5	   20.2104	   0.11214	2.63233e+06	      76.5	   19.7344	         0	3.48557e+06	      76.5	   19.7063	  0.419101	6.33522e+06	      76.5	   19.9759	  0.041468	3.01014e+06	      76.5	   19.7203	   0.20955	4.71832e+06	      76.5	   19.9583	   0.26562	4.44397e+06	       N/A	       N/A	       N/A	        N/A	       N/A	       N/A	       N/A	        N/A	
         R10	   4265	      76.5	   20.0471	   1.25521	6.69587e+06	      76.5	   20.6085	  0.981953	5.74155e+06	      76.5	   20.0835	  0.855856	5.81893e+06	      76.5	   20.3278	   1.11858	6.18166e+06	      76.5	    20.346	  0.918904	5.65999e+06	      76.5	   20.0653	   1.05553	6.19268e+06	       N/A	       N/A	       N/A	        N/A	       N/A	       N/A	       N/A	        N/A	
         R10	   4266	      76.5	   20.2721	   2.36604	2.14752e+06	      76.5	      20.4	         2	 6.9673e+06	      76.5	    19.981	         2	7.37851e+06	      76.5	    19.965	   2.08814	1.04202e+07	      76.5	    20.336	   2.18302	4.26838e+06	      76.5	   20.1905	         2	6.87715e+06	      76.5	    19.973	   2.04407	8.54199e+06	      76.5	   20.1369	   2.20688	6.14734e+06	
         R10	   4267	      76.5	      20.4	   2.38095	4.85579e+06	      76.5	      20.4	         2	 6.5837e+06	      76.5	   20.2721	   2.36604	3.16339e+06	      76.5	      20.4	   2.19048	5.42543e+06	      76.5	    20.336	   2.18302	4.83696e+06	      76.5	    20.336	    2.3735	3.88667e+06	       N/A	       N/A	       N/A	        N/A	       N/A	       N/A	       N/A	        N/A	
         R10	   4268	      76.5	      20.4	   2.38095	5.09075e+06	      76.5	   20.2721	   2.36604	2.21281e+06	      76.5	      20.4	       2.8	 1.1878e+07	      76.5	    20.336	    2.3735	 3.2547e+06	      76.5	   20.3674	   2.57379	6.87821e+06	      76.5	      20.4	   2.59048	 7.0202e+06	       N/A	       N/A	       N/A	        N/A	       N/A	       N/A	       N/A	        N/A	
         R10	   4269	      76.5	    19.981	         2	9.33486e+06	      76.5	      19.6	         2	1.54205e+07	      76.5	    19.965	   2.08814	1.11508e+07	      76.5	   19.7905	         2	1.19789e+07	      76.5	   19.7878	   2.02235	1.30212e+07	      76.5	    19.973	   2.04407	1.00178e+07	       N/A	       N/A	       N/A	        N/A	       N/A	       N/A	       N/A	        N/A	
         R10	   4270	      76.5	   20.2199	   5.31102	2.06534e+07	      76.5	   19.9109	   5.32574	2.15066e+07	      76.5	   19.8724	   5.64682	2.01075e+07	      76.5	    20.226	   5.67651	1.81133e+07	      76.5	   20.0654	   5.31838	2.10341e+07	      76.5	   19.8917	   5.48628	2.06597e+07	      76.5	   20.0492	   5.66166	1.89883e+07	      76.5	    20.223	   5.49376	1.92355e+07	
         R10	   4271	      76.5	    20.226	   5.67651	1.71327e+07	      76.5	   19.8724	   5.64682	1.93545e+07	      76.5	     19.83	         6	1.88528e+07	      76.5	   20.2252	         6	1.63893e+07	      76.5	   20.0492	   5.66166	1.82411e+07	      76.5	   19.8512	   5.82341	1.88633e+07	      76.5	   20.0276	         6	1.74756e+07	      76.5	   20.2256	   5.83825	1.67412e+07	
         R10	   4272	      76.5	    20.226	   5.67651	1.86329e+07	      76.5	   20.2252	         6	1.52349e+07	      76.5	     20.66	         6	1.17155e+07	      76.5	   20.6075	   5.63062	1.46758e+07	      76.5	   20.2256	   5.83825	1.68581e+07	      76.5	   20.4426	         6	1.34267e+07	      76.5	   20.6338	   5.81531	1.31044e+07	      76.5	   20.4168	   5.65356	1.65464e+07	
         R10	   4273	      76.5	   20.2199	   5.31102	1.87369e+07	      76.5	    20.226	   5.67651	1.85576e+07	      76.5	   20.6075	   5.63062	1.44407e+07	      76.5	   20.5598	   5.29481	1.57934e+07	      76.5	    20.223	   5.49376	  1.841e+07	      76.5	   20.4168	   5.65356	1.64397e+07	      76.5	   20.5837	   5.46272	 1.5093e+07	      76.5	   20.3899	   5.30292	 1.7131e+07	
         R10	   4274	      76.5	   19.9723	   4.81453	1.82897e+07	      76.5	   20.2199	   5.31102	2.43084e+07	      76.5	   20.5598	   5.29481	1.58562e+07	      76.5	   20.5091	   4.93762	 1.6789e+07	      76.5	   20.0961	   5.06277	2.11999e+07	      76.5	   20.3899	   5.30292	2.00143e+07	      76.5	   20.5345	   5.11622	1.60191e+07	      76.5	   20.2407	   4.87607	 1.7092e+07	
         R10	   4275	      76.5	   20.2723	   4.57268	3.19079e+07	      76.5	   19.9723	   4.81453	1.31627e+07	      76.5	   20.5091	   4.93762	1.75133e+07	      76.5	   20.4558	   4.56257	1.64549e+07	      76.5	   20.1393	   4.71466	2.22713e+07	      76.5	   20.2407	   4.87607	1.45645e+07	      76.5	   20.4825	    4.7501	1.65333e+07	      76.5	   20.3641	   4.56763	2.30171e+07	
         R10	   4276	      76.5	   19.9723	   4.81453	1.73517e+07	      76.5	   19.9109	   5.32574	2.58311e+07	      76.5	   20.2199	   5.31102	2.47501e+07	      76.5	   19.9416	   5.07014	 2.0041e+07	      76.5	   20.0654	   5.31838	2.50333e+07	      76.5	   20.0961	   5.06277	2.01498e+07	       N/A	       N/A	       N/A	        N/A	       N/A	       N/A	       N/A	        N/A	
         R10	   4277	      76.5	      20.4	   4.16966	2.94114e+07	      76.5	   20.2723	   4.57268	3.60944e+07	      76.5	   20.4558	   4.56257	1.98003e+07	      76.5	   20.3673	   4.38104	3.01747e+07	      76.5	   20.3641	   4.56763	2.70122e+07	      76.5	   20.4279	   4.36612	 2.3203e+07	       N/A	       N/A	       N/A	        N/A	       N/A	       N/A	       N/A	        N/A	
         R10	   4278	      76.5	   20.9224	   2.11872	7.73496e+06	      76.5	      20.4	   2.38095	5.62256e+06	      76.5	      20.4	       2.8	8.73932e+06	      76.5	   20.9224	   2.89498	 1.0094e+07	      76.5	   20.6612	   2.24984	6.65646e+06	      76.5	      20.4	   2.59048	6.81405e+06	      76.5	   20.6612	   2.84749	8.13407e+06	      76.5	   20.9224	   2.50685	8.62042e+06	
         R10	   4279	      76.5	      21.5	      2.25	 8.1998e+06	      76.5	   20.9224	   2.11872	6.64395e+06	      76.5	   20.9224	   2.89498	9.81119e+06	      76.5	      21.5	         3	6.99162e+06	      76.5	   21.2112	   2.18436	6.92095e+06	      76.5	   20.9224	   2.50685	8.03419e+06	      76.5	   21.2112	   2.94749	8.01517e+06	      76.5	      21.5	     2.625	 7.2538e+06	
         R10	   4280	      76.5	   20.9224	   2.11872	7.56272e+06	      76.5	      20.4	         2	6.10416e+06	      76.5	      20.4	   2.38095	 6.3271e+06	      76.5	   20.6612	   2.05936	6.52756e+06	      76.5	      20.4	   2.19048	5.98175e+06	      76.5	   20.6612	   2.24984	6.91913e+06	       N/A	       N/A	       N/A	        N/A	       N/A	       N/A	       N/A	        N/A	
         R10	   4281	      76.5	   20.8752	   4.88562	7.89031e+06	      76.5	   20.5091	   4.93762	 1.6098e+07	      76.5	   20.5598	   5.29481	 1.1019e+07	      76.5	   20.9852	   5.27454	5.34943e+06	      76.5	   20.6922	   4.91162	1.19049e+07	      76.5	   20.5345	   5.11622	1.32974e+07	      76.5	   20.7725	   5.28468	8.15063e+06	      76.5	   20.9302	   5.08008	6.39263e+06	
         R10	   4282	      76.5	   20.9238	   4.32697	 8.6152e+06	      76.5	   20.4558	   4.56257	1.56858e+07	      76.5	   20.5091	   4.93762	1.37037e+07	      76.5	   20.8752	   4.88562	6.52291e+06	      76.5	   20.6898	   4.44477	 1.2106e+07	      76.5	   20.4825	    4.7501	1.41588e+07	      76.5	   20.6922	   4.91162	1.00974e+07	      76.5	   20.8995	   4.60629	7.34345e+06	
         R10	   4283	      76.5	      21.5	       4.5	 2.8975e+06	      76.5	   20.8752	   4.88562	7.10477e+06	      76.5	   20.9852	   5.27454	5.59971e+06	      76.5	      21.5	      5.25	1.55248e+06	      76.5	   21.1876	   4.69281	2.56882e+06	      76.5	   20.9302	   5.08008	6.16878e+06	      76.5	   21.2426	   5.26227	2.70337e+06	      76.5	      21.5	     4.875	2.20883e+06	
         R10	   4284	      76.5	   20.9238	   4.32697	6.21932e+06	      76.5	      20.4	   4.16966	2.69241e+07	      76.5	   20.4558	   4.56257	1.81507e+07	      76.5	   20.6619	   4.24831	1.60693e+07	      76.5	   20.4279	   4.36612	2.24388e+07	      76.5	   20.6898	   4.44477	1.17942e+07	       N/A	       N/A	       N/A	        N/A	       N/A	       N/A	       N/A	        N/A	
         R10	   4285	      76.5	      21.5	       4.5	3.74428e+06	      76.5	   20.9238	   4.32697	8.96062e+06	      76.5	   20.8752	   4.88562	6.12602e+06	      76.5	   21.2119	   4.41348	4.86502e+06	      76.5	   20.8995	   4.60629	7.36502e+06	      76.5	   21.1876	   4.69281	2.90444e+06	       N/A	       N/A	       N/A	        N/A	       N/A	       N/A	       N/A	        N/A	
         R10	   4286	      76.5	   20.9224	   2.89498	9.14789e+06	      76.5	      20.4	       2.8	1.14713e+07	      76.5	      20.4	   3.48483	1.59864e+07	      76.5	   20.9238	    3.6111	1.09003e+07	      76.5	   20.6612	   2.84749	9.02364e+06	      76.5	      20.4	   3.14242	1.36492e+07	      76.5	   20.6619	   3.54797	1.28542e+07	      76.5	   20.9231	   3.25304	9.97382e+06	
         R10	   4287	      76.5	      21.5	         3	8.40806e+06	      76.5	   20.9224	   2.89498	 9.0956e+06	      76.5	   20.9238	    3.6111	1.07123e+07	      76.5	      21.5	      3.75	7.02316e+06	      76.5	   21.2112	   2.94749	8.37206e+06	      76.5	   20.9231	   3.25304	9.81163e+06	      76.5	   21.2119	   3.68055	7.29558e+06	      76.5	      21.5	     3.375	 7.5314e+06	
         R10	   4288	      76.5	   20.9238	    3.6111	1.18175e+07	      76.5	      20.4	   3.48483	1.66087e+07	      76.5	      20.4	   4.16966	2.62271e+07	      76.5	   20.9238	   4.32697	8.37908e+06	      76.5	   20.6619	   3.54797	1.31411e+07	      76.5	      20.4	   3.82725	2.10802e+07	      76.5	   20.6619	   4.24831	1.69672e+07	      76.5	   20.9238	   3.96903	1.00176e+07	
         R10	   4289	      76.5	      21.5	      3.75	6.53206e+06	      76.5	   20.9238	    3.6111	1.17902e+07	      76.5	   20.9238	   4.32697	7.95874e+06	      76.5	      21.5	       4.5	 4.6939e+06	      76.5	   21.2119	   3.68055	7.84035e+06	      76.5	   20.9238	   3.96903	9.83027e+06	      76.5	   21.2119	   4.41348	4.41469e+06	      76.5	      21.5	     4.125	5.48334e+06	
         R10	   4290	      76.5	   20.9687	   1.65491	 6.8806e+06	      76.5	   20.4991	    1.5164	6.40868e+06	      76.5	      20.4	         2	6.68648e+06	      76.5	   20.9224	   2.11872	7.26635e+06	      76.5	   20.7339	   1.58566	6.55506e+06	      76.5	   20.4495	    1.7582	6.50288e+06	      76.5	   20.6612	   2.05936	6.55359e+06	      76.5	   20.9456	   1.88682	 6.7556e+06	
         R10	   4291	      76.5	   20.9687	   1.65491	6.58263e+06	      76.5	   20.9224	   2.11872	7.08166e+06	      76.5	      21.5	      2.25	3.40526e+06	      76.5	   21.5054	   1.77096	6.88638e+06	      76.5	   20.9456	   1.88682	6.54758e+06	      76.5	   21.2112	   2.18436	4.91206e+06	      76.5	   21.5171	   2.01064	4.91023e+06	      76.5	   21.2371	   1.71293	6.49849e+06	
         R10	   4292	      76.5	   20.6085	  0.981953	5.09494e+06	      76.5	   20.4991	    1.5164	6.18581e+06	      76.5	   20.9687	   1.65491	 6.3103e+06	      76.5	   21.3636	    1.2195	5.60028e+06	      76.5	   20.5538	   1.24918	5.56128e+06	      76.5	   20.7339	   1.58566	 6.0792e+06	      76.5	   21.1662	    1.4372	5.92896e+06	      76.5	   20.9861	   1.10073	5.09212e+06	
         R10	   4293	      76.5	   21.3636	    1.2195	5.62395e+06	      76.5	   21.1005	  0.766142	5.34771e+06	      76.5	   20.6085	  0.981953	4.78299e+06	      76.5	   21.2469	  0.984164	5.47524e+06	      76.5	   20.8545	  0.874048	4.93893e+06	      76.5	   20.9861	   1.10073	5.06668e+06	       N/A	       N/A	       N/A	        N/A	       N/A	       N/A	       N/A	        N/A	
         R10	   4294	      76.5	   20.9687	   1.65491	5.83605e+06	      76.5	   21.5054	   1.77096	5.50143e+06	      76.5	   21.3636	    1.2195	6.83488e+06	      76.5	   21.2371	   1.71293	5.66682e+06	      76.5	   21.4542	   1.49016	6.15738e+06	      76.5	   21.1662	    1.4372	6.32454e+06	       N/A	       N/A	       N/A	        N/A	       N/A	       N/A	       N/A	        N/A	
         R10	   4295	      76.5	   21.1005	  0.766142	4.26677e+06	      76.5	   20.7284	  0.396646	4.15134e+06	      76.5	   20.6085	  0.981953	4.93249e+06	      76.5	   20.9266	   0.56915	4.14938e+06	      76.5	   20.6685	  0.689299	4.53621e+06	      76.5	   20.8545	  0.874048	4.51598e+06	       N/A	       N/A	       N/A	        N/A	       N/A	       N/A	       N/A	        N/A	
         R10	   4296	      76.5	   20.9852	   5.27454	7.63756e+06	      76.5	   20.5598	   5.29481	1.28873e+07	      76.5	   20.6075	   5.63062	1.20471e+07	      76.5	   20.9926	   5.60528	7.38031e+06	      76.5	   20.7725	   5.28468	1.02341e+07	      76.5	   20.5837	   5.46272	1.24508e+07	      76.5	   20.8001	   5.61795	9.69225e+06	      76.5	   20.9889	   5.43991	7.36491e+06	
         R10	   4297	      76.5	   20.9926	   5.60528	7.64447e+06	      76.5	   20.6075	   5.63062	1.16871e+07	      76.5	     20.66	         6	9.75882e+06	      76.5	     21.06	         6	6.44557e+06	      76.5	   20.8001	   5.61795	9.65162e+06	      76.5	   20.6338	   5.81531	1.06429e+07	      76.5	     20.86	         6	7.97367e+06	      76.5	   21.0263	   5.80264	6.88531e+06	
         R10	   4298	      76.5	      21.5	      5.25	 2.5259e+06	      76.5	   20.9926	   5.60528	7.93763e+06	      76.5	     21.06	         6	6.39085e+06	      76.5	      21.5	         6	7.56497e+06	      76.5	   21.2463	   5.42764	4.86839e+06	      76.5	   21.0263	   5.80264	7.02404e+06	      76.5	     21.28	         6	 6.6311e+06	      76.5	      21.5	     5.625	5.02631e+06	
         R10	   4299	      76.5	      21.5	      5.25	3.28422e+06	      76.5	   20.9852	   5.27454	7.36935e+06	      76.5	   20.9926	   5.60528	7.79085e+06	      76.5	   21.2426	   5.26227	4.38203e+06	      76.5	   20.9889	   5.43991	 7.4193e+06	      76.5	   21.2463	   5.42764	 5.0662e+06	       N/A	       N/A	       N/A	        N/A	       N/A	       N/A	       N/A	        N/A	
         R10	   4300	      76.5	   19.4348	         6	5.50225e+06	      76.5	        19	         6	2.45014e+07	      76.5	        19	   6.40476	1.28705e+07	      76.5	   19.5375	   6.41169	9.37368e+06	      76.5	   19.2174	         6	1.45693e+07	      76.5	        19	   6.20238	1.79451e+07	      76.5	   19.2688	   6.40822	1.00326e+07	      76.5	   19.4862	   6.20584	6.96865e+06	
         R10	   4301	      76.5	   19.5375	   6.41169	 1.0905e+07	      76.5	        19	   6.40476	 1.2597e+07	      76.5	        19	      6.85	7.98575e+06	      76.5	   19.4762	      6.85	8.73975e+06	      76.5	   19.2688	   6.40822	1.00315e+07	      76.5	        19	   6.62738	1.01395e+07	      76.5	   19.2381	      6.85	8.29478e+06	      76.5	   19.5069	   6.63084	9.47465e+06	
         R10	   4302	      76.5	   20.0663	   6.43324	3.54873e+06	      76.5	   19.5375	   6.41169	8.21139e+06	      76.5	   19.4762	      6.85	7.82792e+06	      76.5	   19.9643	      6.85	5.72309e+06	      76.5	   19.8019	   6.42247	5.80635e+06	      76.5	   19.5069	   6.63084	7.85711e+06	      76.5	   19.7202	      6.85	6.73578e+06	      76.5	   20.0153	   6.64162	4.54612e+06	
         R10	   4303	      76.5	   20.0663	   6.43324	4.65147e+06	      76.5	   19.9643	      6.85	5.46987e+06	      76.5	   20.4643	      6.85	4.41817e+06	      76.5	   20.5404	   6.43494	3.35168e+06	      76.5	   20.0153	   6.64162	5.01657e+06	      76.5	   20.2143	      6.85	4.90938e+06	      76.5	   20.5023	   6.64247	3.85671e+06	      76.5	   20.3033	   6.43409	3.96266e+06	
         R10	   4304	      76.5	   20.5404	   6.43494	3.77238e+06	      76.5	   20.4643	      6.85	4.30928e+06	      76.5	   20.9762	      6.85	3.99197e+06	      76.5	   21.0225	   6.43595	4.32773e+06	      76.5	   20.5023	   6.64247	4.01606e+06	      76.5	   20.7202	      6.85	4.01587e+06	      76.5	   20.9994	   6.64297	4.15182e+06	      76.5	   20.7814	   6.43544	  3.874e+06	
         R10	   4305	      76.5	   21.0225	   6.43595	4.84544e+06	      76.5	   20.9762	      6.85	3.78894e+06	      76.5	      21.5	      6.85	5.18308e+06	      76.5	      21.5	   6.40476	 3.0182e+06	      76.5	   20.9994	   6.64297	4.30619e+06	      76.5	   21.2381	      6.85	4.37304e+06	      76.5	      21.5	   6.62738	3.92967e+06	      76.5	   21.2613	   6.42035	3.30053e+06	
         R10	   4306	      76.5	   21.0225	   6.43595	4.29398e+06	      76.5	      21.5	   6.40476	4.72141e+06	      76.5	      21.5	         6	  6.002e+06	      76.5	     21.06	         6	3.62319e+06	      76.5	   21.2613	   6.42035	4.16201e+06	      76.5	      21.5	   6.20238	5.23314e+06	      76.5	     21.28	         6	3.86257e+06	      76.5	   21.0413	   6.21797	3.89596e+06	
         R10	   4307	      76.5	   20.5404	   6.43494	4.31449e+06	      76.5	   21.0225	   6.43595	 3.9395e+06	      76.5	     21.06	         6	3.42942e+06	      76.5	     20.66	         6	4.63986e+06	      76.5	   20.7814	   6.43544	3.72845e+06	      76.5	   21.0413	   6.21797	3.63242e+06	      76.5	     20.86	         6	3.88308e+06	      76.5	   20.6002	   6.21747	4.47095e+06	
         R10	   4308	      76.5	   20.0663	   6.43324	2.73329e+06	      76.5	   20.5404	   6.43494	4.00681e+06	      76.5	     20.66	         6	3.14229e+06	      76.5	   20.2252	         6	4.58181e+06	      76.5	   20.3033	   6.43409	 3.2761e+06	      76.5	   20.6002	   6.21747	3.52006e+06	      76.5	   20.4426	         6	3.79782e+06	      76.5	   20.1458	   6.21662	3.35819e+06	
         R10	   4309	      76.5	   19.5375	   6.41169	9.29214e+06	      76.5	   20.0663	   6.43324	2.66285e+06	      76.5	   20.2252	         6	4.33618e+06	      76.5	     19.83	         6	4.53502e+06	      76.5	   19.8019	   6.42247	5.87909e+06	      76.5	   20.1458	   6.21662	2.93388e+06	      76.5	   20.0276	         6	2.30306e+06	      76.5	   19.6838	   6.20584	4.74947e+06	
         R10	   4310	      76.5	   19.4348	         6	9.34928e+06	      76.5	   19.5375	   6.41169	1.01835e+07	      76.5	     19.83	         6	2.58092e+06	      76.5	   19.4862	   6.20584	9.56298e+06	      76.5	   19.6838	   6.20584	6.16956e+06	      76.5	   19.6324	         6	5.93386e+06	       N/A	       N/A	       N/A	        N/A	       N/A	       N/A	       N/A	        N/A	
         R10	   4311	      76.5	   19.4762	      6.85	8.07555e+06	      76.5	        19	      6.85	8.39244e+06	      76.5	        19	   7.25476	  6.852e+06	      76.5	   19.3837	   7.23636	6.80274e+06	      76.5	   19.2381	      6.85	7.97818e+06	      76.5	        19	   7.05238	7.48016e+06	      76.5	   19.1918	   7.24556	6.81483e+06	      76.5	   19.4299	   7.04318	7.41945e+06	
         R10	   4312	      76.5	   19.3837	   7.23636	7.26075e+06	      76.5	        19	   7.25476	 7.7717e+06	      76.5	        19	       7.7	5.51873e+06	      76.5	   19.5952	       7.7	6.35342e+06	      76.5	   19.1918	   7.24556	7.37164e+06	      76.5	        19	   7.47738	6.63984e+06	      76.5	   19.2976	       7.7	5.81022e+06	      76.5	   19.4895	   7.46818	6.77987e+06	
         R10	   4313	      76.5	   20.8452	       7.7	4.02397e+06	      76.5	      21.5	       7.7	4.09184e+06	      76.5	      21.5	      6.85	3.70538e+06	      76.5	   20.9762	      6.85	 3.9856e+06	      76.5	   21.1726	       7.7	3.91315e+06	      76.5	      21.5	     7.275	3.89379e+06	      76.5	   21.2381	      6.85	3.64273e+06	      76.5	   20.9107	     7.275	3.99796e+06	
         R10	   4314	      76.5	   20.2103	       7.7	5.21508e+06	      76.5	   20.8452	       7.7	4.47968e+06	      76.5	   20.9762	      6.85	4.26829e+06	      76.5	   20.4643	      6.85	4.29821e+06	      76.5	   20.5278	       7.7	4.72262e+06	      76.5	   20.9107	     7.275	4.37125e+06	      76.5	   20.7202	      6.85	4.21089e+06	      76.5	   20.3373	     7.275	4.75218e+06	
         R10	   4315	      76.5	   19.9643	      6.85	5.76942e+06	      76.5	   19.4762	      6.85	7.92689e+06	      76.5	   19.3837	   7.23636	6.54497e+06	      76.5	   19.5952	       7.7	6.61597e+06	      76.5	   19.7202	      6.85	6.77542e+06	      76.5	   19.4299	   7.04318	7.19038e+06	      76.5	   19.4895	   7.46818	6.54898e+06	      76.5	   19.7798	     7.275	6.09674e+06	
         R10	   4316	      76.5	   20.4643	      6.85	4.60645e+06	      76.5	   19.9643	      6.85	5.27171e+06	      76.5	   19.5952	       7.7	6.41026e+06	      76.5	   20.2103	       7.7	 5.7264e+06	      76.5	   20.2143	      6.85	4.91948e+06	      76.5	   19.7798	     7.275	5.78919e+06	      76.5	   19.9028	       7.7	5.95543e+06	      76.5	   20.3373	     7.275	5.16208e+06	
         R10	   4317	      76.5	   19.5952	       7.7	 6.1856e+06	      76.5	        19	       7.7	6.96925e+06	      76.5	        19	      8.55	5.08555e+06	      76.5	   19.5952	      8.55	6.05041e+06	      76.5	   19.2976	       7.7	6.51409e+06	      76.5	        19	     8.125	6.02044e+06	      76.5	   19.2976	      8.55	5.49364e+06	      76.5	   19.5952	     8.125	6.10616e+06	
         R10	   4318	      76.5	   20.2103	       7.7	5.25667e+06	      76.5	   19.5952	       7.7	5.88346e+06	      76.5	   19.5952	      8.55	5.59445e+06	      76.5	   20.2103	      8.55	5.46385e+06	      76.5	   19.9028	       7.7	5.47425e+06	      76.5	   19.5952	     8.125	 5.7298e+06	      76.5	   19.9028	      8.55	5.48027e+06	      76.5	   20.2103	     8.125	5.35912e+06	
         R10	   4319	      76.5	   20.8452	       7.7	 4.4627e+06	      76.5	   20.2103	       7.7	4.91404e+06	      76.5	   20.2103	      8.55	4.88641e+06	      76.5	   20.8452	      8.55	4.64881e+06	      76.5	   20.5278	       7.7	4.60852e+06	      76.5	   20.2103	     8.125	 4.8999e+06	      76.5	   20.5278	      8.55	4.64118e+06	      76.5	   20.8452	     8.125	4.55282e+06	
         R10	   4320	      76.5	      21.5	       7.7	4.09765e+06	      76.5	   20.8452	       7.7	4.12704e+06	      76.5	   20.8452	      8.55	3.80869e+06	      76.5	      21.5	      8.55	3.39888e+06	      76.5	   21.1726	       7.7	3.98761e+06	      76.5	   20.8452	     8.125	3.96168e+06	      76.5	   21.1726	      8.55	3.37782e+06	      76.5	      21.5	     8.125	3.71716e+06	
         R10	   4321	      76.5	   19.5952	      8.55	 5.4033e+06	      76.5	        19	      8.55	6.76236e+06	      76.5	        19	       9.4	4.58812e+06	      76.5	   19.7937	       9.4	6.01921e+06	      76.5	   19.2976	      8.55	  5.938e+06	      76.5	        19	     8.975	5.53934e+06	      76.5	   19.3968	       9.4	 5.2853e+06	      76.5	   19.6944	     8.975	 5.7072e+06	
         R10	   4322	      76.5	   20.2103	      8.55	4.64544e+06	      76.5	   19.5952	      8.55	5.22328e+06	      76.5	   19.7937	       9.4	5.26819e+06	      76.5	    20.627	       9.4	5.55914e+06	      76.5	   19.9028	      8.55	 4.8192e+06	      76.5	   19.6944	     8.975	5.23223e+06	      76.5	   20.2103	       9.4	5.22244e+06	      76.5	   20.4187	     8.975	5.05659e+06	
         R10	   4323	      76.5	    20.627	       9.4	4.50449e+06	      76.5	      21.5	       9.4	2.96775e+06	      76.5	      21.5	      8.55	4.77872e+06	      76.5	   20.8452	      8.55	3.49275e+06	      76.5	   21.0635	       9.4	3.17042e+06	      76.5	      21.5	     8.975	3.64048e+06	      76.5	   21.1726	      8.55	4.11598e+06	      76.5	   20.7361	     8.975	3.92848e+06	
         R10	   4324	      76.5	   20.2103	      8.55	 4.2409e+06	      76.5	    20.627	       9.4	5.52345e+06	      76.5	   20.8452	      8.55	4.20757e+06	      76.5	   20.4187	     8.975	4.87468e+06	      76.5	   20.7361	     8.975	4.81107e+06	      76.5	   20.5278	      8.55	4.14853e+06	       N/A	       N/A	       N/A	        N/A	       N/A	       N/A	       N/A	        N/A	
         R10	   4325	      76.5	   19.7937	       9.4	5.71013e+06	      76.5	        19	       9.4	7.08793e+06	      76.5	        19	     10.25	4.17543e+06	      76.5	   19.7937	     10.25	4.95718e+06	      76.5	   19.3968	       9.4	5.88658e+06	      76.5	        19	     9.825	4.72551e+06	      76.5	   19.3968	     10.25	4.41819e+06	      76.5	   19.7937	     9.825	5.30873e+06	
         R10	   4326	      76.5	    20.627	       9.4	4.42056e+06	      76.5	   19.7937	       9.4	 4.5839e+06	      76.5	   19.7937	     10.25	4.81162e+06	      76.5	    20.627	     10.25	4.61388e+06	      76.5	   20.2103	       9.4	 4.3945e+06	      76.5	   19.7937	     9.825	4.68865e+06	      76.5	   20.2103	     10.25	4.66424e+06	      76.5	    20.627	     9.825	4.50906e+06	
         R10	   4327	      76.5	      21.5	       9.4	 6.6115e+06	      76.5	    20.627	       9.4	3.07192e+06	      76.5	    20.627	     10.25	4.19243e+06	      76.5	      21.5	     10.25	 3.1504e+06	      76.5	   21.0635	       9.4	4.81955e+06	      76.5	    20.627	     9.825	3.57824e+06	      76.5	   21.0635	     10.25	2.91335e+06	      76.5	      21.5	     9.825	4.08799e+06	
         R10	   4328	      76.5	   15.3141	   2.23981	 1.3204e+07	      76.5	      15.3	     2.247	1.34025e+07	      76.5	      15.3	     2.264	1.38063e+07	      76.5	   15.3153	   2.26308	1.37151e+07	      76.5	   15.3071	    2.2434	1.33019e+07	      76.5	      15.3	    2.2555	1.36043e+07	      76.5	   15.3077	   2.26354	1.37586e+07	      76.5	   15.3147	   2.25145	1.34593e+07	
         R10	   4329	      76.5	   15.3153	   2.26308	1.37097e+07	      76.5	      15.3	     2.264	1.38114e+07	      76.5	      15.3	     2.281	1.42696e+07	      76.5	   15.3166	   2.28111	 1.4205e+07	      76.5	   15.3077	   2.26354	1.37583e+07	      76.5	      15.3	    2.2725	1.40404e+07	      76.5	   15.3083	   2.28105	1.42339e+07	      76.5	   15.3159	    2.2721	 1.3957e+07	
         R10	   4330	      76.5	   15.3166	   2.28111	1.41988e+07	      76.5	      15.3	     2.281	1.42772e+07	      76.5	      15.3	     2.298	1.48325e+07	      76.5	   15.3171	   2.29756	1.47323e+07	      76.5	   15.3083	   2.28105	1.42346e+07	      76.5	      15.3	    2.2895	1.45547e+07	      76.5	   15.3086	   2.29778	1.47778e+07	      76.5	   15.3168	   2.28933	1.44652e+07	
         R10	   4331	      76.5	   15.3171	   2.29756	1.47242e+07	      76.5	      15.3	     2.298	1.48386e+07	      76.5	      15.3	     2.315	1.55195e+07	      76.5	    15.317	     2.315	1.54358e+07	      76.5	   15.3086	   2.29778	1.47767e+07	      76.5	      15.3	    2.3065	1.51788e+07	      76.5	   15.3085	     2.315	1.54715e+07	      76.5	   15.3171	   2.30628	1.50795e+07	
         R10	   4332	      76.5	    15.317	     2.315	1.54267e+07	      76.5	      15.3	     2.315	 1.5524e+07	      76.5	      15.3	     2.332	1.63994e+07	      76.5	    15.317	     2.332	 1.6317e+07	      76.5	   15.3085	     2.315	1.54691e+07	      76.5	      15.3	    2.3235	1.59612e+07	      76.5	   15.3085	     2.332	1.63493e+07	      76.5	    15.317	    2.3235	1.58708e+07	
         R10	   4333	      76.5	    15.317	     2.332	1.63107e+07	      76.5	      15.3	     2.332	 1.6391e+07	      76.5	      15.3	     2.349	1.75776e+07	      76.5	    15.317	     2.349	1.74924e+07	      76.5	   15.3085	     2.332	 1.6342e+07	      76.5	      15.3	    2.3405	1.69829e+07	      76.5	   15.3085	     2.349	1.75195e+07	      76.5	    15.317	    2.3405	1.68983e+07	
         R10	   4334	      76.5	    15.317	     2.349	1.75015e+07	      76.5	      15.3	     2.349	1.75295e+07	      76.5	      15.3	     2.366	1.92447e+07	      76.5	   15.3169	   2.36578	1.90273e+07	      76.5	   15.3085	     2.349	 1.7501e+07	      76.5	      15.3	    2.3575	1.83814e+07	      76.5	   15.3084	   2.36589	1.91059e+07	      76.5	   15.3169	   2.35739	1.82548e+07	
         R10	   4335	      76.5	   15.3169	   2.36578	1.91347e+07	      76.5	      15.3	     2.366	1.91011e+07	      76.5	      15.3	     2.383	 2.1768e+07	      76.5	   15.3161	   2.38375	2.10014e+07	      76.5	   15.3084	   2.36589	1.90942e+07	      76.5	      15.3	    2.3745	2.04215e+07	      76.5	   15.3081	   2.38337	2.12779e+07	      76.5	   15.3165	   2.37477	2.00147e+07	
         R10	   4336	      76.5	   15.3161	   2.38375	2.04006e+07	      76.5	      15.3	       2.4	2.57723e+07	      76.5	   15.3122	   2.41185	1.89919e+07	      76.5	   15.3244	   2.40007	1.92509e+07	      76.5	   15.3081	   2.39187	2.30501e+07	      76.5	   15.3061	   2.40593	 2.2223e+07	      76.5	   15.3183	   2.40596	1.91089e+07	      76.5	   15.3203	   2.39191	1.97141e+07	
         R10	   4337	      76.5	   15.3244	   2.40007	 1.9213e+07	      76.5	   15.3122	   2.41185	1.97508e+07	      76.5	   15.3244	   2.42371	1.73435e+07	      76.5	   15.3361	   2.41077	1.69858e+07	      76.5	   15.3183	   2.40596	1.94606e+07	      76.5	   15.3183	   2.41778	1.85363e+07	      76.5	   15.3303	   2.41724	1.71618e+07	      76.5	   15.3303	   2.40542	1.80616e+07	
         R10	   4338	      76.5	   15.3361	   2.41077	1.69503e+07	      76.5	   15.3244	   2.42371	1.74959e+07	      76.5	   15.3366	   2.43556	1.58965e+07	      76.5	   15.3484	   2.42338	1.53396e+07	      76.5	   15.3303	   2.41724	1.72197e+07	      76.5	   15.3305	   2.42964	1.66884e+07	      76.5	   15.3425	   2.42947	1.56146e+07	      76.5	   15.3423	   2.41708	1.61376e+07	
         R10	   4339	      76.5	   15.3484	   2.42338	1.53617e+07	      76.5	   15.3366	   2.43556	1.59312e+07	      76.5	   15.3487	   2.44742	1.48045e+07	      76.5	   15.3606	   2.43524	1.42285e+07	      76.5	   15.3425	   2.42947	1.56431e+07	      76.5	   15.3426	   2.44149	1.53664e+07	      76.5	   15.3547	   2.44133	1.45149e+07	      76.5	   15.3545	   2.42931	1.47924e+07	
         R10	   4340	      76.5	   15.3606	   2.43524	1.42341e+07	      76.5	   15.3487	   2.44742	1.48194e+07	      76.5	   15.3609	   2.45928	1.39367e+07	      76.5	   15.3728	   2.44709	1.33971e+07	      76.5	   15.3547	   2.44133	1.45251e+07	      76.5	   15.3548	   2.45335	1.43775e+07	      76.5	   15.3668	   2.45318	1.36658e+07	      76.5	   15.3667	   2.44116	1.38147e+07	
         R10	   4341	      76.5	   15.3728	   2.44709	1.34047e+07	      76.5	   15.3609	   2.45928	1.39431e+07	      76.5	   15.3731	   2.47113	 1.3245e+07	      76.5	    15.385	   2.45895	1.27522e+07	      76.5	   15.3668	   2.45318	1.36728e+07	      76.5	    15.367	    2.4652	1.35939e+07	      76.5	    15.379	   2.46504	1.29978e+07	      76.5	   15.3789	   2.45302	1.30781e+07	
         R10	   4342	      76.5	    15.385	   2.45895	1.27567e+07	      76.5	   15.3731	   2.47113	1.32424e+07	      76.5	   15.3853	   2.48299	1.26643e+07	      76.5	   15.3971	    2.4708	1.22267e+07	      76.5	    15.379	   2.46504	1.29988e+07	      76.5	   15.3792	   2.47706	1.29533e+07	      76.5	   15.3912	   2.47689	1.24448e+07	      76.5	   15.3911	   2.46487	1.24915e+07	
         R10	   4343	      76.5	   15.3971	    2.4708	1.22296e+07	      76.5	   15.3853	   2.48299	 1.2663e+07	      76.5	   15.3975	   2.49484	1.21702e+07	      76.5	   15.4093	   2.48266	1.17852e+07	      76.5	   15.3912	   2.47689	1.24456e+07	      76.5	   15.3914	   2.48891	1.24165e+07	      76.5	   15.4034	   2.48875	 1.1977e+07	      76.5	   15.4032	   2.47673	1.20074e+07	
         R10	   4344	      76.5	   15.4093	   2.48266	1.17851e+07	      76.5	   15.3975	   2.49484	1.21735e+07	      76.5	   15.4097	    2.5067	1.17394e+07	      76.5	   15.4215	   2.49451	1.13961e+07	      76.5	   15.4034	   2.48875	1.19787e+07	      76.5	   15.4036	   2.50077	1.19565e+07	      76.5	   15.4156	    2.5006	1.15671e+07	      76.5	   15.4154	   2.48858	1.15906e+07	
         R10	   4345	      76.5	   15.4215	   2.49451	1.13999e+07	      76.5	   15.4097	    2.5067	1.17377e+07	      76.5	   15.4218	   2.51855	1.13733e+07	      76.5	   15.4337	   2.50637	1.10584e+07	      76.5	   15.4156	    2.5006	1.15682e+07	      76.5	   15.4158	   2.51262	1.15555e+07	      76.5	   15.4278	   2.51246	1.12152e+07	      76.5	   15.4276	   2.50044	1.12291e+07	
         R10	   4346	      76.5	   15.4334	   2.48233	1.11509e+07	      76.5	   15.4215	   2.49451	1.14091e+07	      76.5	   15.4337	   2.50637	 1.1067e+07	      76.5	   15.4456	   2.49418	1.08302e+07	      76.5	   15.4274	   2.48842	1.12796e+07	      76.5	   15.4276	   2.50044	 1.1238e+07	      76.5	   15.4396	   2.50027	1.09482e+07	      76.5	   15.4395	   2.48826	1.09905e+07	
         R10	   4347	      76.5	   15.4334	   2.48233	1.11521e+07	      76.5	   15.4456	   2.49418	1.08323e+07	      76.5	   15.4574	     2.482	 1.0638e+07	      76.5	   15.4452	   2.47014	1.09501e+07	      76.5	   15.4395	   2.48826	1.09922e+07	      76.5	   15.4515	   2.48809	1.07348e+07	      76.5	   15.4513	   2.47607	 1.0794e+07	      76.5	   15.4393	   2.47624	1.10507e+07	
         R10	   4348	      76.5	   15.4452	   2.47014	 1.0951e+07	      76.5	   15.4574	     2.482	1.06399e+07	      76.5	   15.4693	   2.46981	1.04815e+07	      76.5	   15.4571	   2.45796	 1.0789e+07	      76.5	   15.4513	   2.47607	1.07954e+07	      76.5	   15.4633	   2.47591	1.05604e+07	      76.5	   15.4632	   2.46389	1.06352e+07	      76.5	   15.4512	   2.46405	1.08696e+07	
         R10	   4349	      76.5	   15.4571	   2.45796	1.07899e+07	      76.5	   15.4693	   2.46981	1.04834e+07	      76.5	   15.4811	   2.45763	1.03518e+07	      76.5	   15.4689	   2.44577	1.06562e+07	      76.5	   15.4632	   2.46389	1.06366e+07	      76.5	   15.4752	   2.46372	1.04173e+07	      76.5	    15.475	    2.4517	1.05039e+07	      76.5	    15.463	   2.45187	1.07227e+07	
         R10	   4350	      76.5	   15.4689	   2.44577	1.06563e+07	      76.5	   15.4811	   2.45763	1.03532e+07	      76.5	    15.493	   2.44544	1.02416e+07	      76.5	   15.4808	   2.43359	1.05392e+07	      76.5	    15.475	    2.4517	1.05046e+07	      76.5	    15.487	   2.45154	1.02971e+07	      76.5	   15.4869	   2.43952	1.03902e+07	      76.5	   15.4749	   2.43968	1.05974e+07	
         R10	   4351	      76.5	   15.4808	   2.43359	1.05394e+07	      76.5	    15.493	   2.44544	1.02419e+07	      76.5	   15.5048	   2.43326	1.01436e+07	      76.5	    15.493	   2.42083	1.04285e+07	      76.5	   15.4869	   2.43952	1.03905e+07	      76.5	   15.4989	   2.43935	1.01924e+07	      76.5	   15.4989	   2.42704	1.02858e+07	      76.5	   15.4869	   2.42721	1.04835e+07	
         R10	   4352	      76.5	    15.493	   2.42083	  1.043e+07	      76.5	   15.5048	   2.43326	1.01428e+07	      76.5	   15.5167	   2.42108	1.00534e+07	      76.5	   15.5047	   2.41021	 1.0316e+07	      76.5	   15.4989	   2.42704	1.02862e+07	      76.5	   15.5108	   2.42717	1.00978e+07	      76.5	   15.5107	   2.41564	1.01845e+07	      76.5	   15.4988	   2.41552	1.03727e+07	
         R10	   4353	      76.5	   15.5047	   2.41021	 1.0316e+07	      76.5	   15.5167	   2.42108	1.00535e+07	      76.5	   15.5285	   2.40889	9.96729e+06	      76.5	   15.5174	    2.3979	1.02071e+07	      76.5	   15.5107	   2.41564	1.01846e+07	      76.5	   15.5226	   2.41498	1.00101e+07	      76.5	    15.523	   2.40339	1.00871e+07	      76.5	    15.511	   2.40405	1.02612e+07	
         R10	   4354	      76.5	   15.5174	    2.3979	1.02069e+07	      76.5	   15.5285	   2.40889	9.96692e+06	      76.5	   15.5404	   2.39671	9.88697e+06	      76.5	   15.5263	    2.3869	1.01436e+07	      76.5	    15.523	   2.40339	1.00867e+07	      76.5	   15.5345	    2.4028	9.92666e+06	      76.5	   15.5333	    2.3918	1.00151e+07	      76.5	   15.5218	    2.3924	 1.0175e+07	
         R10	   4355	      76.5	   15.5174	    2.3979	 1.0204e+07	      76.5	   15.5263	    2.3869	 1.0146e+07	      76.5	   15.5121	   2.37709	1.04331e+07	      76.5	   15.5005	   2.39253	1.05217e+07	      76.5	   15.5218	    2.3924	1.01747e+07	      76.5	   15.5192	     2.382	1.02894e+07	      76.5	   15.5063	   2.38481	1.04768e+07	      76.5	    15.509	   2.39521	1.03628e+07	
         R10	   4356	      76.5	   15.5005	   2.39253	1.05227e+07	      76.5	   15.5121	   2.37709	1.04327e+07	      76.5	    15.498	   2.36729	1.07485e+07	      76.5	   15.4878	   2.38168	1.08448e+07	      76.5	   15.5063	   2.38481	1.04771e+07	      76.5	    15.505	   2.37219	1.05903e+07	      76.5	   15.4929	   2.37449	1.07961e+07	      76.5	   15.4942	   2.38711	1.06834e+07	
         R10	   4357	      76.5	   15.4878	   2.38168	1.08436e+07	      76.5	    15.498	   2.36729	1.07492e+07	      76.5	   15.4838	   2.35748	1.10903e+07	      76.5	    15.474	   2.37162	1.12132e+07	      76.5	   15.4929	   2.37449	1.07958e+07	      76.5	   15.4909	   2.36239	1.09193e+07	      76.5	   15.4789	   2.36455	1.11511e+07	      76.5	   15.4809	   2.37665	 1.1028e+07	
         R10	   4358	      76.5	    15.474	   2.37162	1.12119e+07	      76.5	   15.4838	   2.35748	1.10914e+07	      76.5	   15.4697	   2.34768	1.14565e+07	      76.5	   15.4599	   2.36181	1.16207e+07	      76.5	   15.4789	   2.36455	 1.1151e+07	      76.5	   15.4768	   2.35258	1.12733e+07	      76.5	   15.4648	   2.35474	1.15378e+07	      76.5	    15.467	   2.36672	1.14157e+07	
         R10	   4359	      76.5	   15.4599	   2.36181	 1.1621e+07	      76.5	   15.4697	   2.34768	1.14581e+07	      76.5	   15.4555	   2.33787	1.18384e+07	      76.5	   15.4457	   2.35201	1.20564e+07	      76.5	   15.4648	   2.35474	1.15388e+07	      76.5	   15.4626	   2.34277	1.16472e+07	      76.5	   15.4506	   2.34494	1.19466e+07	      76.5	   15.4528	   2.35691	1.18376e+07	
         R10	   4360	      76.5	   15.4457	   2.35201	1.20585e+07	      76.5	   15.4555	   2.33787	1.18401e+07	      76.5	   15.4414	   2.32806	1.22235e+07	      76.5	   15.4316	    2.3422	1.25064e+07	      76.5	   15.4506	   2.34494	1.19485e+07	      76.5	   15.4485	   2.33297	1.20303e+07	      76.5	   15.4365	   2.33513	1.23641e+07	      76.5	   15.4387	    2.3471	1.22808e+07	
         R10	   4361	      76.5	   15.4316	    2.3422	1.25097e+07	      76.5	   15.4414	   2.32806	1.22251e+07	      76.5	   15.4273	   2.31826	1.25918e+07	      76.5	   15.4175	    2.3324	1.29479e+07	      76.5	   15.4365	   2.33513	1.23666e+07	      76.5	   15.4343	   2.32316	1.24064e+07	      76.5	   15.4224	   2.32533	1.27692e+07	      76.5	   15.4245	    2.3373	1.27264e+07	
         R10	   4362	      76.5	   15.4175	    2.3324	1.29517e+07	      76.5	   15.4273	   2.31826	1.25953e+07	      76.5	   15.4131	   2.30845	1.29206e+07	      76.5	   15.4033	   2.32259	1.33487e+07	      76.5	   15.4224	   2.32533	1.27728e+07	      76.5	   15.4202	   2.31335	1.27553e+07	      76.5	   15.4082	   2.31552	1.31342e+07	      76.5	   15.4104	   2.32749	1.31468e+07	
         R10	   4363	      76.5	   15.4033	   2.32259	1.33522e+07	      76.5	   15.4131	   2.30845	1.29221e+07	      76.5	    15.399	   2.29864	1.31882e+07	      76.5	   15.3892	   2.31278	1.36718e+07	      76.5	   15.4082	   2.31552	1.31367e+07	      76.5	   15.4061	   2.30355	1.30518e+07	      76.5	   15.3941	   2.30571	1.34298e+07	      76.5	   15.3962	   2.31769	1.35077e+07	
         R10	   4364	      76.5	   15.3892	   2.31278	1.36739e+07	      76.5	    15.399	   2.29864	  1.319e+07	      76.5	   15.3848	   2.28884	1.33725e+07	      76.5	    15.375	   2.30298	1.38869e+07	      76.5	   15.3941	   2.30571	1.34317e+07	      76.5	   15.3919	   2.29374	1.32776e+07	      76.5	   15.3799	   2.29591	1.36296e+07	      76.5	   15.3821	   2.30788	1.37755e+07	
         R10	   4365	      76.5	    15.375	   2.30298	1.38894e+07	      76.5	   15.3848	   2.28884	1.33706e+07	      76.5	   15.3707	   2.27903	1.34715e+07	      76.5	   15.3615	   2.29305	1.39621e+07	      76.5	   15.3799	   2.29591	1.36299e+07	      76.5	   15.3778	   2.28393	1.34174e+07	      76.5	   15.3661	   2.28604	1.37168e+07	      76.5	   15.3683	   2.29802	 1.3921e+07	
         R10	   4366	      76.5	   15.3615	   2.29305	1.39653e+07	      76.5	   15.3707	   2.27903	1.34658e+07	      76.5	   15.3566	   2.26923	1.34837e+07	      76.5	   15.3477	     2.283	1.39413e+07	      76.5	   15.3661	   2.28604	1.37155e+07	      76.5	   15.3636	   2.27413	1.34712e+07	      76.5	   15.3522	   2.27611	1.37124e+07	      76.5	   15.3546	   2.28803	1.39488e+07	
         R10	   4367	      76.5	   15.3477	     2.283	1.39357e+07	      76.5	   15.3566	   2.26923	1.34813e+07	      76.5	   15.3424	   2.25942	1.34293e+07	      76.5	   15.3329	   2.27525	1.39094e+07	      76.5	   15.3522	   2.27611	1.37084e+07	      76.5	   15.3495	   2.26432	1.34522e+07	      76.5	   15.3377	   2.26734	1.36692e+07	      76.5	   15.3403	   2.27913	1.39189e+07	
         R10	   4368	      76.5	   15.3327	     2.297	1.45496e+07	      76.5	   15.3171	   2.29756	1.47299e+07	      76.5	    15.317	     2.315	1.54345e+07	      76.5	   15.3338	   2.31504	1.52285e+07	      76.5	   15.3249	   2.29728	 1.4636e+07	      76.5	   15.3171	   2.30628	1.50817e+07	      76.5	   15.3254	   2.31502	1.53247e+07	      76.5	   15.3332	   2.30602	1.48874e+07	
         R10	   4369	      76.5	   15.3338	   2.31504	1.52228e+07	      76.5	    15.317	     2.315	1.54325e+07	      76.5	    15.317	     2.332	1.63258e+07	      76.5	   15.3342	   2.33149	1.59691e+07	      76.5	   15.3254	   2.31502	1.53211e+07	      76.5	    15.317	    2.3235	1.58781e+07	      76.5	   15.3256	   2.33175	1.61371e+07	      76.5	    15.334	   2.32326	1.55936e+07	
         R10	   4370	      76.5	   15.3342	   2.33149	1.59669e+07	      76.5	    15.317	     2.332	1.63244e+07	      76.5	    15.317	     2.349	1.74814e+07	      76.5	    15.334	   2.34901	1.69276e+07	      76.5	   15.3256	   2.33175	1.61354e+07	      76.5	    15.317	    2.3405	1.68997e+07	      76.5	   15.3255	   2.34901	 1.7188e+07	      76.5	   15.3341	   2.34025	1.64417e+07	
         R10	   4371	      76.5	    15.334	   2.34901	1.69368e+07	      76.5	    15.317	     2.349	 1.7532e+07	      76.5	   15.3169	   2.36578	1.88934e+07	      76.5	   15.3331	   2.36463	1.78886e+07	      76.5	   15.3255	   2.34901	1.72174e+07	      76.5	   15.3169	   2.35739	1.82028e+07	      76.5	    15.325	    2.3652	1.83705e+07	      76.5	   15.3335	   2.35682	1.74025e+07	
         R10	   4372	      76.5	   15.3331	   2.36463	 1.7986e+07	      76.5	   15.3169	   2.36578	1.90907e+07	      76.5	   15.3161	   2.38375	2.05945e+07	      76.5	   15.3356	   2.38237	1.81955e+07	      76.5	    15.325	    2.3652	1.85108e+07	      76.5	   15.3165	   2.37477	1.97964e+07	      76.5	   15.3259	   2.38306	1.93719e+07	      76.5	   15.3343	    2.3735	1.80585e+07	
         R10	   4373	      76.5	   15.3356	   2.38237	1.84236e+07	      76.5	   15.3244	   2.40007	1.89253e+07	      76.5	   15.3361	   2.41077	1.71039e+07	      76.5	   15.3476	   2.39771	1.66482e+07	      76.5	     15.33	   2.39122	1.86528e+07	      76.5	   15.3303	   2.40542	1.79961e+07	      76.5	   15.3419	   2.40424	1.68703e+07	      76.5	   15.3416	   2.39004	1.74978e+07	
         R10	   4374	      76.5	   15.3476	   2.39771	1.65485e+07	      76.5	   15.3361	   2.41077	1.70774e+07	      76.5	   15.3484	   2.42338	1.53898e+07	      76.5	   15.3603	    2.4113	1.50814e+07	      76.5	   15.3419	   2.40424	1.68074e+07	      76.5	   15.3423	   2.41708	1.62238e+07	      76.5	   15.3544	   2.41734	1.52326e+07	      76.5	    15.354	    2.4045	1.58043e+07	
         R10	   4375	      76.5	   15.3603	    2.4113	1.50787e+07	      76.5	   15.3484	   2.42338	1.53866e+07	      76.5	   15.3606	   2.43524	1.42601e+07	      76.5	   15.3724	   2.42305	  1.395e+07	      76.5	   15.3544	   2.41734	1.52296e+07	      76.5	   15.3545	   2.42931	1.48209e+07	      76.5	   15.3665	   2.42915	1.41033e+07	      76.5	   15.3664	   2.41718	1.45111e+07	
         R10	   4376	      76.5	   15.3724	   2.42305	1.39548e+07	      76.5	   15.3606	   2.43524	1.42678e+07	      76.5	   15.3728	   2.44709	1.34163e+07	      76.5	   15.3846	   2.43491	1.31099e+07	      76.5	   15.3665	   2.42915	1.41095e+07	      76.5	   15.3667	   2.44116	1.38411e+07	      76.5	   15.3787	     2.441	1.32619e+07	      76.5	   15.3785	   2.42898	 1.3531e+07	
         R10	   4377	      76.5	   15.3846	   2.43491	1.31145e+07	      76.5	   15.3728	   2.44709	1.34226e+07	      76.5	    15.385	   2.45895	1.27644e+07	      76.5	   15.3968	   2.44676	1.24585e+07	      76.5	   15.3787	     2.441	1.32674e+07	      76.5	   15.3789	   2.45302	1.30931e+07	      76.5	   15.3909	   2.45285	1.26106e+07	      76.5	   15.3907	   2.44084	1.27859e+07	
         R10	   4378	      76.5	   15.3968	   2.44676	1.24624e+07	      76.5	    15.385	   2.45895	  1.277e+07	      76.5	   15.3971	    2.4708	1.22363e+07	      76.5	    15.409	   2.45862	1.19417e+07	      76.5	   15.3909	   2.45285	1.26154e+07	      76.5	   15.3911	   2.46487	 1.2503e+07	      76.5	   15.4031	   2.46471	1.20884e+07	      76.5	   15.4029	   2.45269	1.22018e+07	
         R10	   4379	      76.5	    15.409	   2.45862	1.19442e+07	      76.5	   15.3971	    2.4708	1.22401e+07	      76.5	   15.4093	   2.48266	1.17923e+07	      76.5	   15.4212	   2.47047	1.15145e+07	      76.5	   15.4031	   2.46471	1.20916e+07	      76.5	   15.4032	   2.47673	1.20161e+07	      76.5	   15.4153	   2.47657	1.16529e+07	      76.5	   15.4151	   2.46455	1.17292e+07	
         R10	   4380	      76.5	   15.4212	   2.47047	1.15161e+07	      76.5	   15.4093	   2.48266	 1.1794e+07	      76.5	   15.4215	   2.49451	1.14065e+07	      76.5	   15.4334	   2.48233	1.11506e+07	      76.5	   15.4153	   2.47657	1.16546e+07	      76.5	   15.4154	   2.48858	1.16002e+07	      76.5	   15.4274	   2.48842	1.12782e+07	      76.5	   15.4273	    2.4764	1.13333e+07	
         R10	   4381	      76.5	    15.433	   2.45829	1.13088e+07	      76.5	   15.4212	   2.47047	1.15184e+07	      76.5	   15.4334	   2.48233	1.11514e+07	      76.5	   15.4452	   2.47014	1.09486e+07	      76.5	   15.4271	   2.46438	1.14132e+07	      76.5	   15.4273	    2.4764	1.13349e+07	      76.5	   15.4393	   2.47624	1.10496e+07	      76.5	   15.4391	   2.46422	1.11286e+07	
         R10	   4382	      76.5	    15.433	   2.45829	1.13107e+07	      76.5	   15.4452	   2.47014	1.09495e+07	      76.5	   15.4571	   2.45796	1.07886e+07	      76.5	   15.4449	   2.44611	 1.1145e+07	      76.5	   15.4391	   2.46422	  1.113e+07	      76.5	   15.4512	   2.46405	1.08687e+07	      76.5	    15.451	   2.45203	1.09666e+07	      76.5	    15.439	    2.4522	1.12273e+07	
         R10	   4383	      76.5	   15.4449	   2.44611	1.11464e+07	      76.5	   15.4571	   2.45796	1.07893e+07	      76.5	   15.4689	   2.44577	1.06543e+07	      76.5	   15.4567	   2.43392	1.10071e+07	      76.5	    15.451	   2.45203	1.09677e+07	      76.5	    15.463	   2.45187	1.07214e+07	      76.5	   15.4628	   2.43985	1.08305e+07	      76.5	   15.4508	   2.44001	1.10762e+07	
         R10	   4384	      76.5	   15.4567	   2.43392	1.10091e+07	      76.5	   15.4689	   2.44577	1.06546e+07	      76.5	   15.4808	   2.43359	1.05393e+07	      76.5	   15.4689	   2.42154	1.08701e+07	      76.5	   15.4628	   2.43985	1.08317e+07	      76.5	   15.4749	   2.43968	1.05965e+07	      76.5	   15.4749	   2.42757	1.07045e+07	      76.5	   15.4628	   2.42773	1.09391e+07	
         R10	   4385	      76.5	   15.4689	   2.42154	1.08708e+07	      76.5	   15.4808	   2.43359	1.05401e+07	      76.5	    15.493	   2.42083	 1.0428e+07	      76.5	   15.4822	   2.40874	1.07321e+07	      76.5	   15.4749	   2.42757	1.07052e+07	      76.5	   15.4869	   2.42721	1.04836e+07	      76.5	   15.4876	   2.41478	1.05798e+07	      76.5	   15.4756	   2.41514	1.08008e+07	
         R10	   4386	      76.5	   15.4774	   2.39584	1.09397e+07	      76.5	   15.4878	   2.38168	1.08431e+07	      76.5	    15.474	   2.37162	1.12134e+07	      76.5	   15.4635	   2.38556	1.13419e+07	      76.5	   15.4826	   2.38876	1.08907e+07	      76.5	   15.4809	   2.37665	1.10278e+07	      76.5	   15.4688	   2.37859	1.12769e+07	      76.5	   15.4705	    2.3907	1.11404e+07	
         R10	   4387	      76.5	   15.4635	   2.38556	1.13452e+07	      76.5	    15.474	   2.37162	1.12133e+07	      76.5	   15.4599	   2.36181	1.16217e+07	      76.5	   15.4503	   2.37692	1.17616e+07	      76.5	   15.4688	   2.37859	1.12785e+07	      76.5	    15.467	   2.36672	1.14169e+07	      76.5	   15.4551	   2.36937	1.16906e+07	      76.5	   15.4569	   2.38124	1.15529e+07	
         R10	   4388	      76.5	   15.4503	   2.37692	1.17671e+07	      76.5	   15.4599	   2.36181	1.16213e+07	      76.5	   15.4457	   2.35201	1.20577e+07	      76.5	   15.4359	   2.36614	1.22727e+07	      76.5	   15.4551	   2.36937	1.16931e+07	      76.5	   15.4528	   2.35691	1.18385e+07	      76.5	   15.4408	   2.35907	1.21641e+07	      76.5	   15.4431	   2.37153	1.20187e+07	
         R10	   4389	      76.5	   15.4359	   2.36614	1.22752e+07	      76.5	   15.4457	   2.35201	  1.206e+07	      76.5	   15.4316	    2.3422	1.25076e+07	      76.5	   15.4218	   2.35634	1.28018e+07	      76.5	   15.4408	   2.35907	1.21665e+07	      76.5	   15.4387	    2.3471	1.22822e+07	      76.5	   15.4267	   2.34927	1.26536e+07	      76.5	   15.4289	   2.36124	1.25367e+07	
         R10	   4390	      76.5	   15.4218	   2.35634	1.28072e+07	      76.5	   15.4316	    2.3422	1.25106e+07	      76.5	   15.4175	    2.3324	1.29489e+07	      76.5	   15.4077	   2.34653	1.33367e+07	      76.5	   15.4267	   2.34927	1.26578e+07	      76.5	   15.4245	    2.3373	1.27273e+07	      76.5	   15.4126	   2.33946	1.31418e+07	      76.5	   15.4147	   2.35144	1.30691e+07	
         R10	   4391	      76.5	   15.4077	   2.34653	1.33429e+07	      76.5	   15.4175	    2.3324	1.29523e+07	      76.5	   15.4033	   2.32259	1.33482e+07	      76.5	   15.3935	   2.33673	1.38353e+07	      76.5	   15.4126	   2.33946	1.31466e+07	      76.5	   15.4104	   2.32749	1.31468e+07	      76.5	   15.3984	   2.32966	 1.3591e+07	      76.5	   15.4006	   2.34163	1.35848e+07	
         R10	   4392	      76.5	   15.3935	   2.33673	1.38423e+07	      76.5	   15.4033	   2.32259	1.33523e+07	      76.5	   15.3892	   2.31278	 1.3671e+07	      76.5	     15.38	   2.32681	1.42174e+07	      76.5	   15.3984	   2.32966	1.35966e+07	      76.5	   15.3962	   2.31769	1.35073e+07	      76.5	   15.3846	    2.3198	1.39438e+07	      76.5	   15.3867	   2.33177	1.40243e+07	
         R10	   4393	      76.5	     15.38	   2.32681	1.42214e+07	      76.5	   15.3892	   2.31278	1.36737e+07	      76.5	    15.375	   2.30298	 1.3885e+07	      76.5	   15.3661	   2.31684	1.44732e+07	      76.5	   15.3846	    2.3198	1.39471e+07	      76.5	   15.3821	   2.30788	1.37744e+07	      76.5	   15.3706	   2.30991	 1.4179e+07	      76.5	    15.373	   2.32183	1.43406e+07	
         R10	   4394	      76.5	   15.3661	   2.31684	1.44651e+07	      76.5	    15.375	   2.30298	 1.3885e+07	      76.5	   15.3615	   2.29305	1.39612e+07	      76.5	    15.351	   2.30909	1.46476e+07	      76.5	   15.3706	   2.30991	1.41749e+07	      76.5	   15.3683	   2.29802	1.39184e+07	      76.5	   15.3563	   2.30107	1.43043e+07	      76.5	   15.3586	   2.31296	1.45498e+07	
         R10	   4395	      76.5	     15.35	   2.33092	1.54433e+07	      76.5	   15.3342	   2.33149	1.59653e+07	      76.5	    15.334	   2.34901	1.68915e+07	      76.5	   15.3509	   2.34878	1.60765e+07	      76.5	   15.3421	    2.3312	1.56975e+07	      76.5	   15.3341	   2.34025	1.64228e+07	      76.5	   15.3424	    2.3489	1.64733e+07	      76.5	   15.3504	   2.33985	1.57519e+07	
         R10	   4396	      76.5	   15.3509	   2.34878	 1.6101e+07	      76.5	    15.334	   2.34901	1.69091e+07	      76.5	   15.3331	   2.36463	1.78658e+07	      76.5	   15.3519	   2.36771	1.65368e+07	      76.5	   15.3424	    2.3489	1.64946e+07	      76.5	   15.3335	   2.35682	1.73773e+07	      76.5	   15.3425	   2.36617	1.71816e+07	      76.5	   15.3514	   2.35824	1.63025e+07	
         R10	   4397	      76.5	   15.3519	   2.36771	1.64883e+07	      76.5	   15.3356	   2.38237	  1.828e+07	      76.5	   15.3476	   2.39771	1.66604e+07	      76.5	   15.3601	   2.38663	 1.5906e+07	      76.5	   15.3437	   2.37504	1.73806e+07	      76.5	   15.3416	   2.39004	1.74329e+07	      76.5	   15.3539	   2.39217	 1.6279e+07	      76.5	    15.356	   2.37717	1.61711e+07	
         R10	   4398	      76.5	   15.3601	   2.38663	1.58549e+07	      76.5	   15.3476	   2.39771	  1.658e+07	      76.5	   15.3603	    2.4113	1.50781e+07	      76.5	   15.3723	   2.39946	1.46957e+07	      76.5	   15.3539	   2.39217	1.62132e+07	      76.5	    15.354	    2.4045	 1.5819e+07	      76.5	   15.3663	   2.40538	 1.4884e+07	      76.5	   15.3662	   2.39304	1.52652e+07	
         R10	   4399	      76.5	   15.3723	   2.39946	1.46737e+07	      76.5	   15.3603	    2.4113	1.50661e+07	      76.5	   15.3724	   2.42305	1.39694e+07	      76.5	   15.3843	   2.41087	1.37042e+07	      76.5	   15.3663	   2.40538	 1.4867e+07	      76.5	   15.3664	   2.41718	1.45146e+07	      76.5	   15.3784	   2.41696	1.38348e+07	      76.5	   15.3783	   2.40516	1.41857e+07	
         R10	   4400	      76.5	   15.3843	   2.41087	1.37095e+07	      76.5	   15.3724	   2.42305	1.39677e+07	      76.5	   15.3846	   2.43491	1.31191e+07	      76.5	   15.3965	   2.42273	 1.2895e+07	      76.5	   15.3784	   2.41696	1.38366e+07	      76.5	   15.3785	   2.42898	1.35421e+07	      76.5	   15.3906	   2.42882	1.30057e+07	      76.5	   15.3904	    2.4168	1.33007e+07	
         R10	   4401	      76.5	   15.3965	   2.42273	1.28977e+07	      76.5	   15.3846	   2.43491	1.31222e+07	      76.5	   15.3968	   2.44676	1.24655e+07	      76.5	   15.4087	   2.43458	1.22496e+07	      76.5	   15.3906	   2.42882	1.30086e+07	      76.5	   15.3907	   2.44084	1.27933e+07	      76.5	   15.4027	   2.44067	1.23567e+07	      76.5	   15.4026	   2.42865	1.25729e+07	
         R10	   4402	      76.5	   15.4087	   2.43458	1.22526e+07	      76.5	   15.3968	   2.44676	1.24686e+07	      76.5	    15.409	   2.45862	1.19455e+07	      76.5	   15.4209	   2.44644	1.17318e+07	      76.5	   15.4027	   2.44067	1.23597e+07	      76.5	   15.4029	   2.45269	1.22067e+07	      76.5	   15.4149	   2.45253	 1.1838e+07	      76.5	   15.4148	   2.44051	1.19918e+07	
         R10	   4403	      76.5	   15.4209	   2.44644	1.17344e+07	      76.5	    15.409	   2.45862	1.19478e+07	      76.5	   15.4212	   2.47047	1.15169e+07	      76.5	    15.433	   2.45829	1.13068e+07	      76.5	   15.4149	   2.45253	1.18405e+07	      76.5	   15.4151	   2.46455	1.17322e+07	      76.5	   15.4271	   2.46438	1.14114e+07	      76.5	   15.4269	   2.45237	1.15204e+07	
         R10	   4404	      76.5	   15.4327	   2.43426	1.15664e+07	      76.5	   15.4209	   2.44644	1.17372e+07	      76.5	    15.433	   2.45829	1.13088e+07	      76.5	   15.4449	   2.44611	1.11441e+07	      76.5	   15.4268	   2.44035	1.16511e+07	      76.5	   15.4269	   2.45237	1.15228e+07	      76.5	    15.439	    2.4522	 1.1226e+07	      76.5	   15.4388	   2.44018	 1.1355e+07	
         R10	   4405	      76.5	   15.4327	   2.43426	1.15675e+07	      76.5	   15.4449	   2.44611	1.11457e+07	      76.5	   15.4567	   2.43392	1.10033e+07	      76.5	   15.4444	    2.4213	 1.1431e+07	      76.5	   15.4388	   2.44018	1.13564e+07	      76.5	   15.4508	   2.44001	 1.1074e+07	      76.5	   15.4506	   2.42761	1.12168e+07	      76.5	   15.4386	   2.42778	1.14985e+07	
         R10	   4406	      76.5	   15.4444	    2.4213	1.14314e+07	      76.5	   15.4567	   2.43392	1.10044e+07	      76.5	   15.4689	   2.42154	1.08773e+07	      76.5	   15.4563	   2.40744	1.12915e+07	      76.5	   15.4506	   2.42761	1.12176e+07	      76.5	   15.4628	   2.42773	1.09403e+07	      76.5	   15.4626	   2.41449	1.10839e+07	      76.5	   15.4503	   2.41437	1.13606e+07	
         R10	   4407	      76.5	   15.4822	   2.40874	1.07265e+07	      76.5	    15.493	   2.42083	 1.0429e+07	      76.5	   15.5047	   2.41021	1.03199e+07	      76.5	   15.5005	   2.39253	1.05238e+07	      76.5	   15.4876	   2.41478	1.05775e+07	      76.5	   15.4988	   2.41552	1.03741e+07	      76.5	   15.5026	   2.40137	1.04212e+07	      76.5	   15.4914	   2.40063	1.06243e+07	
         R10	   4408	      76.5	   15.4822	   2.40874	 1.0736e+07	      76.5	   15.5005	   2.39253	1.05196e+07	      76.5	   15.4878	   2.38168	1.08464e+07	      76.5	   15.4774	   2.39584	1.09363e+07	      76.5	   15.4914	   2.40063	1.06269e+07	      76.5	   15.4942	   2.38711	1.06827e+07	      76.5	   15.4826	   2.38876	1.08907e+07	      76.5	   15.4798	   2.40229	1.08357e+07	
         R10	   4409	      76.5	   15.4408	   2.39174	1.18862e+07	      76.5	   15.4503	   2.37692	1.17667e+07	      76.5	   15.4359	   2.36614	1.22756e+07	      76.5	   15.4263	   2.38085	1.24648e+07	      76.5	   15.4455	   2.38433	1.18252e+07	      76.5	   15.4431	   2.37153	  1.202e+07	      76.5	   15.4311	    2.3735	1.23688e+07	      76.5	   15.4335	    2.3863	1.21743e+07	
         R10	   4410	      76.5	   15.4263	   2.38085	1.24692e+07	      76.5	   15.4359	   2.36614	1.22779e+07	      76.5	   15.4218	   2.35634	1.28029e+07	      76.5	   15.4115	   2.37097	1.31149e+07	      76.5	   15.4311	    2.3735	1.23721e+07	      76.5	   15.4289	   2.36124	1.25386e+07	      76.5	   15.4166	   2.36365	1.29572e+07	      76.5	   15.4189	   2.37591	1.27902e+07	
         R10	   4411	      76.5	   15.4115	   2.37097	1.31125e+07	      76.5	   15.4218	   2.35634	1.28074e+07	      76.5	   15.4077	   2.34653	1.33394e+07	      76.5	   15.3971	   2.36244	1.37837e+07	      76.5	   15.4166	   2.36365	1.29583e+07	      76.5	   15.4147	   2.35144	1.30706e+07	      76.5	   15.4024	   2.35449	1.35595e+07	      76.5	   15.4043	   2.36671	1.34453e+07	
         R10	   4412	      76.5	   15.3971	   2.36244	1.37818e+07	      76.5	   15.4077	   2.34653	1.33487e+07	      76.5	   15.3935	   2.33673	1.38374e+07	      76.5	   15.3838	   2.35305	1.43995e+07	      76.5	   15.4024	   2.35449	1.35632e+07	      76.5	   15.4006	   2.34163	1.35887e+07	      76.5	   15.3887	   2.34489	1.41164e+07	      76.5	   15.3905	   2.35774	1.40858e+07	
         R10	   4413	      76.5	   15.3838	   2.35305	1.44136e+07	      76.5	   15.3935	   2.33673	1.38413e+07	      76.5	     15.38	   2.32681	1.42167e+07	      76.5	   15.3692	   2.34329	1.49746e+07	      76.5	   15.3887	   2.34489	1.41253e+07	      76.5	   15.3867	   2.33177	1.40234e+07	      76.5	   15.3746	   2.33505	1.45946e+07	      76.5	   15.3765	   2.34817	1.46857e+07	
         R10	   4414	      76.5	   15.3668	    2.3625	1.54129e+07	      76.5	   15.3519	   2.36771	1.65054e+07	      76.5	   15.3601	   2.38663	1.59004e+07	      76.5	   15.3747	   2.37474	1.49562e+07	      76.5	   15.3594	   2.36511	1.59581e+07	      76.5	    15.356	   2.37717	1.61748e+07	      76.5	   15.3674	   2.38068	1.54258e+07	      76.5	   15.3708	   2.36862	1.51765e+07	
         R10	   4415	      76.5	   15.3747	   2.37474	1.49079e+07	      76.5	   15.3601	   2.38663	1.58354e+07	      76.5	   15.3723	   2.39946	1.46962e+07	      76.5	   15.3856	   2.38415	1.42124e+07	      76.5	   15.3674	   2.38068	1.53695e+07	      76.5	   15.3662	   2.39304	1.52563e+07	      76.5	    15.379	    2.3918	1.44497e+07	      76.5	   15.3802	   2.37944	1.45559e+07	
         R10	   4416	      76.5	   15.3856	   2.38415	  1.422e+07	      76.5	   15.3723	   2.39946	1.46733e+07	      76.5	   15.3843	   2.41087	1.37107e+07	      76.5	   15.3956	    2.3999	1.34334e+07	      76.5	    15.379	    2.3918	1.44424e+07	      76.5	   15.3783	   2.40516	1.41888e+07	      76.5	     15.39	   2.40538	1.35704e+07	      76.5	   15.3906	   2.39202	 1.3821e+07	
         R10	   4417	      76.5	   15.3956	    2.3999	1.34111e+07	      76.5	   15.3843	   2.41087	1.37111e+07	      76.5	   15.3965	   2.42273	1.28993e+07	      76.5	   15.4082	    2.4103	1.26984e+07	      76.5	     15.39	   2.40538	1.35595e+07	      76.5	   15.3904	    2.4168	1.33036e+07	      76.5	   15.4023	   2.41651	1.27974e+07	      76.5	   15.4019	    2.4051	1.30534e+07	
         R10	   4418	      76.5	   15.4082	    2.4103	   1.27e+07	      76.5	   15.3965	   2.42273	1.29001e+07	      76.5	   15.4087	   2.43458	1.22543e+07	      76.5	   15.4204	   2.42201	1.20818e+07	      76.5	   15.4023	   2.41651	1.27986e+07	      76.5	   15.4026	   2.42865	1.25764e+07	      76.5	   15.4145	    2.4283	1.21671e+07	      76.5	   15.4143	   2.41616	  1.239e+07	
         R10	   4419	      76.5	   15.4204	   2.42201	1.20837e+07	      76.5	   15.4087	   2.43458	1.22557e+07	      76.5	   15.4209	   2.44644	1.17347e+07	      76.5	   15.4327	   2.43426	1.15648e+07	      76.5	   15.4145	    2.4283	1.21687e+07	      76.5	   15.4148	   2.44051	1.19948e+07	      76.5	   15.4268	   2.44035	1.16491e+07	      76.5	   15.4265	   2.42814	1.18237e+07	
         R10	   4420	      76.5	   15.4319	   2.40885	1.19321e+07	      76.5	   15.4204	   2.42201	1.20863e+07	      76.5	   15.4327	   2.43426	 1.1567e+07	      76.5	   15.4444	    2.4213	1.14262e+07	      76.5	   15.4261	   2.41543	1.20082e+07	      76.5	   15.4265	   2.42814	1.18262e+07	      76.5	   15.4386	   2.42778	1.14958e+07	      76.5	   15.4381	   2.41508	1.16785e+07	
         R10	   4421	      76.5	   15.4563	   2.40744	1.12985e+07	      76.5	   15.4689	   2.42154	1.08721e+07	      76.5	   15.4822	   2.40874	1.07256e+07	      76.5	   15.4774	   2.39584	1.09373e+07	      76.5	   15.4626	   2.41449	1.10848e+07	      76.5	   15.4756	   2.41514	1.07983e+07	      76.5	   15.4798	   2.40229	 1.0831e+07	      76.5	   15.4669	   2.40164	1.11172e+07	
         R10	   4422	      76.5	   15.4563	   2.40744	1.12996e+07	      76.5	   15.4635	   2.38556	1.13472e+07	      76.5	   15.4503	   2.37692	1.17663e+07	      76.5	   15.4408	   2.39174	1.18834e+07	      76.5	   15.4599	    2.3965	1.13215e+07	      76.5	   15.4569	   2.38124	1.15563e+07	      76.5	   15.4455	   2.38433	1.18236e+07	      76.5	   15.4485	   2.39959	1.15903e+07	
         R10	   4423	      76.5	   15.4172	   2.39518	 1.2613e+07	      76.5	   15.4263	   2.38085	1.24715e+07	      76.5	   15.4115	   2.37097	 1.3111e+07	      76.5	   15.4035	   2.38458	1.33186e+07	      76.5	   15.4217	   2.38802	1.25405e+07	      76.5	   15.4189	   2.37591	1.27895e+07	      76.5	   15.4075	   2.37778	 1.3213e+07	      76.5	   15.4103	   2.38988	1.29639e+07	
         R10	   4424	      76.5	   15.4319	   2.40885	1.19349e+07	      76.5	   15.4444	    2.4213	1.14265e+07	      76.5	   15.4563	   2.40744	1.12999e+07	      76.5	   15.4408	   2.39174	1.18833e+07	      76.5	   15.4381	   2.41508	1.16801e+07	      76.5	   15.4503	   2.41437	1.13624e+07	      76.5	   15.4485	   2.39959	1.15904e+07	      76.5	   15.4363	    2.4003	1.19074e+07	
         R10	   4425	      76.5	   15.4319	   2.40885	1.19319e+07	      76.5	   15.4408	   2.39174	1.18873e+07	      76.5	   15.4263	   2.38085	1.24683e+07	      76.5	   15.4172	   2.39518	1.26148e+07	      76.5	   15.4363	    2.4003	1.19079e+07	      76.5	   15.4335	    2.3863	1.21767e+07	      76.5	   15.4217	   2.38802	1.25398e+07	      76.5	   15.4245	   2.40202	1.22719e+07	
         R10	   4426	      76.5	   15.4082	    2.4103	1.27013e+07	      76.5	   15.4204	   2.42201	 1.2084e+07	      76.5	   15.4319	   2.40885	1.19284e+07	      76.5	   15.4172	   2.39518	1.26131e+07	      76.5	   15.4143	   2.41616	1.23918e+07	      76.5	   15.4261	   2.41543	1.20051e+07	      76.5	   15.4245	   2.40202	1.22694e+07	      76.5	   15.4127	   2.40274	1.26553e+07	
         R10	   4427	      76.5	   15.3956	    2.3999	1.34148e+07	      76.5	   15.4082	    2.4103	1.27039e+07	      76.5	   15.4172	   2.39518	1.26144e+07	      76.5	   15.4035	   2.38458	1.33287e+07	      76.5	   15.4019	    2.4051	1.30581e+07	      76.5	   15.4127	   2.40274	1.26572e+07	      76.5	   15.4103	   2.38988	1.29697e+07	      76.5	   15.3995	   2.39224	1.33687e+07	
         R10	   4428	      76.5	   15.3258	   2.26194	1.36167e+07	      76.5	   15.3329	   2.27525	 1.3904e+07	      76.5	   15.3424	   2.25942	1.34222e+07	      76.5	   15.3283	   2.24961	1.33363e+07	      76.5	   15.3293	   2.26859	 1.3759e+07	      76.5	   15.3377	   2.26734	1.36629e+07	      76.5	   15.3354	   2.25452	1.33768e+07	      76.5	    15.327	   2.25577	1.34765e+07	
         R10	   4429	      76.5	   15.3258	   2.26194	1.36379e+07	      76.5	   15.3283	   2.24961	1.33342e+07	      76.5	   15.3141	   2.23981	 1.3196e+07	      76.5	   15.3153	   2.26308	 1.3705e+07	      76.5	    15.327	   2.25577	 1.3486e+07	      76.5	   15.3212	   2.24471	1.32631e+07	      76.5	   15.3147	   2.25145	1.34502e+07	      76.5	   15.3206	   2.26251	1.36703e+07	
         R10	   4430	      76.5	   15.3258	   2.26194	 1.3621e+07	      76.5	   15.3153	   2.26308	1.37243e+07	      76.5	   15.3166	   2.28111	1.41985e+07	      76.5	   15.3329	   2.27525	1.39056e+07	      76.5	   15.3206	   2.26251	1.36716e+07	      76.5	   15.3159	    2.2721	 1.3961e+07	      76.5	   15.3247	   2.27818	1.40493e+07	      76.5	   15.3293	   2.26859	 1.3762e+07	
         R10	   4431	      76.5	   15.3329	   2.27525	1.39078e+07	      76.5	   15.3166	   2.28111	1.41872e+07	      76.5	   15.3171	   2.29756	1.47386e+07	      76.5	   15.3327	     2.297	1.45517e+07	      76.5	   15.3247	   2.27818	1.40448e+07	      76.5	   15.3168	   2.28933	1.44626e+07	      76.5	   15.3249	   2.29728	1.46414e+07	      76.5	   15.3328	   2.28613	 1.4229e+07	
         R10	   4432	      76.5	   15.3437	   2.29581	1.43792e+07	      76.5	   15.3477	     2.283	 1.3942e+07	      76.5	   15.3329	   2.27525	1.38989e+07	      76.5	   15.3327	     2.297	1.45342e+07	      76.5	   15.3457	   2.28941	1.41605e+07	      76.5	   15.3403	   2.27913	1.39167e+07	      76.5	   15.3328	   2.28613	1.42157e+07	      76.5	   15.3382	    2.2964	1.44547e+07	
         R10	   4433	      76.5	   15.3437	   2.29581	1.43654e+07	      76.5	   15.3327	     2.297	1.45655e+07	      76.5	   15.3338	   2.31504	1.52132e+07	      76.5	    15.351	   2.30909	1.46412e+07	      76.5	   15.3382	    2.2964	1.44636e+07	      76.5	   15.3332	   2.30602	1.48878e+07	      76.5	   15.3424	   2.31206	 1.4923e+07	      76.5	   15.3474	   2.30245	1.44998e+07	
         R10	   4434	      76.5	   15.3437	   2.29581	1.43524e+07	      76.5	    15.351	   2.30909	1.46388e+07	      76.5	   15.3615	   2.29305	1.39563e+07	      76.5	   15.3477	     2.283	1.39447e+07	      76.5	   15.3474	   2.30245	 1.4492e+07	      76.5	   15.3563	   2.30107	1.42974e+07	      76.5	   15.3546	   2.28803	1.39462e+07	      76.5	   15.3457	   2.28941	1.41485e+07	
         R10	   4435	      76.5	    15.351	   2.30909	1.46532e+07	      76.5	   15.3338	   2.31504	1.51954e+07	      76.5	   15.3342	   2.33149	1.59603e+07	      76.5	     15.35	   2.33092	1.54301e+07	      76.5	   15.3424	   2.31206	1.49202e+07	      76.5	    15.334	   2.32326	1.55754e+07	      76.5	   15.3421	    2.3312	1.56887e+07	      76.5	   15.3505	      2.32	1.50378e+07	
         R10	   4436	      76.5	   15.3616	   2.32967	1.49754e+07	      76.5	   15.3692	   2.34329	1.49806e+07	      76.5	     15.38	   2.32681	1.42164e+07	      76.5	   15.3661	   2.31684	 1.4472e+07	      76.5	   15.3654	   2.33648	1.49698e+07	      76.5	   15.3746	   2.33505	1.45974e+07	      76.5	    15.373	   2.32183	1.43378e+07	      76.5	   15.3639	   2.32326	1.47231e+07	
         R10	   4437	      76.5	   15.3616	   2.32967	1.49841e+07	      76.5	   15.3661	   2.31684	1.44775e+07	      76.5	    15.351	   2.30909	1.46494e+07	      76.5	     15.35	   2.33092	 1.5397e+07	      76.5	   15.3639	   2.32326	1.47298e+07	      76.5	   15.3586	   2.31296	1.45564e+07	      76.5	   15.3505	      2.32	1.50192e+07	      76.5	   15.3558	    2.3303	1.51878e+07	
         R10	   4438	      76.5	   15.3616	   2.32967	1.49824e+07	      76.5	     15.35	   2.33092	1.54621e+07	      76.5	   15.3509	   2.34878	1.60318e+07	      76.5	   15.3692	   2.34329	1.49735e+07	      76.5	   15.3558	    2.3303	1.52195e+07	      76.5	   15.3504	   2.33985	1.57391e+07	      76.5	   15.3601	   2.34604	1.54992e+07	      76.5	   15.3654	   2.33648	1.49702e+07	
         R10	   4439	      76.5	   15.3692	   2.34329	1.49998e+07	      76.5	   15.3509	   2.34878	1.60316e+07	      76.5	   15.3519	   2.36771	1.65365e+07	      76.5	   15.3668	    2.3625	1.53693e+07	      76.5	   15.3601	   2.34604	1.55124e+07	      76.5	   15.3514	   2.35824	1.62678e+07	      76.5	   15.3594	   2.36511	1.59517e+07	      76.5	    15.368	    2.3529	1.51763e+07	
         R10	   4440	      76.5	   15.3747	   2.37474	1.49588e+07	      76.5	   15.3838	   2.35305	 1.4427e+07	      76.5	   15.3692	   2.34329	1.50013e+07	      76.5	   15.3668	    2.3625	1.54678e+07	      76.5	   15.3793	   2.36389	1.46849e+07	      76.5	   15.3765	   2.34817	 1.4706e+07	      76.5	    15.368	    2.3529	1.52264e+07	      76.5	   15.3708	   2.36862	1.52045e+07	
         R10	   4441	      76.5	   15.3856	   2.38415	1.42274e+07	      76.5	   15.3971	   2.36244	1.38047e+07	      76.5	   15.3838	   2.35305	1.44136e+07	      76.5	   15.3747	   2.37474	1.49577e+07	      76.5	   15.3914	   2.37329	1.40096e+07	      76.5	   15.3905	   2.35774	 1.4104e+07	      76.5	   15.3793	   2.36389	1.46773e+07	      76.5	   15.3802	   2.37944	1.45882e+07	
         R10	   4442	      76.5	   15.3856	   2.38415	1.41958e+07	      76.5	   15.4035	   2.38458	1.33015e+07	      76.5	   15.4115	   2.37097	1.31235e+07	      76.5	   15.3971	   2.36244	1.37974e+07	      76.5	   15.3945	   2.38436	 1.3748e+07	      76.5	   15.4075	   2.37778	1.32105e+07	      76.5	   15.4043	   2.36671	1.34576e+07	      76.5	   15.3914	   2.37329	  1.399e+07	
         R10	   4443	      76.5	   15.3141	   2.23981	 1.3208e+07	      76.5	      15.3	      2.23	 1.3058e+07	      76.5	      15.3	     2.247	1.34038e+07	      76.5	   15.3071	    2.2349	1.31311e+07	      76.5	      15.3	    2.2385	1.32308e+07	      76.5	   15.3071	    2.2434	1.33046e+07	       N/A	       N/A	       N/A	        N/A	       N/A	       N/A	       N/A	        N/A	
         R10	   4444	      76.5	   15.3161	   2.38375	2.18265e+07	      76.5	      15.3	     2.383	2.20881e+07	      76.5	      15.3	       2.4	2.29597e+07	      76.5	   15.3081	   2.38337	2.18137e+07	      76.5	      15.3	    2.3915	2.24562e+07	      76.5	   15.3081	   2.39187	2.23398e+07	       N/A	       N/A	       N/A	        N/A	       N/A	       N/A	       N/A	        N/A	
         R10	   4445	      76.5	   15.3356	   2.38237	1.83006e+07	      76.5	   15.3161	   2.38375	2.06336e+07	      76.5	   15.3244	   2.40007	1.97796e+07	      76.5	   15.3259	   2.38306	1.94388e+07	      76.5	   15.3203	   2.39191	2.00715e+07	      76.5	     15.33	   2.39122	1.89972e+07	       N/A	       N/A	       N/A	        N/A	       N/A	       N/A	       N/A	        N/A	
         R10	   4446	      76.5	   15.5047	   2.41021	1.03212e+07	      76.5	   15.5174	    2.3979	 1.0203e+07	      76.5	   15.5005	   2.39253	1.05224e+07	      76.5	    15.511	   2.40405	1.02617e+07	      76.5	    15.509	   2.39521	1.03626e+07	      76.5	   15.5026	   2.40137	1.04212e+07	       N/A	       N/A	       N/A	        N/A	       N/A	       N/A	       N/A	        N/A	
         R10	   4447	      76.5	   15.3519	   2.36771	1.64942e+07	      76.5	   15.3331	   2.36463	1.79112e+07	      76.5	   15.3356	   2.38237	1.81354e+07	      76.5	   15.3425	   2.36617	1.71822e+07	      76.5	   15.3343	    2.3735	1.79921e+07	      76.5	   15.3437	   2.37504	1.73128e+07	       N/A	       N/A	       N/A	        N/A	       N/A	       N/A	       N/A	        N/A	
         R10	   4448	      76.5	   15.4563	   2.40744	1.13006e+07	      76.5	   15.4774	   2.39584	1.09398e+07	      76.5	   15.4635	   2.38556	1.13446e+07	      76.5	   15.4669	   2.40164	1.11194e+07	      76.5	   15.4705	    2.3907	1.11418e+07	      76.5	   15.4599	    2.3965	1.13207e+07	       N/A	       N/A	       N/A	        N/A	       N/A	       N/A	       N/A	        N/A	
         R10	   4449	      76.5	   15.3856	   2.38415	1.41986e+07	      76.5	   15.3956	    2.3999	1.34408e+07	      76.5	   15.4035	   2.38458	1.32973e+07	      76.5	   15.3906	   2.39202	1.38146e+07	      76.5	   15.3995	   2.39224	1.33658e+07	      76.5	   15.3945	   2.38436	1.37475e+07	       N/A	       N/A	       N/A	        N/A	       N/A	       N/A	       N/A	        N/A	
         R10	   4450	   80.2188	   21.3636	    1.2195	8.00048e+06	   80.2188	   21.5054	   1.77096	5.12562e+06	     80.75	   21.5054	   1.77096	 1.1754e+07	     80.75	   21.3636	    1.2195	  8.093e+06	   80.2188	   21.4542	   1.49016	5.68573e+06	   80.4844	   21.5054	   1.77096	6.70716e+06	     80.75	   21.4542	   1.49016	9.89583e+06	   80.4844	   21.3636	    1.2195	7.81975e+06	
         R10	   4451	   79.6875	   21.3636	    1.2195	7.43247e+06	   79.6875	   21.5054	   1.77096	5.19974e+06	   80.2188	   21.5054	   1.77096	1.07382e+07	   80.2188	   21.3636	    1.2195	8.89767e+06	   79.6875	   21.4542	   1.49016	6.18941e+06	   79.9531	   21.5054	   1.77096	7.91411e+06	   80.2188	   21.4542	   1.49016	9.71904e+06	   79.9531	   21.3636	    1.2195	8.15681e+06	
         R10	   4452	   79.1563	   21.3636	    1.2195	  7.842e+06	   79.1563	   21.5054	   1.77096	6.13709e+06	   79.6875	   21.5054	   1.77096	8.67132e+06	   79.6875	   21.3636	    1.2195	7.15826e+06	   79.1563	   21.4542	   1.49016	6.91032e+06	   79.4219	   21.5054	   1.77096	7.39304e+06	   79.6875	   21.4542	   1.49016	7.87752e+06	   79.4219	   21.3636	    1.2195	7.49984e+06	
         R10	   4453	    78.625	   21.3636	    1.2195	7.48286e+06	    78.625	   21.5054	   1.77096	6.79873e+06	   79.1563	   21.5054	   1.77096	7.26844e+06	   79.1563	   21.3636	    1.2195	7.09854e+06	    78.625	   21.4542	   1.49016	7.07085e+06	   78.8906	   21.5054	   1.77096	7.02559e+06	   79.1563	   21.4542	   1.49016	7.14699e+06	   78.8906	   21.3636	    1.2195	7.28894e+06	
         R10	   4454	   80.2188	   21.5054	   1.77096	5.17241e+06	   80.2188	      21.5	      2.25	7.84983e+06	     80.75	      21.5	      2.25	6.02887e+06	     80.75	   21.5054	   1.77096	1.21776e+07	   80.2188	   21.5171	   2.01064	5.41311e+06	   80.4844	      21.5	      2.25	6.18206e+06	     80.75	   21.5171	   2.01064	  8.942e+06	   80.4844	   21.5054	   1.77096	6.69075e+06	
         R10	   4455	   79.6875	   21.5054	   1.77096	 4.8946e+06	   79.6875	      21.5	      2.25	7.27486e+06	   80.2188	      21.5	      2.25	6.83959e+06	   80.2188	   21.5054	   1.77096	1.15688e+07	   79.6875	   21.5171	   2.01064	6.07879e+06	   79.9531	      21.5	      2.25	6.89914e+06	   80.2188	   21.5171	   2.01064	9.01765e+06	   79.9531	   21.5054	   1.77096	8.22079e+06	
         R10	   4456	   79.1563	   21.5054	   1.77096	 6.4348e+06	   79.1563	      21.5	      2.25	6.77739e+06	   79.6875	      21.5	      2.25	7.32536e+06	   79.6875	   21.5054	   1.77096	8.49661e+06	   79.1563	   21.5171	   2.01064	6.59679e+06	   79.4219	      21.5	      2.25	7.03856e+06	   79.6875	   21.5171	   2.01064	 7.8706e+06	   79.4219	   21.5054	   1.77096	7.42267e+06	
         R10	   4457	    78.625	   21.5054	   1.77096	7.09484e+06	    78.625	      21.5	      2.25	6.59039e+06	   79.1563	      21.5	      2.25	6.94704e+06	   79.1563	   21.5054	   1.77096	7.39915e+06	    78.625	   21.5171	   2.01064	 6.8342e+06	   78.8906	      21.5	      2.25	6.75895e+06	   79.1563	   21.5171	   2.01064	7.16662e+06	   78.8906	   21.5054	   1.77096	7.24064e+06	
         R10	   4458	   79.6875	       8.5	         0	1.25361e+07	    78.625	       8.5	         0	1.52619e+07	    78.625	      9.35	         0	1.23665e+07	   79.6875	      9.35	         0	8.95059e+06	   79.1563	       8.5	         0	1.38003e+07	    78.625	     8.925	         0	1.00867e+07	   79.1563	      9.35	         0	 1.0246e+07	   79.6875	     8.925	         0	 9.9323e+06	
         R10	   4459	     80.75	       8.5	         0	1.00821e+07	   79.6875	       8.5	         0	 1.2116e+07	   79.6875	      9.35	         0	8.81347e+06	     80.75	      9.35	         0	7.05612e+06	   80.2188	       8.5	         0	1.10018e+07	   79.6875	     8.925	         0	9.58684e+06	   80.2188	      9.35	         0	6.87411e+06	     80.75	     8.925	         0	8.35631e+06	
         R10	   4460	   79.6875	      9.35	         0	1.20962e+07	    78.625	      9.35	         0	1.58185e+07	    78.625	      10.2	         0	1.11783e+07	   79.6875	      10.2	         0	1.02106e+07	   79.1563	      9.35	         0	 1.3947e+07	    78.625	     9.775	         0	1.26822e+07	   79.1563	      10.2	         0	1.06113e+07	   79.6875	     9.775	         0	1.08387e+07	
         R10	   4461	     80.75	      9.35	         0	7.43521e+06	   79.6875	      9.35	         0	1.26745e+07	   79.6875	      10.2	         0	9.18982e+06	     80.75	      10.2	         0	 7.3264e+06	   80.2188	      9.35	         0	9.88942e+06	   79.6875	     9.775	         0	1.06572e+07	   80.2188	      10.2	         0	7.78777e+06	     80.75	     9.775	         0	7.37932e+06	
         R10	   4462	   79.6875	      10.2	         0	1.07436e+07	    78.625	      10.2	         0	1.14982e+07	    78.625	     11.05	         0	1.24883e+07	   79.3034	     11.05	         0	1.13952e+07	   79.1563	      10.2	         0	1.10334e+07	    78.625	    10.625	         0	1.19088e+07	   78.9642	     11.05	         0	1.18911e+07	   79.4955	    10.625	         0	1.09149e+07	
         R10	   4463	   79.6875	      10.2	         0	 1.0387e+07	   80.0118	     11.05	         0	 9.5594e+06	     80.75	     11.05	         0	7.34837e+06	     80.75	      10.2	         0	7.18627e+06	   79.8496	    10.625	         0	9.62773e+06	   80.3809	     11.05	         0	8.25617e+06	     80.75	    10.625	         0	7.26164e+06	   80.2188	      10.2	         0	8.40414e+06	
         R10	   4464	   79.6875	      10.2	         0	1.02455e+07	   79.3034	     11.05	         0	 1.1821e+07	   80.0118	     11.05	         0	1.00611e+07	   79.4955	    10.625	         0	1.09105e+07	   79.6576	     11.05	         0	1.08994e+07	   79.8496	    10.625	         0	9.91744e+06	       N/A	       N/A	       N/A	        N/A	       N/A	       N/A	       N/A	        N/A	
         R10	   4465	     75.65	      9.35	         0	8.40038e+06	      76.5	      9.35	         0	7.44327e+06	      76.5	       8.5	         0	9.44988e+06	     75.65	       8.5	         0	 1.1077e+07	    76.075	      9.35	         0	7.14877e+06	      76.5	     8.925	         0	8.18369e+06	    76.075	       8.5	         0	 1.0192e+07	     75.65	     8.925	         0	9.32442e+06	
         R10	   4466	      74.8	      9.35	         0	1.12824e+07	     75.65	      9.35	         0	 9.9021e+06	     75.65	       8.5	         0	1.05821e+07	      74.8	       8.5	         0	1.33649e+07	    75.225	      9.35	         0	1.05812e+07	     75.65	     8.925	         0	9.69845e+06	    75.225	       8.5	         0	1.18825e+07	      74.8	     8.925	         0	1.18801e+07	
         R10	   4467	     73.95	      9.35	         0	1.03995e+07	      74.8	      9.35	         0	1.03823e+07	      74.8	       8.5	         0	1.25957e+07	     73.95	       8.5	         0	1.25257e+07	    74.375	      9.35	         0	1.02792e+07	      74.8	     8.925	         0	1.10207e+07	    74.375	       8.5	         0	1.25054e+07	     73.95	     8.925	         0	1.10021e+07	
         R10	   4468	      73.1	      9.35	         0	9.83233e+06	     73.95	      9.35	         0	1.12671e+07	     73.95	       8.5	         0	1.33247e+07	      73.1	       8.5	         0	1.01868e+07	    73.525	      9.35	         0	1.05361e+07	     73.95	     8.925	         0	1.18669e+07	    73.525	       8.5	         0	1.16534e+07	      73.1	     8.925	         0	9.51567e+06	
         R10	   4469	     72.25	      9.35	         0	6.90061e+06	      73.1	      9.35	         0	8.52794e+06	      73.1	       8.5	         0	1.06908e+07	     72.25	       8.5	         0	9.69671e+06	    72.675	      9.35	         0	7.11202e+06	      73.1	     8.925	         0	9.23853e+06	    72.675	       8.5	         0	1.01651e+07	     72.25	     8.925	         0	 8.1454e+06	
         R10	   4470	     75.65	      10.2	         0	9.49525e+06	      76.5	      10.2	         0	7.54266e+06	      76.5	      9.35	         0	7.38452e+06	     75.65	      9.35	         0	1.13153e+07	    76.075	      10.2	         0	8.22703e+06	      76.5	     9.775	         0	7.45347e+06	    76.075	      9.35	         0	9.18547e+06	     75.65	     9.775	         0	1.01802e+07	
         R10	   4471	      74.8	      10.2	         0	1.18885e+07	     75.65	      10.2	         0	1.00849e+07	     75.65	      9.35	         0	1.17363e+07	      74.8	      9.35	         0	1.25178e+07	    75.225	      10.2	         0	1.09341e+07	     75.65	     9.775	         0	1.06654e+07	    75.225	      9.35	         0	1.20802e+07	      74.8	     9.775	         0	1.21318e+07	
         R10	   4472	     73.95	      10.2	         0	1.16052e+07	      74.8	      10.2	         0	1.15576e+07	      74.8	      9.35	         0	1.26154e+07	     73.95	      9.35	         0	1.24671e+07	    74.375	      10.2	         0	1.15587e+07	      74.8	     9.775	         0	1.20211e+07	    74.375	      9.35	         0	 1.2537e+07	     73.95	     9.775	         0	 1.1974e+07	
         R10	   4473	      73.1	      10.2	         0	1.01734e+07	     73.95	      10.2	         0	1.18923e+07	     73.95	      9.35	         0	1.23521e+07	      73.1	      9.35	         0	1.12885e+07	    73.525	      10.2	         0	1.09795e+07	     73.95	     9.775	         0	1.20554e+07	    73.525	      9.35	         0	1.17878e+07	      73.1	     9.775	         0	1.04852e+07	
         R10	   4474	     72.25	      10.2	         0	7.35936e+06	      73.1	      10.2	         0	9.53192e+06	      73.1	      9.35	         0	1.11088e+07	     72.25	      9.35	         0	7.18901e+06	    72.675	      10.2	         0	8.20202e+06	      73.1	     9.775	         0	1.00737e+07	    72.675	      9.35	         0	8.95092e+06	     72.25	     9.775	         0	7.26887e+06	
         R10	   4475	   75.6646	     11.05	         0	1.01104e+07	      76.5	     11.05	         0	7.03031e+06	      76.5	      10.2	         0	7.96092e+06	     75.65	      10.2	         0	1.01491e+07	   76.0823	     11.05	         0	8.45277e+06	      76.5	    10.625	         0	7.45504e+06	    76.075	      10.2	         0	8.71896e+06	   75.6573	    10.625	         0	9.81455e+06	
         R10	   4476	   74.8218	     11.05	         0	1.20437e+07	   75.6646	     11.05	         0	 1.0475e+07	     75.65	      10.2	         0	1.05328e+07	      74.8	      10.2	         0	1.17508e+07	   75.2432	     11.05	         0	1.11643e+07	   75.6573	    10.625	         0	1.01782e+07	    75.225	      10.2	         0	1.10497e+07	   74.8109	    10.625	         0	1.18741e+07	
         R10	   4477	   73.9718	     11.05	         0	1.18982e+07	   74.8218	     11.05	         0	 1.2002e+07	      74.8	      10.2	         0	1.15061e+07	     73.95	      10.2	         0	 1.1477e+07	   74.3969	     11.05	         0	1.19137e+07	   74.8109	    10.625	         0	1.17296e+07	    74.375	      10.2	         0	1.14881e+07	   73.9609	    10.625	         0	1.16687e+07	
         R10	   4478	   73.1146	     11.05	         0	1.01789e+07	   73.9718	     11.05	         0	1.19304e+07	     73.95	      10.2	         0	1.16395e+07	      73.1	      10.2	         0	1.04489e+07	   73.5432	     11.05	         0	1.09578e+07	   73.9609	    10.625	         0	1.17674e+07	    73.525	      10.2	         0	1.09493e+07	   73.1073	    10.625	         0	9.94699e+06	
         R10	   4479	     72.25	     11.05	         0	7.60218e+06	   73.1146	     11.05	         0	1.02118e+07	      73.1	      10.2	         0	1.00767e+07	     72.25	      10.2	         0	7.23402e+06	   72.6823	     11.05	         0	8.62913e+06	   73.1073	    10.625	         0	9.74489e+06	    72.675	      10.2	         0	8.35431e+06	     72.25	    10.625	         0	7.39524e+06	
         R10	   4480	   77.5625	      9.35	         0	9.34016e+06	    78.625	      9.35	         0	1.23953e+07	    78.625	       8.5	         0	1.52508e+07	   77.5625	       8.5	         0	1.22184e+07	   78.0938	      9.35	         0	1.03411e+07	    78.625	     8.925	         0	1.00961e+07	   78.0938	       8.5	         0	1.36325e+07	   77.5625	     8.925	         0	1.01052e+07	
         R10	   4481	      76.5	      9.35	         0	7.57767e+06	   77.5625	      9.35	         0	8.89915e+06	   77.5625	       8.5	         0	 1.1934e+07	      76.5	       8.5	         0	9.48368e+06	   77.0313	      9.35	         0	7.32137e+06	   77.5625	     8.925	         0	9.72082e+06	   77.0313	       8.5	         0	1.05883e+07	      76.5	     8.925	         0	8.29611e+06	
         R10	   4482	   77.5625	      10.2	         0	1.04326e+07	    78.625	      10.2	         0	1.11262e+07	    78.625	      9.35	         0	1.58555e+07	   77.5625	      9.35	         0	1.19223e+07	   78.0938	      10.2	         0	1.06655e+07	    78.625	     9.775	         0	1.26767e+07	   78.0938	      9.35	         0	1.38536e+07	   77.5625	     9.775	         0	1.09832e+07	
         R10	   4483	      76.5	      10.2	         0	7.51377e+06	   77.5625	      10.2	         0	9.64689e+06	   77.5625	      9.35	         0	1.21819e+07	      76.5	      9.35	         0	7.57558e+06	   77.0313	      10.2	         0	8.17873e+06	   77.5625	     9.775	         0	1.07286e+07	   77.0313	      9.35	         0	9.75253e+06	      76.5	     9.775	         0	 7.5379e+06	
         R10	   4484	   77.9344	     11.05	         0	1.13556e+07	    78.625	     11.05	         0	1.25228e+07	    78.625	      10.2	         0	 1.1472e+07	   77.5625	      10.2	         0	1.08504e+07	   78.2797	     11.05	         0	1.18845e+07	    78.625	    10.625	         0	1.19115e+07	   78.0938	      10.2	         0	1.10803e+07	   77.7485	    10.625	         0	1.09846e+07	
         R10	   4485	      76.5	      10.2	         0	7.92114e+06	      76.5	     11.05	         0	6.88667e+06	   77.2261	     11.05	         0	9.43384e+06	   77.5625	      10.2	         0	1.05865e+07	      76.5	    10.625	         0	7.37038e+06	   76.8631	     11.05	         0	8.05472e+06	   77.3943	    10.625	         0	9.71871e+06	   77.0313	      10.2	         0	8.86261e+06	
         R10	   4486	   77.2261	     11.05	         0	1.01307e+07	   77.9344	     11.05	         0	1.17087e+07	   77.5625	      10.2	         0	1.02918e+07	   77.5803	     11.05	         0	1.08774e+07	   77.7485	    10.625	         0	1.08939e+07	   77.3943	    10.625	         0	9.99872e+06	       N/A	       N/A	       N/A	        N/A	       N/A	       N/A	       N/A	        N/A	
         R10	   4487	    74.375	   15.5055	   2.59991	7.79742e+06	    74.375	      15.3	       2.4	7.95746e+06	   74.0696	      15.3	       2.4	 7.4182e+06	   74.0613	   15.5773	   2.66983	 7.0158e+06	    74.375	   15.4027	   2.49995	7.87223e+06	   74.2223	      15.3	       2.4	7.66499e+06	   74.0655	   15.4387	   2.53492	7.18369e+06	   74.2181	   15.5414	   2.63487	7.40256e+06	
         R10	   4488	   74.0696	   15.9164	   2.99973	7.57153e+06	    74.375	   15.9164	   2.99973	7.46463e+06	    74.375	   15.7109	   2.79982	7.23802e+06	   74.0613	   15.5773	   2.66983	7.40629e+06	   74.2223	   15.9164	   2.99973	7.51499e+06	    74.375	   15.8137	   2.89977	7.31374e+06	   74.2181	   15.6441	   2.73483	7.25827e+06	   74.0655	   15.7469	   2.83478	7.34744e+06	
         R10	   4489	   73.6137	   15.9164	   2.99973	7.71182e+06	   74.0696	   15.9164	   2.99973	7.56219e+06	   74.0613	   15.5773	   2.66983	6.65083e+06	   73.6403	   15.5787	   2.67114	6.59917e+06	   73.8416	   15.9164	   2.99973	7.61081e+06	   74.0655	   15.7469	   2.83478	7.01046e+06	   73.8508	    15.578	   2.67049	6.61276e+06	    73.627	   15.7475	   2.83543	6.93142e+06	
         R10	   4490	   73.0071	      15.3	       2.4	7.21444e+06	     72.25	      15.3	       2.4	7.08272e+06	     72.25	   15.9164	   2.99973	 7.3383e+06	   73.0071	   15.9164	   2.99973	6.97659e+06	   72.6286	      15.3	       2.4	6.46097e+06	     72.25	   15.6082	   2.69986	7.11085e+06	   72.6286	   15.9164	   2.99973	7.01872e+06	   73.0071	   15.6082	   2.69986	6.76127e+06	
         R10	   4491	   73.6403	   15.5787	   2.67114	6.73733e+06	   74.0613	   15.5773	   2.66983	 6.9996e+06	   74.0696	      15.3	       2.4	7.76673e+06	   73.6137	      15.3	       2.4	 7.2021e+06	   73.8508	    15.578	   2.67049	6.79162e+06	   74.0655	   15.4387	   2.53492	7.35201e+06	   73.8416	      15.3	       2.4	7.47239e+06	    73.627	   15.4393	   2.53557	6.87803e+06	
         R10	   4492	   73.0071	   15.9164	   2.99973	6.89079e+06	   73.6137	   15.9164	   2.99973	7.80629e+06	   73.6403	   15.5787	   2.67114	7.09439e+06	   73.0071	      15.3	       2.4	6.06447e+06	   73.3104	   15.9164	   2.99973	7.26667e+06	    73.627	   15.7475	   2.83543	7.22844e+06	   73.3237	   15.4393	   2.53557	6.56622e+06	   73.0071	   15.6082	   2.69986	6.30929e+06	
         R10	   4493	    74.375	   15.7109	   2.79982	7.04451e+06	    74.375	   15.5055	   2.59991	 7.7795e+06	   74.0613	   15.5773	   2.66983	7.32995e+06	    74.375	   15.6082	   2.69986	7.39301e+06	   74.2181	   15.5414	   2.63487	7.51534e+06	   74.2181	   15.6441	   2.73483	7.14114e+06	       N/A	       N/A	       N/A	        N/A	       N/A	       N/A	       N/A	        N/A	
         R10	   4494	   73.6403	   15.5787	   2.67114	6.27582e+06	   73.6137	      15.3	       2.4	8.85702e+06	   73.0071	      15.3	       2.4	5.56624e+06	    73.627	   15.4393	   2.53557	7.49909e+06	   73.3104	      15.3	       2.4	7.12442e+06	   73.3237	   15.4393	   2.53557	5.89102e+06	       N/A	       N/A	       N/A	        N/A	       N/A	       N/A	       N/A	        N/A	
         R10	   4495	    73.053	     19.83	         6	6.39253e+06	     72.25	     19.83	         6	1.39104e+07	     72.25	        19	         6	1.04278e+07	   73.0267	        19	         6	1.20837e+07	   72.6515	     19.83	         6	1.01231e+07	     72.25	    19.415	         6	1.21328e+07	   72.6383	        19	         6	1.10247e+07	   73.0398	    19.415	         6	 8.9409e+06	
         R10	   4496	   73.7907	     19.83	         6	5.07992e+06	    73.053	     19.83	         6	9.88836e+06	   73.0267	        19	         6	9.99429e+06	   73.7468	        19	         6	6.90659e+06	   73.4218	     19.83	         6	7.23899e+06	   73.0398	    19.415	         6	9.32109e+06	   73.3867	        19	         6	8.38234e+06	   73.7687	    19.415	         6	5.93573e+06	
         R10	   4497	   74.4631	     19.83	         6	4.61836e+06	   73.7907	     19.83	         6	6.52276e+06	   73.7468	        19	         6	6.39924e+06	   74.4105	        19	         6	5.59518e+06	   74.1269	     19.83	         6	5.35444e+06	   73.7687	    19.415	         6	6.25056e+06	   74.0786	        19	         6	5.95899e+06	   74.4368	    19.415	         6	5.08196e+06	
         R10	   4498	   75.0702	     19.83	         6	4.23136e+06	   74.4631	     19.83	         6	4.96648e+06	   74.4105	        19	         6	4.97557e+06	   75.0176	        19	         6	4.43745e+06	   74.7667	     19.83	         6	4.39579e+06	   74.4368	    19.415	         6	4.93414e+06	    74.714	        19	         6	4.70514e+06	   75.0439	    19.415	         6	4.23876e+06	
         R10	   4499	   75.6121	     19.83	         6	4.03533e+06	   75.0702	     19.83	         6	4.24483e+06	   75.0176	        19	         6	4.41116e+06	   75.5682	        19	         6	 5.1515e+06	   75.3412	     19.83	         6	3.92776e+06	   75.0439	    19.415	         6	4.26567e+06	   75.2929	        19	         6	 4.6601e+06	   75.5902	    19.415	         6	4.37735e+06	
         R10	   4500	   76.0632	   19.4278	         6	6.51893e+06	   76.0624	        19	         6	1.11752e+07	      76.5	        19	         6	1.34118e+07	      76.5	   19.4348	         6	 6.7781e+06	   76.0628	   19.2139	         6	8.53243e+06	   76.2812	        19	         6	1.02165e+07	      76.5	   19.2174	         6	9.90196e+06	   76.2816	   19.4313	         6	6.57543e+06	
         R10	   4501	   76.0632	   19.4278	         6	7.19631e+06	      76.5	   19.4348	         6	 8.4794e+06	      76.5	     19.83	         6	6.56947e+06	   76.0887	     19.83	         6	5.51353e+06	   76.2816	   19.4313	         6	7.69577e+06	      76.5	   19.6324	         6	7.49412e+06	   76.2943	     19.83	         6	5.97072e+06	    76.076	   19.6289	         6	6.28859e+06	
         R10	   4502	   75.5682	        19	         6	 5.1424e+06	   76.0632	   19.4278	         6	6.30943e+06	   76.0887	     19.83	         6	6.05783e+06	   75.6121	     19.83	         6	4.20465e+06	   75.8158	   19.2139	         6	5.56213e+06	    76.076	   19.6289	         6	 5.9865e+06	   75.8504	     19.83	         6	4.93623e+06	   75.5902	    19.415	         6	4.59219e+06	
         R10	   4503	   76.0624	        19	         6	8.71776e+06	   76.0632	   19.4278	         6	5.65463e+06	   75.5682	        19	         6	  6.376e+06	   76.0628	   19.2139	         6	6.74956e+06	   75.8158	   19.2139	         6	5.26796e+06	   75.8153	        19	         6	7.15565e+06	       N/A	       N/A	       N/A	        N/A	       N/A	       N/A	       N/A	        N/A	
         R10	   4504	    73.025	     20.66	         6	 5.9048e+06	     72.25	     20.66	         6	1.27366e+07	     72.25	     19.83	         6	 1.3322e+07	    73.053	     19.83	         6	 7.4529e+06	   72.6375	     20.66	         6	9.11729e+06	     72.25	    20.245	         6	1.29561e+07	   72.6515	     19.83	         6	1.00931e+07	    73.039	    20.245	         6	6.42935e+06	
         R10	   4505	    73.744	     20.66	         6	 5.0001e+06	    73.025	     20.66	         6	9.65425e+06	    73.053	     19.83	         6	9.91297e+06	   73.7907	     19.83	         6	  5.369e+06	   73.3845	     20.66	         6	7.20281e+06	    73.039	    20.245	         6	9.57718e+06	   73.4218	     19.83	         6	7.46237e+06	   73.7673	    20.245	         6	5.10581e+06	
         R10	   4506	   74.4071	     20.66	         6	3.71528e+06	    73.744	     20.66	         6	6.24943e+06	   73.7907	     19.83	         6	6.53858e+06	   74.4631	     19.83	         6	4.23984e+06	   74.0755	     20.66	         6	  4.883e+06	   73.7673	    20.245	         6	6.35515e+06	   74.1269	     19.83	         6	5.21893e+06	   74.4351	    20.245	         6	3.93761e+06	
         R10	   4507	   75.0142	     20.66	         6	2.57897e+06	   74.4071	     20.66	         6	3.84124e+06	   74.4631	     19.83	         6	4.52804e+06	   75.0702	     19.83	         6	3.33945e+06	   74.7107	     20.66	         6	 3.0328e+06	   74.4351	    20.245	         6	4.17285e+06	   74.7667	     19.83	         6	3.78424e+06	   75.0422	    20.245	         6	2.95856e+06	
         R10	   4508	   75.5654	     20.66	         6	3.06855e+06	   75.0142	     20.66	         6	2.53021e+06	   75.0702	     19.83	         6	3.32262e+06	   75.6121	     19.83	         6	3.76896e+06	   75.2898	     20.66	         6	2.47473e+06	   75.0422	    20.245	         6	2.92112e+06	   75.3412	     19.83	         6	3.31219e+06	   75.5888	    20.245	         6	3.29433e+06	
         R10	   4509	   76.0887	    20.274	         6	5.10103e+06	   76.0887	     19.83	         6	4.76926e+06	      76.5	     19.83	         6	8.87468e+06	      76.5	   20.2252	         6	7.09395e+06	   76.0887	    20.052	         6	4.90809e+06	   76.2943	     19.83	         6	6.64719e+06	      76.5	   20.0276	         6	7.83944e+06	   76.2943	   20.2496	         6	5.90849e+06	
         R10	   4510	   76.0887	    20.274	         6	5.40106e+06	      76.5	   20.2252	         6	5.41334e+06	      76.5	     20.66	         6	6.35759e+06	   76.0607	     20.66	         6	4.11628e+06	   76.2943	   20.2496	         6	5.34019e+06	      76.5	   20.4426	         6	5.88227e+06	   76.2803	     20.66	         6	5.20055e+06	   76.0747	    20.467	         6	4.75837e+06	
         R10	   4511	   75.6121	     19.83	         6	3.91144e+06	   76.0887	    20.274	         6	5.20641e+06	   76.0607	     20.66	         6	4.29869e+06	   75.5654	     20.66	         6	3.10999e+06	   75.8504	    20.052	         6	4.12999e+06	   76.0747	    20.467	         6	4.68861e+06	   75.8131	     20.66	         6	3.66883e+06	   75.5888	    20.245	         6	3.38222e+06	
         R10	   4512	   76.0887	     19.83	         6	5.01207e+06	   76.0887	    20.274	         6	4.66801e+06	   75.6121	     19.83	         6	3.97751e+06	   76.0887	    20.052	         6	4.83518e+06	   75.8504	    20.052	         6	4.06369e+06	   75.8504	     19.83	         6	4.24158e+06	       N/A	       N/A	       N/A	        N/A	       N/A	       N/A	       N/A	        N/A	
         R10	   4513	   72.9702	      21.5	         6	7.59134e+06	     72.25	      21.5	         6	8.83273e+06	     72.25	     20.66	         6	1.30216e+07	    73.025	     20.66	         6	5.63044e+06	   72.6101	      21.5	         6	8.13101e+06	     72.25	     21.08	         6	1.06229e+07	   72.6375	     20.66	         6	9.08588e+06	   72.9976	     21.08	         6	6.52719e+06	
         R10	   4514	   73.6528	      21.5	         6	4.41308e+06	   72.9702	      21.5	         6	5.91305e+06	    73.025	     20.66	         6	9.55398e+06	    73.744	     20.66	         6	4.14667e+06	   73.3115	      21.5	         6	5.04369e+06	   72.9976	     21.08	         6	7.70009e+06	   73.3845	     20.66	         6	 6.6993e+06	   73.6984	     21.08	         6	4.04896e+06	
         R10	   4515	   74.2976	      21.5	         6	2.57974e+06	   73.6528	      21.5	         6	4.88286e+06	    73.744	     20.66	         6	5.19406e+06	   74.4071	     20.66	         6	3.15227e+06	   73.9752	      21.5	         6	 3.6715e+06	   73.6984	     21.08	         6	4.99633e+06	   74.0755	     20.66	         6	4.08641e+06	   74.3524	     21.08	         6	2.57552e+06	
         R10	   4516	   74.9048	      21.5	         6	     928808	   74.2976	      21.5	         6	3.32782e+06	   74.4071	     20.66	         6	3.40004e+06	   75.0142	     20.66	         6	2.27622e+06	   74.6012	      21.5	         6	2.05448e+06	   74.3524	     21.08	         6	3.23309e+06	   74.7107	     20.66	         6	2.69054e+06	   74.9595	     21.08	         6	1.22573e+06	
         R10	   4517	   75.4742	      21.5	         6	1.35186e+06	   74.9048	      21.5	         6	1.77163e+06	   75.0142	     20.66	         6	2.33057e+06	   75.5654	     20.66	         6	2.53065e+06	   75.1895	      21.5	         6	     978294	   74.9595	     21.08	         6	1.65189e+06	   75.2898	     20.66	         6	2.19036e+06	   75.5198	     21.08	         6	1.73823e+06	
         R10	   4518	   76.0607	   21.1273	         6	3.59945e+06	   76.0607	     20.66	         6	3.83067e+06	      76.5	     20.66	         6	 4.2517e+06	      76.5	     21.06	         6	4.20666e+06	   76.0607	   20.8936	         6	3.65489e+06	   76.2803	     20.66	         6	3.93175e+06	      76.5	     20.86	         6	4.09597e+06	   76.2803	   21.0936	         6	3.79144e+06	
         R10	   4519	   76.0607	   21.1273	         6	4.26366e+06	      76.5	     21.06	         6	3.56777e+06	      76.5	      21.5	         6	5.97827e+06	    76.006	      21.5	         6	1.83057e+06	   76.2803	   21.0936	         6	3.83194e+06	      76.5	     21.28	         6	4.41988e+06	    76.253	      21.5	         6	3.80922e+06	   76.0333	   21.3136	         6	2.99675e+06	
         R10	   4520	   75.5654	     20.66	         6	2.46585e+06	   76.0607	   21.1273	         6	3.94736e+06	    76.006	      21.5	         6	2.49082e+06	   75.4742	      21.5	         6	1.14033e+06	   75.8131	   20.8936	         6	2.94078e+06	   76.0333	   21.3136	         6	2.94921e+06	   75.7401	      21.5	         6	1.77988e+06	   75.5198	     21.08	         6	 1.5245e+06	
         R10	   4521	   76.0607	     20.66	         6	3.79198e+06	   76.0607	   21.1273	         6	3.19845e+06	   75.5654	     20.66	         6	2.28777e+06	   76.0607	   20.8936	         6	3.46553e+06	   75.8131	   20.8936	         6	2.68773e+06	   75.8131	     20.66	         6	2.91717e+06	       N/A	       N/A	       N/A	        N/A	       N/A	       N/A	       N/A	        N/A	
         R10	   4522	   76.9503	     19.83	         6	6.39325e+06	      76.5	     19.83	         6	1.20454e+07	      76.5	   19.4348	         6	8.81426e+06	   76.9391	     19.42	         6	9.23117e+06	   76.7251	     19.83	         6	9.20834e+06	      76.5	   19.6324	         6	1.03893e+07	   76.7196	   19.4274	         6	8.97592e+06	   76.9447	    19.625	         6	7.65886e+06	
         R10	   4523	   76.9391	     19.42	         6	8.09494e+06	      76.5	   19.4348	         6	9.56757e+06	      76.5	        19	         6	1.42537e+07	   77.0003	        19	         6	1.18527e+07	   76.7196	   19.4274	         6	8.81202e+06	      76.5	   19.2174	         6	1.17466e+07	   76.7502	        19	         6	1.11758e+07	   76.9697	     19.21	         6	9.29493e+06	
         R10	   4524	   78.0628	        19	         6	3.88771e+06	    78.625	        19	         6	 5.6561e+06	    78.625	   19.3952	         6	4.57771e+06	   78.1582	   19.4112	         6	 4.6331e+06	   78.3439	        19	         6	4.67408e+06	    78.625	   19.1976	         6	5.11268e+06	   78.3916	   19.4032	         6	4.49918e+06	   78.1105	   19.2056	         6	4.23407e+06	
         R10	   4525	   78.1582	   19.4112	         6	4.21305e+06	    78.625	   19.3952	         6	5.52161e+06	    78.625	     19.83	         6	3.69325e+06	   78.0128	     19.83	         6	3.83594e+06	   78.3916	   19.4032	         6	4.77995e+06	    78.625	   19.6126	         6	 4.5561e+06	   78.3189	     19.83	         6	3.60073e+06	   78.0855	   19.6206	         6	4.00806e+06	
         R10	   4526	   77.4545	     19.83	         6	5.22717e+06	   76.9391	     19.42	         6	6.77923e+06	   77.0003	        19	         6	  9.366e+06	   77.5212	        19	         6	6.19812e+06	   77.1968	    19.625	         6	5.92747e+06	   76.9697	     19.21	         6	7.65594e+06	   77.2608	        19	         6	7.46284e+06	   77.4879	    19.415	         6	5.61271e+06	
         R10	   4527	   77.5212	        19	         6	5.56198e+06	   78.1582	   19.4112	         6	5.00918e+06	   78.0128	     19.83	         6	3.76608e+06	   77.4545	     19.83	         6	4.98107e+06	   77.8397	   19.2056	         6	5.12567e+06	   78.0855	   19.6206	         6	4.36676e+06	   77.7337	     19.83	         6	4.22366e+06	   77.4879	    19.415	         6	5.20001e+06	
         R10	   4528	   77.4545	     19.83	         6	4.23541e+06	   76.9503	     19.83	         6	6.91212e+06	   76.9391	     19.42	         6	9.01039e+06	   77.2024	     19.83	         6	5.43026e+06	   76.9447	    19.625	         6	7.79004e+06	   77.1968	    19.625	         6	6.52006e+06	       N/A	       N/A	       N/A	        N/A	       N/A	       N/A	       N/A	        N/A	
         R10	   4529	   77.5212	        19	         6	4.68005e+06	   78.0628	        19	         6	4.89416e+06	   78.1582	   19.4112	         6	5.57054e+06	    77.792	        19	         6	4.62033e+06	   78.1105	   19.2056	         6	5.19904e+06	   77.8397	   19.2056	         6	5.05057e+06	       N/A	       N/A	       N/A	        N/A	       N/A	       N/A	       N/A	        N/A	
         R10	   4530	   76.9558	     20.66	         6	6.03404e+06	      76.5	     20.66	         6	4.99248e+06	      76.5	   20.2252	         6	8.42993e+06	    76.931	   20.2328	         6	7.42917e+06	   76.7279	     20.66	         6	5.48945e+06	      76.5	   20.4426	         6	 6.7097e+06	   76.7155	    20.229	         6	7.51737e+06	   76.9434	   20.4464	         6	 6.2648e+06	
         R10	   4531	    76.931	   20.2328	         6	6.57276e+06	      76.5	   20.2252	         6	7.53957e+06	      76.5	     19.83	         6	9.93496e+06	   76.9503	     19.83	         6	 7.1508e+06	   76.7155	    20.229	         6	6.89228e+06	      76.5	   20.0276	         6	8.65051e+06	   76.7251	     19.83	         6	8.47763e+06	   76.9407	   20.0314	         6	6.82558e+06	
         R10	   4532	   77.4046	   20.2384	         6	4.49042e+06	    76.931	   20.2328	         6	5.95055e+06	   76.9503	     19.83	         6	7.13947e+06	   77.4545	     19.83	         6	4.78231e+06	   77.1678	   20.2356	         6	5.17099e+06	   76.9407	   20.0314	         6	6.52431e+06	   77.2024	     19.83	         6	5.84411e+06	   77.4296	   20.0342	         6	4.60041e+06	
         R10	   4533	   78.0128	     19.83	         6	3.94775e+06	    78.625	     19.83	         6	3.97447e+06	    78.625	     20.66	         6	2.32561e+06	   78.0183	     20.66	         6	2.79797e+06	   78.3189	     19.83	         6	3.85216e+06	    78.625	    20.245	         6	3.09589e+06	   78.3217	     20.66	         6	2.18134e+06	   78.0155	    20.245	         6	3.22526e+06	
         R10	   4534	   77.4619	     20.66	         6	4.35348e+06	   76.9558	     20.66	         6	 6.3833e+06	    76.931	   20.2328	         6	7.20951e+06	   77.4046	   20.2384	         6	4.97707e+06	   77.2089	     20.66	         6	5.29425e+06	   76.9434	   20.4464	         6	6.37841e+06	   77.1678	   20.2356	         6	6.09087e+06	   77.4333	   20.4492	         6	4.58459e+06	
         R10	   4535	   78.0128	     19.83	         6	3.92013e+06	   78.0183	     20.66	         6	 2.7182e+06	   77.4619	     20.66	         6	4.26593e+06	   77.4046	   20.2384	         6	4.97571e+06	   78.0155	    20.245	         6	3.19356e+06	   77.7401	     20.66	         6	 3.4033e+06	   77.4333	   20.4492	         6	4.54339e+06	   77.7087	   20.0342	         6	4.16546e+06	
         R10	   4536	   77.4046	   20.2384	         6	4.68544e+06	   77.4545	     19.83	         6	4.86905e+06	   78.0128	     19.83	         6	3.94626e+06	   77.4296	   20.0342	         6	4.76861e+06	   77.7337	     19.83	         6	4.21951e+06	   77.7087	   20.0342	         6	4.06943e+06	       N/A	       N/A	       N/A	        N/A	       N/A	       N/A	       N/A	        N/A	
         R10	   4537	   76.9558	      21.5	         6	4.19397e+06	      76.5	      21.5	         6	6.62042e+06	      76.5	     21.06	         6	5.39994e+06	   76.9302	    21.065	         6	 6.0912e+06	   76.7279	      21.5	         6	5.13219e+06	      76.5	     21.28	         6	5.70069e+06	   76.7151	   21.0625	         6	5.51971e+06	    76.943	   21.2825	         6	4.79524e+06	
         R10	   4538	   76.9302	    21.065	         6	5.91329e+06	      76.5	     21.06	         6	5.81434e+06	      76.5	     20.66	         6	7.80173e+06	   76.9558	     20.66	         6	 5.3961e+06	   76.7151	   21.0625	         6	5.77875e+06	      76.5	     20.86	         6	6.70888e+06	   76.7279	     20.66	         6	6.54896e+06	    76.943	   20.8625	         6	5.55044e+06	
         R10	   4539	   77.4007	   21.0707	         6	3.53161e+06	   76.9302	    21.065	         6	5.13732e+06	   76.9558	     20.66	         6	5.18783e+06	   77.4619	     20.66	         6	3.62679e+06	   77.1654	   21.0678	         6	4.24813e+06	    76.943	   20.8625	         6	5.13286e+06	   77.2089	     20.66	         6	4.37729e+06	   77.4313	   20.8654	         6	3.44843e+06	
         R10	   4540	   78.0183	     20.66	         6	2.92232e+06	    78.625	     20.66	         6	3.03959e+06	    78.625	      21.5	         6	 3.3215e+06	   78.0183	      21.5	         6	2.93569e+06	   78.3217	     20.66	         6	2.76225e+06	    78.625	     21.08	         6	2.87588e+06	   78.3217	      21.5	         6	     914842	   78.0183	     21.08	         6	 1.2365e+06	
         R10	   4541	   77.4619	      21.5	         6	3.83219e+06	   76.9558	      21.5	         6	3.52059e+06	   76.9302	    21.065	         6	6.37506e+06	   77.4007	   21.0707	         6	2.93754e+06	   77.2089	      21.5	         6	3.61477e+06	    76.943	   21.2825	         6	4.58642e+06	   77.1654	   21.0678	         6	4.63597e+06	   77.4313	   21.2854	         6	3.29647e+06	
         R10	   4542	   78.0183	     20.66	         6	2.46924e+06	   78.0183	      21.5	         6	2.97586e+06	   77.4619	      21.5	         6	3.32205e+06	   77.4007	   21.0707	         6	3.95068e+06	   78.0183	     21.08	         6	2.35265e+06	   77.7401	      21.5	         6	2.07338e+06	   77.4313	   21.2854	         6	 3.1089e+06	   77.7095	   20.8654	         6	2.89043e+06	
         R10	   4543	   77.4007	   21.0707	         6	 3.8156e+06	   77.4619	     20.66	         6	3.61375e+06	   78.0183	     20.66	         6	2.25007e+06	   77.4313	   20.8654	         6	3.60511e+06	   77.7401	     20.66	         6	2.69865e+06	   77.7095	   20.8654	         6	2.89835e+06	       N/A	       N/A	       N/A	        N/A	       N/A	       N/A	       N/A	        N/A	
         R10	   4544	   73.1325	        19	      6.85	3.98658e+06	     72.25	        19	      6.85	7.21628e+06	     72.25	        19	       7.7	7.15155e+06	   73.1005	        19	       7.7	7.20183e+06	   72.6913	        19	      6.85	5.18791e+06	     72.25	        19	     7.275	7.12908e+06	   72.6752	        19	       7.7	7.16749e+06	   73.1165	        19	     7.275	5.32474e+06	
         R10	   4545	   73.9454	        19	      6.85	2.65291e+06	   73.1325	        19	      6.85	4.08314e+06	   73.1005	        19	       7.7	7.23161e+06	   73.8941	        19	       7.7	8.15616e+06	    73.539	        19	      6.85	 2.8015e+06	   73.1165	        19	     7.275	5.41463e+06	   73.4973	        19	       7.7	7.65126e+06	   73.9197	        19	     7.275	4.49077e+06	
         R10	   4546	   74.6886	        19	      6.85	3.19965e+06	   73.9454	        19	      6.85	2.96793e+06	   73.8941	        19	       7.7	8.19898e+06	   74.6308	        19	       7.7	7.38026e+06	    74.317	        19	      6.85	2.91744e+06	   73.9197	        19	     7.275	4.62765e+06	   74.2625	        19	       7.7	7.77589e+06	   74.6597	        19	     7.275	4.69345e+06	
         R10	   4547	   75.3621	        19	      6.85	4.35828e+06	   74.6886	        19	      6.85	 3.0831e+06	   74.6308	        19	       7.7	7.40467e+06	   75.3107	        19	       7.7	6.30926e+06	   75.0253	        19	      6.85	3.55306e+06	   74.6597	        19	     7.275	4.68897e+06	   74.9708	        19	       7.7	6.85491e+06	   75.3364	        19	     7.275	5.19389e+06	
         R10	   4548	   75.9659	        19	      6.85	6.08425e+06	   75.3621	        19	      6.85	4.32881e+06	   75.3107	        19	       7.7	6.35167e+06	   75.9338	        19	       7.7	6.02093e+06	    75.664	        19	      6.85	5.11732e+06	   75.3364	        19	     7.275	5.22131e+06	   75.6223	        19	       7.7	 6.1708e+06	   75.9498	        19	     7.275	6.00293e+06	
         R10	   4549	   75.9659	        19	      6.85	6.25046e+06	   75.9338	        19	       7.7	6.11794e+06	      76.5	        19	       7.7	6.91354e+06	      76.5	        19	   7.25476	6.14515e+06	   75.9498	        19	     7.275	6.15233e+06	   76.2169	        19	       7.7	6.49476e+06	      76.5	        19	   7.47738	6.50517e+06	   76.2329	        19	   7.05238	5.97655e+06	
         R10	   4550	      76.5	        19	      6.85	6.17114e+06	   75.9659	        19	      6.85	  5.999e+06	      76.5	        19	   7.25476	8.43343e+06	   76.2329	        19	      6.85	6.04736e+06	   76.2329	        19	   7.05238	7.15957e+06	      76.5	        19	   7.05238	7.30064e+06	       N/A	       N/A	       N/A	        N/A	       N/A	       N/A	       N/A	        N/A	
         R10	   4551	   73.1005	        19	       7.7	3.37246e+06	     72.25	        19	       7.7	5.81074e+06	     72.25	        19	      8.55	5.81764e+06	   73.0678	        19	      8.55	 7.1843e+06	   72.6752	        19	       7.7	4.53751e+06	     72.25	        19	     8.125	5.80776e+06	   72.6589	        19	      8.55	6.49101e+06	   73.0841	        19	     8.125	 5.2407e+06	
         R10	   4552	   73.8941	        19	       7.7	2.11972e+06	   73.1005	        19	       7.7	 3.3696e+06	   73.0678	        19	      8.55	6.94861e+06	   73.8418	        19	      8.55	8.30194e+06	   73.4973	        19	       7.7	2.26092e+06	   73.0841	        19	     8.125	 5.0707e+06	   73.4548	        19	      8.55	7.62129e+06	   73.8679	        19	     8.125	4.49466e+06	
         R10	   4553	   74.6308	        19	       7.7	2.19896e+06	   73.8941	        19	       7.7	  1.853e+06	   73.8418	        19	      8.55	8.35482e+06	    74.572	        19	      8.55	7.54161e+06	   74.2625	        19	       7.7	1.97824e+06	   73.8679	        19	     8.125	4.48796e+06	   74.2069	        19	      8.55	7.94486e+06	   74.6014	        19	     8.125	4.42134e+06	
         R10	   4554	   75.3107	        19	       7.7	3.26815e+06	   74.6308	        19	       7.7	2.16349e+06	    74.572	        19	      8.55	7.57678e+06	   75.2585	        19	      8.55	6.25272e+06	   74.9708	        19	       7.7	2.58081e+06	   74.6014	        19	     8.125	4.43745e+06	   74.9152	        19	      8.55	6.91473e+06	   75.2846	        19	     8.125	4.67947e+06	
         R10	   4555	   75.9338	        19	       7.7	4.72146e+06	   75.3107	        19	       7.7	3.31755e+06	   75.2585	        19	      8.55	   6.27e+06	   75.9011	        19	      8.55	 5.6449e+06	   75.6223	        19	       7.7	3.96279e+06	   75.2846	        19	     8.125	4.70254e+06	   75.5798	        19	      8.55	5.93965e+06	   75.9175	        19	     8.125	5.15862e+06	
         R10	   4556	      76.5	        19	       7.7	5.64957e+06	   75.9338	        19	       7.7	4.78974e+06	   75.9011	        19	      8.55	 5.5927e+06	      76.5	        19	      8.55	5.76113e+06	   76.2169	        19	       7.7	5.13421e+06	   75.9175	        19	     8.125	5.15494e+06	   76.2006	        19	      8.55	  5.675e+06	      76.5	        19	     8.125	5.68373e+06	
         R10	   4557	   73.0678	        19	      8.55	3.21324e+06	     72.25	        19	      8.55	5.37147e+06	     72.25	        19	       9.4	5.33578e+06	   73.0346	        19	       9.4	7.22002e+06	   72.6589	        19	      8.55	  4.205e+06	     72.25	        19	     8.975	5.35243e+06	   72.6423	        19	       9.4	6.22828e+06	   73.0512	        19	     8.975	5.17966e+06	
         R10	   4558	   73.8418	        19	      8.55	1.50455e+06	   73.0678	        19	      8.55	2.74693e+06	   73.0346	        19	       9.4	6.67725e+06	   73.7887	        19	       9.4	8.11977e+06	   73.4548	        19	      8.55	1.90588e+06	   73.0512	        19	     8.975	4.67993e+06	   73.4117	        19	       9.4	7.37541e+06	   73.8152	        19	     8.975	4.48327e+06	
         R10	   4559	    74.572	        19	      8.55	1.67729e+06	   73.8418	        19	      8.55	1.16794e+06	   73.7887	        19	       9.4	7.94824e+06	   74.5123	        19	       9.4	 7.0701e+06	   74.2069	        19	      8.55	1.39896e+06	   73.8152	        19	     8.975	4.26921e+06	   74.1505	        19	       9.4	 7.5089e+06	   74.5422	        19	     8.975	4.18638e+06	
         R10	   4560	   75.2585	        19	      8.55	3.20198e+06	    74.572	        19	      8.55	1.60583e+06	   74.5123	        19	       9.4	7.07704e+06	   75.2054	        19	       9.4	5.29954e+06	   74.9152	        19	      8.55	2.34494e+06	   74.5422	        19	     8.975	4.18511e+06	   74.8588	        19	       9.4	 6.1839e+06	   75.2319	        19	     8.975	4.22491e+06	
         R10	   4561	   75.9011	        19	      8.55	4.39812e+06	   75.2585	        19	      8.55	3.21978e+06	   75.2054	        19	       9.4	5.30878e+06	   75.8679	        19	       9.4	4.85116e+06	   75.5798	        19	      8.55	3.79496e+06	   75.2319	        19	     8.975	4.23402e+06	   75.5367	        19	       9.4	5.04738e+06	   75.8845	        19	     8.975	4.59503e+06	
         R10	   4562	      76.5	        19	      8.55	5.32032e+06	   75.9011	        19	      8.55	4.42001e+06	   75.8679	        19	       9.4	4.68112e+06	      76.5	        19	       9.4	5.05699e+06	   76.2006	        19	      8.55	4.68169e+06	   75.8845	        19	     8.975	4.51353e+06	    76.184	        19	       9.4	4.86301e+06	      76.5	        19	     8.975	5.01598e+06	
         R10	   4563	   77.0003	        19	      6.85	5.40166e+06	      76.5	        19	      6.85	6.13274e+06	      76.5	        19	   7.25476	8.56596e+06	   76.9535	        19	   7.26483	6.72226e+06	   76.7502	        19	      6.85	5.73079e+06	      76.5	        19	   7.05238	7.32718e+06	   76.7268	        19	    7.2598	7.59582e+06	   76.9769	        19	   7.05742	6.04236e+06	
         R10	   4564	   76.9535	        19	   7.26483	5.40465e+06	      76.5	        19	   7.25476	6.14162e+06	      76.5	        19	       7.7	7.04281e+06	   77.0003	        19	       7.7	6.54456e+06	   76.7268	        19	    7.2598	5.74012e+06	      76.5	        19	   7.47738	6.58812e+06	   76.7502	        19	       7.7	6.76732e+06	   76.9769	        19	   7.48242	5.96917e+06	
         R10	   4565	   77.4514	        19	   7.27603	5.13857e+06	   76.9535	        19	   7.26483	5.44306e+06	   77.0003	        19	       7.7	6.44403e+06	   77.5212	        19	       7.7	5.46624e+06	   77.2025	        19	   7.27043	5.25364e+06	   76.9769	        19	   7.48242	5.94139e+06	   77.2608	        19	       7.7	5.94609e+06	   77.4863	        19	   7.48801	5.27634e+06	
         R10	   4566	   78.0628	        19	       7.7	 4.8882e+06	    78.625	        19	       7.7	 5.0276e+06	    78.625	        19	      6.85	4.24452e+06	   78.0628	        19	      6.85	4.46635e+06	   78.3439	        19	       7.7	4.95269e+06	    78.625	        19	     7.275	4.56983e+06	   78.3439	        19	      6.85	4.34197e+06	   78.0628	        19	     7.275	4.62735e+06	
         R10	   4567	   77.5212	        19	      6.85	 4.7674e+06	   77.0003	        19	      6.85	5.64762e+06	   76.9535	        19	   7.26483	6.68237e+06	   77.4514	        19	   7.27603	5.39623e+06	   77.2608	        19	      6.85	5.17289e+06	   76.9769	        19	   7.05742	  6.112e+06	   77.2025	        19	   7.27043	6.00255e+06	   77.4863	        19	   7.06301	5.05988e+06	
         R10	   4568	   77.4514	        19	   7.27603	4.90782e+06	   77.5212	        19	       7.7	5.39974e+06	   78.0628	        19	       7.7	4.88719e+06	   78.0628	        19	      6.85	4.48597e+06	   77.4863	        19	   7.48801	 5.1376e+06	    77.792	        19	       7.7	5.13506e+06	   78.0628	        19	     7.275	4.62832e+06	   77.7571	        19	   7.06301	4.63084e+06	
         R10	   4569	   78.0628	        19	      6.85	4.50563e+06	   77.5212	        19	      6.85	 4.8707e+06	   77.4514	        19	   7.27603	5.49812e+06	    77.792	        19	      6.85	 4.6593e+06	   77.4863	        19	   7.06301	5.15788e+06	   77.7571	        19	   7.06301	4.91544e+06	       N/A	       N/A	       N/A	        N/A	       N/A	       N/A	       N/A	        N/A	
         R10	   4570	   77.0003	        19	       7.7	 4.9878e+06	      76.5	        19	       7.7	5.51587e+06	      76.5	        19	      8.55	6.10467e+06	   77.1671	        19	      8.55	5.89757e+06	   76.7502	        19	       7.7	5.24927e+06	      76.5	        19	     8.125	5.77155e+06	   76.8335	        19	      8.55	5.96008e+06	   77.0837	        19	     8.125	5.44201e+06	
         R10	   4571	   77.5212	        19	       7.7	4.71058e+06	   77.0003	        19	       7.7	4.99753e+06	   77.1671	        19	      8.55	5.76152e+06	   77.8754	        19	      8.55	5.47605e+06	   77.2608	        19	       7.7	4.83643e+06	   77.0837	        19	     8.125	5.37192e+06	   77.5212	        19	      8.55	5.61707e+06	   77.6983	        19	     8.125	5.07745e+06	
         R10	   4572	   77.8754	        19	      8.55	5.50191e+06	    78.625	        19	      8.55	6.47643e+06	    78.625	        19	       7.7	3.50356e+06	   78.0628	        19	       7.7	4.36965e+06	   78.2502	        19	      8.55	5.98694e+06	    78.625	        19	     8.125	4.89744e+06	   78.3439	        19	       7.7	 3.9226e+06	   77.9691	        19	     8.125	4.90765e+06	
         R10	   4573	   77.5212	        19	       7.7	4.69368e+06	   77.8754	        19	      8.55	5.49223e+06	   78.0628	        19	       7.7	4.45686e+06	   77.6983	        19	     8.125	5.07457e+06	   77.9691	        19	     8.125	4.93931e+06	    77.792	        19	       7.7	4.57246e+06	       N/A	       N/A	       N/A	        N/A	       N/A	       N/A	       N/A	        N/A	
         R10	   4574	   77.1671	        19	      8.55	3.56246e+06	      76.5	        19	      8.55	4.58637e+06	      76.5	        19	       9.4	5.97791e+06	   77.1671	        19	       9.4	6.44116e+06	   76.8335	        19	      8.55	4.00093e+06	      76.5	        19	     8.975	5.06262e+06	   76.8335	        19	       9.4	6.00553e+06	   77.1671	        19	     8.975	4.94244e+06	
         R10	   4575	   77.8754	        19	      8.55	2.44478e+06	   77.1671	        19	      8.55	3.57299e+06	   77.1671	        19	       9.4	6.47637e+06	   77.8754	        19	       9.4	7.51442e+06	   77.5212	        19	      8.55	2.98788e+06	   77.1671	        19	     8.975	4.97798e+06	   77.5212	        19	       9.4	6.99513e+06	   77.8754	        19	     8.975	4.91589e+06	
         R10	   4576	    78.625	        19	      8.55	1.46717e+06	   77.8754	        19	      8.55	2.43292e+06	   77.8754	        19	       9.4	7.46596e+06	    78.625	        19	       9.4	8.24299e+06	   78.2502	        19	      8.55	1.91873e+06	   77.8754	        19	     8.975	4.86495e+06	   78.2502	        19	       9.4	7.84233e+06	    78.625	        19	     8.975	4.69235e+06	
         R10	   4577	    75.582	    17.428	   4.47052	6.92241e+06	    75.582	   17.1492	   4.19918	7.60426e+06	   75.1652	   17.1492	   4.19918	 6.9544e+06	   75.1652	   17.4678	   4.50916	6.34153e+06	    75.582	   17.2886	   4.33485	7.25381e+06	   75.3736	   17.1492	   4.19918	 7.2736e+06	   75.1652	   17.3085	   4.35417	6.64433e+06	   75.3736	   17.4479	   4.48984	6.62001e+06	
         R10	   4578	   75.9434	   17.3883	   4.43188	7.20591e+06	   75.9434	   17.1492	   4.19918	8.27726e+06	    75.582	   17.1492	   4.19918	7.58961e+06	    75.582	    17.428	   4.47052	6.70588e+06	   75.9434	   17.2687	   4.31553	 7.7283e+06	   75.7627	   17.1492	   4.19918	7.92468e+06	    75.582	   17.2886	   4.33485	7.14165e+06	   75.7627	   17.4082	    4.4512	6.94469e+06	
         R10	   4579	   76.2494	   17.3486	   4.39324	8.64819e+06	   76.2494	   17.1492	   4.19918	8.84783e+06	   75.9434	   17.1492	   4.19918	8.38561e+06	   75.9434	   17.3883	   4.43188	7.49761e+06	   76.2494	   17.2489	   4.29621	8.72318e+06	   76.0964	   17.1492	   4.19918	8.55618e+06	   75.9434	   17.2687	   4.31553	7.91389e+06	   76.0964	   17.3685	   4.41256	8.06265e+06	
         R10	   4580	      76.5	   17.3254	    4.3707	1.01455e+07	      76.5	   17.1492	   4.19918	 9.9034e+06	   76.2494	   17.1492	   4.19918	8.79725e+06	   76.2494	   17.3486	   4.39324	 8.7651e+06	      76.5	   17.2373	   4.28494	9.85065e+06	   76.3747	   17.1492	   4.19918	9.28947e+06	   76.2494	   17.2489	   4.29621	8.75153e+06	   76.3747	    17.337	   4.38197	 9.4353e+06	
         R10	   4581	    76.193	   17.5309	   4.57061	7.97789e+06	      76.5	   17.5309	   4.57061	1.05546e+07	      76.5	   17.3254	    4.3707	9.69699e+06	   76.2494	   17.3486	   4.39324	9.09227e+06	   76.3465	   17.5309	   4.57061	9.25003e+06	      76.5	   17.4282	   4.47065	 1.0081e+07	   76.3747	    17.337	   4.38197	 9.3561e+06	   76.2212	   17.4398	   4.48193	8.48212e+06	
         R10	   4582	   76.1769	   17.7655	    4.7989	8.62367e+06	      76.5	   17.7655	    4.7989	1.03955e+07	      76.5	   17.5309	   4.57061	 1.0169e+07	    76.193	   17.5309	   4.57061	 8.2906e+06	   76.3384	   17.7655	    4.7989	9.46354e+06	      76.5	   17.6482	   4.68475	1.02052e+07	   76.3465	   17.5309	   4.57061	9.21683e+06	   76.1849	   17.6482	   4.68475	8.40635e+06	
         R10	   4583	   72.9439	   17.1492	   4.19918	4.92906e+06	     72.25	   17.1492	   4.19918	5.95414e+06	     72.25	   17.7655	    4.7989	5.83861e+06	   72.9894	   17.7655	    4.7989	8.43872e+06	   72.5969	   17.1492	   4.19918	5.16099e+06	     72.25	   17.4573	   4.49904	5.76129e+06	   72.6197	   17.7655	    4.7989	 6.0849e+06	   72.9666	   17.4573	   4.49904	6.44838e+06	
         R10	   4584	   73.5823	   17.1492	   4.19918	 5.1013e+06	   72.9439	   17.1492	   4.19918	4.56485e+06	   72.9894	   17.7655	    4.7989	7.63658e+06	   73.6693	   17.7655	    4.7989	8.41312e+06	   73.2631	   17.1492	   4.19918	4.71737e+06	   72.9666	   17.4573	   4.49904	5.80159e+06	   73.3293	   17.7655	    4.7989	7.98288e+06	   73.6258	   17.4573	   4.49904	6.43218e+06	
         R10	   4585	   74.1653	   17.1492	   4.19918	 5.6594e+06	   73.5823	   17.1492	   4.19918	4.82561e+06	   73.6693	   17.7655	    4.7989	 8.2364e+06	   74.2898	   17.7655	    4.7989	 7.8572e+06	   73.8738	   17.1492	   4.19918	5.22546e+06	   73.6258	   17.4573	   4.49904	6.21073e+06	   73.9795	   17.7655	    4.7989	8.03024e+06	   74.2275	   17.4573	   4.49904	 6.5587e+06	
         R10	   4586	    74.693	   17.1492	   4.19918	 6.1571e+06	   74.1653	   17.1492	   4.19918	5.44328e+06	   74.2898	   17.7655	    4.7989	7.78666e+06	   74.8507	   17.7655	    4.7989	6.99357e+06	   74.4292	   17.1492	   4.19918	5.77856e+06	   74.2275	   17.4573	   4.49904	6.42081e+06	   74.5703	   17.7655	    4.7989	 7.3761e+06	   74.7719	   17.4573	   4.49904	6.52876e+06	
         R10	   4587	   75.1652	   17.4678	   4.50916	6.80728e+06	   75.1652	   17.1492	   4.19918	6.75718e+06	    74.693	   17.1492	   4.19918	6.29103e+06	   74.8507	   17.7655	    4.7989	6.92302e+06	   75.1652	   17.3085	   4.35417	 6.7785e+06	   74.9291	   17.1492	   4.19918	 6.5168e+06	   74.7719	   17.4573	   4.49904	 6.5469e+06	    75.008	   17.6166	   4.65403	6.83922e+06	
         R10	   4588	    75.582	    17.428	   4.47052	7.26335e+06	   75.1652	   17.4678	   4.50916	6.63443e+06	   74.8507	   17.7655	    4.7989	6.94561e+06	   75.3523	   17.7655	    4.7989	7.13537e+06	   75.3736	   17.4479	   4.48984	6.94103e+06	    75.008	   17.6166	   4.65403	6.74401e+06	   75.1015	   17.7655	    4.7989	7.03572e+06	   75.4671	   17.5968	   4.63471	 7.1793e+06	
         R10	   4589	   75.9434	   17.3883	   4.43188	7.47592e+06	    75.582	    17.428	   4.47052	7.11922e+06	   75.3523	   17.7655	    4.7989	7.14817e+06	   75.7943	   17.7655	    4.7989	7.86229e+06	   75.7627	   17.4082	    4.4512	7.29247e+06	   75.4671	   17.5968	   4.63471	7.08459e+06	   75.5733	   17.7655	    4.7989	7.49384e+06	   75.8689	   17.5769	   4.61539	7.58768e+06	
         R10	   4590	   75.7943	   17.7655	    4.7989	7.83318e+06	   76.1769	   17.7655	    4.7989	8.58569e+06	    76.193	   17.5309	   4.57061	8.72523e+06	   75.9434	   17.3883	   4.43188	7.40241e+06	   75.9856	   17.7655	    4.7989	8.18957e+06	   76.1849	   17.6482	   4.68475	8.59744e+06	   76.0682	   17.4596	   4.50125	8.06349e+06	   75.8689	   17.5769	   4.61539	7.53062e+06	
         R10	   4591	    76.193	   17.5309	   4.57061	 8.0752e+06	   76.2494	   17.3486	   4.39324	8.78867e+06	   75.9434	   17.3883	   4.43188	7.70806e+06	   76.2212	   17.4398	   4.48193	8.40303e+06	   76.0964	   17.3685	   4.41256	 8.2265e+06	   76.0682	   17.4596	   4.50125	7.89124e+06	       N/A	       N/A	       N/A	        N/A	       N/A	       N/A	       N/A	        N/A	
         R10	   4592	   75.7238	   18.0797	   5.10458	 6.5023e+06	   75.7943	   17.7655	    4.7989	8.02961e+06	   75.3523	   17.7655	    4.7989	6.49273e+06	   75.3759	   18.0484	   5.07415	8.02254e+06	   75.7591	   17.9226	   4.95174	7.25723e+06	   75.5733	   17.7655	    4.7989	  7.233e+06	   75.3641	    17.907	   4.93653	7.23418e+06	   75.5499	   18.0641	   5.08936	7.25569e+06	
         R10	   4593	   76.1261	    18.081	   5.10581	8.08026e+06	   76.1769	   17.7655	    4.7989	9.15251e+06	   75.7943	   17.7655	    4.7989	8.09843e+06	   75.7238	   18.0797	   5.10458	7.19183e+06	   76.1515	   17.9233	   4.95235	8.57847e+06	   75.9856	   17.7655	    4.7989	8.60103e+06	   75.7591	   17.9226	   4.95174	7.64124e+06	    75.925	   18.0803	   5.10519	7.62309e+06	
         R10	   4594	      76.5	   18.0444	   5.07027	1.05167e+07	      76.5	   17.7655	    4.7989	1.04343e+07	   76.1769	   17.7655	    4.7989	9.26462e+06	   76.1261	    18.081	   5.10581	8.68345e+06	      76.5	    17.905	   4.93459	1.02772e+07	   76.3384	   17.7655	    4.7989	9.79714e+06	   76.1515	   17.9233	   4.95235	8.92677e+06	    76.313	   18.0627	   5.08804	9.49877e+06	
         R10	   4595	   76.1058	   18.3819	   5.39863	9.53158e+06	      76.5	   18.3819	   5.39863	1.12788e+07	      76.5	   18.0444	   5.07027	1.06577e+07	   76.1261	    18.081	   5.10581	8.82972e+06	   76.3029	   18.3819	   5.39863	1.02348e+07	      76.5	   18.2132	   5.23445	1.08114e+07	    76.313	   18.0627	   5.08804	9.68965e+06	   76.1159	   18.2314	   5.25222	8.99788e+06	
         R10	   4596	   75.6406	   18.3819	   5.39863	 8.2006e+06	   76.1058	   18.3819	   5.39863	9.59735e+06	   76.1261	    18.081	   5.10581	8.36179e+06	   75.7238	   18.0797	   5.10458	7.69653e+06	   75.8732	   18.3819	   5.39863	8.86346e+06	   76.1159	   18.2314	   5.25222	8.89284e+06	    75.925	   18.0803	   5.10519	8.02743e+06	   75.6822	   18.2308	    5.2516	7.85635e+06	
         R10	   4597	   75.1044	   18.3819	   5.39863	7.27585e+06	   75.6406	   18.3819	   5.39863	8.26535e+06	   75.7238	   18.0797	   5.10458	7.41649e+06	   75.3759	   18.0484	   5.07415	7.57118e+06	   75.3725	   18.3819	   5.39863	7.74723e+06	   75.6822	   18.2308	    5.2516	7.81567e+06	   75.5499	   18.0641	   5.08936	7.45378e+06	   75.2402	   18.2152	   5.23639	 7.3622e+06	
         R10	   4598	   72.9894	   17.7655	    4.7989	4.97373e+06	     72.25	   17.7655	    4.7989	8.68649e+06	     72.25	   18.3819	   5.39863	7.46326e+06	   73.0701	   18.3819	   5.39863	8.72407e+06	   72.6197	   17.7655	    4.7989	 5.8326e+06	     72.25	   18.0737	   5.09876	7.81813e+06	     72.66	   18.3819	   5.39863	7.90476e+06	   73.0297	   18.0737	   5.09876	6.65919e+06	
         R10	   4599	   73.6693	   17.7655	    4.7989	5.14932e+06	   72.9894	   17.7655	    4.7989	4.68446e+06	   73.0701	   18.3819	   5.39863	8.02787e+06	   73.8192	   18.3819	   5.39863	9.34627e+06	   73.3293	   17.7655	    4.7989	4.75063e+06	   73.0297	   18.0737	   5.09876	6.08438e+06	   73.4446	   18.3819	   5.39863	 8.6506e+06	   73.7442	   18.0737	   5.09876	6.75142e+06	
         R10	   4600	   74.2898	   17.7655	    4.7989	5.47028e+06	   73.6693	   17.7655	    4.7989	4.79606e+06	   73.8192	   18.3819	   5.39863	8.96213e+06	   74.4973	   18.3819	   5.39863	8.53047e+06	   73.9795	   17.7655	    4.7989	 5.1074e+06	   73.7442	   18.0737	   5.09876	6.35347e+06	   74.1582	   18.3819	   5.39863	8.73838e+06	   74.3935	   18.0737	   5.09876	6.70583e+06	
         R10	   4601	   74.8507	   17.7655	    4.7989	6.29738e+06	   74.2898	   17.7655	    4.7989	5.39283e+06	   74.4973	   18.3819	   5.39863	8.41211e+06	   75.1044	   18.3819	   5.39863	7.41553e+06	   74.5703	   17.7655	    4.7989	5.80085e+06	   74.3935	   18.0737	   5.09876	6.59838e+06	   74.8009	   18.3819	   5.39863	 7.9101e+06	   74.9776	   18.0737	   5.09876	6.77018e+06	
         R10	   4602	   75.3523	   17.7655	    4.7989	6.83141e+06	   74.8507	   17.7655	    4.7989	6.54361e+06	   75.1044	   18.3819	   5.39863	7.32103e+06	   75.3759	   18.0484	   5.07415	7.71846e+06	   75.1015	   17.7655	    4.7989	6.68346e+06	   74.9776	   18.0737	   5.09876	6.83481e+06	   75.2402	   18.2152	   5.23639	 7.5146e+06	   75.3641	    17.907	   4.93653	7.20321e+06	
         R10	   4603	   76.1004	   18.6904	   5.69873	8.38372e+06	   76.1058	   18.3819	   5.39863	9.09666e+06	   75.6406	   18.3819	   5.39863	8.33774e+06	   75.6354	   18.7348	   5.74193	6.17398e+06	   76.1031	   18.5361	   5.54868	8.67213e+06	   75.8732	   18.3819	   5.39863	8.67483e+06	    75.638	   18.5583	   5.57028	7.22542e+06	   75.8679	   18.7126	   5.72033	7.13704e+06	
         R10	   4604	      76.5	   18.6649	   5.67392	1.28501e+07	      76.5	   18.3819	   5.39863	1.07448e+07	   76.1058	   18.3819	   5.39863	9.21433e+06	   76.1004	   18.6904	   5.69873	8.32342e+06	      76.5	   18.5234	   5.53627	1.17256e+07	   76.3029	   18.3819	   5.39863	9.94314e+06	   76.1031	   18.5361	   5.54868	8.59009e+06	   76.3002	   18.6776	   5.68632	1.03443e+07	
         R10	   4605	   76.0624	        19	         6	5.32928e+06	      76.5	        19	         6	1.13326e+07	      76.5	   18.6649	   5.67392	1.47384e+07	   76.1004	   18.6904	   5.69873	9.72709e+06	   76.2812	        19	         6	 8.1426e+06	      76.5	   18.8324	   5.83696	 1.2991e+07	   76.3002	   18.6776	   5.68632	1.20411e+07	   76.0814	   18.8452	   5.84937	7.43958e+06	
         R10	   4606	   75.5682	        19	         6	4.91608e+06	   76.0624	        19	         6	6.90607e+06	   76.1004	   18.6904	   5.69873	9.99082e+06	   75.6354	   18.7348	   5.74193	 5.7888e+06	   75.8153	        19	         6	5.74194e+06	   76.0814	   18.8452	   5.84937	8.14765e+06	   75.8679	   18.7126	   5.72033	7.64887e+06	   75.6018	   18.8674	   5.87097	5.20779e+06	
         R10	   4607	   75.0176	        19	         6	4.59786e+06	   75.5682	        19	         6	5.99499e+06	   75.6354	   18.7348	   5.74193	5.09487e+06	   75.1318	   18.7097	   5.71755	6.24657e+06	   75.2929	        19	         6	5.08369e+06	   75.6018	   18.8674	   5.87097	5.40078e+06	   75.3836	   18.7222	   5.72974	5.56044e+06	   75.0747	   18.8549	   5.85877	5.36996e+06	
         R10	   4608	   73.0701	   18.3819	   5.39863	6.68039e+06	     72.25	   18.3819	   5.39863	8.10245e+06	     72.25	        19	         6	8.43549e+06	   73.0267	        19	         6	7.18629e+06	     72.66	   18.3819	   5.39863	6.99249e+06	     72.25	    18.691	   5.69931	8.15491e+06	   72.6383	        19	         6	7.65369e+06	   73.0484	    18.691	   5.69931	6.85398e+06	
         R10	   4609	   73.8192	   18.3819	   5.39863	5.39414e+06	   73.0701	   18.3819	   5.39863	5.87323e+06	   73.0267	        19	         6	7.11819e+06	   73.7468	        19	         6	6.50814e+06	   73.4446	   18.3819	   5.39863	5.44692e+06	   73.0484	    18.691	   5.69931	6.39758e+06	   73.3867	        19	         6	6.79078e+06	    73.783	    18.691	   5.69931	5.86207e+06	
         R10	   4610	   74.4973	   18.3819	   5.39863	5.84212e+06	   73.8192	   18.3819	   5.39863	5.10252e+06	   73.7468	        19	         6	6.70716e+06	   74.4105	        19	         6	5.52881e+06	   74.1582	   18.3819	   5.39863	5.46536e+06	    73.783	    18.691	   5.69931	5.80046e+06	   74.0786	        19	         6	6.07414e+06	   74.4539	    18.691	   5.69931	5.67854e+06	
         R10	   4611	   75.1318	   18.7097	   5.71755	5.69187e+06	   75.6354	   18.7348	   5.74193	5.36376e+06	   75.6406	   18.3819	   5.39863	8.36751e+06	   75.1044	   18.3819	   5.39863	7.31214e+06	   75.3836	   18.7222	   5.72974	5.33436e+06	    75.638	   18.5583	   5.57028	6.86423e+06	   75.3725	   18.3819	   5.39863	7.81441e+06	   75.1181	   18.5458	   5.55809	6.41073e+06	
         R10	   4612	   74.4105	        19	         6	5.47425e+06	   75.0176	        19	         6	4.82365e+06	   75.1318	   18.7097	   5.71755	5.65723e+06	   74.4973	   18.3819	   5.39863	5.55105e+06	    74.714	        19	         6	5.13371e+06	   75.0747	   18.8549	   5.85877	5.21642e+06	   74.8146	   18.5458	   5.55809	5.59359e+06	   74.4539	    18.691	   5.69931	5.49201e+06	
         R10	   4613	   75.1318	   18.7097	   5.71755	5.11423e+06	   75.1044	   18.3819	   5.39863	7.43303e+06	   74.4973	   18.3819	   5.39863	6.45616e+06	   75.1181	   18.5458	   5.55809	6.23109e+06	   74.8009	   18.3819	   5.39863	 6.9212e+06	   74.8146	   18.5458	   5.55809	5.78145e+06	       N/A	       N/A	       N/A	        N/A	       N/A	       N/A	       N/A	        N/A	
         R10	   4614	   77.0297	   17.3281	   4.37325	 6.4588e+06	   77.0353	   17.1492	   4.19918	7.15973e+06	   76.7605	   17.1492	   4.19918	7.26275e+06	   76.7765	    17.343	   4.38782	6.66617e+06	   77.0325	   17.2386	   4.28621	 6.8064e+06	   76.8979	   17.1492	   4.19918	7.17016e+06	   76.7685	   17.2461	    4.2935	6.94298e+06	   76.9031	   17.3355	   4.38053	6.56211e+06	
         R10	   4615	   77.3455	   17.3709	   4.41498	5.98121e+06	   77.3245	   17.1492	   4.19918	 6.7325e+06	   77.0353	   17.1492	   4.19918	7.08078e+06	   77.0297	   17.3281	   4.37325	5.84264e+06	    77.335	   17.2601	   4.30708	6.34951e+06	   77.1799	   17.1492	   4.19918	6.89733e+06	   77.0325	   17.2386	   4.28621	 6.4555e+06	   77.1876	   17.3495	   4.39411	5.90925e+06	
         R10	   4616	   77.6103	   17.4222	   4.46488	6.10118e+06	   77.6281	   17.1492	   4.19918	6.35284e+06	   77.3245	   17.1492	   4.19918	6.67019e+06	   77.3455	   17.3709	   4.41498	5.62483e+06	   77.6192	   17.2857	   4.33203	6.22079e+06	   77.4763	   17.1492	   4.19918	 6.5033e+06	    77.335	   17.2601	   4.30708	6.11402e+06	   77.4779	   17.3966	   4.43993	5.84651e+06	
         R10	   4617	   77.9312	   17.4421	   4.48424	5.69194e+06	    77.946	   17.1492	   4.19918	6.23601e+06	   77.6281	   17.1492	   4.19918	6.40267e+06	   77.6103	   17.4222	   4.46488	5.52278e+06	   77.9386	   17.2956	   4.34171	5.95979e+06	    77.787	   17.1492	   4.19918	6.31226e+06	   77.6192	   17.2857	   4.33203	5.94466e+06	   77.7708	   17.4322	   4.47456	5.59824e+06	
         R10	   4618	   78.2739	   17.4446	    4.4866	5.37019e+06	   78.2783	   17.1492	   4.19918	6.02032e+06	    77.946	   17.1492	   4.19918	6.23673e+06	   77.9312	   17.4421	   4.48424	5.44167e+06	   78.2761	   17.2969	   4.34289	5.69187e+06	   78.1122	   17.1492	   4.19918	6.12204e+06	   77.9386	   17.2956	   4.34171	5.81523e+06	   78.1026	   17.4433	   4.48542	 5.3898e+06	
         R10	   4619	    78.625	   17.4281	   4.47054	5.62506e+06	    78.625	   17.1492	   4.19918	5.43415e+06	   78.2783	   17.1492	   4.19918	5.97778e+06	   78.2739	   17.4446	    4.4866	5.48208e+06	    78.625	   17.2886	   4.33486	5.49407e+06	   78.4517	   17.1492	   4.19918	5.68925e+06	   78.2761	   17.2969	   4.34289	5.70042e+06	   78.4495	   17.4363	   4.47857	5.51207e+06	
         R10	   4620	   78.2372	   17.7655	    4.7989	7.58248e+06	    78.625	   17.7655	    4.7989	 7.4373e+06	    78.625	   17.4281	   4.47054	5.29535e+06	   78.2739	   17.4446	    4.4866	5.37875e+06	   78.4311	   17.7655	    4.7989	7.50915e+06	    78.625	   17.5968	   4.63472	6.28413e+06	   78.4495	   17.4363	   4.47857	5.30398e+06	   78.2556	    17.605	   4.64275	 6.3607e+06	
         R10	   4621	   77.8628	   17.7655	    4.7989	7.30212e+06	   78.2372	   17.7655	    4.7989	7.55461e+06	   78.2739	   17.4446	    4.4866	5.31859e+06	   77.9312	   17.4421	   4.48424	 5.3808e+06	     78.05	   17.7655	    4.7989	7.42578e+06	   78.2556	    17.605	   4.64275	6.33257e+06	   78.1026	   17.4433	   4.48542	5.32778e+06	    77.897	   17.6038	   4.64157	6.25758e+06	
         R10	   4622	   77.5019	   17.7655	    4.7989	6.80702e+06	   77.8628	   17.7655	    4.7989	7.23237e+06	   77.9312	   17.4421	   4.48424	5.67902e+06	   77.6103	   17.4222	   4.46488	5.72175e+06	   77.6824	   17.7655	    4.7989	7.01218e+06	    77.897	   17.6038	   4.64157	6.37325e+06	   77.7708	   17.4322	   4.47456	5.69212e+06	   77.5561	   17.5939	   4.63189	6.22958e+06	
         R10	   4623	   76.8148	   17.5511	   4.59022	7.19794e+06	   76.8205	   17.7655	    4.7989	7.56656e+06	   77.1545	   17.7655	    4.7989	6.87813e+06	   77.1699	   17.5385	   4.57802	6.78564e+06	   76.8177	   17.6583	   4.69456	7.34649e+06	   76.9875	   17.7655	    4.7989	7.20465e+06	   77.1622	    17.652	   4.68846	6.82514e+06	   76.9923	   17.5448	   4.58412	6.95737e+06	
         R10	   4624	      76.5	   17.5309	   4.57061	 8.9439e+06	      76.5	   17.7655	    4.7989	  8.885e+06	   76.8205	   17.7655	    4.7989	7.45727e+06	   76.8148	   17.5511	   4.59022	6.76854e+06	      76.5	   17.6482	   4.68475	8.81532e+06	   76.6603	   17.7655	    4.7989	8.10913e+06	   76.8177	   17.6583	   4.69456	 7.0786e+06	   76.6574	    17.541	   4.58041	7.81714e+06	
         R10	   4625	   76.7765	    17.343	   4.38782	6.95831e+06	   76.7605	   17.1492	   4.19918	 7.3993e+06	      76.5	   17.1492	   4.19918	6.96232e+06	      76.5	   17.3254	    4.3707	9.37713e+06	   76.7685	   17.2461	    4.2935	7.16609e+06	   76.6302	   17.1492	   4.19918	7.08355e+06	      76.5	   17.2373	   4.28494	8.00757e+06	   76.6383	   17.3342	   4.37926	   8.15e+06	
         R10	   4626	   76.7765	    17.343	   4.38782	7.10284e+06	      76.5	   17.3254	    4.3707	 8.5562e+06	      76.5	   17.5309	   4.57061	9.14518e+06	   76.8148	   17.5511	   4.59022	6.50228e+06	   76.6383	   17.3342	   4.37926	7.77003e+06	      76.5	   17.4282	   4.47065	8.79329e+06	   76.6574	    17.541	   4.58041	 7.7945e+06	   76.7957	    17.447	   4.48902	 6.7539e+06	
         R10	   4627	   77.0297	   17.3281	   4.37325	6.36902e+06	   76.7765	    17.343	   4.38782	6.95903e+06	   76.8148	   17.5511	   4.59022	6.70638e+06	   77.1699	   17.5385	   4.57802	6.31594e+06	   76.9031	   17.3355	   4.38053	6.66064e+06	   76.7957	    17.447	   4.48902	6.81133e+06	   76.9923	   17.5448	   4.58412	6.47676e+06	   77.0998	   17.4333	   4.47563	6.24879e+06	
         R10	   4628	   77.5019	   17.7655	    4.7989	6.73558e+06	   77.6103	   17.4222	   4.46488	6.53258e+06	   77.3455	   17.3709	   4.41498	5.71247e+06	   77.1699	   17.5385	   4.57802	7.02003e+06	   77.5561	   17.5939	   4.63189	6.58396e+06	   77.4779	   17.3966	   4.43993	6.11115e+06	   77.2577	   17.4547	    4.4965	6.34211e+06	   77.3359	    17.652	   4.68846	 6.8281e+06	
         R10	   4629	   77.1699	   17.5385	   4.57802	6.90626e+06	   77.1545	   17.7655	    4.7989	6.87588e+06	   77.5019	   17.7655	    4.7989	 6.6002e+06	   77.1622	    17.652	   4.68846	6.88182e+06	   77.3282	   17.7655	    4.7989	6.72153e+06	   77.3359	    17.652	   4.68846	6.71413e+06	       N/A	       N/A	       N/A	        N/A	       N/A	       N/A	       N/A	        N/A	
         R10	   4630	   77.3455	   17.3709	   4.41498	6.29454e+06	   77.0297	   17.3281	   4.37325	5.98906e+06	   77.1699	   17.5385	   4.57802	6.23491e+06	   77.1876	   17.3495	   4.39411	6.13366e+06	   77.0998	   17.4333	   4.47563	6.07679e+06	   77.2577	   17.4547	    4.4965	 6.2504e+06	       N/A	       N/A	       N/A	        N/A	       N/A	       N/A	       N/A	        N/A	
         R10	   4631	   77.1332	   18.0433	   5.06913	6.51693e+06	   77.1545	   17.7655	    4.7989	7.42457e+06	   76.8205	   17.7655	    4.7989	8.05037e+06	   76.7895	   18.0411	   5.06703	7.18027e+06	   77.1438	   17.9044	   4.93402	 6.9572e+06	   76.9875	   17.7655	    4.7989	7.70194e+06	    76.805	   17.9033	   4.93297	7.57349e+06	   76.9613	   18.0422	   5.06808	6.83364e+06	
         R10	   4632	   77.4414	   18.0813	   5.10609	6.22529e+06	   77.5019	   17.7655	    4.7989	6.66307e+06	   77.1545	   17.7655	    4.7989	7.37382e+06	   77.1332	   18.0433	   5.06913	5.69153e+06	   77.4717	   17.9234	    4.9525	 6.4365e+06	   77.3282	   17.7655	    4.7989	7.00258e+06	   77.1438	   17.9044	   4.93402	 6.5011e+06	   77.2873	   18.0623	   5.08761	5.93142e+06	
         R10	   4633	   77.8144	   18.0803	   5.10517	5.89282e+06	   77.8628	   17.7655	    4.7989	6.15635e+06	   77.5019	   17.7655	    4.7989	6.63616e+06	   77.4414	   18.0813	   5.10609	5.38932e+06	   77.8386	   17.9229	   4.95204	6.01547e+06	   77.6824	   17.7655	    4.7989	6.38391e+06	   77.4717	   17.9234	    4.9525	5.95228e+06	   77.6279	   18.0808	   5.10563	5.58193e+06	
         R10	   4634	   78.2154	   18.0806	   5.10545	5.61395e+06	   78.2372	   17.7655	    4.7989	5.79426e+06	   77.8628	   17.7655	    4.7989	6.13425e+06	   77.8144	   18.0803	   5.10517	5.30142e+06	   78.2263	   17.9231	   4.95218	5.68928e+06	     78.05	   17.7655	    4.7989	5.95637e+06	   77.8386	   17.9229	   4.95204	5.64064e+06	   78.0149	   18.0805	   5.10531	5.35209e+06	
         R10	   4635	    78.625	   18.0444	   5.07027	5.43436e+06	    78.625	   17.7655	    4.7989	5.15987e+06	   78.2372	   17.7655	    4.7989	5.76098e+06	   78.2154	   18.0806	   5.10545	5.50325e+06	    78.625	    17.905	   4.93459	5.21833e+06	   78.4311	   17.7655	    4.7989	5.44248e+06	   78.2263	   17.9231	   4.95218	5.54657e+06	   78.4202	   18.0625	   5.08786	5.27554e+06	
         R10	   4636	   78.1596	   18.3819	   5.39863	  8.174e+06	    78.625	   18.3819	   5.39863	8.59658e+06	    78.625	   18.0444	   5.07027	5.34835e+06	   78.2154	   18.0806	   5.10545	5.75614e+06	   78.3923	   18.3819	   5.39863	8.38473e+06	    78.625	   18.2132	   5.23445	6.84949e+06	   78.4202	   18.0625	   5.08786	 5.3714e+06	   78.1875	   18.2313	   5.25204	6.79887e+06	
         R10	   4637	   77.7144	   18.3819	   5.39863	7.80973e+06	   78.1596	   18.3819	   5.39863	8.10224e+06	   78.2154	   18.0806	   5.10545	5.99386e+06	   77.8144	   18.0803	   5.10517	5.24065e+06	    77.937	   18.3819	   5.39863	7.95487e+06	   78.1875	   18.2313	   5.25204	6.96822e+06	   78.0149	   18.0805	   5.10531	5.51956e+06	   77.7644	   18.2311	    5.2519	6.39427e+06	
         R10	   4638	   77.2894	   18.3819	   5.39863	7.57752e+06	   77.7144	   18.3819	   5.39863	7.71077e+06	   77.8144	   18.0803	   5.10517	6.05194e+06	   77.4414	   18.0813	   5.10609	5.36718e+06	   77.5019	   18.3819	   5.39863	7.63619e+06	   77.7644	   18.2311	    5.2519	6.81002e+06	   77.6279	   18.0808	   5.10563	5.67033e+06	   77.3654	   18.2316	   5.25236	6.38515e+06	
         R10	   4639	   76.8846	   18.3819	   5.39863	8.23411e+06	   77.2894	   18.3819	   5.39863	 7.5453e+06	   77.4414	   18.0813	   5.10609	6.72177e+06	   77.1332	   18.0433	   5.06913	5.32727e+06	    77.087	   18.3819	   5.39863	7.86512e+06	   77.3654	   18.2316	   5.25236	7.06957e+06	   77.2873	   18.0623	   5.08761	6.01126e+06	   77.0089	   18.2126	   5.23388	6.68384e+06	
         R10	   4640	   76.7895	   18.0411	   5.06703	7.80395e+06	   76.8205	   17.7655	    4.7989	8.22431e+06	      76.5	   17.7655	    4.7989	8.29195e+06	      76.5	   18.0444	   5.07027	1.00834e+07	    76.805	   17.9033	   4.93297	7.94888e+06	   76.6603	   17.7655	    4.7989	8.22554e+06	      76.5	    17.905	   4.93459	9.12222e+06	   76.6447	   18.0428	   5.06865	8.91169e+06	
         R10	   4641	   76.7895	   18.0411	   5.06703	7.90552e+06	      76.5	   18.0444	   5.07027	8.86003e+06	      76.5	   18.3819	   5.39863	9.36829e+06	   76.8846	   18.3819	   5.39863	7.92482e+06	   76.6447	   18.0428	   5.06865	8.30183e+06	      76.5	   18.2132	   5.23445	 9.0591e+06	   76.6923	   18.3819	   5.39863	8.56901e+06	    76.837	   18.2115	   5.23283	 7.6828e+06	
         R10	   4642	   76.7895	   18.0411	   5.06703	7.67645e+06	   76.8846	   18.3819	   5.39863	7.53978e+06	   77.1332	   18.0433	   5.06913	6.77627e+06	    76.837	   18.2115	   5.23283	7.53007e+06	   77.0089	   18.2126	   5.23388	7.06385e+06	   76.9613	   18.0422	   5.06808	7.22319e+06	       N/A	       N/A	       N/A	        N/A	       N/A	       N/A	       N/A	        N/A	
         R10	   4643	   77.2866	   18.6626	   5.67168	  5.412e+06	   77.2894	   18.3819	   5.39863	9.10052e+06	   76.8846	   18.3819	   5.39863	9.03372e+06	   76.8561	   18.6611	   5.67031	8.04439e+06	    77.288	   18.5222	   5.53516	7.06755e+06	    77.087	   18.3819	   5.39863	9.05164e+06	   76.8704	   18.5215	   5.53447	8.44589e+06	   77.0714	   18.6619	     5.671	6.19765e+06	
         R10	   4644	   77.6703	   18.7001	   5.70822	5.17039e+06	   77.7144	   18.3819	   5.39863	7.23042e+06	   77.2894	   18.3819	   5.39863	8.93022e+06	   77.2866	   18.6626	   5.67168	4.29263e+06	   77.6923	    18.541	   5.55342	6.10547e+06	   77.5019	   18.3819	   5.39863	8.04302e+06	    77.288	   18.5222	   5.53516	6.56835e+06	   77.4785	   18.6813	   5.68995	4.67106e+06	
         R10	   4645	   78.1345	   18.6985	   5.70663	4.97408e+06	   78.1596	   18.3819	   5.39863	6.24447e+06	   77.7144	   18.3819	   5.39863	7.30047e+06	   77.6703	   18.7001	   5.70822	 4.4836e+06	   78.1471	   18.5402	   5.55263	5.57024e+06	    77.937	   18.3819	   5.39863	6.74849e+06	   77.6923	    18.541	   5.55342	5.84163e+06	   77.9024	   18.6993	   5.70742	4.71511e+06	
         R10	   4646	    78.625	   18.6762	   5.68499	5.35379e+06	    78.625	   18.3819	   5.39863	5.50081e+06	   78.1596	   18.3819	   5.39863	 6.2453e+06	   78.1345	   18.6985	   5.70663	4.38326e+06	    78.625	   18.5291	   5.54181	5.41682e+06	   78.3923	   18.3819	   5.39863	5.85738e+06	   78.1471	   18.5402	   5.55263	5.28817e+06	   78.3798	   18.6874	   5.69581	4.85795e+06	
         R10	   4647	   78.0628	        19	         6	6.31743e+06	    78.625	        19	         6	 4.4312e+06	    78.625	   18.6762	   5.68499	5.08597e+06	   78.1345	   18.6985	   5.70663	4.43109e+06	   78.3439	        19	         6	5.28085e+06	    78.625	   18.8381	    5.8425	4.56318e+06	   78.3798	   18.6874	   5.69581	4.73949e+06	   78.0987	   18.8492	   5.85332	5.36766e+06	
         R10	   4648	   77.5212	        19	         6	6.46564e+06	   78.0628	        19	         6	4.21674e+06	   78.1345	   18.6985	   5.70663	4.85186e+06	   77.6703	   18.7001	   5.70822	5.11749e+06	    77.792	        19	         6	5.30444e+06	   78.0987	   18.8492	   5.85332	4.42038e+06	   77.9024	   18.6993	   5.70742	 4.9377e+06	   77.5958	   18.8501	   5.85411	5.78388e+06	
         R10	   4649	   77.0003	        19	         6	8.12881e+06	   77.5212	        19	         6	 4.5339e+06	   77.6703	   18.7001	   5.70822	 5.6237e+06	   77.2866	   18.6626	   5.67168	6.19706e+06	   77.2608	        19	         6	  6.261e+06	   77.5958	   18.8501	   5.85411	4.83939e+06	   77.4785	   18.6813	   5.68995	5.80915e+06	   77.1435	   18.8313	   5.83584	7.07188e+06	
         R10	   4650	   76.8561	   18.6611	   5.67031	8.45496e+06	   76.8846	   18.3819	   5.39863	8.97939e+06	      76.5	   18.3819	   5.39863	1.10379e+07	      76.5	   18.6649	   5.67392	  1.055e+07	   76.8704	   18.5215	   5.53447	 8.6522e+06	   76.6923	   18.3819	   5.39863	9.89672e+06	      76.5	   18.5234	   5.53627	1.06113e+07	   76.6781	    18.663	   5.67211	 9.4226e+06	
         R10	   4651	   76.8561	   18.6611	   5.67031	 7.9692e+06	      76.5	   18.6649	   5.67392	1.41728e+07	      76.5	        19	         6	1.10033e+07	   77.0003	        19	         6	 6.5369e+06	   76.6781	    18.663	   5.67211	1.10029e+07	      76.5	   18.8324	   5.83696	1.23132e+07	   76.7502	        19	         6	8.65946e+06	   76.9282	   18.8306	   5.83515	7.08249e+06	
         R10	   4652	   76.8561	   18.6611	   5.67031	8.29754e+06	   77.0003	        19	         6	7.27997e+06	   77.2866	   18.6626	   5.67168	6.89991e+06	   76.9282	   18.8306	   5.83515	7.51199e+06	   77.1435	   18.8313	   5.83584	6.88952e+06	   77.0714	   18.6619	     5.671	7.27287e+06	       N/A	       N/A	       N/A	        N/A	       N/A	       N/A	       N/A	        N/A	
         R10	   4653	     75.65	      9.35	       2.4	7.39771e+06	      76.5	      9.35	       2.4	8.75896e+06	      76.5	       8.5	       2.4	8.34813e+06	     75.65	       8.5	       2.4	8.11013e+06	    76.075	      9.35	       2.4	8.05089e+06	      76.5	     8.925	       2.4	8.54384e+06	    76.075	       8.5	       2.4	8.21947e+06	     75.65	     8.925	       2.4	7.73988e+06	
         R10	   4654	      74.8	      9.35	       2.4	6.63051e+06	     75.65	      9.35	       2.4	7.17289e+06	     75.65	       8.5	       2.4	7.85141e+06	      74.8	       8.5	       2.4	7.02489e+06	    75.225	      9.35	       2.4	6.89146e+06	     75.65	     8.925	       2.4	7.49925e+06	    75.225	       8.5	       2.4	7.43362e+06	      74.8	     8.925	       2.4	6.81198e+06	
         R10	   4655	     73.95	      9.35	       2.4	 6.6907e+06	      74.8	      9.35	       2.4	6.77027e+06	      74.8	       8.5	       2.4	7.18072e+06	     73.95	       8.5	       2.4	 7.1835e+06	    74.375	      9.35	       2.4	6.72917e+06	      74.8	     8.925	       2.4	6.96044e+06	    74.375	       8.5	       2.4	7.18178e+06	     73.95	     8.925	       2.4	6.91851e+06	
         R10	   4656	      73.1	      9.35	       2.4	7.04994e+06	     73.95	      9.35	       2.4	6.54816e+06	     73.95	       8.5	       2.4	7.03574e+06	      73.1	       8.5	       2.4	 7.6098e+06	    73.525	      9.35	       2.4	6.79079e+06	     73.95	     8.925	       2.4	6.77244e+06	    73.525	       8.5	       2.4	7.31683e+06	      73.1	     8.925	       2.4	7.31085e+06	
         R10	   4657	     72.25	      9.35	       2.4	8.42963e+06	      73.1	      9.35	       2.4	7.24692e+06	      73.1	       8.5	       2.4	7.89446e+06	     72.25	       8.5	       2.4	8.38751e+06	    72.675	      9.35	       2.4	7.80163e+06	      73.1	     8.925	       2.4	 7.5501e+06	    72.675	       8.5	       2.4	8.12845e+06	     72.25	     8.925	       2.4	8.39779e+06	
         R10	   4658	     75.65	      10.2	       2.4	7.51577e+06	      76.5	      10.2	       2.4	8.90947e+06	      76.5	      9.35	       2.4	8.77898e+06	     75.65	      9.35	       2.4	7.89348e+06	    76.075	      10.2	       2.4	 8.1847e+06	      76.5	     9.775	       2.4	8.82012e+06	    76.075	      9.35	       2.4	8.31797e+06	     75.65	     9.775	       2.4	7.69462e+06	
         R10	   4659	      74.8	      10.2	       2.4	6.95245e+06	     75.65	      10.2	       2.4	7.49023e+06	     75.65	      9.35	       2.4	7.81081e+06	      74.8	      9.35	       2.4	7.22906e+06	    75.225	      10.2	       2.4	7.21755e+06	     75.65	     9.775	       2.4	7.64088e+06	    75.225	      9.35	       2.4	7.51264e+06	      74.8	     9.775	       2.4	7.08516e+06	
         R10	   4660	     73.95	      10.2	       2.4	6.82476e+06	      74.8	      10.2	       2.4	6.96018e+06	      74.8	      9.35	       2.4	7.26469e+06	     73.95	      9.35	       2.4	7.20342e+06	    74.375	      10.2	       2.4	6.89187e+06	      74.8	     9.775	       2.4	7.10721e+06	    74.375	      9.35	       2.4	7.23283e+06	     73.95	     9.775	       2.4	7.00597e+06	
         R10	   4661	      73.1	      10.2	       2.4	7.24022e+06	     73.95	      10.2	       2.4	6.82123e+06	     73.95	      9.35	       2.4	7.16241e+06	      73.1	      9.35	       2.4	7.64091e+06	    73.525	      10.2	       2.4	7.02723e+06	     73.95	     9.775	       2.4	6.98301e+06	    73.525	      9.35	       2.4	7.39358e+06	      73.1	     9.775	       2.4	7.42514e+06	
         R10	   4662	     72.25	      10.2	       2.4	8.40948e+06	      73.1	      10.2	       2.4	7.31469e+06	      73.1	      9.35	       2.4	7.71488e+06	     72.25	      9.35	       2.4	8.38391e+06	    72.675	      10.2	       2.4	7.82068e+06	      73.1	     9.775	       2.4	7.49688e+06	    72.675	      9.35	       2.4	8.03924e+06	     72.25	     9.775	       2.4	8.38017e+06	
         R10	   4663	    75.871	     11.05	       2.4	7.89164e+06	      76.5	     11.05	       2.4	8.86028e+06	      76.5	      10.2	       2.4	8.93727e+06	     75.65	      10.2	       2.4	7.73194e+06	   76.1855	     11.05	       2.4	 8.3526e+06	      76.5	    10.625	       2.4	8.87418e+06	    76.075	      10.2	       2.4	8.32044e+06	   75.7605	    10.625	       2.4	7.80982e+06	
         R10	   4664	   75.2102	     11.05	       2.4	7.15101e+06	    75.871	     11.05	       2.4	7.73719e+06	     75.65	      10.2	       2.4	7.70923e+06	      74.8	      10.2	       2.4	7.00093e+06	   75.5406	     11.05	       2.4	7.43999e+06	   75.7605	    10.625	       2.4	7.72191e+06	    75.225	      10.2	       2.4	7.33906e+06	   75.0051	    10.625	       2.4	7.07409e+06	
         R10	   4665	   74.5178	     11.05	       2.4	6.88026e+06	   75.2102	     11.05	       2.4	7.19586e+06	      74.8	      10.2	       2.4	7.00809e+06	     73.95	      10.2	       2.4	6.91606e+06	    74.864	     11.05	       2.4	7.03314e+06	   75.0051	    10.625	       2.4	7.10019e+06	    74.375	      10.2	       2.4	6.95452e+06	   74.2339	    10.625	       2.4	6.89333e+06	
         R10	   4666	   73.7936	     11.05	       2.4	6.88845e+06	   74.5178	     11.05	       2.4	 6.8539e+06	     73.95	      10.2	       2.4	6.90716e+06	      73.1	      10.2	       2.4	7.46601e+06	   74.1557	     11.05	       2.4	6.86818e+06	   74.2339	    10.625	       2.4	6.87639e+06	    73.525	      10.2	       2.4	7.16775e+06	   73.4468	    10.625	       2.4	7.15491e+06	
         R10	   4667	   73.0377	     11.05	       2.4	7.42089e+06	   73.7936	     11.05	       2.4	6.96543e+06	      73.1	      10.2	       2.4	 7.3393e+06	     72.25	      10.2	       2.4	8.20952e+06	   73.4156	     11.05	       2.4	7.18206e+06	   73.4468	    10.625	       2.4	7.12862e+06	    72.675	      10.2	       2.4	7.76369e+06	   72.6438	    10.625	       2.4	7.79422e+06	
         R10	   4668	   73.0377	     11.05	       2.4	7.23509e+06	     72.25	      10.2	       2.4	8.67123e+06	     72.25	     11.05	       2.4	8.45265e+06	   72.6438	    10.625	       2.4	7.94705e+06	     72.25	    10.625	       2.4	8.54328e+06	   72.6438	     11.05	       2.4	 7.8085e+06	       N/A	       N/A	       N/A	        N/A	       N/A	       N/A	       N/A	        N/A	
         R10	   4669	   77.5625	      9.35	       2.4	7.20851e+06	    78.625	      9.35	       2.4	6.35251e+06	    78.625	       8.5	       2.4	7.51688e+06	   77.5625	       8.5	       2.4	7.92986e+06	   78.0938	      9.35	       2.4	6.75072e+06	    78.625	     8.925	       2.4	6.87463e+06	   78.0938	       8.5	       2.4	7.70864e+06	   77.5625	     8.925	       2.4	7.52462e+06	
         R10	   4670	      76.5	      9.35	       2.4	8.70548e+06	   77.5625	      9.35	       2.4	7.30431e+06	   77.5625	       8.5	       2.4	8.15395e+06	      76.5	       8.5	       2.4	8.32014e+06	   77.0313	      9.35	       2.4	7.96271e+06	   77.5625	     8.925	       2.4	7.69637e+06	   77.0313	       8.5	       2.4	8.22831e+06	      76.5	     8.925	       2.4	8.51027e+06	
         R10	   4671	   77.5625	      10.2	       2.4	7.35559e+06	    78.625	      10.2	       2.4	6.86671e+06	    78.625	      9.35	       2.4	7.44293e+06	   77.5625	      9.35	       2.4	7.86377e+06	   78.0938	      10.2	       2.4	7.10479e+06	    78.625	     9.775	       2.4	7.13242e+06	   78.0938	      9.35	       2.4	7.64814e+06	   77.5625	     9.775	       2.4	7.59534e+06	
         R10	   4672	      76.5	      10.2	       2.4	8.78086e+06	   77.5625	      10.2	       2.4	7.38754e+06	   77.5625	      9.35	       2.4	7.93701e+06	      76.5	      9.35	       2.4	8.68497e+06	   77.0313	      10.2	       2.4	8.04217e+06	   77.5625	     9.775	       2.4	7.63949e+06	   77.0313	      9.35	       2.4	8.29217e+06	      76.5	     9.775	       2.4	8.71581e+06	
         R10	   4673	   77.9681	     11.05	       2.4	7.07746e+06	    78.625	     11.05	       2.4	6.96335e+06	    78.625	      10.2	       2.4	7.12944e+06	   77.5625	      10.2	       2.4	7.60505e+06	   78.2966	     11.05	       2.4	7.01835e+06	    78.625	    10.625	       2.4	7.04521e+06	   78.0938	      10.2	       2.4	 7.3463e+06	   77.7653	    10.625	       2.4	7.32758e+06	
         R10	   4674	      76.5	      10.2	       2.4	8.86035e+06	      76.5	     11.05	       2.4	8.69585e+06	   77.2598	     11.05	       2.4	7.68174e+06	   77.5625	      10.2	       2.4	7.58875e+06	      76.5	    10.625	       2.4	 8.7608e+06	   76.8799	     11.05	       2.4	8.15704e+06	   77.4111	    10.625	       2.4	7.63213e+06	   77.0313	      10.2	       2.4	8.20727e+06	
         R10	   4675	   77.2598	     11.05	       2.4	7.69269e+06	   77.9681	     11.05	       2.4	7.20588e+06	   77.5625	      10.2	       2.4	 7.3825e+06	   77.6139	     11.05	       2.4	7.44055e+06	   77.7653	    10.625	       2.4	7.27201e+06	   77.4111	    10.625	       2.4	7.53412e+06	       N/A	       N/A	       N/A	        N/A	       N/A	       N/A	       N/A	        N/A	
         R10	   4676	   76.1393	   11.5062	       2.4	7.87792e+06	   76.1109	      11.9	       2.4	7.97604e+06	      76.5	      11.9	       2.4	8.46149e+06	      76.5	   11.5844	       2.4	9.97659e+06	   76.1251	   11.7031	       2.4	7.90002e+06	   76.3054	      11.9	       2.4	8.19837e+06	      76.5	   11.7422	       2.4	9.20555e+06	   76.3197	   11.5453	       2.4	8.91766e+06	
         R10	   4677	   73.0377	     11.05	       2.4	7.42784e+06	     72.25	     11.05	       2.4	8.26551e+06	     72.25	      11.9	       2.4	8.65129e+06	   73.0751	      11.9	       2.4	7.08324e+06	   72.6438	     11.05	       2.4	7.83767e+06	     72.25	    11.475	       2.4	8.44176e+06	   72.6626	      11.9	       2.4	7.79837e+06	   73.0564	    11.475	       2.4	7.24733e+06	
         R10	   4678	   73.7936	     11.05	       2.4	6.77939e+06	   73.0377	     11.05	       2.4	7.36177e+06	   73.0751	      11.9	       2.4	7.08119e+06	   73.8276	      11.9	       2.4	6.65423e+06	   73.4156	     11.05	       2.4	7.04756e+06	   73.0564	    11.475	       2.4	7.21494e+06	   73.4514	      11.9	       2.4	6.84822e+06	   73.8106	    11.475	       2.4	6.71159e+06	
         R10	   4679	   74.5178	     11.05	       2.4	6.80426e+06	   73.7936	     11.05	       2.4	6.84294e+06	   73.8276	      11.9	       2.4	6.65533e+06	   74.5074	      11.9	       2.4	6.61654e+06	   74.1557	     11.05	       2.4	6.80414e+06	   73.8106	    11.475	       2.4	6.74607e+06	   74.1675	      11.9	       2.4	6.62129e+06	   74.5126	    11.475	       2.4	6.70671e+06	
         R10	   4680	   75.2102	     11.05	       2.4	7.19011e+06	   74.5178	     11.05	       2.4	6.80505e+06	   74.5074	      11.9	       2.4	6.63373e+06	   75.1146	      11.9	       2.4	6.94161e+06	    74.864	     11.05	       2.4	6.98278e+06	   74.5126	    11.475	       2.4	6.71553e+06	    74.811	      11.9	       2.4	6.77684e+06	   75.1624	    11.475	       2.4	7.06252e+06	
         R10	   4681	    75.871	     11.05	       2.4	8.02661e+06	   75.2102	     11.05	       2.4	 7.2053e+06	   75.1146	      11.9	       2.4	6.94147e+06	   75.6491	      11.9	       2.4	7.39027e+06	   75.5406	     11.05	       2.4	7.59946e+06	   75.1624	    11.475	       2.4	 7.0703e+06	   75.3818	      11.9	       2.4	7.15952e+06	     75.76	    11.475	       2.4	 7.7003e+06	
         R10	   4682	   76.1393	   11.5062	       2.4	7.61596e+06	      76.5	   11.5844	       2.4	9.80674e+06	      76.5	     11.05	       2.4	8.90978e+06	    75.871	     11.05	       2.4	8.07602e+06	   76.3197	   11.5453	       2.4	8.69189e+06	      76.5	   11.3172	       2.4	9.32427e+06	   76.1855	     11.05	       2.4	8.47386e+06	   76.0051	   11.2781	       2.4	7.83679e+06	
         R10	   4683	   76.1109	      11.9	       2.4	7.80412e+06	   76.1393	   11.5062	       2.4	9.10398e+06	    75.871	     11.05	       2.4	7.71879e+06	   75.6491	      11.9	       2.4	7.44461e+06	   76.1251	   11.7031	       2.4	8.45396e+06	   76.0051	   11.2781	       2.4	8.40707e+06	     75.76	    11.475	       2.4	7.56872e+06	     75.88	      11.9	       2.4	7.61942e+06	
         R10	   4684	   76.1037	   12.3234	       2.4	8.37753e+06	   76.1109	      11.9	       2.4	8.11381e+06	   75.6491	      11.9	       2.4	7.31445e+06	   75.6487	   12.3873	       2.4	 7.9306e+06	   76.1073	   12.1117	       2.4	 8.2244e+06	     75.88	      11.9	       2.4	7.69576e+06	   75.6489	   12.1437	       2.4	7.57245e+06	   75.8762	   12.3554	       2.4	8.15193e+06	
         R10	   4685	      76.5	   12.2642	       2.4	9.85507e+06	      76.5	      11.9	       2.4	9.19863e+06	   76.1109	      11.9	       2.4	8.33144e+06	   76.1037	   12.3234	       2.4	8.07302e+06	      76.5	   12.0821	       2.4	9.48404e+06	   76.3054	      11.9	       2.4	8.72969e+06	   76.1073	   12.1117	       2.4	8.16862e+06	   76.3019	   12.2938	       2.4	8.92009e+06	
         R10	   4686	   73.0751	      11.9	       2.4	7.35356e+06	     72.25	      11.9	       2.4	8.26234e+06	     72.25	     12.75	       2.4	8.71854e+06	    72.961	     12.75	       2.4	6.91211e+06	   72.6626	      11.9	       2.4	7.79866e+06	     72.25	    12.325	       2.4	8.47346e+06	   72.6055	     12.75	       2.4	7.72388e+06	   73.0181	    12.325	       2.4	7.12022e+06	
         R10	   4687	   73.8276	      11.9	       2.4	6.71868e+06	   73.0751	      11.9	       2.4	7.37527e+06	    72.961	     12.75	       2.4	6.89775e+06	   73.6123	     12.75	       2.4	6.44068e+06	   73.4514	      11.9	       2.4	6.99453e+06	   73.0181	    12.325	       2.4	7.12399e+06	   73.2867	     12.75	       2.4	6.64756e+06	     73.72	    12.325	       2.4	6.56693e+06	
         R10	   4688	   74.5074	      11.9	       2.4	6.68166e+06	   73.8276	      11.9	       2.4	6.71021e+06	   73.6123	     12.75	       2.4	6.43006e+06	   74.2039	     12.75	       2.4	6.33859e+06	   74.1675	      11.9	       2.4	6.66255e+06	     73.72	    12.325	       2.4	6.55788e+06	   73.9081	     12.75	       2.4	6.36328e+06	   74.3557	    12.325	       2.4	6.48924e+06	
         R10	   4689	   75.2555	   12.2934	       2.4	6.93769e+06	   75.6487	   12.3873	       2.4	8.09176e+06	   75.6491	      11.9	       2.4	7.30327e+06	   75.1146	      11.9	       2.4	6.74299e+06	   75.4521	   12.3404	       2.4	7.51224e+06	   75.6489	   12.1437	       2.4	7.64988e+06	   75.3818	      11.9	       2.4	7.00522e+06	    75.185	   12.0967	       2.4	 6.8017e+06	
         R10	   4690	   75.2555	   12.2934	       2.4	7.42567e+06	   75.1146	      11.9	       2.4	6.70046e+06	   74.5074	      11.9	       2.4	6.67195e+06	   74.8313	   12.3195	       2.4	 6.3243e+06	    75.185	   12.0967	       2.4	 7.0319e+06	    74.811	      11.9	       2.4	6.65102e+06	   74.6694	   12.1098	       2.4	6.49304e+06	   75.0434	   12.3065	       2.4	6.86211e+06	
         R10	   4691	   74.7358	     12.75	       2.4	6.43819e+06	   75.2081	     12.75	       2.4	6.61513e+06	   75.2555	   12.2934	       2.4	7.58271e+06	   74.8313	   12.3195	       2.4	6.57708e+06	    74.972	     12.75	       2.4	6.51587e+06	   75.2318	   12.5217	       2.4	7.01182e+06	   75.0434	   12.3065	       2.4	7.07763e+06	   74.7836	   12.5348	       2.4	6.45714e+06	
         R10	   4692	   74.5074	      11.9	       2.4	6.71723e+06	   74.2039	     12.75	       2.4	6.41549e+06	   74.7358	     12.75	       2.4	6.46888e+06	   74.8313	   12.3195	       2.4	7.04877e+06	   74.3557	    12.325	       2.4	6.55355e+06	   74.4699	     12.75	       2.4	6.42148e+06	   74.7836	   12.5348	       2.4	6.73788e+06	   74.6694	   12.1098	       2.4	6.87528e+06	
         R10	   4693	   75.6487	   12.3873	       2.4	7.78419e+06	   75.2555	   12.2934	       2.4	7.28083e+06	   75.2081	     12.75	       2.4	6.57881e+06	   75.6206	     12.75	       2.4	6.96587e+06	   75.4521	   12.3404	       2.4	7.52015e+06	   75.2318	   12.5217	       2.4	6.81712e+06	   75.4143	     12.75	       2.4	6.76265e+06	   75.6346	   12.5687	       2.4	7.34555e+06	
         R10	   4694	   75.6487	   12.3873	       2.4	7.56338e+06	   75.6206	     12.75	       2.4	7.01607e+06	   75.9734	     12.75	       2.4	7.39062e+06	   76.1037	   12.3234	       2.4	8.63586e+06	   75.6346	   12.5687	       2.4	7.25163e+06	    75.797	     12.75	       2.4	7.19863e+06	   76.0386	   12.5367	       2.4	7.94674e+06	   75.8762	   12.3554	       2.4	8.08831e+06	
         R10	   4695	   76.2666	     12.75	       2.4	7.86358e+06	      76.5	     12.75	       2.4	8.64856e+06	      76.5	   12.5475	       2.4	9.77304e+06	   76.2912	   12.5408	       2.4	8.43941e+06	   76.3833	     12.75	       2.4	8.22077e+06	      76.5	   12.6488	       2.4	9.19446e+06	   76.3956	   12.5442	       2.4	9.08638e+06	   76.2789	   12.6454	       2.4	8.11089e+06	
         R10	   4696	   76.1037	   12.3234	       2.4	8.21603e+06	   75.9734	     12.75	       2.4	7.34394e+06	   76.2666	     12.75	       2.4	 7.5291e+06	   76.2912	   12.5408	       2.4	 9.1993e+06	   76.0386	   12.5367	       2.4	7.67804e+06	     76.12	     12.75	       2.4	 7.4281e+06	   76.2789	   12.6454	       2.4	8.36246e+06	   76.1975	   12.4321	       2.4	8.66313e+06	
         R10	   4697	      76.5	   12.5475	       2.4	 9.8895e+06	      76.5	   12.2642	       2.4	1.02638e+07	   76.1037	   12.3234	       2.4	7.98881e+06	   76.2912	   12.5408	       2.4	7.57959e+06	      76.5	   12.4059	       2.4	1.00576e+07	   76.3019	   12.2938	       2.4	  9.104e+06	   76.1975	   12.4321	       2.4	7.76211e+06	   76.3956	   12.5442	       2.4	8.72866e+06	
         R10	   4698	   74.7244	   13.1972	       2.4	6.93673e+06	   74.7358	     12.75	       2.4	6.31922e+06	   74.2039	     12.75	       2.4	6.18411e+06	   74.2104	   13.2255	       2.4	6.52076e+06	   74.7301	   12.9736	       2.4	6.55863e+06	   74.4699	     12.75	       2.4	 6.2209e+06	   74.2072	   12.9878	       2.4	6.29134e+06	   74.4674	   13.2114	       2.4	6.71759e+06	
         R10	   4699	   75.1895	   13.1621	       2.4	7.24642e+06	   75.2081	     12.75	       2.4	6.68743e+06	   74.7358	     12.75	       2.4	 6.3158e+06	   74.7244	   13.1972	       2.4	6.84896e+06	   75.1988	    12.956	       2.4	6.88407e+06	    74.972	     12.75	       2.4	6.47814e+06	   74.7301	   12.9736	       2.4	6.50969e+06	    74.957	   13.1796	       2.4	7.04197e+06	
         R10	   4700	   75.6063	   13.0759	       2.4	7.71991e+06	   75.6206	     12.75	       2.4	7.23975e+06	   75.2081	     12.75	       2.4	6.67429e+06	   75.1895	   13.1621	       2.4	7.04828e+06	   75.6135	   12.9129	       2.4	7.42121e+06	   75.4143	     12.75	       2.4	6.93947e+06	   75.1988	    12.956	       2.4	6.77126e+06	   75.3979	    13.119	       2.4	7.37972e+06	
         R10	   4701	   75.9609	   13.0583	       2.4	8.08814e+06	   75.9734	     12.75	       2.4	7.88686e+06	   75.6206	     12.75	       2.4	7.27791e+06	   75.6063	   13.0759	       2.4	7.38413e+06	   75.9672	   12.9042	       2.4	  7.939e+06	    75.797	     12.75	       2.4	7.57115e+06	   75.6135	   12.9129	       2.4	7.26905e+06	   75.7836	   13.0671	       2.4	7.73066e+06	
         R10	   4702	   76.2486	   13.0058	       2.4	8.49769e+06	   76.2666	     12.75	       2.4	8.81391e+06	   75.9734	     12.75	       2.4	7.89137e+06	   75.9609	   13.0583	       2.4	8.17837e+06	   76.2576	   12.8779	       2.4	8.64891e+06	     76.12	     12.75	       2.4	8.32656e+06	   75.9672	   12.9042	       2.4	  7.987e+06	   76.1048	   13.0321	       2.4	 8.3347e+06	
         R10	   4703	      76.5	    12.952	       2.4	9.39001e+06	      76.5	     12.75	       2.4	9.57648e+06	   76.2666	     12.75	       2.4	8.94751e+06	   76.2486	   13.0058	       2.4	8.61683e+06	      76.5	    12.851	       2.4	9.39461e+06	   76.3833	     12.75	       2.4	9.22451e+06	   76.2576	   12.8779	       2.4	8.77873e+06	   76.3743	   12.9789	       2.4	 8.9779e+06	
         R10	   4704	      76.5	    13.138	       2.4	1.02297e+07	      76.5	    12.952	       2.4	1.01026e+07	   76.2486	   13.0058	       2.4	8.91002e+06	   76.3053	   13.2146	       2.4	8.58386e+06	      76.5	    13.045	       2.4	1.01383e+07	   76.3743	   12.9789	       2.4	9.48018e+06	   76.2769	   13.1102	       2.4	 8.7319e+06	   76.4026	   13.1763	       2.4	9.39386e+06	
         R10	   4705	   76.3387	      13.6	       2.4	8.07557e+06	      76.5	      13.6	       2.4	8.95852e+06	      76.5	    13.462	       2.4	9.71718e+06	   76.3427	   13.4527	       2.4	8.48798e+06	   76.4194	      13.6	       2.4	8.47626e+06	      76.5	    13.531	       2.4	9.31725e+06	   76.4214	   13.4573	       2.4	9.08986e+06	   76.3407	   13.5263	       2.4	8.24282e+06	
         R10	   4706	   76.1398	   13.3588	       2.4	 8.0207e+06	   76.1433	      13.6	       2.4	7.44278e+06	   76.3387	      13.6	       2.4	7.68648e+06	   76.3427	   13.4527	       2.4	9.06752e+06	   76.1415	   13.4794	       2.4	7.69105e+06	    76.241	      13.6	       2.4	7.54242e+06	   76.3407	   13.5263	       2.4	8.35962e+06	   76.2412	   13.4057	       2.4	8.51913e+06	
         R10	   4707	   75.8862	   13.3628	       2.4	7.79746e+06	   75.9137	      13.6	       2.4	7.18661e+06	   76.1433	      13.6	       2.4	7.54194e+06	   76.1398	   13.3588	       2.4	8.04615e+06	   75.8999	   13.4814	       2.4	 7.4189e+06	   76.0285	      13.6	       2.4	7.35453e+06	   76.1415	   13.4794	       2.4	7.76262e+06	    76.013	   13.3608	       2.4	7.92168e+06	
         R10	   4708	   75.6525	   13.3512	       2.4	 7.4474e+06	     75.65	      13.6	       2.4	6.92018e+06	   75.9137	      13.6	       2.4	7.20821e+06	   75.8862	   13.3628	       2.4	7.80845e+06	   75.6513	   13.4756	       2.4	7.10958e+06	   75.7819	      13.6	       2.4	7.05902e+06	   75.8999	   13.4814	       2.4	7.44259e+06	   75.7693	    13.357	       2.4	7.62682e+06	
         R10	   4709	   75.4246	   13.3797	       2.4	7.11301e+06	   75.4192	      13.6	       2.4	6.71903e+06	     75.65	      13.6	       2.4	 6.9329e+06	   75.6525	   13.3512	       2.4	7.58769e+06	   75.4219	   13.4898	       2.4	6.83483e+06	   75.5346	      13.6	       2.4	6.82084e+06	   75.6513	   13.4756	       2.4	7.20169e+06	   75.5385	   13.3654	       2.4	7.34791e+06	
         R10	   4710	    72.961	     12.75	       2.4	7.46601e+06	     72.25	     12.75	       2.4	8.30265e+06	     72.25	      13.6	       2.4	8.84022e+06	    72.986	      13.6	       2.4	6.56527e+06	   72.6055	     12.75	       2.4	7.87037e+06	     72.25	    13.175	       2.4	 8.5585e+06	    72.618	      13.6	       2.4	7.56143e+06	   72.9735	    13.175	       2.4	6.98068e+06	
         R10	   4711	   73.6123	     12.75	       2.4	6.53654e+06	    72.961	     12.75	       2.4	7.47283e+06	    72.986	      13.6	       2.4	6.67227e+06	   73.5855	      13.6	       2.4	6.34056e+06	   73.2867	     12.75	       2.4	6.94582e+06	   72.9735	    13.175	       2.4	7.03972e+06	   73.2857	      13.6	       2.4	6.46731e+06	   73.5989	    13.175	       2.4	 6.4216e+06	
         R10	   4712	   76.3427	   13.4527	       2.4	7.84715e+06	      76.5	    13.462	       2.4	1.00771e+07	      76.5	    13.308	       2.4	1.03723e+07	   76.3053	   13.2146	       2.4	8.87899e+06	   76.4214	   13.4573	       2.4	8.95668e+06	      76.5	    13.385	       2.4	1.02213e+07	   76.4026	   13.2613	       2.4	9.61921e+06	    76.324	   13.3336	       2.4	8.36235e+06	
         R10	   4713	   76.1398	   13.3588	       2.4	7.71815e+06	   76.3053	   13.2146	       2.4	9.04374e+06	   76.2486	   13.0058	       2.4	8.82964e+06	   75.9609	   13.0583	       2.4	 8.2149e+06	   76.2225	   13.2867	       2.4	8.38049e+06	   76.2769	   13.1102	       2.4	8.91856e+06	   76.1048	   13.0321	       2.4	8.51722e+06	   76.0503	   13.2085	       2.4	7.96266e+06	
         R10	   4714	   75.6525	   13.3512	       2.4	7.21514e+06	   75.8862	   13.3628	       2.4	7.52533e+06	   75.9609	   13.0583	       2.4	8.26617e+06	   75.6063	   13.0759	       2.4	7.46942e+06	   75.7693	    13.357	       2.4	7.36975e+06	   75.9235	   13.2105	       2.4	7.88001e+06	   75.7836	   13.0671	       2.4	7.86302e+06	   75.6294	   13.2135	       2.4	7.34098e+06	
         R10	   4715	   75.4246	   13.3797	       2.4	6.59153e+06	   75.6525	   13.3512	       2.4	7.57219e+06	   75.6063	   13.0759	       2.4	7.73853e+06	   75.1895	   13.1621	       2.4	6.77858e+06	   75.5385	   13.3654	       2.4	 7.0638e+06	   75.6294	   13.2135	       2.4	7.65253e+06	   75.3979	    13.119	       2.4	7.24919e+06	   75.3071	   13.2709	       2.4	6.66476e+06	
         R10	   4716	   75.1763	      13.6	       2.4	 6.5533e+06	   75.4192	      13.6	       2.4	6.55209e+06	   75.4246	   13.3797	       2.4	7.72029e+06	   75.1895	   13.1621	       2.4	6.80082e+06	   75.2978	      13.6	       2.4	6.55016e+06	   75.4219	   13.4898	       2.4	7.09942e+06	   75.3071	   13.2709	       2.4	7.24992e+06	   75.1829	    13.381	       2.4	6.60491e+06	
         R10	   4717	   74.9213	      13.6	       2.4	6.44962e+06	   75.1763	      13.6	       2.4	6.61076e+06	   75.1895	   13.1621	       2.4	 7.0793e+06	   74.7244	   13.1972	       2.4	6.47745e+06	   75.0488	      13.6	       2.4	6.52656e+06	   75.1829	    13.381	       2.4	6.78495e+06	    74.957	   13.1796	       2.4	6.76417e+06	   74.8229	   13.3986	       2.4	6.42923e+06	
         R10	   4718	    74.375	      13.6	       2.4	 6.2387e+06	   74.6542	      13.6	       2.4	6.35352e+06	   74.7244	   13.1972	       2.4	6.64975e+06	   74.2104	   13.2255	       2.4	6.18177e+06	   74.5146	      13.6	       2.4	6.29285e+06	   74.6893	   13.3986	       2.4	6.45827e+06	   74.4674	   13.2114	       2.4	6.39939e+06	   74.2927	   13.4128	       2.4	6.16337e+06	
         R10	   4719	   73.5855	      13.6	       2.4	6.34581e+06	   74.0485	      13.6	       2.4	6.26847e+06	   74.2104	   13.2255	       2.4	6.26188e+06	   73.8704	    13.188	       2.4	6.41296e+06	    73.817	      13.6	       2.4	 6.2777e+06	   74.1294	   13.4128	       2.4	6.22371e+06	   74.0404	   13.2067	       2.4	6.33183e+06	   73.7279	    13.394	       2.4	6.35332e+06	
         R10	   4720	   73.8704	    13.188	       2.4	6.35249e+06	   74.2104	   13.2255	       2.4	 6.6211e+06	   74.2039	     12.75	       2.4	6.21938e+06	   73.6123	     12.75	       2.4	6.67414e+06	   74.0404	   13.2067	       2.4	6.45985e+06	   74.2072	   12.9878	       2.4	6.35201e+06	   73.9081	     12.75	       2.4	 6.3803e+06	   73.7413	    12.969	       2.4	6.49386e+06	
         R10	   4721	      76.5	    13.308	       2.4	1.02858e+07	      76.5	    13.138	       2.4	1.04027e+07	   76.3053	   13.2146	       2.4	8.30148e+06	      76.5	    13.223	       2.4	1.03366e+07	   76.4026	   13.1763	       2.4	9.34551e+06	   76.4026	   13.2613	       2.4	9.28948e+06	       N/A	       N/A	       N/A	        N/A	       N/A	       N/A	       N/A	        N/A	
         R10	   4722	   76.1398	   13.3588	       2.4	 7.7952e+06	   76.3427	   13.4527	       2.4	8.29202e+06	   76.3053	   13.2146	       2.4	8.89188e+06	   76.2412	   13.4057	       2.4	8.04073e+06	    76.324	   13.3336	       2.4	8.58416e+06	   76.2225	   13.2867	       2.4	8.34228e+06	       N/A	       N/A	       N/A	        N/A	       N/A	       N/A	       N/A	        N/A	
         R10	   4723	   75.8862	   13.3628	       2.4	7.59638e+06	   76.1398	   13.3588	       2.4	7.95533e+06	   75.9609	   13.0583	       2.4	8.23893e+06	    76.013	   13.3608	       2.4	7.77551e+06	   76.0503	   13.2085	       2.4	8.09083e+06	   75.9235	   13.2105	       2.4	7.90945e+06	       N/A	       N/A	       N/A	        N/A	       N/A	       N/A	       N/A	        N/A	
         R10	   4724	   74.6542	      13.6	       2.4	6.36988e+06	   74.9213	      13.6	       2.4	6.49217e+06	   74.7244	   13.1972	       2.4	6.57805e+06	   74.7878	      13.6	       2.4	6.42433e+06	   74.8229	   13.3986	       2.4	6.49332e+06	   74.6893	   13.3986	       2.4	6.42593e+06	       N/A	       N/A	       N/A	        N/A	       N/A	       N/A	       N/A	        N/A	
         R10	   4725	   74.0485	      13.6	       2.4	6.27455e+06	    74.375	      13.6	       2.4	6.30933e+06	   74.2104	   13.2255	       2.4	6.39008e+06	   74.2117	      13.6	       2.4	6.28353e+06	   74.2927	   13.4128	       2.4	6.30125e+06	   74.1294	   13.4128	       2.4	6.28718e+06	       N/A	       N/A	       N/A	        N/A	       N/A	       N/A	       N/A	        N/A	
         R10	   4726	   73.8704	    13.188	       2.4	 6.4142e+06	   73.6123	     12.75	       2.4	6.90978e+06	   73.5855	      13.6	       2.4	6.53966e+06	   73.7413	    12.969	       2.4	6.64863e+06	   73.5989	    13.175	       2.4	6.70912e+06	   73.7279	    13.394	       2.4	6.47058e+06	       N/A	       N/A	       N/A	        N/A	       N/A	       N/A	       N/A	        N/A	
         R10	   4727	   78.2496	   11.4959	       2.4	6.75697e+06	   78.2032	      11.9	       2.4	 6.6979e+06	    78.625	      11.9	       2.4	6.55869e+06	    78.625	   11.5581	       2.4	7.21392e+06	   78.2264	    11.698	       2.4	6.68186e+06	   78.4141	      11.9	       2.4	6.62292e+06	    78.625	   11.7291	       2.4	6.85781e+06	   78.4373	    11.527	       2.4	6.97412e+06	
         R10	   4728	   77.0068	   11.4484	       2.4	8.85729e+06	   76.9282	      11.9	       2.4	7.54978e+06	   77.3548	      11.9	       2.4	 7.2088e+06	   77.4115	   11.4991	       2.4	7.15439e+06	   76.9675	   11.6742	       2.4	8.18733e+06	   77.1415	      11.9	       2.4	7.37539e+06	   77.3831	   11.6996	       2.4	7.14329e+06	   77.2091	   11.4738	       2.4	8.00066e+06	
         R10	   4729	      76.5	   11.5844	       2.4	9.82222e+06	      76.5	      11.9	       2.4	 8.2346e+06	   76.9282	      11.9	       2.4	7.59516e+06	   77.0068	   11.4484	       2.4	8.01313e+06	      76.5	   11.7422	       2.4	9.01727e+06	   76.7141	      11.9	       2.4	7.88132e+06	   76.9675	   11.6742	       2.4	7.75629e+06	   76.7534	   11.5164	       2.4	8.90695e+06	
         R10	   4730	   77.2598	     11.05	       2.4	7.73645e+06	      76.5	     11.05	       2.4	8.84127e+06	      76.5	   11.5844	       2.4	9.54392e+06	   77.0068	   11.4484	       2.4	7.62806e+06	   76.8799	     11.05	       2.4	8.24351e+06	      76.5	   11.3172	       2.4	9.15878e+06	   76.7534	   11.5164	       2.4	8.55566e+06	   77.1333	   11.2492	       2.4	7.64635e+06	
         R10	   4731	   77.9681	     11.05	       2.4	7.09084e+06	   77.2598	     11.05	       2.4	7.57573e+06	   77.0068	   11.4484	       2.4	8.51544e+06	   77.4115	   11.4991	       2.4	7.19269e+06	   77.6139	     11.05	       2.4	7.30508e+06	   77.1333	   11.2492	       2.4	8.03459e+06	   77.2091	   11.4738	       2.4	7.83916e+06	   77.6898	   11.2746	       2.4	 7.1093e+06	
         R10	   4732	   78.2496	   11.4959	       2.4	6.76907e+06	    78.625	   11.5581	       2.4	7.58077e+06	    78.625	     11.05	       2.4	 6.6941e+06	   77.9681	     11.05	       2.4	7.09351e+06	   78.4373	    11.527	       2.4	7.15955e+06	    78.625	   11.3041	       2.4	7.10346e+06	   78.2966	     11.05	       2.4	6.87306e+06	   78.1089	    11.273	       2.4	6.91464e+06	
         R10	   4733	   77.7798	      11.9	       2.4	7.12257e+06	   78.2032	      11.9	       2.4	6.70937e+06	   78.2496	   11.4959	       2.4	7.37004e+06	   77.9681	     11.05	       2.4	7.45618e+06	   77.9915	      11.9	       2.4	6.90041e+06	   78.2264	    11.698	       2.4	7.02167e+06	   78.1089	    11.273	       2.4	7.39073e+06	    77.874	    11.475	       2.4	7.28617e+06	
         R10	   4734	   77.3548	      11.9	       2.4	7.22729e+06	   77.7798	      11.9	       2.4	7.02945e+06	   77.9681	     11.05	       2.4	 7.3481e+06	   77.4115	   11.4991	       2.4	8.03939e+06	   77.5673	      11.9	       2.4	7.12278e+06	    77.874	    11.475	       2.4	7.18281e+06	   77.6898	   11.2746	       2.4	 7.6737e+06	   77.3831	   11.6996	       2.4	7.62527e+06	
         R10	   4735	   77.3488	     12.32	       2.4	8.05464e+06	   77.3548	      11.9	       2.4	7.18345e+06	   76.9282	      11.9	       2.4	7.89182e+06	   76.9263	   12.2935	       2.4	8.34248e+06	   77.3518	     12.11	       2.4	7.53757e+06	   77.1415	      11.9	       2.4	7.51989e+06	   76.9273	   12.0967	       2.4	8.06716e+06	   77.1376	   12.3068	       2.4	8.19793e+06	
         R10	   4736	   77.8047	   12.3259	       2.4	7.47518e+06	   77.7798	      11.9	       2.4	6.72074e+06	   77.3548	      11.9	       2.4	7.19508e+06	   77.3488	     12.32	       2.4	8.04014e+06	   77.7923	   12.1129	       2.4	 7.0133e+06	   77.5673	      11.9	       2.4	6.94557e+06	   77.3518	     12.11	       2.4	7.53181e+06	   77.5768	    12.323	       2.4	7.75582e+06	
         R10	   4737	   78.2286	   12.3093	       2.4	7.04891e+06	   78.2032	      11.9	       2.4	6.57982e+06	   77.7798	      11.9	       2.4	6.71388e+06	   77.8047	   12.3259	       2.4	7.69316e+06	   78.2159	   12.1046	       2.4	6.75498e+06	   77.9915	      11.9	       2.4	6.63558e+06	   77.7923	   12.1129	       2.4	7.12647e+06	   78.0167	   12.3176	       2.4	7.37047e+06	
         R10	   4738	    78.625	   12.3654	       2.4	7.13843e+06	    78.625	      11.9	       2.4	 6.4872e+06	   78.2032	      11.9	       2.4	6.53669e+06	   78.2286	   12.3093	       2.4	  7.178e+06	    78.625	   12.1327	       2.4	6.76255e+06	   78.4141	      11.9	       2.4	6.49947e+06	   78.2159	   12.1046	       2.4	 6.8033e+06	   78.4268	   12.3373	       2.4	7.15804e+06	
         R10	   4739	   78.3093	     12.75	       2.4	6.42722e+06	    78.625	     12.75	       2.4	6.37616e+06	    78.625	   12.3654	       2.4	7.03512e+06	   78.2286	   12.3093	       2.4	7.13106e+06	   78.4672	     12.75	       2.4	6.39741e+06	    78.625	   12.5577	       2.4	6.61961e+06	   78.4268	   12.3373	       2.4	7.08212e+06	    78.269	   12.5296	       2.4	6.70415e+06	
         R10	   4740	    78.008	     12.75	       2.4	6.55198e+06	   78.3093	     12.75	       2.4	6.42363e+06	   78.2286	   12.3093	       2.4	7.09362e+06	   77.8047	   12.3259	       2.4	7.30037e+06	   78.1587	     12.75	       2.4	6.48327e+06	    78.269	   12.5296	       2.4	6.65942e+06	   78.0167	   12.3176	       2.4	7.18928e+06	   77.9063	   12.5379	       2.4	6.88988e+06	
         R10	   4741	      76.5	   12.5475	       2.4	9.75333e+06	      76.5	     12.75	       2.4	8.33617e+06	   76.7156	     12.75	       2.4	 7.5909e+06	    76.709	   12.5317	       2.4	8.53306e+06	      76.5	   12.6488	       2.4	9.02372e+06	   76.6078	     12.75	       2.4	7.91611e+06	   76.7123	   12.6408	       2.4	8.01321e+06	   76.6045	   12.5396	       2.4	9.11898e+06	
         R10	   4742	   76.9263	   12.2935	       2.4	8.13057e+06	   76.9282	      11.9	       2.4	8.15004e+06	      76.5	      11.9	       2.4	8.84557e+06	      76.5	   12.2642	       2.4	9.69491e+06	   76.9273	   12.0967	       2.4	8.08114e+06	   76.7141	      11.9	       2.4	8.43334e+06	      76.5	   12.0821	       2.4	9.22215e+06	   76.7132	   12.2788	       2.4	8.86828e+06	
         R10	   4743	   77.4482	     12.75	       2.4	6.91745e+06	   77.7209	     12.75	       2.4	6.70946e+06	   77.8047	   12.3259	       2.4	7.11824e+06	   77.3488	     12.32	       2.4	7.65072e+06	   77.5845	     12.75	       2.4	6.81107e+06	   77.7628	   12.5379	       2.4	6.87605e+06	   77.5768	    12.323	       2.4	7.38226e+06	   77.3985	    12.535	       2.4	7.25202e+06	
         R10	   4744	   76.9263	   12.2935	       2.4	7.87784e+06	      76.5	   12.2642	       2.4	 1.0071e+07	      76.5	   12.5475	       2.4	9.75501e+06	    76.709	   12.5317	       2.4	7.51966e+06	   76.7132	   12.2788	       2.4	8.96329e+06	      76.5	   12.4059	       2.4	9.89681e+06	   76.6045	   12.5396	       2.4	8.63336e+06	   76.8176	   12.4126	       2.4	7.68511e+06	
         R10	   4745	   77.1897	     12.75	       2.4	7.20138e+06	   77.3488	     12.32	       2.4	7.66434e+06	   76.9263	   12.2935	       2.4	8.45993e+06	   76.9455	     12.75	       2.4	7.42566e+06	   77.2692	    12.535	       2.4	7.41013e+06	   77.1376	   12.3068	       2.4	 8.0542e+06	   76.9359	   12.5217	       2.4	7.89954e+06	   77.0676	     12.75	       2.4	7.31131e+06	
         R10	   4746	   76.9455	     12.75	       2.4	7.34222e+06	   76.9263	   12.2935	       2.4	7.95243e+06	    76.709	   12.5317	       2.4	9.38502e+06	   76.7156	     12.75	       2.4	7.27524e+06	   76.9359	   12.5217	       2.4	7.57595e+06	   76.8176	   12.4126	       2.4	8.63315e+06	   76.7123	   12.6408	       2.4	8.32854e+06	   76.8305	     12.75	       2.4	7.30535e+06	
         R10	   4747	   77.7209	     12.75	       2.4	6.77827e+06	    78.008	     12.75	       2.4	6.60312e+06	   77.8047	   12.3259	       2.4	7.27152e+06	   77.8645	     12.75	       2.4	6.68468e+06	   77.9063	   12.5379	       2.4	6.88559e+06	   77.7628	   12.5379	       2.4	6.98952e+06	       N/A	       N/A	       N/A	        N/A	       N/A	       N/A	       N/A	        N/A	
         R10	   4748	   77.1897	     12.75	       2.4	7.23787e+06	   77.4482	     12.75	       2.4	6.96803e+06	   77.3488	     12.32	       2.4	7.70648e+06	   77.3189	     12.75	       2.4	7.09804e+06	   77.3985	    12.535	       2.4	 7.2996e+06	   77.2692	    12.535	       2.4	7.44869e+06	       N/A	       N/A	       N/A	        N/A	       N/A	       N/A	       N/A	        N/A	
         R10	   4749	   76.9599	   12.9624	       2.4	8.10505e+06	   76.9455	     12.75	       2.4	7.92691e+06	   76.7156	     12.75	       2.4	8.68873e+06	   76.7292	   12.9467	       2.4	8.31512e+06	   76.9527	   12.8562	       2.4	7.97357e+06	   76.8305	     12.75	       2.4	8.27886e+06	   76.7224	   12.8483	       2.4	8.48823e+06	   76.8446	   12.9545	       2.4	8.20888e+06	
         R10	   4750	   77.1948	   12.9702	       2.4	7.62596e+06	   77.1897	     12.75	       2.4	7.49056e+06	   76.9455	     12.75	       2.4	7.88647e+06	   76.9599	   12.9624	       2.4	7.97614e+06	   77.1923	   12.8601	       2.4	 7.5022e+06	   77.0676	     12.75	       2.4	7.68093e+06	   76.9527	   12.8562	       2.4	7.88762e+06	   77.0774	   12.9663	       2.4	7.79477e+06	
         R10	   4751	   77.4427	   12.9704	       2.4	7.25576e+06	   77.4482	     12.75	       2.4	7.05891e+06	   77.1897	     12.75	       2.4	7.47149e+06	   77.1948	   12.9702	       2.4	 7.5407e+06	   77.4454	   12.8602	       2.4	7.09394e+06	   77.3189	     12.75	       2.4	7.25684e+06	   77.1923	   12.8601	       2.4	7.44654e+06	   77.3188	   12.9703	       2.4	7.39482e+06	
         R10	   4752	   77.7077	   12.9746	       2.4	6.88452e+06	   77.7209	     12.75	       2.4	6.79376e+06	   77.4482	     12.75	       2.4	7.05676e+06	   77.4427	   12.9704	       2.4	7.22666e+06	   77.7143	   12.8623	       2.4	6.77507e+06	   77.5845	     12.75	       2.4	6.92021e+06	   77.4454	   12.8602	       2.4	7.07592e+06	   77.5752	   12.9725	       2.4	7.05086e+06	
         R10	   4753	   78.0102	   13.0502	       2.4	6.86472e+06	    78.008	     12.75	       2.4	 6.4806e+06	   77.7209	     12.75	       2.4	6.74314e+06	   77.7077	   12.9746	       2.4	7.08716e+06	   78.0091	   12.9001	       2.4	6.59581e+06	   77.8645	     12.75	       2.4	6.60052e+06	   77.7143	   12.8623	       2.4	6.85278e+06	   77.8589	   13.0124	       2.4	6.97258e+06	
         R10	   4754	   78.3224	   13.0404	       2.4	6.70243e+06	   78.3093	     12.75	       2.4	6.38063e+06	    78.008	     12.75	       2.4	6.51182e+06	   78.0102	   13.0502	       2.4	6.89912e+06	   78.3159	   12.8952	       2.4	6.46371e+06	   78.1587	     12.75	       2.4	6.43756e+06	   78.0091	   12.9001	       2.4	6.62717e+06	   78.1663	   13.0453	       2.4	6.79672e+06	
         R10	   4755	    78.625	   13.0736	       2.4	6.78087e+06	    78.625	     12.75	       2.4	6.31456e+06	   78.3093	     12.75	       2.4	6.34107e+06	   78.3224	   13.0404	       2.4	 6.7293e+06	    78.625	   12.9118	       2.4	6.48318e+06	   78.4672	     12.75	       2.4	6.31477e+06	   78.3159	   12.8952	       2.4	6.45773e+06	   78.4737	    13.057	       2.4	6.75334e+06	
         R10	   4756	    78.625	   13.3569	       2.4	6.46384e+06	    78.625	   13.0736	       2.4	6.75545e+06	   78.3224	   13.0404	       2.4	6.68303e+06	   78.3436	   13.3176	       2.4	6.78064e+06	    78.625	   13.2152	       2.4	6.60628e+06	   78.4737	    13.057	       2.4	 6.7127e+06	    78.333	    13.179	       2.4	6.72993e+06	   78.4843	   13.3373	       2.4	 6.6214e+06	
         R10	   4757	   78.3823	      13.6	       2.4	6.38324e+06	    78.625	      13.6	       2.4	6.36908e+06	    78.625	   13.3569	       2.4	  6.512e+06	   78.3436	   13.3176	       2.4	6.73781e+06	   78.5037	      13.6	       2.4	 6.3738e+06	    78.625	   13.4784	       2.4	6.33491e+06	   78.4843	   13.3373	       2.4	6.62278e+06	    78.363	   13.4588	       2.4	6.46922e+06	
         R10	   4758	   78.1517	      13.6	       2.4	6.41009e+06	   78.3823	      13.6	       2.4	6.39094e+06	   78.3436	   13.3176	       2.4	6.70253e+06	   78.0779	   13.3489	       2.4	6.70877e+06	    78.267	      13.6	       2.4	6.39722e+06	    78.363	   13.4588	       2.4	6.44333e+06	   78.2107	   13.3332	       2.4	6.69892e+06	   78.1148	   13.4744	       2.4	6.50944e+06	
         R10	   4759	   77.5765	   13.4021	       2.4	7.07833e+06	   77.5323	      13.6	       2.4	6.61239e+06	   77.7267	      13.6	       2.4	6.53769e+06	   77.8054	   13.3849	       2.4	6.88619e+06	   77.5544	   13.5011	       2.4	 6.7785e+06	   77.6295	      13.6	       2.4	6.57308e+06	   77.7661	   13.4924	       2.4	6.65795e+06	   77.6909	   13.3935	       2.4	6.97962e+06	
         R10	   4760	   77.3741	   13.3946	       2.4	 7.2749e+06	     77.35	      13.6	       2.4	 6.7847e+06	   77.5323	      13.6	       2.4	6.65152e+06	   77.5765	   13.4021	       2.4	7.03024e+06	   77.3621	   13.4973	       2.4	6.95969e+06	   77.4412	      13.6	       2.4	6.71499e+06	   77.5544	   13.5011	       2.4	 6.7721e+06	   77.4753	   13.3984	       2.4	7.15148e+06	
         R10	   4761	   77.1757	   13.3906	       2.4	7.54555e+06	   77.1638	      13.6	       2.4	6.91226e+06	     77.35	      13.6	       2.4	6.76248e+06	   77.3741	   13.3946	       2.4	7.31058e+06	   77.1698	   13.4953	       2.4	7.15965e+06	   77.2569	      13.6	       2.4	 6.8345e+06	   77.3621	   13.4973	       2.4	6.96615e+06	   77.2749	   13.3926	       2.4	7.42598e+06	
         R10	   4762	   76.9982	   13.4027	       2.4	7.72283e+06	   76.9858	      13.6	       2.4	7.09177e+06	   77.1638	      13.6	       2.4	6.91026e+06	   77.1757	   13.3906	       2.4	7.63213e+06	    76.992	   13.5013	       2.4	7.36118e+06	   77.0748	      13.6	       2.4	6.99685e+06	   77.1698	   13.4953	       2.4	7.20089e+06	    77.087	   13.3966	       2.4	7.67679e+06	
         R10	   4763	   76.8268	   13.4348	       2.4	7.84556e+06	   76.8158	      13.6	       2.4	7.28837e+06	   76.9858	      13.6	       2.4	7.09866e+06	   76.9982	   13.4027	       2.4	7.94945e+06	   76.8213	   13.5174	       2.4	7.53805e+06	   76.9008	      13.6	       2.4	7.18878e+06	    76.992	   13.5013	       2.4	7.48141e+06	   76.9125	   13.4187	       2.4	7.89607e+06	
         R10	   4764	   76.6581	    13.449	       2.4	8.56565e+06	   76.6538	      13.6	       2.4	7.41541e+06	   76.8158	      13.6	       2.4	7.23198e+06	   76.8268	   13.4348	       2.4	 8.0728e+06	    76.656	   13.5245	       2.4	7.97764e+06	   76.7348	      13.6	       2.4	7.31169e+06	   76.8213	   13.5174	       2.4	7.62645e+06	   76.7425	   13.4419	       2.4	8.31236e+06	
         R10	   4765	      76.5	    13.462	       2.4	 9.6146e+06	      76.5	      13.6	       2.4	 8.3993e+06	   76.6538	      13.6	       2.4	7.53375e+06	   76.6581	    13.449	       2.4	 8.5174e+06	      76.5	    13.531	       2.4	8.99273e+06	   76.5769	      13.6	       2.4	7.92098e+06	    76.656	   13.5245	       2.4	8.00177e+06	   76.5791	   13.4555	       2.4	9.06305e+06	
         R10	   4766	      76.5	    13.308	       2.4	1.01046e+07	      76.5	    13.462	       2.4	9.55864e+06	   76.6581	    13.449	       2.4	7.83909e+06	   76.6711	   13.2849	       2.4	8.94097e+06	      76.5	    13.385	       2.4	9.83045e+06	   76.5791	   13.4555	       2.4	8.69357e+06	   76.6646	    13.367	       2.4	8.38493e+06	   76.5855	   13.2965	       2.4	9.51859e+06	
         R10	   4767	   76.7118	   13.1201	       2.4	8.76368e+06	      76.5	    13.138	       2.4	1.02636e+07	      76.5	    13.308	       2.4	9.99178e+06	   76.6711	   13.2849	       2.4	8.32279e+06	   76.6059	    13.129	       2.4	9.49893e+06	      76.5	    13.223	       2.4	1.01223e+07	   76.5855	   13.2965	       2.4	9.14756e+06	   76.6914	   13.2025	       2.4	8.52989e+06	
         R10	   4768	   76.7292	   12.9467	       2.4	 8.1833e+06	   76.7156	     12.75	       2.4	8.93987e+06	      76.5	     12.75	       2.4	9.00561e+06	      76.5	    12.952	       2.4	9.62908e+06	   76.7224	   12.8483	       2.4	8.55755e+06	   76.6078	     12.75	       2.4	  8.919e+06	      76.5	    12.851	       2.4	  9.196e+06	   76.6146	   12.9493	       2.4	8.87309e+06	
         R10	   4769	   77.1833	   13.1827	       2.4	7.54559e+06	   77.1948	   12.9702	       2.4	7.92081e+06	   76.9599	   12.9624	       2.4	 8.1604e+06	   76.9469	   13.1806	       2.4	8.03965e+06	   77.1891	   13.0765	       2.4	7.72276e+06	   77.0774	   12.9663	       2.4	8.03728e+06	   76.9534	   13.0715	       2.4	8.08923e+06	   77.0651	   13.1816	       2.4	7.78966e+06	
         R10	   4770	   77.4116	   13.1869	       2.4	7.38538e+06	   77.4427	   12.9704	       2.4	7.40368e+06	   77.1948	   12.9702	       2.4	7.82174e+06	   77.1833	   13.1827	       2.4	 7.5845e+06	   77.4272	   13.0787	       2.4	7.38781e+06	   77.3188	   12.9703	       2.4	7.60664e+06	   77.1891	   13.0765	       2.4	7.69213e+06	   77.2975	   13.1848	       2.4	7.48378e+06	
         R10	   4771	   78.0779	   13.3489	       2.4	6.79644e+06	   78.3436	   13.3176	       2.4	6.69485e+06	   78.3224	   13.0404	       2.4	6.71466e+06	   78.0102	   13.0502	       2.4	6.97639e+06	   78.2107	   13.3332	       2.4	6.74502e+06	    78.333	    13.179	       2.4	6.70424e+06	   78.1663	   13.0453	       2.4	6.84106e+06	    78.044	   13.1995	       2.4	6.88067e+06	
         R10	   4772	   77.8054	   13.3849	       2.4	  6.803e+06	   77.7267	      13.6	       2.4	 6.5472e+06	   77.9332	      13.6	       2.4	6.48645e+06	   78.0779	   13.3489	       2.4	6.69105e+06	   77.7661	   13.4924	       2.4	6.60866e+06	     77.83	      13.6	       2.4	6.51458e+06	   78.0055	   13.4744	       2.4	6.55084e+06	   77.9416	   13.3669	       2.4	6.74309e+06	
         R10	   4773	   76.6711	   13.2849	       2.4	8.89301e+06	   76.6581	    13.449	       2.4	7.95569e+06	   76.8268	   13.4348	       2.4	7.62945e+06	   76.8089	    13.301	       2.4	8.30376e+06	   76.6646	    13.367	       2.4	8.41682e+06	   76.7425	   13.4419	       2.4	 7.7906e+06	   76.8179	   13.3679	       2.4	7.94166e+06	     76.74	    13.293	       2.4	8.59599e+06	
         R10	   4774	   76.7292	   12.9467	       2.4	8.79763e+06	      76.5	    12.952	       2.4	1.01269e+07	      76.5	    13.138	       2.4	1.00864e+07	   76.7118	   13.1201	       2.4	8.26097e+06	   76.6146	   12.9493	       2.4	9.41814e+06	      76.5	    13.045	       2.4	1.00802e+07	   76.6059	    13.129	       2.4	9.15415e+06	   76.7205	   13.0334	       2.4	8.50639e+06	
         R10	   4775	   77.7077	   12.9746	       2.4	 7.0021e+06	   77.4427	   12.9704	       2.4	7.39641e+06	   77.4116	   13.1869	       2.4	7.39823e+06	   77.6351	   13.1922	       2.4	7.14674e+06	   77.5752	   12.9725	       2.4	7.19543e+06	   77.4272	   13.0787	       2.4	7.39039e+06	   77.5234	   13.1896	       2.4	7.26977e+06	   77.6714	   13.0834	       2.4	7.06242e+06	
         R10	   4776	   76.9469	   13.1806	       2.4	7.92374e+06	   76.9599	   12.9624	       2.4	8.21111e+06	   76.7292	   12.9467	       2.4	8.95511e+06	   76.7118	   13.1201	       2.4	8.71152e+06	   76.9534	   13.0715	       2.4	8.05937e+06	   76.8446	   12.9545	       2.4	8.57742e+06	   76.7205	   13.0334	       2.4	 8.8103e+06	   76.8294	   13.1503	       2.4	8.31555e+06	
         R10	   4777	   77.8054	   13.3849	       2.4	6.50257e+06	   78.0779	   13.3489	       2.4	6.79662e+06	   78.0102	   13.0502	       2.4	6.62718e+06	   77.8155	   13.2181	       2.4	 7.6155e+06	   77.9416	   13.3669	       2.4	6.64772e+06	    78.044	   13.1995	       2.4	6.70592e+06	   77.9128	   13.1341	       2.4	7.11905e+06	   77.8104	   13.3015	       2.4	7.05302e+06	
         R10	   4778	   77.6351	   13.1922	       2.4	7.33348e+06	   77.5765	   13.4021	       2.4	6.87442e+06	   77.8054	   13.3849	       2.4	6.74895e+06	   77.8155	   13.2181	       2.4	7.06442e+06	   77.6058	   13.2972	       2.4	7.09299e+06	   77.6909	   13.3935	       2.4	6.80982e+06	   77.8104	   13.3015	       2.4	6.88575e+06	   77.7253	   13.2052	       2.4	7.19866e+06	
         R10	   4779	   78.0102	   13.0502	       2.4	 6.8388e+06	   77.7077	   12.9746	       2.4	7.06913e+06	   77.6351	   13.1922	       2.4	7.38706e+06	   77.8155	   13.2181	       2.4	6.85571e+06	   77.8589	   13.0124	       2.4	6.94736e+06	   77.6714	   13.0834	       2.4	7.21654e+06	   77.7253	   13.2052	       2.4	7.11452e+06	   77.9128	   13.1341	       2.4	6.84519e+06	
         R10	   4780	   77.5765	   13.4021	       2.4	6.85618e+06	   77.6351	   13.1922	       2.4	7.22141e+06	   77.4116	   13.1869	       2.4	7.50523e+06	   77.3741	   13.3946	       2.4	7.13047e+06	   77.6058	   13.2972	       2.4	7.02704e+06	   77.5234	   13.1896	       2.4	7.36183e+06	   77.3929	   13.2908	       2.4	7.30808e+06	   77.4753	   13.3984	       2.4	 6.9911e+06	
         R10	   4781	   77.3741	   13.3946	       2.4	7.11556e+06	   77.4116	   13.1869	       2.4	7.50567e+06	   77.1833	   13.1827	       2.4	7.88154e+06	   77.1757	   13.3906	       2.4	 7.2482e+06	   77.3929	   13.2908	       2.4	 7.3014e+06	   77.2975	   13.1848	       2.4	 7.6895e+06	   77.1795	   13.2866	       2.4	7.54996e+06	   77.2749	   13.3926	       2.4	 7.1811e+06	
         R10	   4782	   76.9982	   13.4027	       2.4	7.43968e+06	   77.1757	   13.3906	       2.4	7.28231e+06	   77.1833	   13.1827	       2.4	 7.8438e+06	   76.9469	   13.1806	       2.4	8.21127e+06	    77.087	   13.3966	       2.4	7.35978e+06	   77.1795	   13.2866	       2.4	7.54755e+06	   77.0651	   13.1816	       2.4	8.02592e+06	   76.9725	   13.2916	       2.4	7.81314e+06	
         R10	   4783	   76.8089	    13.301	       2.4	8.87061e+06	   76.8268	   13.4348	       2.4	7.19051e+06	   76.9982	   13.4027	       2.4	7.50268e+06	   76.9469	   13.1806	       2.4	7.95137e+06	   76.8179	   13.3679	       2.4	8.02984e+06	   76.9125	   13.4187	       2.4	7.34487e+06	   76.9725	   13.2916	       2.4	7.71001e+06	   76.8779	   13.2408	       2.4	8.40247e+06	
         R10	   4784	   76.8089	    13.301	       2.4	7.77209e+06	   76.9469	   13.1806	       2.4	7.88076e+06	   76.7118	   13.1201	       2.4	8.87645e+06	   76.6711	   13.2849	       2.4	8.61254e+06	   76.8779	   13.2408	       2.4	 7.8196e+06	   76.8294	   13.1503	       2.4	8.37647e+06	   76.6914	   13.2025	       2.4	8.72963e+06	     76.74	    13.293	       2.4	8.19231e+06	
         R10	   4785	   77.9332	      13.6	       2.4	6.50905e+06	   78.1517	      13.6	       2.4	 6.4459e+06	   78.0779	   13.3489	       2.4	6.72789e+06	   78.0424	      13.6	       2.4	6.47252e+06	   78.1148	   13.4744	       2.4	6.53272e+06	   78.0055	   13.4744	       2.4	6.57385e+06	       N/A	       N/A	       N/A	        N/A	       N/A	       N/A	       N/A	        N/A	
         R10	   4786	    74.375	   13.8968	       2.4	6.97535e+06	    74.375	      13.6	       2.4	6.22581e+06	   74.0485	      13.6	       2.4	6.24047e+06	   74.0485	   13.9948	       2.4	6.00192e+06	    74.375	   13.7484	       2.4	6.57383e+06	   74.2117	      13.6	       2.4	6.21609e+06	   74.0485	   13.7974	       2.4	6.06737e+06	   74.2117	   13.9458	       2.4	6.47636e+06	
         R10	   4787	   74.0696	     14.45	       2.4	6.52425e+06	    74.375	     14.45	       2.4	6.58426e+06	    74.375	   14.1802	       2.4	6.69805e+06	   74.0485	   13.9948	       2.4	6.37903e+06	   74.2223	     14.45	       2.4	 6.5489e+06	    74.375	   14.3151	       2.4	6.58278e+06	   74.2117	   14.0875	       2.4	6.50383e+06	   74.0591	   14.2224	       2.4	 6.3367e+06	
         R10	   4788	   73.6137	     14.45	       2.4	6.43431e+06	   74.0696	     14.45	       2.4	6.53416e+06	   74.0485	   13.9948	       2.4	5.95907e+06	   73.6244	   14.0046	       2.4	6.85663e+06	   73.8416	     14.45	       2.4	6.46766e+06	   74.0591	   14.2224	       2.4	6.13119e+06	   73.8364	   13.9997	       2.4	6.39084e+06	    73.619	   14.2273	       2.4	6.57751e+06	
         R10	   4789	    72.986	      13.6	       2.4	7.05414e+06	     72.25	      13.6	       2.4	8.32391e+06	     72.25	     14.45	       2.4	8.78035e+06	   73.0071	     14.45	       2.4	6.48414e+06	    72.618	      13.6	       2.4	7.64934e+06	     72.25	    14.025	       2.4	8.53971e+06	   72.6286	     14.45	       2.4	7.41114e+06	   72.9966	    14.025	       2.4	6.69493e+06	
         R10	   4790	   73.6244	   14.0046	       2.4	6.78787e+06	   74.0485	   13.9948	       2.4	6.06552e+06	   74.0485	      13.6	       2.4	6.28081e+06	   73.5855	      13.6	       2.4	6.54404e+06	   73.8364	   13.9997	       2.4	6.37385e+06	   74.0485	   13.7974	       2.4	6.12147e+06	    73.817	      13.6	       2.4	6.36211e+06	   73.6049	   13.8023	       2.4	6.64115e+06	
         R10	   4791	   73.6244	   14.0046	       2.4	6.18632e+06	   73.5855	      13.6	       2.4	 6.5666e+06	    72.986	      13.6	       2.4	7.47972e+06	   73.0071	     14.45	       2.4	6.47789e+06	   73.6049	   13.8023	       2.4	6.36282e+06	   73.2857	      13.6	       2.4	6.95714e+06	   72.9966	    14.025	       2.4	6.90075e+06	   73.3158	   14.2273	       2.4	6.30274e+06	
         R10	   4792	    74.375	   14.1802	       2.4	6.43234e+06	    74.375	   13.8968	       2.4	6.94527e+06	   74.0485	   13.9948	       2.4	6.10196e+06	    74.375	   14.0385	       2.4	6.68248e+06	   74.2117	   13.9458	       2.4	6.49333e+06	   74.2117	   14.0875	       2.4	6.24668e+06	       N/A	       N/A	       N/A	        N/A	       N/A	       N/A	       N/A	        N/A	
         R10	   4793	   73.0071	     14.45	       2.4	 6.5099e+06	   73.6137	     14.45	       2.4	6.51376e+06	   73.6244	   14.0046	       2.4	6.40647e+06	   73.3104	     14.45	       2.4	6.45618e+06	    73.619	   14.2273	       2.4	6.38506e+06	   73.3158	   14.2273	       2.4	 6.3719e+06	       N/A	       N/A	       N/A	        N/A	       N/A	       N/A	       N/A	        N/A	
         R10	   4794	    74.375	   14.7333	       2.4	7.02051e+06	    74.375	     14.45	       2.4	6.63203e+06	   74.0696	     14.45	       2.4	 6.5439e+06	   74.0613	   14.8363	       2.4	6.22457e+06	    74.375	   14.5917	       2.4	6.75006e+06	   74.2223	     14.45	       2.4	6.57271e+06	   74.0655	   14.6432	       2.4	6.30186e+06	   74.2181	   14.7848	       2.4	6.62047e+06	
         R10	   4795	   74.0696	      15.3	       2.4	5.24163e+06	    74.375	      15.3	       2.4	8.29588e+06	    74.375	   15.0167	       2.4	6.87686e+06	   74.0613	   14.8363	       2.4	6.49114e+06	   74.2223	      15.3	       2.4	6.76298e+06	    74.375	   15.1583	       2.4	7.55543e+06	   74.2181	   14.9265	       2.4	6.63642e+06	   74.0655	   15.0682	       2.4	5.72143e+06	
         R10	   4796	   73.6137	      15.3	       2.4	5.39998e+06	   74.0696	      15.3	       2.4	8.22064e+06	   74.0613	   14.8363	       2.4	6.59794e+06	   73.6403	   14.8382	       2.4	6.63595e+06	   73.8416	      15.3	       2.4	6.76103e+06	   74.0655	   15.0682	       2.4	7.26308e+06	   73.8508	   14.8372	       2.4	 6.5466e+06	    73.627	   15.0691	       2.4	6.00207e+06	
         R10	   4797	   73.0071	     14.45	       2.4	6.87078e+06	     72.25	     14.45	       2.4	 8.5851e+06	     72.25	      15.3	       2.4	8.54591e+06	   73.0071	      15.3	       2.4	6.88459e+06	   72.6286	     14.45	       2.4	7.63333e+06	     72.25	    14.875	       2.4	8.50832e+06	   72.6286	      15.3	       2.4	6.98416e+06	   73.0071	    14.875	       2.4	6.74337e+06	
         R10	   4798	   73.6403	   14.8382	       2.4	6.68463e+06	   74.0613	   14.8363	       2.4	6.31368e+06	   74.0696	     14.45	       2.4	6.57714e+06	   73.6137	     14.45	       2.4	6.59151e+06	   73.8508	   14.8372	       2.4	6.46404e+06	   74.0655	   14.6432	       2.4	6.36985e+06	   73.8416	     14.45	       2.4	6.53284e+06	    73.627	   14.6441	       2.4	6.63051e+06	
         R10	   4799	   73.0071	     14.45	       2.4	6.96756e+06	   73.0071	      15.3	       2.4	6.01118e+06	   73.6137	      15.3	       2.4	7.42252e+06	   73.6403	   14.8382	       2.4	6.44743e+06	   73.0071	    14.875	       2.4	6.39987e+06	   73.3104	      15.3	       2.4	6.60937e+06	    73.627	   15.0691	       2.4	 6.9098e+06	   73.3237	   14.6441	       2.4	6.62159e+06	
         R10	   4800	    74.375	   15.0167	       2.4	6.89388e+06	    74.375	   14.7333	       2.4	6.92385e+06	   74.0613	   14.8363	       2.4	6.29293e+06	    74.375	    14.875	       2.4	6.89834e+06	   74.2181	   14.7848	       2.4	 6.6028e+06	   74.2181	   14.9265	       2.4	6.58981e+06	       N/A	       N/A	       N/A	        N/A	       N/A	       N/A	       N/A	        N/A	
         R10	   4801	   73.6403	   14.8382	       2.4	6.47883e+06	   73.6137	     14.45	       2.4	6.61348e+06	   73.0071	     14.45	       2.4	6.93518e+06	    73.627	   14.6441	       2.4	6.54253e+06	   73.3104	     14.45	       2.4	6.70763e+06	   73.3237	   14.6441	       2.4	6.60839e+06	       N/A	       N/A	       N/A	        N/A	       N/A	       N/A	       N/A	        N/A	
         R10	   4802	   73.0267	        19	         6	3.85522e+06	     72.25	        19	         6	1.29583e+07	     72.25	        19	      6.85	1.09618e+07	   73.1325	        19	      6.85	8.20149e+06	   72.6383	        19	         6	7.50722e+06	     72.25	        19	     6.425	1.16028e+07	   72.6913	        19	      6.85	 9.4229e+06	   73.0796	        19	     6.425	4.91344e+06	
         R10	   4803	   73.7468	        19	         6	3.84942e+06	   73.0267	        19	         6	3.32014e+06	   73.1325	        19	      6.85	8.64833e+06	   73.9454	        19	      6.85	8.11818e+06	   73.3867	        19	         6	3.52187e+06	   73.0796	        19	     6.425	5.41525e+06	    73.539	        19	      6.85	8.11807e+06	   73.8461	        19	     6.425	4.97554e+06	
         R10	   4804	   74.4105	        19	         6	3.78831e+06	   73.7468	        19	         6	 3.4408e+06	   73.9454	        19	      6.85	7.86642e+06	   74.6886	        19	      6.85	6.98601e+06	   74.0786	        19	         6	3.58554e+06	   73.8461	        19	     6.425	4.87686e+06	    74.317	        19	      6.85	7.38122e+06	   74.5495	        19	     6.425	4.92581e+06	
         R10	   4805	   75.0176	        19	         6	 4.3782e+06	   74.4105	        19	         6	4.05222e+06	   74.6886	        19	      6.85	6.76953e+06	   75.3621	        19	      6.85	6.52987e+06	    74.714	        19	         6	4.19181e+06	   74.5495	        19	     6.425	5.06129e+06	   75.0253	        19	      6.85	 6.6239e+06	   75.1898	        19	     6.425	5.25794e+06	
         R10	   4806	   75.9659	        19	      6.85	8.42045e+06	      76.5	        19	      6.85	9.36473e+06	      76.5	        19	   6.40476	1.01979e+07	    76.075	        19	   6.40476	8.93451e+06	   76.2329	        19	      6.85	8.85102e+06	      76.5	        19	   6.62738	9.64095e+06	   76.2875	        19	   6.40476	8.37216e+06	   76.0204	        19	   6.62738	 8.4138e+06	
         R10	   4807	    76.075	        19	   6.40476	1.07549e+07	      76.5	        19	   6.40476	  1.586e+07	      76.5	        19	         6	2.14505e+07	   76.0624	        19	         6	3.84063e+06	   76.2875	        19	   6.40476	1.22226e+07	      76.5	        19	   6.20238	1.70049e+07	   76.2812	        19	         6	1.14667e+07	   76.0687	        19	   6.20238	6.10429e+06	
         R10	   4808	   75.6684	        19	   6.41825	6.71778e+06	    76.075	        19	   6.40476	1.13427e+07	   76.0624	        19	         6	5.09444e+06	   75.5682	        19	         6	4.75577e+06	   75.8717	        19	   6.41151	8.88614e+06	   76.0687	        19	   6.20238	7.26604e+06	   75.8153	        19	         6	4.76665e+06	   75.6183	        19	   6.20913	5.65078e+06	
         R10	   4809	   75.6684	        19	   6.41825	7.01059e+06	   75.5682	        19	         6	4.70881e+06	   75.0176	        19	         6	5.03496e+06	   75.3621	        19	      6.85	6.28309e+06	   75.6183	        19	   6.20913	5.74685e+06	   75.2929	        19	         6	4.86693e+06	   75.1898	        19	     6.425	5.51182e+06	   75.5152	        19	   6.63413	6.61805e+06	
         R10	   4810	   75.6684	        19	   6.41825	6.94819e+06	   75.3621	        19	      6.85	5.89079e+06	   75.9659	        19	      6.85	7.75235e+06	    76.075	        19	   6.40476	6.95202e+06	   75.5152	        19	   6.63413	 6.4052e+06	    75.664	        19	      6.85	6.77533e+06	   76.0204	        19	   6.62738	7.34654e+06	   75.8717	        19	   6.41151	6.89244e+06	
         R10	   4811	   77.0003	        19	         6	2.54931e+06	      76.5	        19	         6	2.13832e+07	      76.5	        19	   6.40476	1.54171e+07	   76.9749	        19	   6.42239	9.59413e+06	   76.7502	        19	         6	1.09138e+07	      76.5	        19	   6.20238	1.65235e+07	   76.7374	        19	   6.41357	1.13514e+07	   76.9876	        19	   6.21119	5.04224e+06	
         R10	   4812	   76.9749	        19	   6.42239	 7.7268e+06	      76.5	        19	   6.40476	9.93137e+06	      76.5	        19	      6.85	9.38111e+06	   77.0003	        19	      6.85	 9.8035e+06	   76.7374	        19	   6.41357	7.73478e+06	      76.5	        19	   6.62738	9.59363e+06	   76.7502	        19	      6.85	9.53833e+06	   76.9876	        19	   6.63619	8.37296e+06	
         R10	   4813	   77.5295	        19	   6.42289	6.09017e+06	   76.9749	        19	   6.42239	5.20543e+06	   77.0003	        19	      6.85	9.21216e+06	   77.5212	        19	      6.85	7.16111e+06	   77.2522	        19	   6.42264	 5.5825e+06	   76.9876	        19	   6.63619	7.19194e+06	   77.2608	        19	      6.85	8.15891e+06	   77.5254	        19	   6.63644	6.56327e+06	
         R10	   4814	   78.0628	        19	      6.85	6.11745e+06	    78.625	        19	      6.85	6.43261e+06	    78.625	        19	   6.40476	4.37618e+06	    78.064	        19	   6.42246	  5.056e+06	   78.3439	        19	      6.85	6.25433e+06	    78.625	        19	   6.62738	5.26898e+06	   78.3445	        19	   6.41361	4.67737e+06	   78.0634	        19	   6.63623	5.56231e+06	
         R10	   4815	    78.064	        19	   6.42246	4.58302e+06	    78.625	        19	   6.40476	5.08514e+06	    78.625	        19	         6	2.86449e+06	   78.0628	        19	         6	5.06582e+06	   78.3445	        19	   6.41361	4.80729e+06	    78.625	        19	   6.20238	3.87591e+06	   78.3439	        19	         6	 3.8576e+06	   78.0634	        19	   6.21123	4.72184e+06	
         R10	   4816	   77.5212	        19	         6	3.97365e+06	   77.0003	        19	         6	5.11162e+06	   76.9749	        19	   6.42239	 1.0265e+07	   77.5295	        19	   6.42289	 5.3679e+06	   77.2608	        19	         6	4.41428e+06	   76.9876	        19	   6.21119	6.78864e+06	   77.2522	        19	   6.42264	7.53596e+06	   77.5254	        19	   6.21144	4.64468e+06	
         R10	   4817	   77.5295	        19	   6.42289	5.66053e+06	   77.5212	        19	      6.85	7.02733e+06	   78.0628	        19	      6.85	6.13498e+06	    78.064	        19	   6.42246	5.32075e+06	   77.5254	        19	   6.63644	6.30414e+06	    77.792	        19	      6.85	6.55858e+06	   78.0634	        19	   6.63623	5.68962e+06	   77.7967	        19	   6.42267	5.46179e+06	
         R10	   4818	   77.5212	        19	         6	  5.358e+06	   77.5295	        19	   6.42289	4.91398e+06	    78.064	        19	   6.42246	4.96868e+06	   78.0628	        19	         6	3.14281e+06	   77.5254	        19	   6.21144	5.07481e+06	   77.7967	        19	   6.42267	4.92339e+06	   78.0634	        19	   6.21123	 4.0459e+06	    77.792	        19	         6	4.22559e+06	
         R10	   4819	   73.0346	        19	       9.4	4.70954e+06	     72.25	        19	       9.4	4.07722e+06	     72.25	        19	     10.25	4.29526e+06	   73.1513	        19	     10.25	 5.7534e+06	   72.6423	        19	       9.4	 4.3054e+06	     72.25	        19	     9.825	4.17633e+06	   72.7007	        19	     10.25	 5.0227e+06	    73.093	        19	     9.825	5.16106e+06	
         R10	   4820	   73.7887	        19	       9.4	2.51964e+06	   73.0346	        19	       9.4	3.03746e+06	   73.1513	        19	     10.25	6.04674e+06	    74.027	        19	     10.25	5.46992e+06	   73.4117	        19	       9.4	2.65024e+06	    73.093	        19	     9.825	4.47595e+06	   73.5891	        19	     10.25	 5.6162e+06	   73.9078	        19	     9.825	3.77343e+06	
         R10	   4821	   74.5123	        19	       9.4	2.95081e+06	   73.7887	        19	       9.4	2.14452e+06	    74.027	        19	     10.25	5.95556e+06	    74.877	        19	     10.25	5.48244e+06	   74.1505	        19	       9.4	2.54675e+06	   73.9078	        19	     9.825	4.01428e+06	    74.452	        19	     10.25	5.71409e+06	   74.6946	        19	     9.825	 4.1969e+06	
         R10	   4822	   75.2054	        19	       9.4	3.95689e+06	   74.5123	        19	       9.4	 2.9394e+06	    74.877	        19	     10.25	5.09285e+06	   75.7013	        19	     10.25	4.54577e+06	   74.8588	        19	       9.4	3.42818e+06	   74.6946	        19	     9.825	3.97706e+06	   75.2892	        19	     10.25	 4.7777e+06	   75.4534	        19	     9.825	4.20706e+06	
         R10	   4823	   75.7013	        19	     10.25	4.76247e+06	      76.5	        19	     10.25	4.20874e+06	      76.5	        19	       9.4	6.22686e+06	   75.8679	        19	       9.4	4.82627e+06	   76.1007	        19	     10.25	4.31317e+06	      76.5	        19	     9.825	4.33713e+06	    76.184	        19	       9.4	5.15143e+06	   75.7846	        19	     9.825	4.78697e+06	
         R10	   4824	   75.2054	        19	       9.4	4.10384e+06	   75.7013	        19	     10.25	4.68637e+06	   75.8679	        19	       9.4	4.71454e+06	   75.4534	        19	     9.825	4.35187e+06	   75.7846	        19	     9.825	4.68935e+06	   75.5367	        19	       9.4	4.39393e+06	       N/A	       N/A	       N/A	        N/A	       N/A	       N/A	       N/A	        N/A	
         R10	   4825	   77.1671	        19	       9.4	3.32387e+06	      76.5	        19	       9.4	4.50948e+06	      76.5	        19	     10.25	4.50315e+06	   77.1671	        19	     10.25	6.17062e+06	   76.8335	        19	       9.4	3.82645e+06	      76.5	        19	     9.825	4.06734e+06	   76.8335	        19	     10.25	5.22497e+06	   77.1671	        19	     9.825	4.73009e+06	
         R10	   4826	   77.8754	        19	       9.4	2.24375e+06	   77.1671	        19	       9.4	3.27189e+06	   77.1671	        19	     10.25	6.09423e+06	   77.8754	        19	     10.25	6.46986e+06	   77.5212	        19	       9.4	2.75675e+06	   77.1671	        19	     9.825	4.68172e+06	   77.5212	        19	     10.25	6.28147e+06	   77.8754	        19	     9.825	4.35178e+06	
         R10	   4827	    78.625	        19	       9.4	1.40227e+06	   77.8754	        19	       9.4	2.36314e+06	   77.8754	        19	     10.25	6.51423e+06	    78.625	        19	     10.25	5.43504e+06	   78.2502	        19	       9.4	1.78704e+06	   77.8754	        19	     9.825	4.42171e+06	   78.2502	        19	     10.25	5.96168e+06	    78.625	        19	     9.825	3.28356e+06	
         R10	   4828	   75.8449	   17.2941	         0	1.38204e+07	   75.8555	      16.9	         0	 1.4443e+07	   75.4288	      16.9	         0	1.47544e+07	   75.4207	   17.3463	         0	1.45242e+07	   75.8502	   17.0971	         0	9.59505e+06	   75.6422	      16.9	         0	1.45824e+07	   75.4247	   17.1232	         0	1.03951e+07	   75.6328	   17.3202	         0	1.41719e+07	
         R10	   4829	   76.2026	   17.2427	         0	9.73297e+06	   76.2126	      16.9	         0	1.06397e+07	   75.8555	      16.9	         0	1.47835e+07	   75.8449	   17.2941	         0	1.38071e+07	   76.2076	   17.0714	         0	8.59106e+06	   76.0341	      16.9	         0	1.26469e+07	   75.8502	   17.0971	         0	9.72093e+06	   76.0237	   17.2684	         0	1.15623e+07	
         R10	   4830	      76.5	    17.154	         0	6.13517e+06	      76.5	      16.9	         0	5.39396e+06	   76.2126	      16.9	         0	1.05486e+07	   76.2026	   17.2427	         0	 1.5747e+07	      76.5	    17.027	         0	1.94798e+06	   76.3563	      16.9	         0	6.48613e+06	   76.2076	   17.0714	         0	1.14609e+07	   76.3513	   17.1984	         0	6.25215e+06	
         R10	   4831	   76.1922	      17.7	         0	9.06426e+06	      76.5	      17.7	         0	7.20417e+06	      76.5	   17.4206	         0	6.17629e+06	   76.2026	   17.2427	         0	1.47846e+07	   76.3461	      17.7	         0	5.95315e+06	      76.5	   17.5603	         0	2.86762e+06	   76.3513	   17.3317	         0	6.79365e+06	   76.1974	   17.4714	         0	1.05536e+07	
         R10	   4832	   75.8205	      17.7	         0	1.36951e+07	   76.1922	      17.7	         0	8.62355e+06	   76.2026	   17.2427	         0	1.00542e+07	   75.8449	   17.2941	         0	1.39577e+07	   76.0064	      17.7	         0	1.10339e+07	   76.1974	   17.4714	         0	8.20064e+06	   76.0237	   17.2684	         0	1.18568e+07	   75.8327	   17.4971	         0	9.57593e+06	
         R10	   4833	    75.385	      17.7	         0	1.62539e+07	   75.8205	      17.7	         0	1.37124e+07	   75.8449	   17.2941	         0	1.43879e+07	   75.4207	   17.3463	         0	1.52442e+07	   75.6028	      17.7	         0	1.49815e+07	   75.8327	   17.4971	         0	9.81458e+06	   75.6328	   17.3202	         0	  1.481e+07	   75.4028	   17.5232	         0	1.09029e+07	
         R10	   4834	   74.8857	      17.7	         0	1.23913e+07	    75.385	      17.7	         0	1.63857e+07	   75.4207	   17.3463	         0	1.68873e+07	   74.9614	   17.3293	         0	9.89547e+06	   75.1354	      17.7	         0	1.36853e+07	   75.4028	   17.5232	         0	1.21596e+07	    75.191	   17.3378	         0	1.28186e+07	   74.9235	   17.5147	         0	1.10496e+07	
         R10	   4835	   73.0251	      16.9	         0	9.40338e+06	     72.25	      16.9	         0	5.89049e+06	     72.25	      17.7	         0	5.44347e+06	   73.0047	      17.7	         0	8.73056e+06	   72.6376	      16.9	         0	7.57832e+06	     72.25	      17.3	         0	5.63336e+06	   72.6273	      17.7	         0	6.82789e+06	   73.0149	      17.3	         0	8.66731e+06	
         R10	   4836	   73.7305	      16.9	         0	1.10263e+07	   73.0251	      16.9	         0	9.53513e+06	   73.0047	      17.7	         0	 9.2326e+06	   73.6955	      17.7	         0	1.09661e+07	   73.3778	      16.9	         0	1.02344e+07	   73.0149	      17.3	         0	9.06916e+06	   73.3501	      17.7	         0	1.00665e+07	    73.713	      17.3	         0	1.09564e+07	
         R10	   4837	   74.3663	      16.9	         0	1.15204e+07	   73.7305	      16.9	         0	1.08639e+07	   73.6955	      17.7	         0	1.08507e+07	   74.3225	      17.7	         0	1.15663e+07	   74.0484	      16.9	         0	1.11895e+07	    73.713	      17.3	         0	1.08109e+07	    74.009	      17.7	         0	1.11925e+07	   74.3444	      17.3	         0	1.15381e+07	
         R10	   4838	   74.9614	   17.3293	         0	 1.0751e+07	   75.4207	   17.3463	         0	 1.6268e+07	   75.4288	      16.9	         0	1.48453e+07	   74.9324	      16.9	         0	 1.2651e+07	    75.191	   17.3378	         0	1.34404e+07	   75.4247	   17.1232	         0	1.15506e+07	   75.1806	      16.9	         0	1.35472e+07	   74.9469	   17.1147	         0	 1.0447e+07	
         R10	   4839	   74.3225	      17.7	         0	1.16156e+07	   74.8857	      17.7	         0	1.18222e+07	   74.9614	   17.3293	         0	9.49851e+06	   74.3663	      16.9	         0	1.12825e+07	   74.6041	      17.7	         0	1.16426e+07	   74.9235	   17.5147	         0	1.05817e+07	   74.6638	   17.1147	         0	1.03487e+07	   74.3444	      17.3	         0	1.14488e+07	
         R10	   4840	      76.5	   17.4206	         0	2.14347e+06	      76.5	    17.154	         0	3.19234e+06	   76.2026	   17.2427	         0	1.47386e+07	      76.5	   17.2873	         0	2.51493e+06	   76.3513	   17.1984	         0	 6.4851e+06	   76.3513	   17.3317	         0	7.26034e+06	       N/A	       N/A	       N/A	        N/A	       N/A	       N/A	       N/A	        N/A	
         R10	   4841	   74.9614	   17.3293	         0	1.27478e+07	   74.9324	      16.9	         0	1.27514e+07	   74.3663	      16.9	         0	1.18056e+07	   74.9469	   17.1147	         0	1.14857e+07	   74.6493	      16.9	         0	1.21384e+07	   74.6638	   17.1147	         0	1.16881e+07	       N/A	       N/A	       N/A	        N/A	       N/A	       N/A	       N/A	        N/A	
         R10	   4842	   75.7788	   18.0966	         0	1.54982e+07	   75.8205	      17.7	         0	1.47121e+07	    75.385	      17.7	         0	1.65263e+07	   75.3746	   18.0918	         0	1.65001e+07	   75.7997	   17.8983	         0	9.77308e+06	   75.6028	      17.7	         0	1.56185e+07	   75.3798	   17.8959	         0	1.04567e+07	   75.5767	   18.0942	         0	1.59788e+07	
         R10	   4843	   76.1524	    18.104	         0	1.04996e+07	   76.1922	      17.7	         0	1.04706e+07	   75.8205	      17.7	         0	1.47935e+07	   75.7788	   18.0966	         0	  1.521e+07	   76.1723	    17.902	         0	7.51535e+06	   76.0064	      17.7	         0	1.26085e+07	   75.7997	   17.8983	         0	9.57737e+06	   75.9656	   18.1003	         0	1.27926e+07	
         R10	   4844	      76.5	    18.081	         0	3.48078e+06	      76.5	      17.7	         0	3.92105e+06	   76.1922	      17.7	         0	1.04916e+07	   76.1524	    18.104	         0	1.79493e+07	      76.5	   17.8905	         0	1.05427e+06	   76.3461	      17.7	         0	 6.5951e+06	   76.1723	    17.902	         0	1.17859e+07	   76.3262	   18.0925	         0	7.28182e+06	
         R10	   4845	   76.1354	      18.5	         0	9.32037e+06	      76.5	      18.5	         0	  5.677e+06	      76.5	    18.081	         0	 5.8191e+06	   76.1524	    18.104	         0	1.72267e+07	   76.3177	      18.5	         0	5.18005e+06	      76.5	   18.2905	         0	 2.6291e+06	   76.3262	   18.0925	         0	6.63951e+06	   76.1439	    18.302	         0	1.12427e+07	
         R10	   4846	   75.7574	      18.5	         0	1.52979e+07	   76.1354	      18.5	         0	9.84676e+06	   76.1524	    18.104	         0	1.00407e+07	   75.7788	   18.0966	         0	 1.5389e+07	   75.9464	      18.5	         0	1.25133e+07	   76.1439	    18.302	         0	7.49808e+06	   75.9656	   18.1003	         0	1.26744e+07	   75.7681	   18.2983	         0	9.70922e+06	
         R10	   4847	   75.3659	      18.5	         0	1.70939e+07	   75.7574	      18.5	         0	1.52028e+07	   75.7788	   18.0966	         0	1.56954e+07	   75.3746	   18.0918	         0	1.62568e+07	   75.5617	      18.5	         0	1.61479e+07	   75.7681	   18.2983	         0	9.89129e+06	   75.5767	   18.0942	         0	1.59529e+07	   75.3703	   18.2959	         0	1.06819e+07	
         R10	   4848	   74.9611	      18.5	         0	1.72753e+07	   75.3659	      18.5	         0	1.70954e+07	   75.3746	   18.0918	         0	1.55611e+07	   74.9337	   18.0885	         0	1.81565e+07	   75.1635	      18.5	         0	1.71784e+07	   75.3703	   18.2959	         0	1.01764e+07	   75.1542	   18.0901	         0	 1.6775e+07	   74.9474	   18.2942	         0	1.26138e+07	
         R10	   4849	   74.5876	   18.1275	         0	 1.6431e+07	   74.5428	      18.5	         0	 1.3701e+07	   74.9611	      18.5	         0	1.74683e+07	   74.9337	   18.0885	         0	1.57791e+07	   74.5652	   18.3138	         0	1.37033e+07	   74.7519	      18.5	         0	1.53736e+07	   74.9474	   18.2942	         0	1.10868e+07	   74.7607	    18.108	         0	1.55809e+07	
         R10	   4850	   73.0047	      17.7	         0	 8.8546e+06	     72.25	      17.7	         0	5.36593e+06	     72.25	      18.5	         0	4.25904e+06	   72.7354	      18.5	         0	8.07194e+06	   72.6273	      17.7	         0	7.08298e+06	     72.25	      18.1	         0	4.81001e+06	   72.4927	      18.5	         0	6.00039e+06	     72.87	      18.1	         0	8.05034e+06	
         R10	   4851	   73.6955	      17.7	         0	1.11357e+07	   73.0047	      17.7	         0	 9.5762e+06	   72.7354	      18.5	         0	7.73218e+06	   73.2074	      18.5	         0	9.64585e+06	   73.3501	      17.7	         0	1.03125e+07	     72.87	      18.1	         0	8.29373e+06	   72.9714	      18.5	         0	8.65825e+06	   73.4515	      18.1	         0	1.03097e+07	
         R10	   4852	   74.9337	   18.0885	         0	1.66373e+07	   75.3746	   18.0918	         0	1.61167e+07	    75.385	      17.7	         0	 1.6553e+07	   74.8857	      17.7	         0	1.54757e+07	   75.1542	   18.0901	         0	1.61886e+07	   75.3798	   17.8959	         0	1.01769e+07	   75.1354	      17.7	         0	1.59736e+07	   74.9097	   17.8942	         0	1.24291e+07	
         R10	   4853	   74.5876	   18.1275	         0	1.40603e+07	   74.9337	   18.0885	         0	1.46251e+07	   74.8857	      17.7	         0	1.54016e+07	   74.3225	      17.7	         0	1.15818e+07	   74.7607	    18.108	         0	1.35021e+07	   74.9097	   17.8942	         0	1.09854e+07	   74.6041	      17.7	         0	1.27714e+07	   74.4551	   17.9138	         0	1.27796e+07	
         R10	   4854	   74.1111	      18.5	         0	1.16844e+07	   74.5428	      18.5	         0	1.35574e+07	   74.5876	   18.1275	         0	8.11741e+06	   74.3225	      17.7	         0	9.79672e+06	   74.3269	      18.5	         0	1.23484e+07	   74.5652	   18.3138	         0	9.83202e+06	   74.4551	   17.9138	         0	8.56138e+06	   74.2168	      18.1	         0	1.07271e+07	
         R10	   4855	   73.6659	      18.5	         0	1.08104e+07	   74.1111	      18.5	         0	1.15135e+07	   74.3225	      17.7	         0	 1.1539e+07	   73.6955	      17.7	         0	1.08695e+07	   73.8885	      18.5	         0	1.11486e+07	   74.2168	      18.1	         0	1.15136e+07	    74.009	      17.7	         0	1.11971e+07	   73.6807	      18.1	         0	1.07999e+07	
         R10	   4856	   73.6659	      18.5	         0	1.09327e+07	   73.6955	      17.7	         0	1.04814e+07	   73.2074	      18.5	         0	9.68574e+06	   73.6807	      18.1	         0	1.06597e+07	   73.4515	      18.1	         0	1.00072e+07	   73.4367	      18.5	         0	1.03049e+07	       N/A	       N/A	       N/A	        N/A	       N/A	       N/A	       N/A	        N/A	
         R10	   4857	   73.1549	   18.8955	         0	1.78964e+07	   73.2074	      18.5	         0	1.61994e+07	   72.7354	      18.5	         0	1.28904e+07	   72.7044	   18.8941	         0	1.17544e+07	   73.1811	   18.6978	         0	1.10624e+07	   72.9714	      18.5	         0	 1.4537e+07	   72.7199	    18.697	         0	5.94673e+06	   72.9297	   18.8948	         0	1.45284e+07	
         R10	   4858	   73.5985	    18.897	         0	1.73477e+07	   73.6659	      18.5	         0	1.78059e+07	   73.2074	      18.5	         0	1.58948e+07	   73.1549	   18.8955	         0	1.52282e+07	   73.6322	   18.6985	         0	1.08559e+07	   73.4367	      18.5	         0	1.68498e+07	   73.1811	   18.6978	         0	8.93604e+06	   73.3767	   18.8962	         0	1.62656e+07	
         R10	   4859	   74.0346	   18.8985	         0	1.73952e+07	   74.1111	      18.5	         0	1.88025e+07	   73.6659	      18.5	         0	1.79288e+07	   73.5985	    18.897	         0	1.69535e+07	   74.0728	   18.6992	         0	1.13031e+07	   73.8885	      18.5	         0	1.83627e+07	   73.6322	   18.6985	         0	1.07876e+07	   73.8165	   18.8977	         0	1.71713e+07	
         R10	   4860	   74.4629	      18.9	         0	1.74423e+07	   74.5428	      18.5	         0	1.84543e+07	   74.1111	      18.5	         0	1.86565e+07	   74.0346	   18.8985	         0	1.77292e+07	   74.5028	      18.7	         0	1.14612e+07	   74.3269	      18.5	         0	1.85524e+07	   74.0728	   18.6992	         0	1.15176e+07	   74.2487	   18.8992	         0	1.75833e+07	
         R10	   4861	   74.8836	   18.9016	         0	 1.7597e+07	   74.9611	      18.5	         0	1.81694e+07	   74.5428	      18.5	         0	 1.8458e+07	   74.4629	      18.9	         0	1.76112e+07	   74.9223	   18.7008	         0	1.12362e+07	   74.7519	      18.5	         0	1.83134e+07	   74.5028	      18.7	         0	1.16988e+07	   74.6732	   18.9008	         0	1.75979e+07	
         R10	   4862	   75.2968	   18.9033	         0	1.74825e+07	   75.3659	      18.5	         0	1.71549e+07	   74.9611	      18.5	         0	1.81108e+07	   74.8836	   18.9016	         0	1.74697e+07	   75.3314	   18.7016	         0	1.07643e+07	   75.1635	      18.5	         0	1.76323e+07	   74.9223	   18.7008	         0	1.12541e+07	   75.0902	   18.9025	         0	1.74699e+07	
         R10	   4863	    75.703	    18.905	         0	1.65109e+07	   75.7574	      18.5	         0	1.49596e+07	   75.3659	      18.5	         0	1.71285e+07	   75.2968	   18.9033	         0	1.66358e+07	   75.7302	   18.7025	         0	9.94911e+06	   75.5617	      18.5	         0	1.60441e+07	   75.3314	   18.7016	         0	1.02314e+07	   75.4999	   18.9041	         0	 1.6552e+07	
         R10	   4864	   76.1029	   18.9068	         0	1.20283e+07	   76.1354	      18.5	         0	 1.0465e+07	   75.7574	      18.5	         0	1.50515e+07	    75.703	    18.905	         0	1.60033e+07	   76.1191	   18.7034	         0	7.48048e+06	   75.9464	      18.5	         0	1.27388e+07	   75.7302	   18.7025	         0	9.75239e+06	   75.9029	   18.9059	         0	1.40134e+07	
         R10	   4865	      76.5	    18.862	         0	5.17291e+06	      76.5	      18.5	         0	5.28028e+06	   76.1354	      18.5	         0	1.05195e+07	   76.1029	   18.9068	         0	2.02562e+07	      76.5	    18.681	         0	3.16568e+06	   76.3177	      18.5	         0	5.72339e+06	   76.1191	   18.7034	         0	1.24573e+07	   76.3014	   18.8844	         0	8.62097e+06	
         R10	   4866	   76.0751	      19.3	         0	9.79441e+06	      76.5	      19.3	         0	7.84124e+06	      76.5	    18.862	         0	5.86935e+06	   76.1029	   18.9068	         0	1.91638e+07	   76.2875	      19.3	         0	6.16295e+06	      76.5	    19.081	         0	1.82704e+06	   76.3014	   18.8844	         0	6.83683e+06	    76.089	   19.1034	         0	1.23459e+07	
         R10	   4867	   75.6501	      19.3	         0	1.34355e+07	   76.0751	      19.3	         0	1.01653e+07	   76.1029	   18.9068	         0	 1.1954e+07	    75.703	    18.905	         0	1.65818e+07	   75.8626	      19.3	         0	1.17701e+07	    76.089	   19.1034	         0	8.12196e+06	   75.9029	   18.9059	         0	1.42241e+07	   75.6765	   19.1025	         0	1.01466e+07	
         R10	   4868	   75.2251	      19.3	         0	1.35149e+07	   75.6501	      19.3	         0	1.32163e+07	    75.703	    18.905	         0	1.73414e+07	   75.2968	   18.9033	         0	1.67968e+07	   75.4376	      19.3	         0	 1.3356e+07	   75.6765	   19.1025	         0	1.04656e+07	   75.4999	   18.9041	         0	1.70546e+07	    75.261	   19.1016	         0	 1.0564e+07	
         R10	   4869	   74.8001	      19.3	         0	1.32897e+07	   75.2251	      19.3	         0	1.35284e+07	   75.2968	   18.9033	         0	 1.7744e+07	   74.8836	   18.9016	         0	 1.7398e+07	   75.0126	      19.3	         0	 1.3398e+07	    75.261	   19.1016	         0	1.11288e+07	   75.0902	   18.9025	         0	1.75559e+07	   74.8419	   19.1008	         0	1.14562e+07	
         R10	   4870	   74.3752	      19.3	         0	1.31834e+07	   74.8001	      19.3	         0	1.32983e+07	   74.8836	   18.9016	         0	 1.7563e+07	   74.4629	      18.9	         0	1.78264e+07	   74.5877	      19.3	         0	1.32397e+07	   74.8419	   19.1008	         0	1.14611e+07	   74.6732	   18.9008	         0	1.76808e+07	    74.419	      19.1	         0	1.17999e+07	
         R10	   4871	   73.9501	      19.3	         0	1.29359e+07	   74.3752	      19.3	         0	1.32049e+07	   74.4629	      18.9	         0	1.76287e+07	   74.0346	   18.8985	         0	1.74849e+07	   74.1627	      19.3	         0	1.30703e+07	    74.419	      19.1	         0	1.15892e+07	   74.2487	   18.8992	         0	1.75426e+07	   73.9924	   19.0992	         0	1.16047e+07	
         R10	   4872	   73.5251	      19.3	         0	1.26426e+07	   73.9501	      19.3	         0	1.29316e+07	   74.0346	   18.8985	         0	1.72319e+07	   73.5985	    18.897	         0	1.66052e+07	   73.7376	      19.3	         0	1.27834e+07	   73.9924	   19.0992	         0	1.13353e+07	   73.8165	   18.8977	         0	 1.6905e+07	   73.5618	   19.0985	         0	 1.0782e+07	
         R10	   4873	   73.1001	      19.3	         0	1.22643e+07	   73.5251	      19.3	         0	1.26285e+07	   73.5985	    18.897	         0	1.69039e+07	   73.1549	   18.8955	         0	1.49581e+07	   73.3126	      19.3	         0	1.24306e+07	   73.5618	   19.0985	         0	1.09041e+07	   73.3767	   18.8962	         0	1.58846e+07	   73.1275	   19.0978	         0	9.06998e+06	
         R10	   4874	   72.6751	      19.3	         0	1.05346e+07	   73.1001	      19.3	         0	1.23484e+07	   73.1549	   18.8955	         0	1.77056e+07	   72.7044	   18.8941	         0	1.11951e+07	   72.8876	      19.3	         0	1.14354e+07	   73.1275	   19.0978	         0	1.10789e+07	   72.9297	   18.8948	         0	1.40875e+07	   72.6897	    19.097	         0	6.07253e+06	
         R10	   4875	     72.25	    18.919	         0	 5.1462e+06	     72.25	      19.3	         0	4.23536e+06	   72.6751	      19.3	         0	1.07722e+07	   72.7044	   18.8941	         0	2.25929e+07	     72.25	   19.1095	         0	1.67761e+06	   72.4625	      19.3	         0	6.75827e+06	   72.6897	    19.097	         0	1.37653e+07	   72.4772	   18.9066	         0	9.55887e+06	
         R10	   4876	     72.25	      18.5	         0	3.72571e+06	     72.25	    18.919	         0	 6.0479e+06	   72.7044	   18.8941	         0	2.27109e+07	   72.7354	      18.5	         0	1.22887e+07	     72.25	   18.7095	         0	2.72498e+06	   72.4772	   18.9066	         0	9.44079e+06	   72.7199	    18.697	         0	1.28623e+07	   72.4927	      18.5	         0	6.90532e+06	
         R10	   4877	   77.1016	   17.2275	         0	1.30988e+07	   77.1016	      16.9	         0	1.58213e+07	   76.7875	      16.9	         0	1.02587e+07	   76.7875	   17.2008	         0	9.45847e+06	   77.1016	   17.0637	         0	9.25451e+06	   76.9445	      16.9	         0	1.29333e+07	   76.7875	   17.0504	         0	 8.2199e+06	   76.9445	   17.2141	         0	1.10462e+07	
         R10	   4878	   77.4424	   17.2542	         0	1.45228e+07	   77.4424	      16.9	         0	1.70235e+07	   77.1016	      16.9	         0	1.57029e+07	   77.1016	   17.2275	         0	1.28991e+07	   77.4424	   17.0771	         0	1.04535e+07	    77.272	      16.9	         0	1.63613e+07	   77.1016	   17.0637	         0	9.09612e+06	    77.272	   17.2408	         0	1.36843e+07	
         R10	   4879	   77.8099	   17.2808	         0	1.50735e+07	   77.8099	      16.9	         0	1.71184e+07	   77.4424	      16.9	         0	1.68945e+07	   77.4424	   17.2542	         0	1.41477e+07	   77.8099	   17.0904	         0	1.07497e+07	   77.6262	      16.9	         0	 1.7001e+07	   77.4424	   17.0771	         0	1.01219e+07	   77.6262	   17.2675	         0	1.45976e+07	
         R10	   4880	   78.2041	   17.3075	         0	1.60763e+07	   78.2041	      16.9	         0	1.72068e+07	   77.8099	      16.9	         0	1.71453e+07	   77.8099	   17.2808	         0	1.52382e+07	   78.2041	   17.1038	         0	1.10632e+07	    78.007	      16.9	         0	1.71732e+07	   77.8099	   17.0904	         0	1.08799e+07	    78.007	   17.2942	         0	1.56386e+07	
         R10	   4881	    78.625	    17.281	         0	1.56809e+07	    78.625	      16.9	         0	1.74717e+07	   78.2041	      16.9	         0	1.72207e+07	   78.2041	   17.3075	         0	 1.6157e+07	    78.625	   17.0905	         0	1.16259e+07	   78.4146	      16.9	         0	1.73461e+07	   78.2041	   17.1038	         0	1.11287e+07	   78.4146	   17.2942	         0	1.58922e+07	
         R10	   4882	     78.12	      17.7	         0	1.64947e+07	    78.625	      17.7	         0	1.71454e+07	    78.625	    17.281	         0	1.70671e+07	   78.2041	   17.3075	         0	1.54632e+07	   78.3725	      17.7	         0	1.68169e+07	    78.625	   17.4905	         0	1.16168e+07	   78.4146	   17.2942	         0	 1.6264e+07	    78.162	   17.5038	         0	1.11076e+07	
         R10	   4883	   77.6549	      17.7	         0	1.54868e+07	     78.12	      17.7	         0	1.64931e+07	   78.2041	   17.3075	         0	1.53592e+07	   77.8099	   17.2808	         0	1.66495e+07	   77.8874	      17.7	         0	1.59887e+07	    78.162	   17.5038	         0	1.11807e+07	    78.007	   17.2942	         0	1.59913e+07	   77.7324	   17.4904	         0	 1.0748e+07	
         R10	   4884	   77.2299	      17.7	         0	1.28967e+07	   77.6549	      17.7	         0	1.53421e+07	   77.8099	   17.2808	         0	1.62125e+07	   77.4424	   17.2542	         0	1.51435e+07	   77.4424	      17.7	         0	 1.4116e+07	   77.7324	   17.4904	         0	1.06908e+07	   77.6262	   17.2675	         0	1.56714e+07	   77.3362	   17.4771	         0	9.72669e+06	
         R10	   4885	    76.845	      17.7	         0	8.33628e+06	   77.2299	      17.7	         0	1.27207e+07	   77.4424	   17.2542	         0	1.51517e+07	   77.1016	   17.2275	         0	1.07427e+07	   77.0374	      17.7	         0	1.04021e+07	   77.3362	   17.4771	         0	1.00765e+07	    77.272	   17.2408	         0	1.28713e+07	   76.9733	   17.4637	         0	8.35218e+06	
         R10	   4886	   76.7875	   17.2008	         0	1.15665e+07	   76.7875	      16.9	         0	9.97884e+06	      76.5	      16.9	         0	4.68074e+06	      76.5	    17.154	         0	5.87937e+06	   76.7875	   17.0504	         0	9.02024e+06	   76.6437	      16.9	         0	5.63683e+06	      76.5	    17.027	         0	3.09488e+06	   76.6437	   17.1774	         0	6.45656e+06	
         R10	   4887	      76.5	   17.4206	         0	8.30162e+06	      76.5	      17.7	         0	7.66935e+06	    76.845	      17.7	         0	6.73799e+06	   76.7108	   17.4405	         0	1.31747e+07	      76.5	   17.5603	         0	3.10248e+06	   76.6725	      17.7	         0	6.23306e+06	   76.7779	   17.5702	         0	9.67323e+06	   76.6054	   17.4306	         0	7.30023e+06	
         R10	   4888	   76.7875	   17.2008	         0	1.18014e+07	      76.5	    17.154	         0	2.63788e+06	      76.5	   17.4206	         0	3.60209e+06	   76.7108	   17.4405	         0	1.33016e+07	   76.6437	   17.1774	         0	6.40862e+06	      76.5	   17.2873	         0	2.48138e+06	   76.6054	   17.4306	         0	5.63883e+06	   76.7491	   17.3206	         0	1.14607e+07	
         R10	   4889	    76.845	      17.7	         0	1.17203e+07	   77.1016	   17.2275	         0	1.09194e+07	   76.7875	   17.2008	         0	1.14638e+07	   76.7108	   17.4405	         0	 1.9152e+06	   76.9733	   17.4637	         0	1.04462e+07	   76.9445	   17.2141	         0	1.10633e+07	   76.7491	   17.3206	         0	 5.8195e+06	   76.7779	   17.5702	         0	6.38973e+06	
         R10	   4890	   77.2677	   18.1007	         0	1.51693e+07	   77.2299	      17.7	         0	1.53861e+07	    76.845	      17.7	         0	1.15585e+07	   76.8722	   18.1008	         0	1.09329e+07	   77.2488	   17.9003	         0	9.49967e+06	   77.0374	      17.7	         0	1.34656e+07	   76.8586	   17.9004	         0	7.35331e+06	     77.07	   18.1008	         0	1.30159e+07	
         R10	   4891	   77.6965	   18.1007	         0	1.54043e+07	   77.6549	      17.7	         0	1.65249e+07	   77.2299	      17.7	         0	1.53465e+07	   77.2677	   18.1007	         0	1.56066e+07	   77.6757	   17.9004	         0	9.91629e+06	   77.4424	      17.7	         0	1.59306e+07	   77.2488	   17.9003	         0	9.82024e+06	   77.4821	   18.1007	         0	1.54911e+07	
         R10	   4892	   78.1546	   18.0984	         0	1.57799e+07	    78.625	   18.0999	         0	1.65205e+07	    78.625	      17.7	         0	1.59474e+07	     78.12	      17.7	         0	1.68144e+07	   78.3898	   18.0992	         0	 1.6112e+07	    78.625	      17.9	         0	1.20755e+07	   78.3725	      17.7	         0	1.63701e+07	   78.1373	   17.8992	         0	1.09312e+07	
         R10	   4893	   78.1396	      18.5	         0	1.77822e+07	    78.625	      18.5	         0	1.80415e+07	    78.625	   18.0999	         0	 1.7942e+07	   78.1546	   18.0984	         0	1.62549e+07	   78.3823	      18.5	         0	1.79089e+07	    78.625	      18.3	         0	1.21342e+07	   78.3898	   18.0992	         0	1.70863e+07	   78.1471	   18.2992	         0	1.10053e+07	
         R10	   4894	   76.8722	   18.1008	         0	1.84307e+07	    76.845	      17.7	         0	1.13545e+07	      76.5	      17.7	         0	3.35115e+06	      76.5	    18.081	         0	 3.0267e+06	   76.8586	   17.9004	         0	1.16173e+07	   76.6725	      17.7	         0	 6.6498e+06	      76.5	   17.8905	         0	     928484	   76.6861	   18.0909	         0	 7.7666e+06	
         R10	   4895	   78.1546	   18.0984	         0	1.62896e+07	     78.12	      17.7	         0	1.68098e+07	   77.6549	      17.7	         0	1.65895e+07	   77.6965	   18.1007	         0	1.62852e+07	   78.1373	   17.8992	         0	1.12593e+07	   77.8874	      17.7	         0	1.66927e+07	   77.6757	   17.9004	         0	1.06507e+07	   77.9256	   18.0995	         0	1.62818e+07	
         R10	   4896	   77.6844	      18.5	         0	1.67724e+07	   78.1396	      18.5	         0	1.77983e+07	   78.1546	   18.0984	         0	1.67033e+07	   77.6965	   18.1007	         0	1.63168e+07	    77.912	      18.5	         0	1.72831e+07	   78.1471	   18.2992	         0	1.13415e+07	   77.9256	   18.0995	         0	1.65099e+07	   77.6905	   18.3004	         0	1.07487e+07	
         R10	   4897	   77.2594	      18.5	         0	1.47007e+07	   77.6844	      18.5	         0	 1.6764e+07	   77.6965	   18.1007	         0	1.54321e+07	   77.2677	   18.1007	         0	 1.5708e+07	   77.4719	      18.5	         0	1.57312e+07	   77.6905	   18.3004	         0	1.01147e+07	   77.4821	   18.1007	         0	 1.5557e+07	   77.2635	   18.3003	         0	9.92211e+06	
         R10	   4898	   76.8646	      18.5	         0	9.54334e+06	   77.2594	      18.5	         0	1.48012e+07	   77.2677	   18.1007	         0	1.51839e+07	   76.8722	   18.1008	         0	 9.8924e+06	    77.062	      18.5	         0	 1.2113e+07	   77.2635	   18.3003	         0	9.65619e+06	     77.07	   18.1008	         0	1.25164e+07	   76.8684	   18.3004	         0	7.32605e+06	
         R10	   4899	      76.5	    18.081	         0	5.88052e+06	      76.5	      18.5	         0	5.77939e+06	   76.8646	      18.5	         0	9.14563e+06	   76.8722	   18.1008	         0	1.74305e+07	      76.5	   18.2905	         0	3.16102e+06	   76.6823	      18.5	         0	5.19933e+06	   76.8684	   18.3004	         0	1.13776e+07	   76.6861	   18.0909	         0	7.01521e+06	
         R10	   4900	   77.3144	   18.9018	         0	1.59781e+07	   77.2594	      18.5	         0	1.51808e+07	   76.8646	      18.5	         0	1.05028e+07	   76.9037	   18.9056	         0	 1.2006e+07	   77.2869	   18.7009	         0	9.70396e+06	    77.062	      18.5	         0	1.28247e+07	   76.8841	   18.7028	         0	7.35064e+06	    77.109	   18.9037	         0	1.39885e+07	
         R10	   4901	    77.739	   18.8982	         0	1.64684e+07	   77.6844	      18.5	         0	1.73118e+07	   77.2594	      18.5	         0	1.51309e+07	   77.3144	   18.9018	         0	1.64544e+07	   77.7117	   18.6991	         0	1.01943e+07	   77.4719	      18.5	         0	1.62211e+07	   77.2869	   18.7009	         0	9.88044e+06	   77.5267	      18.9	         0	1.64358e+07	
         R10	   4902	   78.1778	   18.8949	         0	1.71078e+07	   78.1396	      18.5	         0	1.82418e+07	   77.6844	      18.5	         0	1.73444e+07	    77.739	   18.8982	         0	1.74744e+07	   78.1587	   18.6975	         0	1.12067e+07	    77.912	      18.5	         0	1.77921e+07	   77.7117	   18.6991	         0	1.08362e+07	   77.9584	   18.8966	         0	1.72786e+07	
         R10	   4903	    78.625	    18.919	         0	1.92028e+07	    78.625	      18.5	         0	1.86184e+07	   78.1396	      18.5	         0	1.82751e+07	   78.1778	   18.8949	         0	1.71899e+07	    78.625	   18.7095	         0	1.17878e+07	   78.3823	      18.5	         0	1.84466e+07	   78.1587	   18.6975	         0	1.11903e+07	   78.4014	    18.907	         0	1.81864e+07	
         R10	   4904	   78.1999	      19.3	         0	1.33285e+07	    78.625	      19.3	         0	1.30471e+07	    78.625	    18.919	         0	1.64781e+07	   78.1778	   18.8949	         0	 1.7395e+07	   78.4125	      19.3	         0	1.31838e+07	    78.625	   19.1095	         0	1.16603e+07	   78.4014	    18.907	         0	1.68754e+07	   78.1889	   19.0975	         0	1.13251e+07	
         R10	   4905	   77.7749	      19.3	         0	 1.3518e+07	   78.1999	      19.3	         0	 1.3317e+07	   78.1778	   18.8949	         0	1.72446e+07	    77.739	   18.8982	         0	1.76858e+07	   77.9874	      19.3	         0	1.34089e+07	   78.1889	   19.0975	         0	1.12744e+07	   77.9584	   18.8966	         0	1.74421e+07	   77.7569	   19.0991	         0	1.11139e+07	
         R10	   4906	   77.3499	      19.3	         0	1.31803e+07	   77.7749	      19.3	         0	1.35262e+07	    77.739	   18.8982	         0	1.66108e+07	   77.3144	   18.9018	         0	 1.7176e+07	   77.5624	      19.3	         0	1.33441e+07	   77.7569	   19.0991	         0	1.04225e+07	   77.5267	      18.9	         0	 1.6872e+07	   77.3322	   19.1009	         0	1.03464e+07	
         R10	   4907	   76.9249	      19.3	         0	1.02223e+07	   77.3499	      19.3	         0	1.34103e+07	   77.3144	   18.9018	         0	1.65213e+07	   76.9037	   18.9056	         0	1.18268e+07	   77.1374	      19.3	         0	1.17886e+07	   77.3322	   19.1009	         0	1.00984e+07	    77.109	   18.9037	         0	1.41298e+07	   76.9143	   19.1028	         0	7.99564e+06	
         R10	   4908	      76.5	    18.862	         0	5.76127e+06	      76.5	      19.3	         0	7.86622e+06	   76.9249	      19.3	         0	9.94673e+06	   76.9037	   18.9056	         0	1.90491e+07	      76.5	    19.081	         0	2.14134e+06	   76.7125	      19.3	         0	6.24313e+06	   76.9143	   19.1028	         0	1.23158e+07	   76.7018	   18.8838	         0	6.96478e+06	
         R10	   4909	      76.5	      18.5	         0	 5.0148e+06	      76.5	    18.862	         0	 4.6756e+06	   76.9037	   18.9056	         0	2.01247e+07	   76.8646	      18.5	         0	1.05336e+07	      76.5	    18.681	         0	2.75672e+06	   76.7018	   18.8838	         0	8.53901e+06	   76.8841	   18.7028	         0	1.23062e+07	   76.6823	      18.5	         0	5.52237e+06	
         R10	   4910	   75.5908	      15.7	         0	1.53723e+07	   75.6206	      15.3	         0	1.55664e+07	   75.2081	      15.3	         0	1.08954e+07	   75.1952	   15.7153	         0	6.64513e+06	   75.6057	      15.5	         0	1.17412e+07	   75.4143	      15.3	         0	1.29533e+07	   75.2016	   15.5077	         0	7.85361e+06	    75.393	   15.7077	         0	1.09327e+07	
         R10	   4911	   75.9485	   15.7047	         0	1.25958e+07	   75.9734	      15.3	         0	1.74191e+07	   75.6206	      15.3	         0	1.50211e+07	   75.5908	      15.7	         0	1.56726e+07	    75.961	   15.5023	         0	1.12395e+07	    75.797	      15.3	         0	1.61915e+07	   75.6057	      15.5	         0	1.15092e+07	   75.7696	   15.7023	         0	1.40562e+07	
         R10	   4912	   76.2628	   15.5326	         0	5.14226e+06	   76.2666	      15.3	         0	1.86757e+07	   75.9734	      15.3	         0	1.61327e+07	   75.9485	   15.7047	         0	 2.0361e+07	   76.2647	   15.4163	         0	1.19053e+07	     76.12	      15.3	         0	 1.6885e+07	    75.961	   15.5023	         0	1.39403e+07	   76.1056	   15.6187	         0	1.19092e+07	
         R10	   4913	      76.5	    15.554	         0	7.35966e+06	      76.5	      15.3	         0	2.13631e+07	   76.2666	      15.3	         0	1.31165e+07	   76.2628	   15.5326	         0	 1.6822e+07	      76.5	    15.427	         0	1.42782e+07	   76.3833	      15.3	         0	1.64724e+07	   76.2647	   15.4163	         0	1.38372e+07	   76.3814	   15.5433	         0	1.20247e+07	
         R10	   4914	      76.5	   15.8206	         0	 2.7058e+06	      76.5	    15.554	         0	8.86524e+06	   76.2628	   15.5326	         0	1.84627e+07	    76.251	   15.8486	         0	1.48538e+07	      76.5	   15.6873	         0	5.28609e+06	   76.3814	   15.5433	         0	1.27325e+07	   76.2569	   15.6906	         0	1.55031e+07	   76.3755	   15.8346	         0	8.05507e+06	
         R10	   4915	   76.2666	      16.1	         0	7.42717e+06	      76.5	      16.1	         0	6.92429e+06	      76.5	   15.8206	         0	9.86585e+06	    76.251	   15.8486	         0	1.63524e+07	   76.3833	      16.1	         0	5.84202e+06	      76.5	   15.9603	         0	3.71385e+06	   76.3755	   15.8346	         0	1.07609e+07	   76.2588	   15.9743	         0	1.17569e+07	
         R10	   4916	    72.961	      15.3	         0	  9.654e+06	     72.25	      15.3	         0	1.38622e+07	     72.25	      16.1	         0	7.36209e+06	    72.961	      16.1	         0	1.01101e+07	   72.6055	      15.3	         0	1.16401e+07	     72.25	      15.7	         0	1.04934e+07	   72.6055	      16.1	         0	8.16802e+06	    72.961	      15.7	         0	9.74476e+06	
         R10	   4917	   73.6123	      15.3	         0	8.45387e+06	    72.961	      15.3	         0	1.11607e+07	    72.961	      16.1	         0	1.01558e+07	   73.6123	      16.1	         0	1.10545e+07	   73.2867	      15.3	         0	9.80207e+06	    72.961	      15.7	         0	1.05149e+07	   73.2867	      16.1	         0	1.05794e+07	   73.6123	      15.7	         0	9.58824e+06	
         R10	   4918	   74.2039	      15.3	         0	9.23162e+06	   73.6123	      15.3	         0	9.84164e+06	   73.6123	      16.1	         0	1.06939e+07	   74.2039	      16.1	         0	1.10147e+07	   73.9081	      15.3	         0	9.51154e+06	   73.6123	      15.7	         0	1.01323e+07	   73.9081	      16.1	         0	1.08234e+07	   74.2039	      15.7	         0	9.90982e+06	
         R10	   4919	   74.7358	      15.3	         0	1.01068e+07	   74.2039	      15.3	         0	9.16715e+06	   74.2039	      16.1	         0	1.10714e+07	   74.7358	      16.1	         0	1.10407e+07	   74.4699	      15.3	         0	9.59794e+06	   74.2039	      15.7	         0	9.91009e+06	   74.4699	      16.1	         0	1.10296e+07	   74.7358	      15.7	         0	1.04368e+07	
         R10	   4920	   75.9734	      16.1	         0	1.45161e+07	   76.2666	      16.1	         0	9.80794e+06	    76.251	   15.8486	         0	6.96796e+06	   75.9485	   15.7047	         0	1.95971e+07	     76.12	      16.1	         0	 1.1698e+07	   76.2588	   15.9743	         0	6.94305e+06	   76.0997	   15.7766	         0	1.09801e+07	    75.961	   15.9023	         0	 1.3647e+07	
         R10	   4921	   75.6206	      16.1	         0	1.52995e+07	   75.9734	      16.1	         0	1.39508e+07	   75.9485	   15.7047	         0	1.30666e+07	   75.5908	      15.7	         0	1.79205e+07	    75.797	      16.1	         0	1.46241e+07	    75.961	   15.9023	         0	1.01108e+07	   75.7696	   15.7023	         0	1.54524e+07	   75.6057	      15.9	         0	1.23551e+07	
         R10	   4922	   75.2081	      16.1	         0	1.26049e+07	   75.6206	      16.1	         0	1.60657e+07	   75.5908	      15.7	         0	1.91199e+07	   75.1952	   15.7153	         0	7.97405e+06	   75.4143	      16.1	         0	1.32215e+07	   75.6057	      15.9	         0	1.35614e+07	    75.393	   15.7077	         0	1.25588e+07	   75.2016	   15.9077	         0	1.02098e+07	
         R10	   4923	   74.7358	      16.1	         0	1.08758e+07	   75.2081	      16.1	         0	1.13171e+07	   75.1952	   15.7153	         0	7.93892e+06	   74.7358	      15.3	         0	1.03624e+07	    74.972	      16.1	         0	 1.1019e+07	   75.2016	   15.9077	         0	9.46531e+06	   74.9655	   15.5077	         0	8.91932e+06	   74.7358	      15.7	         0	1.04824e+07	
         R10	   4924	   75.1952	   15.7153	         0	9.21728e+06	   75.2081	      15.3	         0	1.11427e+07	   74.7358	      15.3	         0	 9.4279e+06	   75.2016	   15.5077	         0	9.28554e+06	    74.972	      15.3	         0	1.02028e+07	   74.9655	   15.5077	         0	8.88865e+06	       N/A	       N/A	       N/A	        N/A	       N/A	       N/A	       N/A	        N/A	
         R10	   4925	    76.251	   15.8486	         0	6.31468e+06	   76.2628	   15.5326	         0	1.13202e+07	   75.9485	   15.7047	         0	1.64004e+07	   76.2569	   15.6906	         0	8.08292e+06	   76.1056	   15.6187	         0	1.33904e+07	   76.0997	   15.7766	         0	1.12337e+07	       N/A	       N/A	       N/A	        N/A	       N/A	       N/A	       N/A	        N/A	
         R10	   4926	   75.6206	   16.4827	         0	1.33044e+07	   75.6206	      16.1	         0	1.37062e+07	   75.2081	      16.1	         0	1.09064e+07	   75.2081	   16.5424	         0	1.48108e+07	   75.6206	   16.2913	         0	9.15966e+06	   75.4143	      16.1	         0	1.18482e+07	   75.2081	   16.3212	         0	1.23843e+07	   75.4143	   16.5125	         0	 1.3532e+07	
         R10	   4927	   75.9734	    16.423	         0	1.29717e+07	   75.9734	      16.1	         0	1.47579e+07	   75.6206	      16.1	         0	1.37501e+07	   75.6206	   16.4827	         0	1.72135e+07	   75.9734	   16.2615	         0	9.09247e+06	    75.797	      16.1	         0	 1.4218e+07	   75.6206	   16.2913	         0	1.17188e+07	    75.797	   16.4528	         0	1.50454e+07	
         R10	   4928	   76.2666	   16.3633	         0	3.30463e+06	   76.2666	      16.1	         0	1.03825e+07	   75.9734	      16.1	         0	1.53861e+07	   75.9734	    16.423	         0	2.02122e+07	   76.2666	   16.2316	         0	5.79406e+06	     76.12	      16.1	         0	1.20556e+07	   75.9734	   16.2615	         0	1.37445e+07	     76.12	   16.3931	         0	9.80542e+06	
         R10	   4929	      76.5	   16.3413	         0	1.10686e+07	      76.5	      16.1	         0	9.66728e+06	   76.2666	      16.1	         0	8.98767e+06	   76.2666	   16.3633	         0	1.70715e+07	      76.5	   16.2207	         0	3.63465e+06	   76.3833	      16.1	         0	8.12366e+06	   76.2666	   16.2316	         0	1.27713e+07	   76.3833	   16.3523	         0	9.73508e+06	
         R10	   4930	   76.2207	    16.608	         0	1.39824e+07	      76.5	    16.608	         0	2.66264e+06	      76.5	   16.3413	         0	4.84334e+06	   76.2666	   16.3633	         0	1.94224e+07	   76.3603	    16.608	         0	6.77606e+06	      76.5	   16.4747	         0	3.44813e+06	   76.3833	   16.3523	         0	8.14012e+06	   76.2436	   16.4856	         0	1.51417e+07	
         R10	   4931	   76.2126	      16.9	         0	8.33061e+06	      76.5	      16.9	         0	5.81445e+06	      76.5	    16.608	         0	7.86047e+06	   76.2207	    16.608	         0	1.40922e+07	   76.3563	      16.9	         0	5.59253e+06	      76.5	    16.754	         0	 2.9119e+06	   76.3603	    16.608	         0	7.99699e+06	   76.2166	    16.754	         0	1.06984e+07	
         R10	   4932	    72.961	      16.1	         0	 9.5011e+06	     72.25	      16.1	         0	7.45213e+06	     72.25	      16.9	         0	6.06282e+06	   73.0251	      16.9	         0	8.91157e+06	   72.6055	      16.1	         0	8.37009e+06	     72.25	      16.5	         0	6.75099e+06	   72.6376	      16.9	         0	7.38575e+06	    72.993	      16.5	         0	9.15748e+06	
         R10	   4933	   73.6123	      16.1	         0	1.09686e+07	    72.961	      16.1	         0	9.49446e+06	   73.0251	      16.9	         0	9.24052e+06	   73.7305	      16.9	         0	1.09958e+07	   73.2867	      16.1	         0	1.01661e+07	    72.993	      16.5	         0	 9.2173e+06	   73.3778	      16.9	         0	1.00841e+07	   73.6714	      16.5	         0	 1.0779e+07	
         R10	   4934	   74.2039	      16.1	         0	1.13369e+07	   73.6123	      16.1	         0	1.09173e+07	   73.7305	      16.9	         0	1.08792e+07	   74.3663	      16.9	         0	1.15848e+07	   73.9081	      16.1	         0	1.11265e+07	   73.6714	      16.5	         0	1.06947e+07	   74.0484	      16.9	         0	1.12178e+07	   74.2851	      16.5	         0	 1.1256e+07	
         R10	   4935	   74.7358	      16.1	         0	1.11569e+07	   74.2039	      16.1	         0	1.13756e+07	   74.3663	      16.9	         0	1.15146e+07	   74.9324	      16.9	         0	1.14565e+07	   74.4699	      16.1	         0	1.12654e+07	   74.2851	      16.5	         0	 1.1233e+07	   74.6493	      16.9	         0	1.14712e+07	   74.8341	      16.5	         0	1.11623e+07	
         R10	   4936	   75.2081	   16.5424	         0	7.90116e+06	   75.2081	      16.1	         0	1.12109e+07	   74.7358	      16.1	         0	1.13861e+07	   74.9324	      16.9	         0	1.13817e+07	   75.2081	   16.3212	         0	8.88246e+06	    74.972	      16.1	         0	1.10553e+07	   74.8341	      16.5	         0	1.10713e+07	   75.0702	   16.7212	         0	8.99247e+06	
         R10	   4937	   75.6206	   16.4827	         0	1.28207e+07	   75.2081	   16.5424	         0	1.60015e+07	   74.9324	      16.9	         0	1.17786e+07	   75.4288	      16.9	         0	1.38364e+07	   75.4143	   16.5125	         0	1.38664e+07	   75.0702	   16.7212	         0	1.35258e+07	   75.1806	      16.9	         0	1.24237e+07	   75.5247	   16.6913	         0	9.80447e+06	
         R10	   4938	   75.9734	    16.423	         0	 1.1549e+07	   75.6206	   16.4827	         0	1.65755e+07	   75.4288	      16.9	         0	1.35165e+07	   75.8555	      16.9	         0	1.23035e+07	    75.797	   16.4528	         0	1.39707e+07	   75.5247	   16.6913	         0	1.21034e+07	   75.6422	      16.9	         0	1.29075e+07	   75.9145	   16.6615	         0	8.83238e+06	
         R10	   4939	   75.8555	      16.9	         0	1.28767e+07	   76.2126	      16.9	         0	9.99772e+06	   76.2207	    16.608	         0	 5.2586e+06	   75.9734	    16.423	         0	1.45098e+07	   76.0341	      16.9	         0	1.13026e+07	   76.2166	    16.754	         0	6.99072e+06	    76.097	   16.5155	         0	9.45329e+06	   75.9145	   16.6615	         0	1.09737e+07	
         R10	   4940	   76.2207	    16.608	         0	1.08154e+07	   76.2666	   16.3633	         0	5.49736e+06	   75.9734	    16.423	         0	1.50408e+07	   76.2436	   16.4856	         0	6.60334e+06	     76.12	   16.3931	         0	9.11768e+06	    76.097	   16.5155	         0	1.27851e+07	       N/A	       N/A	       N/A	        N/A	       N/A	       N/A	       N/A	        N/A	
         R10	   4941	    76.981	   15.5638	         0	1.32159e+07	   76.9666	      15.3	         0	1.83231e+07	   76.7279	      15.3	         0	1.94677e+07	   76.7385	   15.5653	         0	1.20735e+07	   76.9738	   15.4319	         0	1.22387e+07	   76.8472	      15.3	         0	 1.8488e+07	   76.7332	   15.4327	         0	1.46764e+07	   76.8597	   15.5646	         0	1.25801e+07	
         R10	   4942	   77.2374	   15.5575	         0	1.22469e+07	    77.216	      15.3	         0	2.04787e+07	   76.9666	      15.3	         0	1.99678e+07	    76.981	   15.5638	         0	  1.215e+07	   77.2267	   15.4288	         0	1.19519e+07	   77.0913	      15.3	         0	2.01426e+07	   76.9738	   15.4319	         0	1.31917e+07	   77.1092	   15.5607	         0	1.20752e+07	
         R10	   4943	   77.4715	   15.5296	         0	1.06459e+07	   77.4763	      15.3	         0	1.92958e+07	    77.216	      15.3	         0	2.17452e+07	   77.2374	   15.5575	         0	1.18836e+07	   77.4739	   15.4148	         0	1.19937e+07	   77.3462	      15.3	         0	2.03897e+07	   77.2267	   15.4288	         0	1.29772e+07	   77.3544	   15.5436	         0	1.11283e+07	
         R10	   4944	   77.7709	   15.5894	         0	1.02966e+07	   77.7473	      15.3	         0	  1.771e+07	   77.4763	      15.3	         0	1.97851e+07	   77.4715	   15.5296	         0	1.16732e+07	   77.7591	   15.4447	         0	9.85274e+06	   77.6118	      15.3	         0	1.86794e+07	   77.4739	   15.4148	         0	1.28353e+07	   77.6212	   15.5595	         0	 1.0577e+07	
         R10	   4945	   78.0133	   15.6657	         0	1.45415e+07	   78.0291	      15.3	         0	1.72605e+07	   77.7473	      15.3	         0	1.80321e+07	   77.7709	   15.5894	         0	1.16197e+07	   78.0212	   15.4828	         0	8.96332e+06	   77.8882	      15.3	         0	1.75549e+07	   77.7591	   15.4447	         0	1.06364e+07	   77.8921	   15.6275	         0	1.30324e+07	
         R10	   4946	   78.3112	   15.6946	         0	1.48944e+07	   78.3217	      15.3	         0	1.81102e+07	   78.0291	      15.3	         0	1.81694e+07	   78.0133	   15.6657	         0	1.37791e+07	   78.3165	   15.4973	         0	1.01734e+07	   78.1754	      15.3	         0	1.80727e+07	   78.0212	   15.4828	         0	9.48716e+06	   78.1623	   15.6802	         0	 1.4166e+07	
         R10	   4947	    78.625	    15.662	         0	1.24901e+07	    78.625	      15.3	         0	1.46844e+07	   78.3217	      15.3	         0	1.78242e+07	   78.3112	   15.6946	         0	1.55881e+07	    78.625	    15.481	         0	 9.8633e+06	   78.4733	      15.3	         0	1.61532e+07	   78.3165	   15.4973	         0	1.05408e+07	   78.4681	   15.6783	         0	1.38707e+07	
         R10	   4948	   78.2643	      16.1	         0	1.26742e+07	    78.625	      16.1	         0	 1.3279e+07	    78.625	    15.662	         0	 1.6645e+07	   78.3112	   15.6946	         0	1.41974e+07	   78.4446	      16.1	         0	1.29671e+07	    78.625	    15.881	         0	 1.1164e+07	   78.4681	   15.6783	         0	1.52738e+07	   78.2878	   15.8973	         0	1.08943e+07	
         R10	   4949	   77.9226	      16.1	         0	1.14566e+07	   78.2643	      16.1	         0	1.25258e+07	   78.3112	   15.6946	         0	1.44623e+07	   78.0133	   15.6657	         0	 1.1895e+07	   78.0934	      16.1	         0	1.19353e+07	   78.2878	   15.8973	         0	1.09632e+07	   78.1623	   15.6802	         0	1.30369e+07	   77.9679	   15.8828	         0	1.03741e+07	
         R10	   4950	   77.2875	   15.8286	         0	1.50102e+07	   77.2964	      16.1	         0	1.56946e+07	   77.5999	      16.1	         0	1.21079e+07	   77.6146	   15.8099	         0	1.06477e+07	   77.2919	   15.9643	         0	1.22484e+07	   77.4482	      16.1	         0	1.36577e+07	   77.6073	    15.955	         0	1.05807e+07	   77.4511	   15.8192	         0	1.26894e+07	
         R10	   4951	   77.0088	   15.8258	         0	1.40952e+07	   77.0118	      16.1	         0	 1.5321e+07	   77.2964	      16.1	         0	1.56289e+07	   77.2875	   15.8286	         0	1.30674e+07	   77.0103	   15.9629	         0	1.10895e+07	   77.1541	      16.1	         0	1.54684e+07	   77.2919	   15.9643	         0	1.11054e+07	   77.1481	   15.8272	         0	1.35574e+07	
         R10	   4952	   76.7502	   15.8262	         0	1.04279e+07	   76.7464	      16.1	         0	1.01608e+07	   77.0118	      16.1	         0	1.54553e+07	   77.0088	   15.8258	         0	1.33453e+07	   76.7483	   15.9631	         0	 9.6124e+06	   76.8791	      16.1	         0	1.26375e+07	   77.0103	   15.9629	         0	1.07802e+07	   76.8795	    15.826	         0	1.15448e+07	
         R10	   4953	      76.5	   15.8206	         0	9.72889e+06	      76.5	      16.1	         0	7.16611e+06	   76.7464	      16.1	         0	9.56127e+06	   76.7502	   15.8262	         0	 1.5051e+07	      76.5	   15.9603	         0	3.63256e+06	   76.6232	      16.1	         0	 6.3244e+06	   76.7483	   15.9631	         0	 1.1528e+07	   76.6251	   15.8234	         0	9.02058e+06	
         R10	   4954	   76.7385	   15.5653	         0	1.57031e+07	   76.7279	      15.3	         0	1.56781e+07	      76.5	      15.3	         0	2.09752e+07	      76.5	    15.554	         0	6.78785e+06	   76.7332	   15.4327	         0	1.36367e+07	    76.614	      15.3	         0	1.75438e+07	      76.5	    15.427	         0	1.38173e+07	   76.6192	   15.5597	         0	1.10375e+07	
         R10	   4955	   76.7385	   15.5653	         0	1.67969e+07	      76.5	    15.554	         0	8.61625e+06	      76.5	   15.8206	         0	1.13921e+06	   76.7502	   15.8262	         0	1.46136e+07	   76.6192	   15.5597	         0	1.17113e+07	      76.5	   15.6873	         0	4.60837e+06	   76.6251	   15.8234	         0	7.53096e+06	   76.7443	   15.6958	         0	1.46536e+07	
         R10	   4956	    76.981	   15.5638	         0	1.37973e+07	   76.7385	   15.5653	         0	1.38504e+07	   76.7502	   15.8262	         0	1.06327e+07	   77.0088	   15.8258	         0	1.18823e+07	   76.8597	   15.5646	         0	1.36484e+07	   76.7443	   15.6958	         0	1.12961e+07	   76.8795	    15.826	         0	1.11542e+07	   76.9949	   15.6948	         0	1.25639e+07	
         R10	   4957	   77.2374	   15.5575	         0	1.29426e+07	    76.981	   15.5638	         0	1.31899e+07	   77.0088	   15.8258	         0	1.24387e+07	   77.2875	   15.8286	         0	1.28156e+07	   77.1092	   15.5607	         0	1.30483e+07	   76.9949	   15.6948	         0	1.24881e+07	   77.1481	   15.8272	         0	1.25068e+07	   77.2624	   15.6931	         0	 1.2592e+07	
         R10	   4958	   77.4715	   15.5296	         0	1.27711e+07	   77.2374	   15.5575	         0	 1.1974e+07	   77.2875	   15.8286	         0	1.50429e+07	   77.6146	   15.8099	         0	1.02578e+07	   77.3544	   15.5436	         0	1.21465e+07	   77.2624	   15.6931	         0	1.32249e+07	   77.4511	   15.8192	         0	1.26444e+07	   77.5431	   15.6698	         0	1.14541e+07	
         R10	   4959	   77.9226	      16.1	         0	1.20629e+07	   78.0133	   15.6657	         0	1.22606e+07	   77.7709	   15.5894	         0	1.05187e+07	   77.6146	   15.8099	         0	9.42566e+06	   77.9679	   15.8828	         0	1.07442e+07	   77.8921	   15.6275	         0	1.13886e+07	   77.6928	   15.6997	         0	9.74009e+06	   77.7686	    15.955	         0	9.74931e+06	
         R10	   4960	   77.6146	   15.8099	         0	1.14074e+07	   77.5999	      16.1	         0	1.20741e+07	   77.9226	      16.1	         0	1.11456e+07	   77.6073	    15.955	         0	1.08592e+07	   77.7612	      16.1	         0	1.15171e+07	   77.7686	    15.955	         0	1.06227e+07	       N/A	       N/A	       N/A	        N/A	       N/A	       N/A	       N/A	        N/A	
         R10	   4961	   77.7709	   15.5894	         0	1.08325e+07	   77.4715	   15.5296	         0	 1.5626e+07	   77.6146	   15.8099	         0	1.30166e+07	   77.6212	   15.5595	         0	1.31025e+07	   77.5431	   15.6698	         0	1.41866e+07	   77.6928	   15.6997	         0	1.17251e+07	       N/A	       N/A	       N/A	        N/A	       N/A	       N/A	       N/A	        N/A	
         R10	   4962	   77.0196	    16.395	         0	1.17103e+07	   77.0118	      16.1	         0	1.46031e+07	   76.7464	      16.1	         0	 1.0521e+07	   76.7371	   16.3337	         0	 1.0986e+07	   77.0157	   16.2475	         0	8.81158e+06	   76.8791	      16.1	         0	1.23294e+07	   76.7417	   16.2168	         0	1.01446e+07	   76.8783	   16.3643	         0	1.03979e+07	
         R10	   4963	   77.2576	   16.4821	         0	1.30434e+07	   77.2964	      16.1	         0	1.42914e+07	   77.0118	      16.1	         0	1.43621e+07	   77.0196	    16.395	         0	1.28733e+07	    77.277	   16.2911	         0	9.61409e+06	   77.1541	      16.1	         0	1.43173e+07	   77.0157	   16.2475	         0	9.69115e+06	   77.1386	   16.4385	         0	1.29276e+07	
         R10	   4964	   77.5511	   16.5067	         0	1.52268e+07	   77.5999	      16.1	         0	1.48238e+07	   77.2964	      16.1	         0	1.41051e+07	   77.2576	   16.4821	         0	1.35782e+07	   77.5755	   16.3033	         0	1.05124e+07	   77.4482	      16.1	         0	1.44642e+07	    77.277	   16.2911	         0	9.77957e+06	   77.4044	   16.4944	         0	1.44016e+07	
         R10	   4965	   77.8929	   16.5069	         0	1.63663e+07	   77.9226	      16.1	         0	1.52933e+07	   77.5999	      16.1	         0	1.48785e+07	   77.5511	   16.5067	         0	1.53712e+07	   77.9077	   16.3035	         0	1.07242e+07	   77.7612	      16.1	         0	1.50855e+07	   77.5755	   16.3033	         0	1.06028e+07	    77.722	   16.5068	         0	1.58629e+07	
         R10	   4966	   78.2533	   16.5074	         0	1.62828e+07	   78.2643	      16.1	         0	1.48463e+07	   77.9226	      16.1	         0	1.53508e+07	   77.8929	   16.5069	         0	1.68364e+07	   78.2588	   16.3037	         0	1.08458e+07	   78.0934	      16.1	         0	1.50935e+07	   77.9077	   16.3035	         0	 1.1111e+07	   78.0731	   16.5072	         0	1.65571e+07	
         R10	   4967	    78.625	    16.462	         0	1.47769e+07	    78.625	      16.1	         0	1.42899e+07	   78.2643	      16.1	         0	1.48905e+07	   78.2533	   16.5074	         0	1.65402e+07	    78.625	    16.281	         0	1.13134e+07	   78.4446	      16.1	         0	1.45833e+07	   78.2588	   16.3037	         0	1.10388e+07	   78.4391	   16.4847	         0	1.55976e+07	
         R10	   4968	   78.2041	      16.9	         0	1.63631e+07	    78.625	      16.9	         0	1.58096e+07	    78.625	    16.462	         0	1.83428e+07	   78.2533	   16.5074	         0	 1.6466e+07	   78.4146	      16.9	         0	1.60811e+07	    78.625	    16.681	         0	1.16141e+07	   78.4391	   16.4847	         0	1.73898e+07	   78.2287	   16.7037	         0	1.11024e+07	
         R10	   4969	   77.8099	      16.9	         0	1.64546e+07	   78.2041	      16.9	         0	1.63782e+07	   78.2533	   16.5074	         0	1.63012e+07	   77.8929	   16.5069	         0	1.71488e+07	    78.007	      16.9	         0	 1.6411e+07	   78.2287	   16.7037	         0	1.09734e+07	   78.0731	   16.5072	         0	 1.6723e+07	   77.8514	   16.7035	         0	1.11195e+07	
         R10	   4970	   77.4424	      16.9	         0	 1.5061e+07	   77.8099	      16.9	         0	1.64397e+07	   77.8929	   16.5069	         0	1.68048e+07	   77.5511	   16.5067	         0	1.57681e+07	   77.6262	      16.9	         0	1.57501e+07	   77.8514	   16.7035	         0	1.08428e+07	    77.722	   16.5068	         0	1.62802e+07	   77.4968	   16.7033	         0	1.04257e+07	
         R10	   4971	   77.1016	      16.9	         0	1.10379e+07	   77.4424	      16.9	         0	1.49228e+07	   77.5511	   16.5067	         0	1.58517e+07	   77.2576	   16.4821	         0	1.19464e+07	    77.272	      16.9	         0	1.29094e+07	   77.4968	   16.7033	         0	1.05211e+07	   77.4044	   16.4944	         0	1.38134e+07	   77.1796	   16.6911	         0	9.42463e+06	
         R10	   4972	      76.5	    16.608	         0	7.93653e+06	      76.5	      16.9	         0	5.57266e+06	   76.7875	      16.9	         0	6.97722e+06	   76.8212	   16.6188	         0	1.48581e+07	      76.5	    16.754	         0	3.11246e+06	   76.6437	      16.9	         0	 5.6964e+06	   76.8043	   16.7594	         0	1.06516e+07	   76.6606	   16.6134	         0	9.76544e+06	
         R10	   4973	   76.7371	   16.3337	         0	1.35857e+07	   76.7464	      16.1	         0	9.80342e+06	      76.5	      16.1	         0	9.39566e+06	      76.5	   16.3413	         0	1.08649e+07	   76.7417	   16.2168	         0	1.11549e+07	   76.6232	      16.1	         0	7.34162e+06	      76.5	   16.2207	         0	3.39199e+06	   76.6185	   16.3375	         0	 8.2167e+06	
         R10	   4974	   76.7371	   16.3337	         0	1.46151e+07	      76.5	   16.3413	         0	3.27229e+06	      76.5	    16.608	         0	3.01181e+06	   76.8212	   16.6188	         0	1.46171e+07	   76.6185	   16.3375	         0	6.45756e+06	      76.5	   16.4747	         0	2.79001e+06	   76.6606	   16.6134	         0	8.00692e+06	   76.7791	   16.4762	         0	1.33663e+07	
         R10	   4975	   77.1016	      16.9	         0	1.18887e+07	   77.2576	   16.4821	         0	1.22517e+07	   77.0196	    16.395	         0	1.21529e+07	   76.8212	   16.6188	         0	3.75125e+06	   77.1796	   16.6911	         0	1.01286e+07	   77.1386	   16.4385	         0	1.20694e+07	   76.9204	   16.5069	         0	7.94732e+06	   76.9614	   16.7594	         0	7.33672e+06	
         R10	   4976	   76.8212	   16.6188	         0	9.98531e+06	   76.7875	      16.9	         0	7.53981e+06	   77.1016	      16.9	         0	9.54516e+06	   76.8043	   16.7594	         0	8.33786e+06	   76.9445	      16.9	         0	8.39291e+06	   76.9614	   16.7594	         0	9.68282e+06	       N/A	       N/A	       N/A	        N/A	       N/A	       N/A	       N/A	        N/A	
         R10	   4977	   77.0196	    16.395	         0	  9.752e+06	   76.7371	   16.3337	         0	 1.3846e+07	   76.8212	   16.6188	         0	1.07116e+07	   76.8783	   16.3643	         0	1.17882e+07	   76.7791	   16.4762	         0	1.15138e+07	   76.9204	   16.5069	         0	9.70373e+06	       N/A	       N/A	       N/A	        N/A	       N/A	       N/A	       N/A	        N/A	
         R10	   4978	   75.9537	      11.9	         0	9.64716e+06	      76.5	      11.9	         0	6.59738e+06	      76.5	     11.05	         0	   8.31e+06	   75.6646	     11.05	         0	9.90783e+06	   76.2268	      11.9	         0	8.01198e+06	      76.5	    11.475	         0	7.30436e+06	   76.0823	     11.05	         0	8.75399e+06	   75.8091	    11.475	         0	9.29356e+06	
         R10	   4979	   75.3426	      11.9	         0	1.09566e+07	   75.9537	      11.9	         0	9.28601e+06	   75.6646	     11.05	         0	1.03797e+07	   74.8218	     11.05	         0	 1.1727e+07	   75.6481	      11.9	         0	1.00217e+07	   75.8091	    11.475	         0	9.42281e+06	   75.2432	     11.05	         0	1.09972e+07	   75.0822	    11.475	         0	1.12651e+07	
         R10	   4980	   74.6666	      11.9	         0	1.18529e+07	   75.3426	      11.9	         0	1.09786e+07	   74.8218	     11.05	         0	1.16701e+07	   73.9718	     11.05	         0	1.16323e+07	   75.0046	      11.9	         0	1.13632e+07	   75.0822	    11.475	         0	1.12466e+07	   74.3969	     11.05	         0	1.16509e+07	   74.3192	    11.475	         0	1.17393e+07	
         R10	   4981	   73.9259	      11.9	         0	1.17073e+07	   74.6666	      11.9	         0	1.20451e+07	   73.9718	     11.05	         0	1.18959e+07	   73.1146	     11.05	         0	1.09047e+07	   74.2963	      11.9	         0	1.18101e+07	   74.3192	    11.475	         0	1.19689e+07	   73.5432	     11.05	         0	1.13114e+07	   73.5202	    11.475	         0	1.10806e+07	
         R10	   4982	   73.1204	      11.9	         0	1.08969e+07	   73.9259	      11.9	         0	1.19945e+07	   73.1146	     11.05	         0	1.04711e+07	     72.25	     11.05	         0	7.67478e+06	   73.5231	      11.9	         0	1.13724e+07	   73.5202	    11.475	         0	 1.0939e+07	   72.6823	     11.05	         0	8.78834e+06	   72.6852	    11.475	         0	8.86408e+06	
         R10	   4983	   73.1204	      11.9	         0	9.67376e+06	     72.25	     11.05	         0	7.69775e+06	     72.25	      11.9	         0	7.39885e+06	   72.6852	    11.475	         0	  8.536e+06	     72.25	    11.475	         0	7.49888e+06	   72.6852	      11.9	         0	8.26277e+06	       N/A	       N/A	       N/A	        N/A	       N/A	       N/A	       N/A	        N/A	
         R10	   4984	   76.0886	   12.3732	         0	1.36712e+07	      76.5	   12.3452	         0	4.98001e+06	      76.5	      11.9	         0	1.01807e+07	   75.9537	      11.9	         0	8.81954e+06	   76.2943	   12.3592	         0	7.50832e+06	      76.5	   12.1226	         0	6.41665e+06	   76.2268	      11.9	         0	9.16234e+06	   76.0212	   12.1366	         0	1.09745e+07	
         R10	   4985	   75.9853	     12.75	         0	7.29398e+06	      76.5	     12.75	         0	7.05934e+06	      76.5	   12.3452	         0	3.71119e+06	   76.0886	   12.3732	         0	1.79791e+07	   76.2427	     12.75	         0	5.98019e+06	      76.5	   12.5476	         0	5.21454e+06	   76.2943	   12.3592	         0	1.01687e+07	    76.037	   12.5616	         0	1.19002e+07	
         R10	   4986	   75.3932	     12.75	         0	 1.0792e+07	   75.9853	     12.75	         0	8.52531e+06	   76.0886	   12.3732	         0	1.46166e+07	   75.6892	     12.75	         0	9.56658e+06	    76.037	   12.5616	         0	1.04391e+07	   75.7409	   12.5616	         0	1.17812e+07	       N/A	       N/A	       N/A	        N/A	       N/A	       N/A	       N/A	        N/A	
         R10	   4987	   74.7236	     12.75	         0	1.17562e+07	   75.3932	     12.75	         0	1.09954e+07	   75.9537	      11.9	         0	9.60781e+06	   75.3426	      11.9	         0	1.09288e+07	   75.0584	     12.75	         0	 1.1309e+07	   75.6734	    12.325	         0	      1e+07	   75.6481	      11.9	         0	1.01915e+07	   75.0331	    12.325	         0	1.13132e+07	
         R10	   4988	   73.9765	     12.75	         0	1.16833e+07	   74.7236	     12.75	         0	1.17784e+07	   75.3426	      11.9	         0	1.08653e+07	   74.6666	      11.9	         0	 1.1952e+07	     74.35	     12.75	         0	1.16802e+07	   75.0331	    12.325	         0	1.12853e+07	   75.0046	      11.9	         0	1.14026e+07	   74.3216	    12.325	         0	1.17935e+07	
         R10	   4989	    73.152	     12.75	         0	1.12736e+07	   73.9765	     12.75	         0	 1.1844e+07	   74.6666	      11.9	         0	1.19675e+07	   73.9259	      11.9	         0	1.17131e+07	   73.5642	     12.75	         0	 1.1395e+07	   74.3216	    12.325	         0	1.18747e+07	   74.2963	      11.9	         0	1.18374e+07	   73.5389	    12.325	         0	1.11926e+07	
         R10	   4990	   73.1204	      11.9	         0	9.53068e+06	     72.25	      11.9	         0	7.21428e+06	     72.25	     12.75	         0	7.98917e+06	    73.152	     12.75	         0	1.06695e+07	   72.6852	      11.9	         0	7.95484e+06	     72.25	    12.325	         0	7.59233e+06	    72.701	     12.75	         0	9.16705e+06	   73.1362	    12.325	         0	9.92913e+06	
         R10	   4991	   73.1204	      11.9	         0	9.93678e+06	    73.152	     12.75	         0	1.09806e+07	   73.9259	      11.9	         0	1.17616e+07	   73.1362	    12.325	         0	1.02813e+07	   73.5389	    12.325	         0	1.10529e+07	   73.5231	      11.9	         0	1.08306e+07	       N/A	       N/A	       N/A	        N/A	       N/A	       N/A	       N/A	        N/A	
         R10	   4992	   75.3932	     12.75	         0	 1.2824e+07	   76.0886	   12.3732	         0	5.53121e+06	   75.9537	      11.9	         0	1.03336e+07	   75.7409	   12.5616	         0	8.87095e+06	   76.0212	   12.1366	         0	  7.916e+06	   75.6734	    12.325	         0	1.12806e+07	       N/A	       N/A	       N/A	        N/A	       N/A	       N/A	       N/A	        N/A	
         R10	   4993	    76.075	   13.2385	         0	1.53913e+07	      76.5	   13.2385	         0	6.14973e+06	      76.5	     12.75	         0	8.54203e+06	   75.9853	     12.75	         0	8.18877e+06	   76.2875	   13.2385	         0	8.50122e+06	      76.5	   12.9942	         0	6.53069e+06	   76.2427	     12.75	         0	7.74098e+06	   76.0302	   12.9942	         0	1.17463e+07	
         R10	   4994	   76.1395	      13.6	         0	7.62242e+06	      76.5	      13.6	         0	6.66614e+06	      76.5	   13.2385	         0	5.00995e+06	    76.075	   13.2385	         0	1.73359e+07	   76.3197	      13.6	         0	6.26019e+06	      76.5	   13.4192	         0	5.49571e+06	   76.2875	   13.2385	         0	9.62129e+06	   76.1072	   13.4192	         0	1.21499e+07	
         R10	   4995	    73.152	     12.75	         0	9.40321e+06	     72.25	     12.75	         0	7.64739e+06	     72.25	      13.6	         0	7.97665e+06	   73.1038	      13.6	         0	1.12285e+07	    72.701	     12.75	         0	7.90007e+06	     72.25	    13.175	         0	7.81163e+06	   72.6769	      13.6	         0	9.47205e+06	   73.1279	    13.175	         0	9.91787e+06	
         R10	   4996	   73.9765	     12.75	         0	 1.1575e+07	    73.152	     12.75	         0	9.83763e+06	   73.1038	      13.6	         0	1.08395e+07	   73.8753	      13.6	         0	1.16993e+07	   73.5642	     12.75	         0	1.07028e+07	   73.1279	    13.175	         0	1.00701e+07	   73.4895	      13.6	         0	1.11097e+07	   73.9259	    13.175	         0	1.16142e+07	
         R10	   4997	   74.7236	     12.75	         0	1.15933e+07	   73.9765	     12.75	         0	1.15058e+07	   73.8753	      13.6	         0	1.14855e+07	   74.5647	      13.6	         0	1.17153e+07	     74.35	     12.75	         0	1.15472e+07	   73.9259	    13.175	         0	1.14613e+07	     74.22	      13.6	         0	1.15418e+07	   74.6441	    13.175	         0	1.16483e+07	
         R10	   4998	   75.3932	     12.75	         0	1.04899e+07	   74.7236	     12.75	         0	1.15205e+07	   74.5647	      13.6	         0	1.16439e+07	   75.1718	      13.6	         0	1.11889e+07	   75.0584	     12.75	         0	1.09972e+07	   74.6441	    13.175	         0	 1.1575e+07	   74.8682	      13.6	         0	1.13405e+07	   75.2825	    13.175	         0	1.07506e+07	
         R10	   4999	   75.6967	      13.6	         0	 1.0753e+07	    76.075	   13.2385	         0	5.57676e+06	   75.9853	     12.75	         0	9.10697e+06	   75.3932	     12.75	         0	1.09272e+07	   75.8859	   13.4192	         0	8.01379e+06	   76.0302	   12.9942	         0	7.12946e+06	   75.6892	     12.75	         0	1.00028e+07	    75.545	    13.175	         0	1.05684e+07	
         R10	   5000	   75.6967	      13.6	         0	1.07704e+07	   76.1395	      13.6	         0	 8.6465e+06	    76.075	   13.2385	         0	1.43297e+07	   75.9181	      13.6	         0	9.61608e+06	   76.1072	   13.4192	         0	1.10308e+07	   75.8859	   13.4192	         0	1.22462e+07	       N/A	       N/A	       N/A	        N/A	       N/A	       N/A	       N/A	        N/A	
         R10	   5001	   75.6967	      13.6	         0	1.05849e+07	   75.3932	     12.75	         0	9.81218e+06	   75.1718	      13.6	         0	1.13816e+07	    75.545	    13.175	         0	9.97206e+06	   75.2825	    13.175	         0	1.04938e+07	   75.4343	      13.6	         0	1.09303e+07	       N/A	       N/A	       N/A	        N/A	       N/A	       N/A	       N/A	        N/A	
         R10	   5002	   77.8161	      11.9	         0	1.09433e+07	    78.625	      11.9	         0	 1.1851e+07	    78.625	     11.05	         0	1.12844e+07	   77.9344	     11.05	         0	1.11342e+07	   78.2205	      11.9	         0	1.13419e+07	    78.625	    11.475	         0	1.15464e+07	   78.2797	     11.05	         0	 1.1181e+07	   77.8753	    11.475	         0	1.09569e+07	
         R10	   5003	   77.1077	      11.9	         0	9.15415e+06	   77.8161	      11.9	         0	1.09316e+07	   77.9344	     11.05	         0	1.11123e+07	   77.2261	     11.05	         0	1.01876e+07	   77.4619	      11.9	         0	9.95906e+06	   77.8753	    11.475	         0	1.09335e+07	   77.5803	     11.05	         0	1.05713e+07	   77.1669	    11.475	         0	9.21704e+06	
         R10	   5004	      76.5	      11.9	         0	5.96435e+06	   77.1077	      11.9	         0	9.62864e+06	   77.2261	     11.05	         0	9.88315e+06	      76.5	     11.05	         0	8.46618e+06	   76.8039	      11.9	         0	7.60082e+06	   77.1669	    11.475	         0	9.17975e+06	   76.8631	     11.05	         0	 8.8861e+06	      76.5	    11.475	         0	7.15217e+06	
         R10	   5005	   78.0725	     12.75	         0	1.17307e+07	    78.625	     12.75	         0	1.19714e+07	    78.625	      11.9	         0	1.14426e+07	   77.8161	      11.9	         0	1.06954e+07	   78.3487	     12.75	         0	1.18155e+07	    78.625	    12.325	         0	1.16864e+07	   78.2205	      11.9	         0	1.10603e+07	   77.9443	    12.325	         0	1.11808e+07	
         R10	   5006	   77.5341	     12.75	         0	1.08112e+07	   78.0725	     12.75	         0	1.18371e+07	   77.8161	      11.9	         0	1.07745e+07	   77.1077	      11.9	         0	9.71125e+06	   77.8033	     12.75	         0	1.12533e+07	   77.9443	    12.325	         0	 1.1282e+07	   77.4619	      11.9	         0	1.01394e+07	   77.3209	    12.325	         0	9.99022e+06	
         R10	   5007	   77.1077	      11.9	         0	9.29453e+06	      76.5	      11.9	         0	1.06363e+07	      76.5	   12.3452	         0	5.62083e+06	     77.01	     12.75	         0	9.83153e+06	   76.8039	      11.9	         0	9.43274e+06	      76.5	   12.1226	         0	7.46296e+06	    76.755	   12.5476	         0	7.69895e+06	   77.0589	    12.325	         0	9.28001e+06	
         R10	   5008	     77.01	     12.75	         0	 9.6905e+06	   77.5341	     12.75	         0	1.08049e+07	   77.1077	      11.9	         0	9.74507e+06	    77.272	     12.75	         0	  1.018e+07	   77.3209	    12.325	         0	1.00025e+07	   77.0589	    12.325	         0	9.35007e+06	       N/A	       N/A	       N/A	        N/A	       N/A	       N/A	       N/A	        N/A	
         R10	   5009	      76.5	   12.3452	         0	7.08791e+06	      76.5	     12.75	         0	7.09591e+06	     77.01	     12.75	         0	9.52984e+06	      76.5	   12.5476	         0	6.97163e+06	    76.755	     12.75	         0	8.02576e+06	    76.755	   12.5476	         0	   8.28e+06	       N/A	       N/A	       N/A	        N/A	       N/A	       N/A	       N/A	        N/A	
         R10	   5010	    78.147	   13.1657	         0	 1.6445e+07	    78.625	   13.1952	         0	2.20816e+07	    78.625	     12.75	         0	1.55169e+07	   78.0725	     12.75	         0	  1.433e+07	    78.386	   13.1805	         0	1.92525e+07	    78.625	   12.9726	         0	1.30693e+07	   78.3487	     12.75	         0	1.48926e+07	   78.1097	   12.9578	         0	1.05845e+07	
         R10	   5011	   78.1396	      13.6	         0	1.58886e+07	    78.625	      13.6	         0	1.62986e+07	    78.625	   13.1952	         0	2.03798e+07	    78.147	   13.1657	         0	1.85265e+07	   78.3823	      13.6	         0	1.60847e+07	    78.625	   13.3976	         0	1.27585e+07	    78.386	   13.1805	         0	1.93282e+07	   78.1433	   13.3828	         0	1.05297e+07	
         R10	   5012	   77.6845	      13.6	         0	1.42789e+07	   78.1396	      13.6	         0	1.59659e+07	    78.147	   13.1657	         0	1.96835e+07	   77.7446	   13.2151	         0	1.74171e+07	   77.9121	      13.6	         0	1.51093e+07	   78.1433	   13.3828	         0	1.14956e+07	   77.9458	   13.1904	         0	1.85431e+07	   77.7146	   13.4075	         0	1.07412e+07	
         R10	   5013	   77.2895	    13.214	         0	1.62381e+07	   77.2595	      13.6	         0	1.26132e+07	   77.6845	      13.6	         0	1.40648e+07	   77.7446	   13.2151	         0	1.62474e+07	   77.2745	    13.407	         0	1.03653e+07	    77.472	      13.6	         0	1.32742e+07	   77.7146	   13.4075	         0	9.73784e+06	   77.5171	   13.2146	         0	1.61224e+07	
         R10	   5014	   76.9282	    13.157	         0	1.66321e+07	   76.8646	      13.6	         0	1.02242e+07	   77.2595	      13.6	         0	1.26315e+07	   77.2895	    13.214	         0	1.53357e+07	   76.8964	   13.3785	         0	1.01848e+07	   77.0621	      13.6	         0	1.13995e+07	   77.2745	    13.407	         0	9.67019e+06	   77.1089	   13.1855	         0	 1.5963e+07	
         R10	   5015	      76.5	   13.2385	         0	4.48291e+06	      76.5	      13.6	         0	5.07663e+06	   76.8646	      13.6	         0	9.80445e+06	   76.9282	    13.157	         0	2.02565e+07	      76.5	   13.4192	         0	4.40028e+06	   76.6823	      13.6	         0	5.34799e+06	   76.8964	   13.3785	         0	1.17951e+07	   76.7141	   13.1977	         0	1.11758e+07	
         R10	   5016	     77.01	     12.75	         0	8.00066e+06	      76.5	     12.75	         0	  9.237e+06	      76.5	   13.2385	         0	7.90151e+06	   76.9282	    13.157	         0	1.66889e+07	    76.755	     12.75	         0	6.87796e+06	      76.5	   12.9942	         0	7.73127e+06	   76.7141	   13.1977	         0	9.55987e+06	   76.9691	   12.9535	         0	1.14264e+07	
         R10	   5017	   77.5341	     12.75	         0	1.00438e+07	     77.01	     12.75	         0	8.16498e+06	   76.9282	    13.157	         0	1.18454e+07	   77.2895	    13.214	         0	1.05118e+07	    77.272	     12.75	         0	9.02329e+06	   76.9691	   12.9535	         0	8.80067e+06	   77.1089	   13.1855	         0	1.11758e+07	   77.4118	    12.982	         0	9.29203e+06	
         R10	   5018	   77.7446	   13.2151	         0	1.32549e+07	    78.147	   13.1657	         0	1.75379e+07	   78.0725	     12.75	         0	 1.4173e+07	   77.5341	     12.75	         0	 1.0101e+07	   77.9458	   13.1904	         0	1.52898e+07	   78.1097	   12.9578	         0	 1.1408e+07	   77.8033	     12.75	         0	1.17151e+07	   77.6394	   12.9825	         0	1.07944e+07	
         R10	   5019	   77.7446	   13.2151	         0	1.08476e+07	   77.5341	     12.75	         0	8.49132e+06	   77.2895	    13.214	         0	1.13327e+07	   77.6394	   12.9825	         0	8.66692e+06	   77.4118	    12.982	         0	9.10903e+06	   77.5171	   13.2146	         0	1.09911e+07	       N/A	       N/A	       N/A	        N/A	       N/A	       N/A	       N/A	        N/A	
         R10	   5020	   72.9702	      21.5	         6	2.88233e+06	     72.25	      21.5	         6	5.72891e+06	     72.25	      21.5	      6.85	3.34322e+06	   73.0903	      21.5	      6.85	4.29718e+06	   72.6101	      21.5	         6	3.92039e+06	     72.25	      21.5	     6.425	3.76621e+06	   72.6701	      21.5	      6.85	2.55432e+06	   73.0303	      21.5	     6.425	3.49661e+06	
         R10	   5021	   73.6528	      21.5	         6	2.57458e+06	   72.9702	      21.5	         6	 3.6483e+06	   73.0903	      21.5	      6.85	3.34037e+06	   73.8778	      21.5	      6.85	4.02572e+06	   73.3115	      21.5	         6	2.78409e+06	   73.0303	      21.5	     6.425	2.94476e+06	    73.484	      21.5	      6.85	3.58408e+06	   73.7653	      21.5	     6.425	2.28241e+06	
         R10	   5022	   74.2976	      21.5	         6	2.10509e+06	   73.6528	      21.5	         6	1.82925e+06	   73.8778	      21.5	      6.85	4.19195e+06	   74.6125	      21.5	      6.85	3.13455e+06	   73.9752	      21.5	         6	1.88451e+06	   73.7653	      21.5	     6.425	2.17747e+06	   74.2452	      21.5	      6.85	3.66011e+06	   74.4551	      21.5	     6.425	1.82531e+06	
         R10	   5023	   74.9048	      21.5	         6	1.50854e+06	   74.2976	      21.5	         6	     681400	   74.6125	      21.5	      6.85	3.12652e+06	   75.2945	      21.5	      6.85	2.35642e+06	   74.6012	      21.5	         6	1.08032e+06	   74.4551	      21.5	     6.425	1.75156e+06	   74.9535	      21.5	      6.85	2.73652e+06	   75.0996	      21.5	     6.425	 1.5823e+06	
         R10	   5024	   75.4742	      21.5	         6	1.41084e+06	   74.9048	      21.5	         6	1.18639e+06	   75.2945	      21.5	      6.85	2.31771e+06	   75.9236	      21.5	      6.85	2.29613e+06	   75.1895	      21.5	         6	1.13824e+06	   75.0996	      21.5	     6.425	1.72331e+06	    75.609	      21.5	      6.85	2.29342e+06	   75.6989	      21.5	     6.425	1.80663e+06	
         R10	   5025	   75.9236	      21.5	      6.85	1.92589e+06	      76.5	      21.5	      6.85	3.92535e+06	      76.5	      21.5	   6.40476	3.40809e+06	    76.104	      21.5	   6.38226	  2.364e+06	   76.2118	      21.5	      6.85	2.90001e+06	      76.5	      21.5	   6.62738	3.41134e+06	    76.302	      21.5	   6.39351	 2.7274e+06	   76.0138	      21.5	   6.61613	2.13153e+06	
         R10	   5026	    76.104	      21.5	   6.38226	3.00594e+06	      76.5	      21.5	   6.40476	4.87605e+06	      76.5	      21.5	         6	6.29119e+06	    76.006	      21.5	         6	 2.5708e+06	    76.302	      21.5	   6.39351	3.82868e+06	      76.5	      21.5	   6.20238	5.45442e+06	    76.253	      21.5	         6	4.17095e+06	    76.055	      21.5	   6.19113	2.49764e+06	
         R10	   5027	    76.104	      21.5	   6.38226	 3.2568e+06	    76.006	      21.5	         6	2.00579e+06	   75.4742	      21.5	         6	 2.3526e+06	   75.9236	      21.5	      6.85	2.16043e+06	    76.055	      21.5	   6.19113	2.51372e+06	   75.7401	      21.5	         6	 2.0271e+06	   75.6989	      21.5	     6.425	2.09187e+06	   76.0138	      21.5	   6.61613	2.70637e+06	
         R10	   5028	   73.0903	      21.5	      6.85	3.81206e+06	     72.25	      21.5	      6.85	3.29556e+06	     72.25	      21.5	       7.7	2.93543e+06	   73.0678	      21.5	       7.7	4.07095e+06	   72.6701	      21.5	      6.85	1.33141e+06	     72.25	      21.5	     7.275	3.08693e+06	   72.6589	      21.5	       7.7	2.44635e+06	    73.079	      21.5	     7.275	3.17111e+06	
         R10	   5029	   73.8778	      21.5	      6.85	3.91268e+06	   73.0903	      21.5	      6.85	1.85727e+06	   73.0678	      21.5	       7.7	3.16266e+06	   73.8418	      21.5	       7.7	5.33935e+06	    73.484	      21.5	      6.85	2.75691e+06	    73.079	      21.5	     7.275	 1.0759e+06	   73.4548	      21.5	       7.7	4.19787e+06	   73.8598	      21.5	     7.275	1.62337e+06	
         R10	   5030	   74.6125	      21.5	      6.85	3.18113e+06	   73.8778	      21.5	      6.85	3.85003e+06	   73.8418	      21.5	       7.7	5.19192e+06	    74.572	      21.5	       7.7	4.64413e+06	   74.2452	      21.5	      6.85	3.51401e+06	   73.8598	      21.5	     7.275	1.17884e+06	   74.2069	      21.5	       7.7	4.91493e+06	   74.5923	      21.5	     7.275	1.15663e+06	
         R10	   5031	   75.2945	      21.5	      6.85	 1.6497e+06	   74.6125	      21.5	      6.85	3.22241e+06	    74.572	      21.5	       7.7	4.67459e+06	   75.2585	      21.5	       7.7	3.30089e+06	   74.9535	      21.5	      6.85	2.41558e+06	   74.5923	      21.5	     7.275	1.26835e+06	   74.9152	      21.5	       7.7	 3.9797e+06	   75.2765	      21.5	     7.275	1.30497e+06	
         R10	   5032	   75.9236	      21.5	      6.85	1.47701e+06	   75.2945	      21.5	      6.85	1.65824e+06	   75.2585	      21.5	       7.7	 3.3432e+06	   75.9011	      21.5	       7.7	2.42474e+06	    75.609	      21.5	      6.85	1.32568e+06	   75.2765	      21.5	     7.275	1.37545e+06	   75.5798	      21.5	       7.7	2.86022e+06	   75.9124	      21.5	     7.275	1.76939e+06	
         R10	   5033	      76.5	      21.5	      6.85	2.16135e+06	   75.9236	      21.5	      6.85	 1.4281e+06	   75.9011	      21.5	       7.7	2.42012e+06	      76.5	      21.5	       7.7	2.94194e+06	   76.2118	      21.5	      6.85	1.78504e+06	   75.9124	      21.5	     7.275	1.73631e+06	   76.2006	      21.5	       7.7	2.64856e+06	      76.5	      21.5	     7.275	2.44385e+06	
         R10	   5034	   76.9558	      21.5	         6	3.55458e+06	      76.5	      21.5	         6	6.29215e+06	      76.5	      21.5	   6.40476	4.60732e+06	   76.8917	      21.5	   6.39063	3.03885e+06	   76.7279	      21.5	         6	4.28453e+06	      76.5	      21.5	   6.20238	5.44404e+06	   76.6958	      21.5	    6.3977	3.64982e+06	   76.9237	      21.5	   6.19531	2.89151e+06	
         R10	   5035	   76.8917	      21.5	   6.39063	2.30723e+06	      76.5	      21.5	   6.40476	3.61541e+06	      76.5	      21.5	      6.85	3.41124e+06	    77.141	      21.5	      6.85	  1.674e+06	   76.6958	      21.5	    6.3977	2.59998e+06	      76.5	      21.5	   6.62738	 3.1657e+06	   76.8205	      21.5	      6.85	2.51856e+06	   77.0163	      21.5	   6.62031	1.97259e+06	
         R10	   5036	   77.8494	      21.5	      6.85	2.49772e+06	    78.625	      21.5	      6.85	3.33824e+06	    78.625	      21.5	         6	1.00726e+06	   78.0183	      21.5	         6	     947622	   78.2372	      21.5	      6.85	2.88803e+06	    78.625	      21.5	     6.425	1.38619e+06	   78.3217	      21.5	         6	     298556	   77.9338	      21.5	     6.425	1.31407e+06	
         R10	   5037	   77.4619	      21.5	         6	 3.1819e+06	   76.9558	      21.5	         6	2.21628e+06	   76.8917	      21.5	   6.39063	3.08844e+06	    77.141	      21.5	      6.85	1.93546e+06	   77.2089	      21.5	         6	2.51019e+06	   76.9237	      21.5	   6.19531	2.45519e+06	   77.0163	      21.5	   6.62031	2.50798e+06	   77.3015	      21.5	     6.425	2.32517e+06	
         R10	   5038	   78.0183	      21.5	         6	1.59257e+06	   77.4619	      21.5	         6	1.18621e+06	    77.141	      21.5	      6.85	2.09711e+06	   77.8494	      21.5	      6.85	2.30165e+06	   77.7401	      21.5	         6	   1.17e+06	   77.3015	      21.5	     6.425	1.63364e+06	   77.4952	      21.5	      6.85	2.18393e+06	   77.9338	      21.5	     6.425	1.66482e+06	
         R10	   5039	    77.141	      21.5	      6.85	     756857	      76.5	      21.5	      6.85	2.00878e+06	      76.5	      21.5	       7.7	2.05831e+06	    77.141	      21.5	       7.7	2.53167e+06	   76.8205	      21.5	      6.85	1.31472e+06	      76.5	      21.5	     7.275	1.90577e+06	   76.8205	      21.5	       7.7	2.28704e+06	    77.141	      21.5	     7.275	1.39043e+06	
         R10	   5040	   77.8494	      21.5	      6.85	1.69839e+06	    77.141	      21.5	      6.85	     826860	    77.141	      21.5	       7.7	 2.5397e+06	   77.8494	      21.5	       7.7	3.58368e+06	   77.4952	      21.5	      6.85	1.03371e+06	    77.141	      21.5	     7.275	1.36287e+06	   77.4952	      21.5	       7.7	3.03573e+06	   77.8494	      21.5	     7.275	1.02688e+06	
         R10	   5041	    78.625	      21.5	      6.85	3.36964e+06	   77.8494	      21.5	      6.85	1.71485e+06	   77.8494	      21.5	       7.7	  3.556e+06	    78.625	      21.5	       7.7	5.04964e+06	   78.2372	      21.5	      6.85	2.52521e+06	   77.8494	      21.5	     7.275	     966015	   78.2372	      21.5	       7.7	4.29948e+06	    78.625	      21.5	     7.275	     937916	
         R10	   5042	   76.1395	   14.0016	         0	1.25715e+07	   76.1395	      13.6	         0	8.36116e+06	   75.6967	      13.6	         0	9.92986e+06	   75.6967	   14.0838	         0	9.99739e+06	   76.1395	   13.8008	         0	9.34616e+06	   75.9181	      13.6	         0	8.94737e+06	   75.6967	   13.8419	         0	9.57955e+06	   75.9181	   14.0427	         0	1.12523e+07	
         R10	   5043	      76.5	   13.9103	         0	6.93351e+06	      76.5	      13.6	         0	1.06189e+07	   76.1395	      13.6	         0	9.01538e+06	   76.1395	   14.0016	         0	1.93015e+07	      76.5	   13.7551	         0	6.49231e+06	   76.3197	      13.6	         0	7.71248e+06	   76.1395	   13.8008	         0	1.31229e+07	   76.3197	   13.9559	         0	  9.073e+06	
         R10	   5044	   76.1859	     14.45	         0	9.33049e+06	      76.5	     14.45	         0	8.97141e+06	      76.5	   14.1936	         0	4.17064e+06	   76.1395	   14.0016	         0	1.69934e+07	   76.3429	     14.45	         0	6.73967e+06	      76.5	   14.3218	         0	3.95433e+06	   76.3197	   14.0976	         0	8.19704e+06	   76.1627	   14.2258	         0	1.17886e+07	
         R10	   5045	   75.7741	     14.45	         0	1.03504e+07	   76.1859	     14.45	         0	9.29726e+06	   76.1395	   14.0016	         0	1.37651e+07	   75.6967	   14.0838	         0	1.35424e+07	     75.98	     14.45	         0	 9.7647e+06	   76.1627	   14.2258	         0	1.04062e+07	   75.9181	   14.0427	         0	1.36235e+07	   75.7354	   14.2669	         0	 1.0561e+07	
         R10	   5046	   73.1038	      13.6	         0	9.51582e+06	     72.25	      13.6	         0	7.49549e+06	     72.25	     14.45	         0	 1.0751e+07	   73.1501	     14.45	         0	1.00493e+07	   72.6769	      13.6	         0	8.03068e+06	     72.25	    14.025	         0	9.11789e+06	   72.7001	     14.45	         0	9.90539e+06	    73.127	    14.025	         0	 9.7428e+06	
         R10	   5047	   73.8753	      13.6	         0	1.13366e+07	   73.1038	      13.6	         0	9.62273e+06	   73.1501	     14.45	         0	1.13929e+07	   73.9526	     14.45	         0	1.18895e+07	   73.4895	      13.6	         0	 1.0417e+07	    73.127	    14.025	         0	1.03239e+07	   73.5514	     14.45	         0	1.13538e+07	    73.914	    14.025	         0	1.14668e+07	
         R10	   5048	   74.5647	      13.6	         0	1.16645e+07	   73.8753	      13.6	         0	1.12017e+07	   73.9526	     14.45	         0	1.19905e+07	   74.6574	     14.45	         0	1.21056e+07	     74.22	      13.6	         0	1.14248e+07	    73.914	    14.025	         0	1.14506e+07	    74.305	     14.45	         0	1.20359e+07	   74.6111	    14.025	         0	1.16881e+07	
         R10	   5049	   75.1718	      13.6	         0	1.09839e+07	   74.5647	      13.6	         0	1.15247e+07	   74.6574	     14.45	         0	1.21588e+07	   75.2646	     14.45	         0	1.13232e+07	   74.8682	      13.6	         0	1.12455e+07	   74.6111	    14.025	         0	1.16511e+07	    74.961	     14.45	         0	1.17302e+07	   75.2182	    14.025	         0	1.10531e+07	
         R10	   5050	   75.6967	   14.0838	         0	9.77997e+06	   75.6967	      13.6	         0	9.72812e+06	   75.1718	      13.6	         0	1.11606e+07	   75.2646	     14.45	         0	1.07681e+07	   75.6967	   13.8419	         0	9.42476e+06	   75.4343	      13.6	         0	1.04097e+07	   75.2182	    14.025	         0	1.07499e+07	   75.4807	   14.2669	         0	 1.0204e+07	
         R10	   5051	      76.5	   14.1936	         0	4.26498e+06	      76.5	   13.9103	         0	6.58245e+06	   76.1395	   14.0016	         0	1.67903e+07	      76.5	   14.0519	         0	5.11804e+06	   76.3197	   13.9559	         0	8.29855e+06	   76.3197	   14.0976	         0	9.00099e+06	       N/A	       N/A	       N/A	        N/A	       N/A	       N/A	       N/A	        N/A	
         R10	   5052	   75.6967	   14.0838	         0	 1.5715e+07	   75.2646	     14.45	         0	1.09314e+07	   75.7741	     14.45	         0	1.04112e+07	   75.4807	   14.2669	         0	1.28072e+07	   75.5193	     14.45	         0	1.05347e+07	   75.7354	   14.2669	         0	1.19371e+07	       N/A	       N/A	       N/A	        N/A	       N/A	       N/A	       N/A	        N/A	
         R10	   5053	   76.1859	    14.813	         0	8.79138e+06	   76.1859	     14.45	         0	1.06761e+07	   75.7741	     14.45	         0	1.33214e+07	   75.7741	   14.9106	         0	1.84744e+07	   76.1859	   14.6315	         0	8.26268e+06	     75.98	     14.45	         0	1.17945e+07	   75.7741	   14.6803	         0	1.24566e+07	     75.98	   14.8618	         0	1.35415e+07	
         R10	   5054	      76.5	   14.7736	         0	6.88642e+06	      76.5	     14.45	         0	8.67892e+06	   76.1859	     14.45	         0	1.04221e+07	   76.1859	    14.813	         0	1.81604e+07	      76.5	   14.6118	         0	6.67815e+06	   76.3429	     14.45	         0	8.32165e+06	   76.1859	   14.6315	         0	1.30366e+07	   76.3429	   14.7933	         0	9.81021e+06	
         R10	   5055	   76.2368	   15.0569	         0	1.33912e+07	      76.5	   15.0569	         0	7.92458e+06	      76.5	   14.7736	         0	 4.2492e+06	   76.1859	    14.813	         0	1.83259e+07	   76.3684	   15.0569	         0	9.56442e+06	      76.5	   14.9152	         0	5.15369e+06	   76.3429	   14.7933	         0	9.98126e+06	   76.2113	   14.9349	         0	1.51454e+07	
         R10	   5056	   76.2666	      15.3	         0	1.40192e+07	      76.5	      15.3	         0	2.06763e+07	      76.5	   15.0569	         0	6.88202e+06	   76.2368	   15.0569	         0	1.41206e+07	   76.3833	      15.3	         0	1.63061e+07	      76.5	   15.1784	         0	1.36248e+07	   76.3684	   15.0569	         0	1.01273e+07	   76.2517	   15.1784	         0	1.13617e+07	
         R10	   5057	   73.1501	     14.45	         0	1.03032e+07	     72.25	     14.45	         0	1.04229e+07	     72.25	      15.3	         0	1.36818e+07	    72.961	      15.3	         0	9.40011e+06	   72.7001	     14.45	         0	8.39351e+06	     72.25	    14.875	         0	1.12801e+07	   72.6055	      15.3	         0	1.14831e+07	   73.0556	    14.875	         0	9.06949e+06	
         R10	   5058	   73.9526	     14.45	         0	1.14212e+07	   73.1501	     14.45	         0	1.05423e+07	    72.961	      15.3	         0	1.10773e+07	   73.6123	      15.3	         0	8.23843e+06	   73.5514	     14.45	         0	1.09472e+07	   73.0556	    14.875	         0	1.04351e+07	   73.2867	      15.3	         0	9.60627e+06	   73.7825	    14.875	         0	9.68951e+06	
         R10	   5059	   74.6574	     14.45	         0	1.10688e+07	   73.9526	     14.45	         0	 1.1015e+07	   73.6123	      15.3	         0	 9.6607e+06	   74.2039	      15.3	         0	8.93909e+06	    74.305	     14.45	         0	1.10393e+07	   73.7825	    14.875	         0	1.02741e+07	   73.9081	      15.3	         0	9.29604e+06	   74.4307	    14.875	         0	9.97791e+06	
         R10	   5060	   75.3988	    14.814	         0	1.43436e+07	   75.7741	   14.9106	         0	1.53814e+07	   75.7741	     14.45	         0	1.31189e+07	   75.2646	     14.45	         0	1.12776e+07	   75.5864	   14.8623	         0	1.45116e+07	   75.7741	   14.6803	         0	1.02336e+07	   75.5193	     14.45	         0	1.15955e+07	   75.3317	    14.632	         0	 1.2316e+07	
         R10	   5061	   76.2368	   15.0569	         0	9.84123e+06	   76.1859	    14.813	         0	1.15182e+07	   75.7741	   14.9106	         0	1.71739e+07	   75.9948	   15.0892	         0	 1.4148e+07	   76.2113	   14.9349	         0	9.11473e+06	     75.98	   14.8618	         0	1.37325e+07	   75.8844	   14.9999	         0	 1.4843e+07	   76.1158	    15.073	         0	1.19754e+07	
         R10	   5062	   75.9734	      15.3	         0	1.78839e+07	   76.2666	      15.3	         0	1.77672e+07	   76.2368	   15.0569	         0	1.06928e+07	   75.9948	   15.0892	         0	1.52979e+07	     76.12	      15.3	         0	1.74423e+07	   76.2517	   15.1784	         0	1.27449e+07	   76.1158	    15.073	         0	 1.2931e+07	   75.9841	   15.1946	         0	1.28942e+07	
         R10	   5063	   75.7741	   14.9106	         0	1.82871e+07	   75.6206	      15.3	         0	 1.4025e+07	   75.9734	      15.3	         0	1.95178e+07	   75.9948	   15.0892	         0	6.21749e+06	   75.6973	   15.1053	         0	1.23217e+07	    75.797	      15.3	         0	1.67187e+07	   75.9841	   15.1946	         0	1.06626e+07	   75.8844	   14.9999	         0	1.22502e+07	
         R10	   5064	   75.6206	      15.3	         0	1.45304e+07	   75.7741	   14.9106	         0	1.34995e+07	   75.3988	    14.814	         0	1.08755e+07	   75.2081	      15.3	         0	9.70703e+06	   75.6973	   15.1053	         0	9.91678e+06	   75.5864	   14.8623	         0	1.16057e+07	   75.3034	    15.057	         0	1.02423e+07	   75.4143	      15.3	         0	1.11878e+07	
         R10	   5065	   75.3988	    14.814	         0	6.23718e+06	   75.2646	     14.45	         0	1.16387e+07	   74.6574	     14.45	         0	1.16346e+07	   75.2081	      15.3	         0	8.38372e+06	   75.3317	    14.632	         0	8.67715e+06	    74.961	     14.45	         0	1.15422e+07	   74.9327	    14.875	         0	9.87694e+06	   75.3034	    15.057	         0	6.98566e+06	
         R10	   5066	   74.6574	     14.45	         0	1.07222e+07	   74.7358	      15.3	         0	8.91494e+06	   75.2081	      15.3	         0	9.61106e+06	   74.6966	    14.875	         0	9.78709e+06	    74.972	      15.3	         0	9.26219e+06	   74.9327	    14.875	         0	1.01235e+07	       N/A	       N/A	       N/A	        N/A	       N/A	       N/A	       N/A	        N/A	
         R10	   5067	   74.7358	      15.3	         0	9.86143e+06	   74.6574	     14.45	         0	 1.0238e+07	   74.2039	      15.3	         0	9.16279e+06	   74.6966	    14.875	         0	1.00021e+07	   74.4307	    14.875	         0	9.65121e+06	   74.4699	      15.3	         0	9.48403e+06	       N/A	       N/A	       N/A	        N/A	       N/A	       N/A	       N/A	        N/A	
         R10	   5068	   77.2805	    14.012	         0	1.95997e+07	   77.2595	      13.6	         0	1.31559e+07	   76.8646	      13.6	         0	9.11236e+06	   76.8859	   14.0093	         0	9.49235e+06	     77.27	    13.806	         0	1.17649e+07	   77.0621	      13.6	         0	1.06361e+07	   76.8753	   13.8046	         0	8.02276e+06	   77.0832	   14.0107	         0	1.45228e+07	
         R10	   5069	   77.7002	   14.0324	         0	1.92227e+07	   77.6845	      13.6	         0	1.47382e+07	   77.2595	      13.6	         0	1.28348e+07	   77.2805	    14.012	         0	1.80929e+07	   77.6923	   13.8162	         0	1.06848e+07	    77.472	      13.6	         0	1.37559e+07	     77.27	    13.806	         0	 1.0433e+07	   77.4904	   14.0222	         0	1.86397e+07	
         R10	   5070	     78.15	   14.0528	         0	2.04973e+07	   78.1396	      13.6	         0	1.57237e+07	   77.6845	      13.6	         0	1.47599e+07	   77.7002	   14.0324	         0	1.94032e+07	   78.1448	   13.8264	         0	1.14787e+07	   77.9121	      13.6	         0	1.52373e+07	   77.6923	   13.8162	         0	1.08763e+07	   77.9251	   14.0426	         0	1.99473e+07	
         R10	   5071	    78.625	   14.0452	         0	2.01423e+07	    78.625	      13.6	         0	1.58567e+07	   78.1396	      13.6	         0	1.57257e+07	     78.15	   14.0528	         0	2.00833e+07	    78.625	   13.8226	         0	1.19111e+07	   78.3823	      13.6	         0	1.57893e+07	   78.1448	   13.8264	         0	 1.1143e+07	   78.3875	    14.049	         0	2.00904e+07	
         R10	   5072	   78.2041	     14.45	         0	1.55878e+07	    78.625	     14.45	         0	1.59278e+07	    78.625	   14.0452	         0	2.02928e+07	     78.15	   14.0528	         0	1.80546e+07	   78.4146	     14.45	         0	1.57522e+07	    78.625	   14.2476	         0	1.17847e+07	   78.3875	    14.049	         0	1.91675e+07	    78.177	   14.2514	         0	1.08324e+07	
         R10	   5073	   77.8099	     14.45	         0	1.54003e+07	   78.2041	     14.45	         0	1.55617e+07	     78.15	   14.0528	         0	1.86598e+07	   77.7002	   14.0324	         0	1.88966e+07	    78.007	     14.45	         0	1.54774e+07	    78.177	   14.2514	         0	1.12606e+07	   77.9251	   14.0426	         0	1.87689e+07	   77.7551	   14.2412	         0	1.10671e+07	
         R10	   5074	   77.4424	     14.45	         0	1.39903e+07	   77.8099	     14.45	         0	1.54501e+07	   77.7002	   14.0324	         0	1.86443e+07	   77.2805	    14.012	         0	1.73528e+07	   77.6262	     14.45	         0	1.47054e+07	   77.7551	   14.2412	         0	1.08039e+07	   77.4904	   14.0222	         0	1.79683e+07	   77.3615	    14.231	         0	1.08722e+07	
         R10	   5075	   77.1016	     14.45	         0	1.03788e+07	   77.4424	     14.45	         0	1.43139e+07	   77.2805	    14.012	         0	1.82994e+07	   76.8859	   14.0093	         0	8.06608e+06	    77.272	     14.45	         0	1.21543e+07	   77.3615	    14.231	         0	1.15343e+07	   77.0832	   14.0107	         0	1.31551e+07	   76.9938	   14.2296	         0	7.51184e+06	
         R10	   5076	      76.5	   14.1936	         0	5.52154e+06	      76.5	     14.45	         0	9.09773e+06	   76.7875	     14.45	         0	8.35173e+06	   76.8859	   14.0093	         0	1.51654e+07	      76.5	   14.3218	         0	4.22336e+06	   76.6437	     14.45	         0	 7.3905e+06	   76.8367	   14.2296	         0	1.16249e+07	    76.693	   14.1014	         0	7.64463e+06	
         R10	   5077	      76.5	   13.9103	         0	5.90913e+06	      76.5	   14.1936	         0	 5.2354e+06	   76.8859	   14.0093	         0	1.68133e+07	   76.8646	      13.6	         0	1.10087e+07	      76.5	   14.0519	         0	5.00591e+06	    76.693	   14.1014	         0	8.46234e+06	   76.8753	   13.8046	         0	1.24254e+07	   76.6823	   13.7551	         0	8.10957e+06	
         R10	   5078	   76.7875	     14.45	         0	9.02244e+06	   77.1016	     14.45	         0	1.05045e+07	   76.8859	   14.0093	         0	8.47516e+06	   76.9445	     14.45	         0	9.55211e+06	   76.9938	   14.2296	         0	8.59085e+06	   76.8367	   14.2296	         0	8.33902e+06	       N/A	       N/A	       N/A	        N/A	       N/A	       N/A	       N/A	        N/A	
         R10	   5079	      76.5	   13.9103	         0	8.60586e+06	   76.8646	      13.6	         0	9.58413e+06	      76.5	      13.6	         0	1.03172e+07	   76.6823	   13.7551	         0	7.81204e+06	   76.6823	      13.6	         0	9.44421e+06	      76.5	   13.7551	         0	7.45997e+06	       N/A	       N/A	       N/A	        N/A	       N/A	       N/A	       N/A	        N/A	
         R10	   5080	   77.0864	    14.748	         0	1.60166e+07	   77.1016	     14.45	         0	1.57456e+07	   76.7875	     14.45	         0	1.08028e+07	   76.7859	   14.7475	         0	8.90323e+06	    77.094	    14.599	         0	1.14912e+07	   76.9445	     14.45	         0	 1.2961e+07	   76.7867	   14.5987	         0	8.72624e+06	   76.9362	   14.7477	         0	1.23803e+07	
         R10	   5081	   77.4158	   14.7468	         0	1.60595e+07	   77.4424	     14.45	         0	1.54729e+07	   77.1016	     14.45	         0	1.52917e+07	   77.0864	    14.748	         0	1.29903e+07	   77.4291	   14.5984	         0	1.15854e+07	    77.272	     14.45	         0	1.53649e+07	    77.094	    14.599	         0	8.98877e+06	   77.2511	   14.7474	         0	1.44446e+07	
         R10	   5082	   77.7879	   14.8591	         0	1.84298e+07	   77.8099	     14.45	         0	1.43199e+07	   77.4424	     14.45	         0	 1.5617e+07	   77.4158	   14.7468	         0	1.19476e+07	   77.7989	   14.6546	         0	1.22236e+07	   77.6262	     14.45	         0	1.49193e+07	   77.4291	   14.5984	         0	8.44166e+06	   77.6019	    14.803	         0	1.47701e+07	
         R10	   5083	   78.2072	   14.8764	         0	1.84604e+07	   78.2041	     14.45	         0	1.36685e+07	   77.8099	     14.45	         0	1.41353e+07	   77.7879	   14.8591	         0	1.51259e+07	   78.2057	   14.6632	         0	1.20295e+07	    78.007	     14.45	         0	1.38889e+07	   77.7989	   14.6546	         0	9.38011e+06	   77.9976	   14.8677	         0	1.65141e+07	
         R10	   5084	    78.625	    14.955	         0	1.63902e+07	    78.625	     14.45	         0	1.23086e+07	   78.2041	     14.45	         0	1.35813e+07	   78.2072	   14.8764	         0	1.66819e+07	    78.625	   14.7025	         0	1.11811e+07	   78.4146	     14.45	         0	1.28948e+07	   78.2057	   14.6632	         0	1.06725e+07	   78.4161	   14.9157	         0	1.63214e+07	
         R10	   5085	   78.3217	      15.3	         0	1.30945e+07	    78.625	      15.3	         0	 1.1373e+07	    78.625	    14.955	         0	1.07072e+07	   78.2072	   14.8764	         0	1.19247e+07	   78.4733	      15.3	         0	1.22246e+07	    78.625	   15.1275	         0	9.63155e+06	   78.4161	   14.9157	         0	1.10376e+07	   78.2644	   15.0882	         0	9.94818e+06	
         R10	   5086	   77.2717	   15.0403	         0	1.10048e+07	    77.216	      15.3	         0	2.06207e+07	   77.4763	      15.3	         0	1.62285e+07	   77.5053	   15.0711	         0	1.37838e+07	   77.2439	   15.1701	         0	1.18511e+07	   77.3462	      15.3	         0	1.83753e+07	   77.4908	   15.1856	         0	1.16976e+07	   77.3885	   15.0557	         0	1.20957e+07	
         R10	   5087	   77.0037	   15.0313	         0	1.17422e+07	   76.9666	      15.3	         0	 1.9999e+07	    77.216	      15.3	         0	1.92311e+07	   77.2717	   15.0403	         0	1.39553e+07	   76.9852	   15.1656	         0	1.19443e+07	   77.0913	      15.3	         0	1.95525e+07	   77.2439	   15.1701	         0	1.21241e+07	   77.1377	   15.0358	         0	1.25088e+07	
         R10	   5088	   76.7502	    15.028	         0	1.16101e+07	   76.7279	      15.3	         0	1.88178e+07	   76.9666	      15.3	         0	 1.8374e+07	   77.0037	   15.0313	         0	 1.2864e+07	   76.7391	    15.164	         0	 1.3415e+07	   76.8472	      15.3	         0	1.82073e+07	   76.9852	   15.1656	         0	1.12028e+07	    76.877	   15.0296	         0	1.21774e+07	
         R10	   5089	      76.5	   15.0569	         0	6.02196e+06	      76.5	      15.3	         0	2.01673e+07	   76.7279	      15.3	         0	1.47049e+07	   76.7502	    15.028	         0	1.46407e+07	      76.5	   15.1784	         0	1.30129e+07	    76.614	      15.3	         0	1.65031e+07	   76.7391	    15.164	         0	1.16724e+07	   76.6251	   15.0425	         0	 9.8905e+06	
         R10	   5090	   76.7859	   14.7475	         0	1.73976e+07	   76.7875	     14.45	         0	1.02857e+07	      76.5	     14.45	         0	9.50832e+06	      76.5	   14.7736	         0	7.93184e+06	   76.7867	   14.5987	         0	1.28323e+07	   76.6437	     14.45	         0	  8.501e+06	      76.5	   14.6118	         0	7.69448e+06	   76.6429	   14.7605	         0	1.02857e+07	
         R10	   5091	   77.7473	      15.3	         0	1.63397e+07	   78.0291	      15.3	         0	1.18057e+07	   78.2072	   14.8764	         0	1.39238e+07	   77.7879	   14.8591	         0	1.43032e+07	   77.8882	      15.3	         0	 1.4065e+07	   78.1181	   15.0882	         0	1.02928e+07	   77.9976	   14.8677	         0	1.34636e+07	   77.7676	   15.0796	         0	8.71344e+06	
         R10	   5092	   77.5053	   15.0711	         0	5.92703e+06	   77.4763	      15.3	         0	1.74157e+07	   77.7473	      15.3	         0	1.63247e+07	   77.7879	   14.8591	         0	1.83656e+07	   77.4908	   15.1856	         0	8.92793e+06	   77.6118	      15.3	         0	1.68027e+07	   77.7676	   15.0796	         0	1.18487e+07	   77.6466	   14.9651	         0	1.19954e+07	
         R10	   5093	   77.2717	   15.0403	         0	1.25473e+07	   77.5053	   15.0711	         0	1.11321e+07	   77.7879	   14.8591	         0	1.60185e+07	   77.4158	   14.7468	         0	1.17134e+07	   77.3885	   15.0557	         0	1.05827e+07	   77.6466	   14.9651	         0	1.26347e+07	   77.6019	    14.803	         0	 1.3761e+07	   77.3438	   14.8935	         0	1.19498e+07	
         R10	   5094	   77.0037	   15.0313	         0	1.18785e+07	   77.2717	   15.0403	         0	1.38405e+07	   77.4158	   14.7468	         0	1.49034e+07	   77.0864	    14.748	         0	1.15893e+07	   77.1377	   15.0358	         0	1.28144e+07	   77.3438	   14.8935	         0	1.42186e+07	   77.2511	   14.7474	         0	1.31268e+07	   77.0451	   14.8896	         0	1.14467e+07	
         R10	   5095	   76.7502	    15.028	         0	1.18734e+07	   77.0037	   15.0313	         0	1.24326e+07	   77.0864	    14.748	         0	1.51705e+07	   76.7859	   14.7475	         0	1.14642e+07	    76.877	   15.0296	         0	1.18364e+07	   77.0451	   14.8896	         0	1.36448e+07	   76.9362	   14.7477	         0	1.31978e+07	   76.7681	   14.8877	         0	1.02061e+07	
         R10	   5096	      76.5	   15.0569	         0	7.49835e+06	   76.7502	    15.028	         0	1.42895e+07	   76.7859	   14.7475	         0	1.77343e+07	      76.5	   14.7736	         0	4.59739e+06	   76.6251	   15.0425	         0	 9.7918e+06	   76.7681	   14.8877	         0	1.49869e+07	   76.6429	   14.7605	         0	1.00558e+07	      76.5	   14.9152	         0	5.18721e+06	
         R10	   5097	   78.0291	      15.3	         0	1.24353e+07	   78.3217	      15.3	         0	1.30839e+07	   78.2072	   14.8764	         0	1.01352e+07	   78.1754	      15.3	         0	1.27528e+07	   78.2644	   15.0882	         0	8.55217e+06	   78.1181	   15.0882	         0	8.25589e+06	       N/A	       N/A	       N/A	        N/A	       N/A	       N/A	       N/A	        N/A	
         R10	   5098	   72.7813	   20.7284	  0.396646	7.22336e+06	   72.7546	   20.2716	  0.135881	8.62203e+06	     72.25	   20.2104	   0.11214	1.01405e+07	     72.25	   20.7284	  0.396646	7.75086e+06	   72.7679	   20.5086	  0.251177	7.88513e+06	   72.5023	   20.2411	   0.12376	9.32583e+06	     72.25	     20.48	  0.235152	8.89815e+06	   72.5156	   20.7284	  0.396646	7.20199e+06	
         R10	   5099	   72.7546	   20.2716	  0.135881	8.90731e+06	    72.675	   19.7344	         0	6.53288e+06	     72.25	   19.7344	         0	1.07627e+07	     72.25	   20.2104	   0.11214	1.05799e+07	   72.7148	   20.0077	 0.0492511	7.47502e+06	   72.4625	   19.7344	         0	8.27547e+06	     72.25	   19.9759	  0.041468	1.05238e+07	   72.5023	   20.2411	   0.12376	9.68488e+06	
         R10	   5100	   73.3115	   20.2458	  0.125604	9.00461e+06	      73.1	   19.7344	         0	8.79533e+06	    72.675	   19.7344	         0	1.08691e+07	   72.7546	   20.2716	  0.135881	9.76126e+06	   73.2057	   19.9943	 0.0458981	8.76008e+06	   72.8875	   19.7344	         0	9.55713e+06	   72.7148	   20.0077	 0.0492511	1.03034e+07	   73.0331	   20.2587	  0.130698	9.36445e+06	
         R10	   5101	   73.8403	   20.2728	  0.136409	9.08841e+06	   74.2663	   20.2115	  0.112559	9.07416e+06	    74.375	   19.7344	         0	1.02418e+07	     73.95	   19.7344	         0	1.06943e+07	   74.0533	   20.2423	  0.124232	9.06433e+06	   74.3206	   19.9764	 0.0416063	9.55095e+06	   74.1625	   19.7344	         0	1.04614e+07	   73.8951	   20.0084	 0.0494225	9.73043e+06	
         R10	   5102	   74.2663	   20.2115	  0.112559	9.28397e+06	   74.7261	   20.2116	  0.112582	9.26755e+06	      74.8	   19.7344	         0	1.02906e+07	    74.375	   19.7344	         0	1.07027e+07	   74.4962	   20.2116	   0.11257	9.27081e+06	   74.7631	   19.9765	  0.041614	9.71484e+06	   74.5875	   19.7344	         0	1.04832e+07	   74.3206	   19.9764	 0.0416063	9.87251e+06	
         R10	   5103	   74.7261	   20.2116	  0.112582	9.15976e+06	   75.0981	   20.2748	  0.137213	8.99357e+06	    75.225	   19.7344	         0	1.04159e+07	      74.8	   19.7344	         0	1.04433e+07	   74.9121	   20.2433	  0.124629	9.06518e+06	   75.1615	   20.0094	 0.0496838	9.57393e+06	   75.0125	   19.7344	         0	1.04197e+07	   74.7631	   19.9765	  0.041614	9.70229e+06	
         R10	   5104	   75.0981	   20.2748	  0.137213	9.08347e+06	   75.5562	   20.2727	   0.13636	9.12095e+06	     75.65	   19.7344	         0	9.89548e+06	    75.225	   19.7344	         0	 1.0333e+07	   75.3271	   20.2738	  0.136786	9.09554e+06	   75.6031	   20.0083	 0.0494065	9.32344e+06	   75.4375	   19.7344	         0	1.01085e+07	   75.1615	   20.0094	 0.0496838	9.56698e+06	
         R10	   5105	   75.5562	   20.2727	   0.13636	8.84015e+06	   76.0252	   20.2725	  0.136263	1.01638e+07	    76.075	   19.7344	         0	9.70585e+06	     75.65	   19.7344	         0	9.86809e+06	   75.7907	   20.2726	  0.136312	9.48913e+06	   76.0501	   20.0082	 0.0493752	9.91744e+06	   75.8625	   19.7344	         0	9.71767e+06	   75.6031	   20.0083	 0.0494065	9.16401e+06	
         R10	   5106	   76.0252	   20.2725	  0.136263	7.74795e+06	      76.5	   20.2104	   0.11214	1.13242e+07	      76.5	   19.7344	         0	1.12517e+07	    76.075	   19.7344	         0	7.19159e+06	   76.2626	   20.2415	  0.123943	9.40868e+06	      76.5	   19.9759	  0.041468	1.12741e+07	   76.2875	   19.7344	         0	8.98625e+06	   76.0501	   20.0082	 0.0493752	7.41098e+06	
         R10	   5107	   76.0252	   20.2725	  0.136263	7.71262e+06	   75.9688	   20.7284	  0.396646	7.95874e+06	      76.5	   20.7284	  0.396646	 7.8981e+06	      76.5	   20.2104	   0.11214	1.07335e+07	    75.997	    20.509	  0.251428	7.82772e+06	   76.2344	   20.7284	  0.396646	7.81889e+06	      76.5	     20.48	  0.235152	9.31455e+06	   76.2626	   20.2415	  0.123943	9.09079e+06	
         R10	   5108	   75.5562	   20.2727	   0.13636	9.17821e+06	   75.4375	   20.7284	  0.396646	9.15276e+06	   75.9688	   20.7284	  0.396646	9.12769e+06	   76.0252	   20.2725	  0.136263	9.85584e+06	   75.4968	   20.5092	  0.251491	9.15397e+06	   75.7031	   20.7284	  0.396646	9.11949e+06	    75.997	    20.509	  0.251428	9.48603e+06	   75.7907	   20.2726	  0.136312	9.51461e+06	
         R10	   5109	   75.0981	   20.2748	  0.137213	9.24405e+06	   74.9063	   20.7284	  0.396646	9.39086e+06	   75.4375	   20.7284	  0.396646	8.91965e+06	   75.5562	   20.2727	   0.13636	9.32854e+06	   75.0022	   20.5101	  0.252051	9.30483e+06	   75.1719	   20.7284	  0.396646	9.14473e+06	   75.4968	   20.5092	  0.251491	9.11521e+06	   75.3271	   20.2738	  0.136786	9.28382e+06	
         R10	   5110	   74.7261	   20.2116	  0.112582	9.06646e+06	    74.375	   20.7284	  0.396646	9.14147e+06	   74.9063	   20.7284	  0.396646	9.11929e+06	   75.0981	   20.2748	  0.137213	9.27962e+06	   74.5506	   20.4805	  0.235459	9.10127e+06	   74.6406	   20.7284	  0.396646	9.12469e+06	   75.0022	   20.5101	  0.252051	9.19236e+06	   74.9121	   20.2433	  0.124629	9.16838e+06	
         R10	   5111	   73.3125	   20.7284	  0.396646	8.92501e+06	   73.3115	   20.2458	  0.125604	8.95311e+06	   72.7546	   20.2716	  0.135881	 9.5999e+06	   72.7813	   20.7284	  0.396646	8.42214e+06	    73.312	   20.4965	  0.244347	8.91452e+06	   73.0331	   20.2587	  0.130698	9.27506e+06	   72.7679	   20.5086	  0.251177	9.00525e+06	   73.0469	   20.7284	  0.396646	8.63224e+06	
         R10	   5112	   73.3115	   20.2458	  0.125604	9.08498e+06	   73.8403	   20.2728	  0.136409	8.95964e+06	     73.95	   19.7344	         0	1.04337e+07	    73.525	   19.7344	         0	9.61523e+06	   73.5759	   20.2593	  0.130957	8.99988e+06	   73.8951	   20.0084	 0.0494225	9.54255e+06	   73.7375	   19.7344	         0	9.97166e+06	   73.4183	   19.9943	 0.0458981	9.33425e+06	
         R10	   5113	   73.8438	   20.7284	  0.396646	9.22335e+06	   73.8403	   20.2728	  0.136409	9.22221e+06	   73.3115	   20.2458	  0.125604	8.92058e+06	   73.3125	   20.7284	  0.396646	8.81155e+06	    73.842	   20.5092	  0.251523	9.19225e+06	   73.5759	   20.2593	  0.130957	 9.0673e+06	    73.312	   20.4965	  0.244347	8.85279e+06	   73.5781	   20.7284	  0.396646	  8.989e+06	
         R10	   5114	    74.375	   20.7284	  0.396646	9.13626e+06	   74.2663	   20.2115	  0.112559	9.10718e+06	   73.8403	   20.2728	  0.136409	9.25773e+06	   73.8438	   20.7284	  0.396646	 9.0005e+06	   74.3206	   20.4805	  0.235443	9.11518e+06	   74.0533	   20.2423	  0.124232	9.17804e+06	    73.842	   20.5092	  0.251523	9.11613e+06	   74.1094	   20.7284	  0.396646	9.05853e+06	
         R10	   5115	   73.3115	   20.2458	  0.125604	8.73934e+06	    73.525	   19.7344	         0	 1.0663e+07	      73.1	   19.7344	         0	9.33963e+06	   73.4183	   19.9943	 0.0458981	9.58805e+06	   73.3125	   19.7344	         0	9.89401e+06	   73.2057	   19.9943	 0.0458981	8.94084e+06	       N/A	       N/A	       N/A	        N/A	       N/A	       N/A	       N/A	        N/A	
         R10	   5116	   74.7261	   20.2116	  0.112582	9.32979e+06	   74.2663	   20.2115	  0.112559	 9.2668e+06	    74.375	   20.7284	  0.396646	8.97581e+06	   74.4962	   20.2116	   0.11257	9.28991e+06	   74.3206	   20.4805	  0.235443	9.10932e+06	   74.5506	   20.4805	  0.235459	9.13125e+06	       N/A	       N/A	       N/A	        N/A	       N/A	       N/A	       N/A	        N/A	
         R10	   5117	   77.0313	   20.7284	  0.396646	6.09414e+06	   77.0061	   20.2558	  0.129553	7.93008e+06	      76.5	   20.2104	   0.11214	1.06652e+07	      76.5	   20.7284	  0.396646	1.01591e+07	   77.0187	   20.5012	   0.24699	6.98997e+06	   76.7531	   20.2332	  0.120708	9.13842e+06	      76.5	     20.48	  0.235152	1.04087e+07	   76.7656	   20.7284	  0.396646	 7.9799e+06	
         R10	   5118	   77.0061	   20.2558	  0.129553	7.57231e+06	    76.925	   19.7344	         0	7.07472e+06	      76.5	   19.7344	         0	1.14743e+07	      76.5	   20.2104	   0.11214	1.13375e+07	   76.9656	   19.9995	 0.0471891	 7.2377e+06	   76.7125	   19.7344	         0	8.98216e+06	      76.5	   19.9759	  0.041468	1.13896e+07	   76.7531	   20.2332	  0.120708	 9.3601e+06	
         R10	   5119	   77.5678	   20.2271	  0.118391	9.01339e+06	     77.35	   19.7344	         0	9.32204e+06	    76.925	   19.7344	         0	9.69561e+06	   77.0061	   20.2558	  0.129553	9.81526e+06	   77.4589	   19.9845	 0.0435307	9.13576e+06	   77.1375	   19.7344	         0	9.45723e+06	   76.9656	   19.9995	 0.0471891	9.73168e+06	   77.2869	   20.2415	  0.123917	9.39737e+06	
         R10	   5120	   78.1234	   20.2409	  0.123684	8.98258e+06	    78.625	   20.2104	   0.11214	9.01488e+06	    78.625	   19.7344	         0	1.03185e+07	      78.2	   19.7344	         0	1.03761e+07	   78.3742	   20.2257	   0.11785	8.98871e+06	    78.625	   19.9759	  0.041468	9.55714e+06	   78.4125	   19.7344	         0	1.03416e+07	   78.1617	   19.9917	 0.0452692	  9.558e+06	
         R10	   5121	   78.1234	   20.2409	  0.123684	9.12488e+06	   78.0938	   20.7284	  0.396646	 8.9901e+06	    78.625	   20.7284	  0.396646	8.89248e+06	    78.625	   20.2104	   0.11214	9.09238e+06	   78.1086	   20.4942	  0.243054	 9.0372e+06	   78.3594	   20.7284	  0.396646	8.93083e+06	    78.625	     20.48	  0.235152	8.97443e+06	   78.3742	   20.2257	   0.11785	 9.1015e+06	
         R10	   5122	   77.5625	   20.7284	  0.396646	8.67619e+06	   77.5678	   20.2271	  0.118391	9.05459e+06	   77.0061	   20.2558	  0.129553	9.60182e+06	   77.0313	   20.7284	  0.396646	9.49015e+06	   77.5651	   20.4878	  0.239459	8.84162e+06	   77.2869	   20.2415	  0.123917	9.31963e+06	   77.0187	   20.5012	   0.24699	9.53317e+06	   77.2969	   20.7284	  0.396646	9.05739e+06	
         R10	   5123	   77.5678	   20.2271	  0.118391	9.07908e+06	   78.1234	   20.2409	  0.123684	9.06259e+06	      78.2	   19.7344	         0	1.03586e+07	    77.775	   19.7344	         0	9.71215e+06	   77.8456	    20.234	  0.121025	9.04444e+06	   78.1617	   19.9917	 0.0452692	9.58556e+06	   77.9875	   19.7344	         0	1.00081e+07	   77.6714	   19.9845	 0.0435307	9.38833e+06	
         R10	   5124	   77.5625	   20.7284	  0.396646	8.83965e+06	   78.0938	   20.7284	  0.396646	 9.0159e+06	   78.1234	   20.2409	  0.123684	9.27627e+06	   77.5678	   20.2271	  0.118391	8.91377e+06	   77.8281	   20.7284	  0.396646	8.91884e+06	   78.1086	   20.4942	  0.243054	9.12937e+06	   77.8456	    20.234	  0.121025	9.08822e+06	   77.5651	   20.4878	  0.239459	8.85269e+06	
         R10	   5125	   77.5678	   20.2271	  0.118391	 8.5765e+06	    77.775	   19.7344	         0	1.01302e+07	     77.35	   19.7344	         0	1.00358e+07	   77.6714	   19.9845	 0.0435307	9.21978e+06	   77.5625	   19.7344	         0	1.00595e+07	   77.4589	   19.9845	 0.0435307	9.18404e+06	       N/A	       N/A	       N/A	        N/A	       N/A	       N/A	       N/A	        N/A	
         R10	   5126	   72.7222	      21.5	      2.25	8.14156e+06	     72.25	      21.5	      2.25	7.21445e+06	     72.25	      21.5	         3	  5.046e+06	   72.7813	      21.5	         3	7.33095e+06	   72.4861	      21.5	      2.25	6.80883e+06	     72.25	      21.5	     2.625	5.89397e+06	   72.5156	      21.5	         3	5.11746e+06	   72.7517	      21.5	     2.625	6.08141e+06	
         R10	   5127	   73.1944	      21.5	      2.25	8.26075e+06	   72.7222	      21.5	      2.25	8.26742e+06	   72.7813	      21.5	         3	7.32818e+06	   73.3125	      21.5	         3	8.51605e+06	   72.9583	      21.5	      2.25	8.25898e+06	   72.7517	      21.5	     2.625	6.13967e+06	   73.0469	      21.5	         3	 7.9117e+06	   73.2535	      21.5	     2.625	6.23803e+06	
         R10	   5128	   73.6667	      21.5	      2.25	 7.6843e+06	   73.1944	      21.5	      2.25	8.24045e+06	   73.3125	      21.5	         3	8.33718e+06	   73.8438	      21.5	         3	8.19962e+06	   73.4306	      21.5	      2.25	7.96129e+06	   73.2535	      21.5	     2.625	6.17499e+06	   73.5781	      21.5	         3	8.26493e+06	   73.7552	      21.5	     2.625	6.07336e+06	
         R10	   5129	   74.1389	      21.5	      2.25	6.99992e+06	   73.6667	      21.5	      2.25	7.76124e+06	   73.8438	      21.5	         3	8.08633e+06	    74.375	      21.5	         3	7.08621e+06	   73.9028	      21.5	      2.25	 7.3605e+06	   73.7552	      21.5	     2.625	6.06979e+06	   74.1094	      21.5	         3	7.56719e+06	   74.2569	      21.5	     2.625	5.97926e+06	
         R10	   5130	   74.6111	      21.5	      2.25	6.53693e+06	   74.1389	      21.5	      2.25	7.00459e+06	    74.375	      21.5	         3	7.05964e+06	   74.9063	      21.5	         3	6.22813e+06	    74.375	      21.5	      2.25	6.74228e+06	   74.2569	      21.5	     2.625	5.96687e+06	   74.6406	      21.5	         3	6.61538e+06	   74.7587	      21.5	     2.625	5.93335e+06	
         R10	   5131	   75.0833	      21.5	      2.25	6.37152e+06	   74.6111	      21.5	      2.25	6.52042e+06	   74.9063	      21.5	         3	6.29648e+06	   75.4375	      21.5	         3	5.71372e+06	   74.8472	      21.5	      2.25	6.41373e+06	   74.7587	      21.5	     2.625	5.95519e+06	   75.1719	      21.5	         3	  5.968e+06	   75.2604	      21.5	     2.625	5.95088e+06	
         R10	   5132	   75.9688	      21.5	         3	4.99307e+06	      76.5	      21.5	         3	5.80502e+06	      76.5	      21.5	      2.25	6.82738e+06	   76.0278	      21.5	      2.25	6.43568e+06	   76.2344	      21.5	         3	5.23143e+06	      76.5	      21.5	     2.625	5.56941e+06	   76.2639	      21.5	      2.25	6.22146e+06	   75.9983	      21.5	     2.625	5.61582e+06	
         R10	   5133	   75.4375	      21.5	         3	5.62245e+06	   75.9688	      21.5	         3	5.13617e+06	   76.0278	      21.5	      2.25	6.51062e+06	   75.5556	      21.5	      2.25	6.55221e+06	   75.7031	      21.5	         3	5.37834e+06	   75.9983	      21.5	     2.625	5.73126e+06	   75.7917	      21.5	      2.25	6.51213e+06	   75.4965	      21.5	     2.625	6.01758e+06	
         R10	   5134	   75.0833	      21.5	      2.25	6.27722e+06	   75.4375	      21.5	         3	5.88757e+06	   75.5556	      21.5	      2.25	6.41003e+06	   75.2604	      21.5	     2.625	6.00307e+06	   75.4965	      21.5	     2.625	6.07395e+06	   75.3194	      21.5	      2.25	6.34316e+06	       N/A	       N/A	       N/A	        N/A	       N/A	       N/A	       N/A	        N/A	
         R10	   5135	   72.7813	      21.5	         3	6.94956e+06	     72.25	      21.5	         3	4.91888e+06	     72.25	      21.5	      3.75	4.97492e+06	   72.8652	      21.5	      3.75	6.90364e+06	   72.5156	      21.5	         3	 5.3643e+06	     72.25	      21.5	     3.375	4.94688e+06	   72.5576	      21.5	      3.75	5.38753e+06	   72.8232	      21.5	     3.375	5.27602e+06	
         R10	   5136	   73.3125	      21.5	         3	6.69066e+06	   72.7813	      21.5	         3	6.44492e+06	   72.8652	      21.5	      3.75	6.96243e+06	   73.4777	      21.5	      3.75	7.77533e+06	   73.0469	      21.5	         3	6.55673e+06	   72.8232	      21.5	     3.375	5.00707e+06	   73.1714	      21.5	      3.75	7.35699e+06	   73.3951	      21.5	     3.375	5.23968e+06	
         R10	   5137	   73.8438	      21.5	         3	6.22399e+06	   73.3125	      21.5	         3	6.72892e+06	   73.4777	      21.5	      3.75	 7.8327e+06	   74.0875	      21.5	      3.75	7.29058e+06	   73.5781	      21.5	         3	6.45095e+06	   73.3951	      21.5	     3.375	5.24529e+06	   73.7826	      21.5	      3.75	7.55643e+06	   73.9656	      21.5	     3.375	5.35444e+06	
         R10	   5138	    74.375	      21.5	         3	 5.6739e+06	   73.8438	      21.5	         3	6.20394e+06	   74.0875	      21.5	      3.75	7.20493e+06	   74.6946	      21.5	      3.75	6.08515e+06	   74.1094	      21.5	         3	5.88734e+06	   73.9656	      21.5	     3.375	 5.2914e+06	   74.3911	      21.5	      3.75	6.62558e+06	   74.5348	      21.5	     3.375	5.27811e+06	
         R10	   5139	   74.9063	      21.5	         3	5.53668e+06	    74.375	      21.5	         3	5.66406e+06	   74.6946	      21.5	      3.75	6.04308e+06	   75.2991	      21.5	      3.75	5.14754e+06	   74.6406	      21.5	         3	5.56981e+06	   74.5348	      21.5	     3.375	5.25672e+06	   74.9969	      21.5	      3.75	5.56812e+06	   75.1027	      21.5	     3.375	 5.1667e+06	
         R10	   5140	   75.4375	      21.5	         3	5.47367e+06	   74.9063	      21.5	         3	5.53212e+06	   75.2991	      21.5	      3.75	5.17853e+06	   75.9009	      21.5	      3.75	4.71464e+06	   75.1719	      21.5	         3	5.49895e+06	   75.1027	      21.5	     3.375	5.19066e+06	      75.6	      21.5	      3.75	4.91558e+06	   75.6692	      21.5	     3.375	5.02567e+06	
         R10	   5141	   75.9009	      21.5	      3.75	4.98955e+06	      76.5	      21.5	      3.75	6.78697e+06	      76.5	      21.5	         3	5.75057e+06	   75.9688	      21.5	         3	4.95983e+06	   76.2004	      21.5	      3.75	 5.8274e+06	      76.5	      21.5	     3.375	5.77311e+06	   76.2344	      21.5	         3	5.19494e+06	   75.9348	      21.5	     3.375	 4.8084e+06	
         R10	   5142	   75.4375	      21.5	         3	5.50543e+06	   75.9009	      21.5	      3.75	5.05096e+06	   75.9688	      21.5	         3	5.04208e+06	   75.6692	      21.5	     3.375	 5.1541e+06	   75.9348	      21.5	     3.375	4.86388e+06	   75.7031	      21.5	         3	5.25001e+06	       N/A	       N/A	       N/A	        N/A	       N/A	       N/A	       N/A	        N/A	
         R10	   5143	   72.8652	      21.5	      3.75	5.42714e+06	     72.25	      21.5	      3.75	5.54936e+06	     72.25	      21.5	       4.5	5.85914e+06	   72.9228	      21.5	       4.5	6.01767e+06	   72.5576	      21.5	      3.75	4.62073e+06	     72.25	      21.5	     4.125	5.59171e+06	   72.5864	      21.5	       4.5	5.14677e+06	    72.894	      21.5	     4.125	4.57389e+06	
         R10	   5144	   73.4777	      21.5	      3.75	5.85697e+06	   72.8652	      21.5	      3.75	4.97308e+06	   72.9228	      21.5	       4.5	5.97918e+06	   73.5737	      21.5	       4.5	7.05437e+06	   73.1714	      21.5	      3.75	5.36386e+06	    72.894	      21.5	     4.125	 4.2759e+06	   73.2482	      21.5	       4.5	6.49224e+06	   73.5257	      21.5	     4.125	4.03518e+06	
         R10	   5145	   74.0875	      21.5	      3.75	5.51287e+06	   73.4777	      21.5	      3.75	5.92546e+06	   73.5737	      21.5	       4.5	7.17734e+06	   74.2027	      21.5	       4.5	6.69253e+06	   73.7826	      21.5	      3.75	 5.7077e+06	   73.5257	      21.5	     4.125	4.17432e+06	   73.8882	      21.5	       4.5	6.93096e+06	   74.1451	      21.5	     4.125	4.19196e+06	
         R10	   5146	   74.6946	      21.5	      3.75	4.87718e+06	   74.0875	      21.5	      3.75	5.49338e+06	   74.2027	      21.5	       4.5	6.62561e+06	   74.8099	      21.5	       4.5	5.71146e+06	   74.3911	      21.5	      3.75	5.15589e+06	   74.1451	      21.5	     4.125	4.13148e+06	   74.5063	      21.5	       4.5	6.15939e+06	   74.7523	      21.5	     4.125	4.15402e+06	
         R10	   5147	   75.2991	      21.5	      3.75	4.50955e+06	   74.6946	      21.5	      3.75	4.83786e+06	   74.8099	      21.5	       4.5	5.67753e+06	   75.3951	      21.5	       4.5	5.07344e+06	   74.9969	      21.5	      3.75	4.64945e+06	   74.7523	      21.5	     4.125	4.11147e+06	   75.1025	      21.5	       4.5	5.36518e+06	   75.3471	      21.5	     4.125	 4.1571e+06	
         R10	   5148	   75.9009	      21.5	      3.75	4.45737e+06	   75.2991	      21.5	      3.75	4.56412e+06	   75.3951	      21.5	       4.5	5.07011e+06	   75.9585	      21.5	       4.5	4.98744e+06	      75.6	      21.5	      3.75	4.49067e+06	   75.3471	      21.5	     4.125	4.17638e+06	   75.6768	      21.5	       4.5	5.02122e+06	   75.9297	      21.5	     4.125	4.34788e+06	
         R10	   5149	      76.5	      21.5	      3.75	5.28152e+06	   75.9009	      21.5	      3.75	4.48607e+06	   75.9585	      21.5	       4.5	4.94046e+06	      76.5	      21.5	       4.5	5.86612e+06	   76.2004	      21.5	      3.75	4.84744e+06	   75.9297	      21.5	     4.125	4.32371e+06	   76.2292	      21.5	       4.5	5.40242e+06	      76.5	      21.5	     4.125	 5.2793e+06	
         R10	   5150	   72.9228	      21.5	       4.5	4.35714e+06	     72.25	      21.5	       4.5	5.57641e+06	     72.25	      21.5	      5.25	5.18271e+06	   72.9512	      21.5	      5.25	5.43689e+06	   72.5864	      21.5	       4.5	 3.7646e+06	     72.25	      21.5	     4.875	5.37177e+06	   72.6006	      21.5	      5.25	4.57512e+06	    72.937	      21.5	     4.875	3.89351e+06	
         R10	   5151	   73.5737	      21.5	       4.5	4.86926e+06	   72.9228	      21.5	       4.5	4.06553e+06	   72.9512	      21.5	      5.25	 5.4238e+06	   73.6211	      21.5	      5.25	6.11824e+06	   73.2482	      21.5	       4.5	4.37226e+06	    72.937	      21.5	     4.875	3.65447e+06	   73.2861	      21.5	      5.25	 5.7401e+06	   73.5974	      21.5	     4.875	3.08642e+06	
         R10	   5152	   74.2027	      21.5	       4.5	4.52954e+06	   73.5737	      21.5	       4.5	4.93015e+06	   73.6211	      21.5	      5.25	6.12633e+06	   74.2596	      21.5	      5.25	5.43011e+06	   73.8882	      21.5	       4.5	4.72115e+06	   73.5974	      21.5	     4.875	3.10391e+06	   73.9403	      21.5	      5.25	5.77729e+06	   74.2311	      21.5	     4.875	3.01367e+06	
         R10	   5153	   74.8099	      21.5	       4.5	3.88936e+06	   74.2027	      21.5	       4.5	 4.4894e+06	   74.2596	      21.5	      5.25	 5.3684e+06	   74.8667	      21.5	      5.25	4.55048e+06	   74.5063	      21.5	       4.5	4.16274e+06	   74.2311	      21.5	     4.875	2.92641e+06	   74.5631	      21.5	      5.25	4.95444e+06	   74.8383	      21.5	     4.875	2.99111e+06	
         R10	   5154	   75.3951	      21.5	       4.5	3.59708e+06	   74.8099	      21.5	       4.5	3.86003e+06	   74.8667	      21.5	      5.25	4.51662e+06	   75.4425	      21.5	      5.25	4.23912e+06	   75.1025	      21.5	       4.5	3.70254e+06	   74.8383	      21.5	     4.875	2.95166e+06	   75.1546	      21.5	      5.25	4.37178e+06	   75.4188	      21.5	     4.875	3.18496e+06	
         R10	   5155	   75.9585	      21.5	       4.5	3.73345e+06	   75.3951	      21.5	       4.5	3.59202e+06	   75.4425	      21.5	      5.25	4.21527e+06	   75.9869	      21.5	      5.25	4.32629e+06	   75.6768	      21.5	       4.5	 3.6333e+06	   75.4188	      21.5	     4.875	3.16742e+06	   75.7147	      21.5	      5.25	4.26244e+06	   75.9727	      21.5	     4.875	3.63639e+06	
         R10	   5156	      76.5	      21.5	       4.5	4.30191e+06	   75.9585	      21.5	       4.5	3.79102e+06	   75.9869	      21.5	      5.25	4.41974e+06	      76.5	      21.5	      5.25	3.81493e+06	   76.2292	      21.5	       4.5	3.99227e+06	   75.9727	      21.5	     4.875	3.72299e+06	   76.2435	      21.5	      5.25	4.10146e+06	      76.5	      21.5	     4.875	3.91051e+06	
         R10	   5157	   77.0313	      21.5	      2.25	7.09631e+06	      76.5	      21.5	      2.25	7.01806e+06	      76.5	      21.5	         3	5.47918e+06	   77.0313	      21.5	         3	5.48743e+06	   76.7656	      21.5	      2.25	6.84205e+06	      76.5	      21.5	     2.625	 5.4007e+06	   76.7656	      21.5	         3	5.21586e+06	   77.0313	      21.5	     2.625	5.77831e+06	
         R10	   5158	   77.5625	      21.5	      2.25	7.08689e+06	   77.0313	      21.5	      2.25	7.04045e+06	   77.0313	      21.5	         3	5.87839e+06	   77.5625	      21.5	         3	7.09173e+06	   77.2969	      21.5	      2.25	7.04895e+06	   77.0313	      21.5	     2.625	5.97931e+06	   77.2969	      21.5	         3	6.45551e+06	   77.5625	      21.5	     2.625	6.15706e+06	
         R10	   5159	   78.0938	      21.5	      2.25	7.08252e+06	   77.5625	      21.5	      2.25	7.07254e+06	   77.5625	      21.5	         3	6.94571e+06	   78.0938	      21.5	         3	7.44957e+06	   77.8281	      21.5	      2.25	7.07099e+06	   77.5625	      21.5	     2.625	6.08205e+06	   77.8281	      21.5	         3	7.19345e+06	   78.0938	      21.5	     2.625	6.05351e+06	
         R10	   5160	    78.625	      21.5	      2.25	7.27619e+06	   78.0938	      21.5	      2.25	 7.0913e+06	   78.0938	      21.5	         3	7.43566e+06	    78.625	      21.5	         3	7.81028e+06	   78.3594	      21.5	      2.25	7.17684e+06	   78.0938	      21.5	     2.625	 6.0496e+06	   78.3594	      21.5	         3	7.62056e+06	    78.625	      21.5	     2.625	6.04839e+06	
         R10	   5161	   77.0313	      21.5	         3	5.59217e+06	      76.5	      21.5	         3	6.09885e+06	      76.5	      21.5	      3.75	5.99724e+06	   77.0242	      21.5	      3.75	5.25481e+06	   76.7656	      21.5	         3	5.67852e+06	      76.5	      21.5	     3.375	5.46912e+06	   76.7621	      21.5	      3.75	5.60577e+06	   77.0277	      21.5	     3.375	4.82782e+06	
         R10	   5162	   77.5625	      21.5	         3	5.67269e+06	   77.0313	      21.5	         3	5.41251e+06	   77.0242	      21.5	      3.75	5.41309e+06	   77.5531	      21.5	      3.75	5.39578e+06	   77.2969	      21.5	         3	5.52372e+06	   77.0277	      21.5	     3.375	4.83787e+06	   77.2887	      21.5	      3.75	5.38792e+06	   77.5578	      21.5	     3.375	4.98161e+06	
         R10	   5163	   78.0938	      21.5	         3	5.70218e+06	   77.5625	      21.5	         3	5.64218e+06	   77.5531	      21.5	      3.75	5.43693e+06	   78.0867	      21.5	      3.75	5.53883e+06	   77.8281	      21.5	         3	5.67128e+06	   77.5578	      21.5	     3.375	4.99227e+06	   77.8199	      21.5	      3.75	5.48518e+06	   78.0902	      21.5	     3.375	5.10031e+06	
         R10	   5164	    78.625	      21.5	         3	5.77344e+06	   78.0938	      21.5	         3	 5.7024e+06	   78.0867	      21.5	      3.75	5.52401e+06	    78.625	      21.5	      3.75	5.66175e+06	   78.3594	      21.5	         3	5.73699e+06	   78.0902	      21.5	     3.375	5.09147e+06	   78.3559	      21.5	      3.75	5.59239e+06	    78.625	      21.5	     3.375	5.12825e+06	
         R10	   5165	   77.0242	      21.5	      3.75	4.33993e+06	      76.5	      21.5	      3.75	5.64186e+06	      76.5	      21.5	       4.5	5.48923e+06	   76.9738	      21.5	       4.5	4.69349e+06	   76.7621	      21.5	      3.75	4.89562e+06	      76.5	      21.5	     4.125	5.08008e+06	   76.7369	      21.5	       4.5	5.05833e+06	    76.999	      21.5	     4.125	4.17464e+06	
         R10	   5166	   77.5531	      21.5	      3.75	4.27798e+06	   77.0242	      21.5	      3.75	  4.401e+06	   76.9738	      21.5	       4.5	4.61661e+06	   77.4859	      21.5	       4.5	 4.3896e+06	   77.2887	      21.5	      3.75	4.32654e+06	    76.999	      21.5	     4.125	4.16084e+06	   77.2299	      21.5	       4.5	4.50175e+06	   77.5195	      21.5	     4.125	3.99567e+06	
         R10	   5167	   78.0867	      21.5	      3.75	4.39074e+06	   77.5531	      21.5	      3.75	4.30804e+06	   77.4859	      21.5	       4.5	4.37393e+06	   78.0363	      21.5	       4.5	4.30227e+06	   77.8199	      21.5	      3.75	4.34286e+06	   77.5195	      21.5	     4.125	4.00699e+06	   77.7611	      21.5	       4.5	4.33715e+06	   78.0615	      21.5	     4.125	4.07781e+06	
         R10	   5168	    78.625	      21.5	      3.75	4.46048e+06	   78.0867	      21.5	      3.75	4.38671e+06	   78.0363	      21.5	       4.5	4.26631e+06	    78.625	      21.5	       4.5	4.34334e+06	   78.3559	      21.5	      3.75	4.42239e+06	   78.0615	      21.5	     4.125	4.06218e+06	   78.3307	      21.5	       4.5	 4.3048e+06	    78.625	      21.5	     4.125	4.15547e+06	
         R10	   5169	   76.9738	      21.5	       4.5	 3.1854e+06	      76.5	      21.5	       4.5	3.76938e+06	      76.5	      21.5	      5.25	3.81368e+06	   76.9558	      21.5	      5.25	4.24699e+06	   76.7369	      21.5	       4.5	 3.4504e+06	      76.5	      21.5	     4.875	3.69503e+06	   76.7279	      21.5	      5.25	4.00829e+06	   76.9648	      21.5	     4.875	3.44909e+06	
         R10	   5170	   77.4859	      21.5	       4.5	3.25782e+06	   76.9738	      21.5	       4.5	 3.3242e+06	   76.9558	      21.5	      5.25	4.12528e+06	   77.4619	      21.5	      5.25	3.87664e+06	   77.2299	      21.5	       4.5	3.27922e+06	   76.9648	      21.5	     4.875	3.43647e+06	   77.2089	      21.5	      5.25	3.98438e+06	   77.4739	      21.5	     4.875	3.07021e+06	
         R10	   5171	   78.0363	      21.5	       4.5	 3.3785e+06	   77.4859	      21.5	       4.5	3.22756e+06	   77.4619	      21.5	      5.25	3.91813e+06	   78.0183	      21.5	      5.25	4.23171e+06	   77.7611	      21.5	       4.5	3.28239e+06	   77.4739	      21.5	     4.875	3.08738e+06	   77.7401	      21.5	      5.25	4.06042e+06	   78.0273	      21.5	     4.875	2.90655e+06	
         R10	   5172	    78.625	      21.5	       4.5	3.60932e+06	   78.0363	      21.5	       4.5	3.33088e+06	   78.0183	      21.5	      5.25	4.29031e+06	    78.625	      21.5	      5.25	4.82164e+06	   78.3307	      21.5	       4.5	3.45931e+06	   78.0273	      21.5	     4.875	2.91856e+06	   78.3217	      21.5	      5.25	4.54543e+06	    78.625	      21.5	     4.875	2.91518e+06	
         R10	   5173	   72.9512	      21.5	      5.25	3.59398e+06	     72.25	      21.5	      5.25	5.75879e+06	     72.25	      21.5	         6	 5.5267e+06	   72.9702	      21.5	         6	6.15435e+06	   72.6006	      21.5	      5.25	3.34913e+06	     72.25	      21.5	     5.625	5.42389e+06	   72.6101	      21.5	         6	5.15601e+06	   72.9607	      21.5	     5.625	2.60863e+06	
         R10	   5174	   73.6211	      21.5	      5.25	4.23916e+06	   72.9512	      21.5	      5.25	3.81769e+06	   72.9702	      21.5	         6	5.37025e+06	   73.6528	      21.5	         6	4.78279e+06	   73.2861	      21.5	      5.25	3.99088e+06	   72.9607	      21.5	     5.625	3.30001e+06	   73.3115	      21.5	         6	4.91725e+06	   73.6369	      21.5	     5.625	1.77589e+06	
         R10	   5175	   74.2596	      21.5	      5.25	3.65754e+06	   73.6211	      21.5	      5.25	4.29647e+06	   73.6528	      21.5	         6	5.11269e+06	   74.2976	      21.5	         6	3.21935e+06	   73.9403	      21.5	      5.25	3.97194e+06	   73.6369	      21.5	     5.625	2.40871e+06	   73.9752	      21.5	         6	4.07877e+06	   74.2786	      21.5	     5.625	1.30342e+06	
         R10	   5176	   74.8667	      21.5	      5.25	2.85866e+06	   74.2596	      21.5	      5.25	3.61337e+06	   74.2976	      21.5	         6	3.83174e+06	   74.9048	      21.5	         6	2.35439e+06	   74.5631	      21.5	      5.25	3.21049e+06	   74.2786	      21.5	     5.625	1.86695e+06	   74.6012	      21.5	         6	2.90447e+06	   74.8857	      21.5	     5.625	1.18138e+06	
         R10	   5177	   75.4425	      21.5	      5.25	2.57113e+06	   74.8667	      21.5	      5.25	 2.8146e+06	   74.9048	      21.5	         6	2.75699e+06	   75.4742	      21.5	         6	2.67474e+06	   75.1546	      21.5	      5.25	2.65771e+06	   74.8857	      21.5	     5.625	1.55886e+06	   75.1895	      21.5	         6	2.43917e+06	   75.4584	      21.5	     5.625	1.67652e+06	
         R10	   5178	   75.9869	      21.5	      5.25	3.06069e+06	   75.4425	      21.5	      5.25	2.61542e+06	   75.4742	      21.5	         6	2.62816e+06	    76.006	      21.5	         6	 3.8611e+06	   75.7147	      21.5	      5.25	 2.7893e+06	   75.4584	      21.5	     5.625	1.86884e+06	   75.7401	      21.5	         6	3.03562e+06	   75.9964	      21.5	     5.625	2.61846e+06	
         R10	   5179	      76.5	      21.5	      5.25	  2.891e+06	   75.9869	      21.5	      5.25	2.90768e+06	    76.006	      21.5	         6	3.44542e+06	      76.5	      21.5	         6	7.04022e+06	   76.2435	      21.5	      5.25	2.86951e+06	   75.9964	      21.5	     5.625	2.60843e+06	    76.253	      21.5	         6	5.18398e+06	      76.5	      21.5	     5.625	4.28013e+06	
         R10	   5180	   76.9558	      21.5	      5.25	 2.6383e+06	      76.5	      21.5	      5.25	2.49407e+06	      76.5	      21.5	         6	7.11657e+06	   76.9558	      21.5	         6	3.54321e+06	   76.7279	      21.5	      5.25	2.52516e+06	      76.5	      21.5	     5.625	4.20158e+06	   76.7279	      21.5	         6	5.27918e+06	   76.9558	      21.5	     5.625	2.66002e+06	
         R10	   5181	   77.4619	      21.5	      5.25	2.43909e+06	   76.9558	      21.5	      5.25	2.94619e+06	   76.9558	      21.5	         6	4.76621e+06	   77.4619	      21.5	         6	2.51466e+06	   77.2089	      21.5	      5.25	2.63266e+06	   76.9558	      21.5	     5.625	3.06809e+06	   77.2089	      21.5	         6	3.43835e+06	   77.4619	      21.5	     5.625	1.83393e+06	
         R10	   5182	   78.0183	      21.5	      5.25	2.72068e+06	   77.4619	      21.5	      5.25	2.37177e+06	   77.4619	      21.5	         6	3.41449e+06	   78.0183	      21.5	         6	2.98119e+06	   77.7401	      21.5	      5.25	2.45596e+06	   77.4619	      21.5	     5.625	2.03765e+06	   77.7401	      21.5	         6	2.80778e+06	   78.0183	      21.5	     5.625	1.26965e+06	
         R10	   5183	    78.625	      21.5	      5.25	3.48569e+06	   78.0183	      21.5	      5.25	2.77182e+06	   78.0183	      21.5	         6	3.36409e+06	    78.625	      21.5	         6	3.95385e+06	   78.3217	      21.5	      5.25	3.10334e+06	   78.0183	      21.5	     5.625	1.33916e+06	   78.3217	      21.5	         6	3.25468e+06	    78.625	      21.5	     5.625	1.34875e+06	
         R10	   5184	   73.0678	      21.5	       7.7	2.72341e+06	     72.25	      21.5	       7.7	 3.1268e+06	     72.25	      21.5	      8.55	 3.3245e+06	   73.0346	      21.5	      8.55	3.47636e+06	   72.6589	      21.5	       7.7	     646010	     72.25	      21.5	     8.125	3.18871e+06	   72.6423	      21.5	      8.55	1.97551e+06	   73.0512	      21.5	     8.125	2.34564e+06	
         R10	   5185	   73.8418	      21.5	       7.7	3.36472e+06	   73.0678	      21.5	       7.7	1.28764e+06	   73.0346	      21.5	      8.55	2.81052e+06	   73.7887	      21.5	      8.55	4.67917e+06	   73.4548	      21.5	       7.7	2.24826e+06	   73.0512	      21.5	     8.125	     892021	   73.4117	      21.5	      8.55	3.68621e+06	   73.8152	      21.5	     8.125	1.10349e+06	
         R10	   5186	    74.572	      21.5	       7.7	2.60144e+06	   73.8418	      21.5	       7.7	3.26734e+06	   73.7887	      21.5	      8.55	 4.5753e+06	   74.5123	      21.5	      8.55	3.74536e+06	   74.2069	      21.5	       7.7	2.92806e+06	   73.8152	      21.5	     8.125	     813358	   74.1505	      21.5	      8.55	4.15594e+06	   74.5422	      21.5	     8.125	     887169	
         R10	   5187	   75.2585	      21.5	       7.7	1.23874e+06	    74.572	      21.5	       7.7	2.62769e+06	   74.5123	      21.5	      8.55	3.76347e+06	   75.2054	      21.5	      8.55	2.20968e+06	   74.9152	      21.5	       7.7	1.87919e+06	   74.5422	      21.5	     8.125	     979564	   74.8588	      21.5	      8.55	2.96478e+06	   75.2319	      21.5	     8.125	1.07015e+06	
         R10	   5188	   75.9011	      21.5	       7.7	1.42024e+06	   75.2585	      21.5	       7.7	1.26687e+06	   75.2054	      21.5	      8.55	2.26546e+06	   75.8679	      21.5	      8.55	1.85236e+06	   75.5798	      21.5	       7.7	1.20106e+06	   75.2319	      21.5	     8.125	 1.1113e+06	   75.5367	      21.5	      8.55	 2.0094e+06	   75.8845	      21.5	     8.125	1.55695e+06	
         R10	   5189	      76.5	      21.5	       7.7	1.19955e+06	   75.9011	      21.5	       7.7	1.36692e+06	   75.8679	      21.5	      8.55	1.88153e+06	      76.5	      21.5	      8.55	 2.9791e+06	   76.2006	      21.5	       7.7	1.28301e+06	   75.8845	      21.5	     8.125	1.50987e+06	    76.184	      21.5	      8.55	 2.4085e+06	      76.5	      21.5	     8.125	2.03042e+06	
         R10	   5190	   73.0346	      21.5	      8.55	2.53528e+06	     72.25	      21.5	      8.55	3.63269e+06	     72.25	      21.5	       9.4	3.91769e+06	   73.1513	      21.5	       9.4	2.87238e+06	   72.6423	      21.5	      8.55	1.05672e+06	     72.25	      21.5	     8.975	3.74636e+06	   72.7007	      21.5	       9.4	1.90901e+06	    73.093	      21.5	     8.975	2.09361e+06	
         R10	   5191	   73.7887	      21.5	      8.55	3.19121e+06	   73.0346	      21.5	      8.55	1.28533e+06	   73.1513	      21.5	       9.4	3.17475e+06	    74.027	      21.5	       9.4	3.82821e+06	   73.4117	      21.5	      8.55	2.13882e+06	    73.093	      21.5	     8.975	1.45727e+06	   73.5891	      21.5	       9.4	3.27793e+06	   73.9078	      21.5	     8.975	 1.1742e+06	
         R10	   5192	   74.5123	      21.5	      8.55	2.06465e+06	   73.7887	      21.5	      8.55	3.01085e+06	    74.027	      21.5	       9.4	 4.0207e+06	    74.877	      21.5	       9.4	3.02983e+06	   74.1505	      21.5	      8.55	2.52342e+06	   73.9078	      21.5	     8.975	     948531	    74.452	      21.5	       9.4	  3.499e+06	   74.6946	      21.5	     8.975	1.16546e+06	
         R10	   5193	   75.2054	      21.5	      8.55	1.10298e+06	   74.5123	      21.5	      8.55	 2.2058e+06	    74.877	      21.5	       9.4	3.12857e+06	   75.7013	      21.5	       9.4	1.64471e+06	   74.8588	      21.5	      8.55	 1.4263e+06	   74.6946	      21.5	     8.975	1.22352e+06	   75.2892	      21.5	       9.4	 2.2762e+06	   75.4534	      21.5	     8.975	1.31505e+06	
         R10	   5194	   75.7013	      21.5	       9.4	1.71335e+06	      76.5	      21.5	       9.4	3.71836e+06	      76.5	      21.5	      8.55	     589172	   75.8679	      21.5	      8.55	1.53138e+06	   76.1007	      21.5	       9.4	2.61372e+06	      76.5	      21.5	     8.975	2.11176e+06	    76.184	      21.5	      8.55	 1.0006e+06	   75.7846	      21.5	     8.975	1.50958e+06	
         R10	   5195	   75.2054	      21.5	      8.55	1.01676e+06	   75.7013	      21.5	       9.4	1.93902e+06	   75.8679	      21.5	      8.55	1.58218e+06	   75.4534	      21.5	     8.975	1.47033e+06	   75.7846	      21.5	     8.975	1.70256e+06	   75.5367	      21.5	      8.55	1.27575e+06	       N/A	       N/A	       N/A	        N/A	       N/A	       N/A	       N/A	        N/A	
         R10	   5196	   73.1513	      21.5	       9.4	2.52155e+06	     72.25	      21.5	       9.4	4.17305e+06	     72.25	      21.5	     10.25	 2.6799e+06	   73.1109	      21.5	     10.25	2.45686e+06	   72.7007	      21.5	       9.4	1.45618e+06	     72.25	      21.5	     9.825	 3.1733e+06	   72.6804	      21.5	     10.25	2.53214e+06	   73.1311	      21.5	     9.825	1.96691e+06	
         R10	   5197	    74.027	      21.5	       9.4	2.07296e+06	   73.1513	      21.5	       9.4	1.87388e+06	   73.1109	      21.5	     10.25	2.44202e+06	   73.9663	      21.5	     10.25	2.27295e+06	   73.5891	      21.5	       9.4	1.70065e+06	   73.1311	      21.5	     9.825	2.03893e+06	   73.5386	      21.5	     10.25	2.27006e+06	   73.9967	      21.5	     9.825	1.70389e+06	
         R10	   5198	    74.877	      21.5	       9.4	1.71056e+06	    74.027	      21.5	       9.4	2.17175e+06	   73.9663	      21.5	     10.25	2.27045e+06	   74.8163	      21.5	     10.25	 2.2378e+06	    74.452	      21.5	       9.4	1.87416e+06	   73.9967	      21.5	     9.825	1.73012e+06	   74.3913	      21.5	     10.25	2.24228e+06	   74.8466	      21.5	     9.825	1.79079e+06	
         R10	   5199	   75.7013	      21.5	       9.4	1.55982e+06	    74.877	      21.5	       9.4	1.72803e+06	   74.8163	      21.5	     10.25	2.23399e+06	   75.6609	      21.5	     10.25	2.71617e+06	   75.2892	      21.5	       9.4	1.47819e+06	   74.8466	      21.5	     9.825	1.79993e+06	   75.2386	      21.5	     10.25	2.43126e+06	   75.6811	      21.5	     9.825	2.09151e+06	
         R10	   5200	      76.5	      21.5	       9.4	1.75052e+06	   75.7013	      21.5	       9.4	1.87119e+06	   75.6609	      21.5	     10.25	2.13059e+06	      76.5	      21.5	     10.25	3.68485e+06	   76.1007	      21.5	       9.4	1.58713e+06	   75.6811	      21.5	     9.825	1.94858e+06	   76.0804	      21.5	     10.25	2.78145e+06	      76.5	      21.5	     9.825	2.22509e+06	
         R10	   5201	    77.141	      21.5	       7.7	     764014	      76.5	      21.5	       7.7	2.05075e+06	      76.5	      21.5	      8.55	1.54081e+06	    77.141	      21.5	      8.55	2.55332e+06	   76.8205	      21.5	       7.7	1.29896e+06	      76.5	      21.5	     8.125	1.51576e+06	   76.8205	      21.5	      8.55	 2.0422e+06	    77.141	      21.5	     8.125	1.19155e+06	
         R10	   5202	   77.8494	      21.5	       7.7	1.63084e+06	    77.141	      21.5	       7.7	     802984	    77.141	      21.5	      8.55	2.61829e+06	   77.8494	      21.5	      8.55	3.30908e+06	   77.4952	      21.5	       7.7	1.15815e+06	    77.141	      21.5	     8.125	1.24463e+06	   77.4952	      21.5	      8.55	2.94157e+06	   77.8494	      21.5	     8.125	     967982	
         R10	   5203	    78.625	      21.5	       7.7	2.71187e+06	   77.8494	      21.5	       7.7	1.62106e+06	   77.8494	      21.5	      8.55	3.30282e+06	    78.625	      21.5	      8.55	 3.8984e+06	   78.2372	      21.5	       7.7	2.15635e+06	   77.8494	      21.5	     8.125	     961414	   78.2372	      21.5	      8.55	3.59926e+06	    78.625	      21.5	     8.125	     700962	
         R10	   5204	    77.141	      21.5	      8.55	1.56984e+06	      76.5	      21.5	      8.55	2.84755e+06	      76.5	      21.5	       9.4	1.60735e+06	   77.1656	      21.5	       9.4	 2.7383e+06	   76.8205	      21.5	      8.55	1.94207e+06	      76.5	      21.5	     8.975	1.75829e+06	   76.8328	      21.5	       9.4	2.06193e+06	   77.1533	      21.5	     8.975	1.43427e+06	
         R10	   5205	   77.8494	      21.5	      8.55	2.18883e+06	    77.141	      21.5	      8.55	1.46648e+06	   77.1656	      21.5	       9.4	2.87375e+06	   77.8739	      21.5	       9.4	3.65249e+06	   77.4952	      21.5	      8.55	1.81508e+06	   77.1533	      21.5	     8.975	1.44601e+06	   77.5197	      21.5	       9.4	 3.2229e+06	   77.8616	      21.5	     8.975	1.33761e+06	
         R10	   5206	    78.625	      21.5	      8.55	1.97738e+06	   77.8494	      21.5	      8.55	2.21829e+06	   77.8739	      21.5	       9.4	3.62498e+06	    78.625	      21.5	       9.4	 3.5528e+06	   78.2372	      21.5	      8.55	2.09396e+06	   77.8616	      21.5	     8.975	1.32675e+06	   78.2495	      21.5	       9.4	3.58469e+06	    78.625	      21.5	     8.975	1.28878e+06	
         R10	   5207	   77.1656	      21.5	       9.4	 1.8198e+06	      76.5	      21.5	       9.4	3.94017e+06	      76.5	      21.5	     10.25	3.08299e+06	   77.1993	      21.5	     10.25	3.20346e+06	   76.8328	      21.5	       9.4	2.54457e+06	      76.5	      21.5	     9.825	2.82042e+06	   76.8496	      21.5	     10.25	3.04791e+06	   77.1824	      21.5	     9.825	2.41095e+06	
         R10	   5208	   77.8739	      21.5	       9.4	2.34438e+06	   77.1656	      21.5	       9.4	1.88716e+06	   77.1993	      21.5	     10.25	2.53206e+06	   77.9076	      21.5	     10.25	2.53894e+06	   77.5197	      21.5	       9.4	2.08332e+06	   77.1824	      21.5	     9.825	2.11853e+06	   77.5534	      21.5	     10.25	2.48792e+06	   77.8907	      21.5	     9.825	1.99596e+06	
         R10	   5209	    78.625	      21.5	       9.4	2.12465e+06	   77.8739	      21.5	       9.4	 2.3004e+06	   77.9076	      21.5	     10.25	 2.5639e+06	    78.625	      21.5	     10.25	2.65407e+06	   78.2495	      21.5	       9.4	2.19574e+06	   77.8907	      21.5	     9.825	1.97721e+06	   78.2663	      21.5	     10.25	2.58965e+06	    78.625	      21.5	     9.825	1.89687e+06	
         R10	   5210	   72.6751	      19.3	         0	7.79858e+06	     72.25	      19.3	         0	4.12084e+06	     72.25	   19.7344	         0	1.01261e+07	    72.675	   19.7344	         0	6.68421e+06	   72.4625	      19.3	         0	5.75862e+06	     72.25	   19.5172	         0	 7.1213e+06	   72.4625	   19.7344	         0	7.96053e+06	    72.675	   19.5172	         0	7.21215e+06	
         R10	   5211	   73.1001	      19.3	         0	9.97604e+06	   72.6751	      19.3	         0	7.83282e+06	    72.675	   19.7344	         0	9.99424e+06	      73.1	   19.7344	         0	8.67969e+06	   72.8876	      19.3	         0	8.86783e+06	    72.675	   19.5172	         0	8.87904e+06	   72.8875	   19.7344	         0	9.25377e+06	   73.1001	   19.5172	         0	9.15143e+06	
         R10	   5212	   73.5251	      19.3	         0	 1.1032e+07	   73.1001	      19.3	         0	9.82643e+06	      73.1	   19.7344	         0	9.24632e+06	    73.525	   19.7344	         0	1.00982e+07	   73.3126	      19.3	         0	1.04242e+07	   73.1001	   19.5172	         0	9.31984e+06	   73.3125	   19.7344	         0	9.58389e+06	   73.5251	   19.5172	         0	1.03846e+07	
         R10	   5213	   73.9501	      19.3	         0	1.18758e+07	   73.5251	      19.3	         0	1.10757e+07	    73.525	   19.7344	         0	9.06953e+06	     73.95	   19.7344	         0	 1.0161e+07	   73.7376	      19.3	         0	 1.1469e+07	   73.5251	   19.5172	         0	9.91435e+06	   73.7375	   19.7344	         0	9.59116e+06	   73.9501	   19.5172	         0	1.07623e+07	
         R10	   5214	   74.3752	      19.3	         0	1.21272e+07	   73.9501	      19.3	         0	 1.1835e+07	     73.95	   19.7344	         0	9.60944e+06	    74.375	   19.7344	         0	9.90965e+06	   74.1627	      19.3	         0	1.19776e+07	   73.9501	   19.5172	         0	1.04835e+07	   74.1625	   19.7344	         0	9.74918e+06	   74.3751	   19.5172	         0	1.07691e+07	
         R10	   5215	   74.8001	      19.3	         0	 1.1895e+07	   74.3752	      19.3	         0	1.21022e+07	    74.375	   19.7344	         0	9.78198e+06	      74.8	   19.7344	         0	9.71473e+06	   74.5877	      19.3	         0	1.19958e+07	   74.3751	   19.5172	         0	1.06993e+07	   74.5875	   19.7344	         0	9.74438e+06	   74.8001	   19.5172	         0	1.05916e+07	
         R10	   5216	   75.2251	      19.3	         0	1.11597e+07	   74.8001	      19.3	         0	 1.1872e+07	      74.8	   19.7344	         0	9.85607e+06	    75.225	   19.7344	         0	9.52817e+06	   75.0126	      19.3	         0	1.15084e+07	   74.8001	   19.5172	         0	1.06494e+07	   75.0125	   19.7344	         0	9.68814e+06	   75.2251	   19.5172	         0	 1.0179e+07	
         R10	   5217	   75.6501	      19.3	         0	1.00541e+07	   75.2251	      19.3	         0	1.11892e+07	    75.225	   19.7344	         0	9.67254e+06	     75.65	   19.7344	         0	9.26239e+06	   75.4376	      19.3	         0	1.06115e+07	   75.2251	   19.5172	         0	1.02692e+07	   75.4375	   19.7344	         0	9.45125e+06	     75.65	   19.5172	         0	9.50286e+06	
         R10	   5218	   76.0751	      19.3	         0	8.49001e+06	   75.6501	      19.3	         0	1.02762e+07	     75.65	   19.7344	         0	9.98356e+06	    76.075	   19.7344	         0	8.48496e+06	   75.8626	      19.3	         0	9.28169e+06	     75.65	   19.5172	         0	9.98623e+06	   75.8625	   19.7344	         0	9.17707e+06	    76.075	   19.5172	         0	8.44091e+06	
         R10	   5219	      76.5	      19.3	         0	4.50525e+06	   76.0751	      19.3	         0	7.86866e+06	    76.075	   19.7344	         0	7.67712e+06	      76.5	   19.7344	         0	 1.0577e+07	   76.2875	      19.3	         0	6.11607e+06	    76.075	   19.5172	         0	  7.737e+06	   76.2875	   19.7344	         0	8.92953e+06	      76.5	   19.5172	         0	7.53678e+06	
         R10	   5220	   76.9249	      19.3	         0	7.86044e+06	      76.5	      19.3	         0	4.45327e+06	      76.5	   19.7344	         0	1.05702e+07	    76.925	   19.7344	         0	7.62303e+06	   76.7125	      19.3	         0	6.08459e+06	      76.5	   19.5172	         0	7.50726e+06	   76.7125	   19.7344	         0	8.92075e+06	    76.925	   19.5172	         0	7.71846e+06	
         R10	   5221	   77.3499	      19.3	         0	1.02544e+07	   76.9249	      19.3	         0	8.46984e+06	    76.925	   19.7344	         0	8.62397e+06	     77.35	   19.7344	         0	9.57698e+06	   77.1374	      19.3	         0	9.27405e+06	    76.925	   19.5172	         0	8.52547e+06	   77.1375	   19.7344	         0	9.06472e+06	     77.35	   19.5172	         0	9.80049e+06	
         R10	   5222	   77.7749	      19.3	         0	1.10712e+07	   77.3499	      19.3	         0	9.92698e+06	     77.35	   19.7344	         0	9.70907e+06	    77.775	   19.7344	         0	 9.5166e+06	   77.5624	      19.3	         0	 1.0488e+07	     77.35	   19.5172	         0	9.67014e+06	   77.5625	   19.7344	         0	9.57455e+06	    77.775	   19.5172	         0	  1.018e+07	
         R10	   5223	   78.1999	      19.3	         0	1.19314e+07	   77.7749	      19.3	         0	1.11026e+07	    77.775	   19.7344	         0	 9.1151e+06	      78.2	   19.7344	         0	1.01166e+07	   77.9874	      19.3	         0	 1.1503e+07	    77.775	   19.5172	         0	 1.0002e+07	   77.9875	   19.7344	         0	 9.6024e+06	      78.2	   19.5172	         0	1.07179e+07	
         R10	   5224	    78.625	      19.3	         0	1.20208e+07	   78.1999	      19.3	         0	1.19503e+07	      78.2	   19.7344	         0	9.58092e+06	    78.625	   19.7344	         0	9.81942e+06	   78.4125	      19.3	         0	1.19829e+07	      78.2	   19.5172	         0	1.04698e+07	   78.4125	   19.7344	         0	9.69395e+06	    78.625	   19.5172	         0	1.06641e+07	
         R10	   5225	   72.7826	   21.3636	    1.2195	 6.2161e+06	   72.7815	   21.1005	  0.766202	  7.806e+06	     72.25	   21.0996	  0.765063	 8.8403e+06	     72.25	   21.3636	    1.2195	 9.2988e+06	   72.7821	    21.247	  0.984196	 6.9727e+06	   72.5158	   21.1001	  0.765633	8.12308e+06	     72.25	   21.2466	  0.983574	9.05262e+06	   72.5163	   21.3636	    1.2195	7.22622e+06	
         R10	   5226	   72.7815	   21.1005	  0.766202	7.95268e+06	   72.7813	   20.7284	  0.396646	7.18533e+06	     72.25	   20.7284	  0.396646	7.67254e+06	     72.25	   21.0996	  0.765063	8.86445e+06	   72.7814	   20.9266	  0.569177	7.54043e+06	   72.5156	   20.7284	  0.396646	7.42246e+06	     72.25	   20.9261	   0.56867	8.17601e+06	   72.5158	   21.1001	  0.765633	8.15169e+06	
         R10	   5227	   73.3132	   21.1005	  0.766164	8.48912e+06	   73.3125	   20.7284	  0.396646	8.86383e+06	   72.7813	   20.7284	  0.396646	8.39204e+06	   72.7815	   21.1005	  0.766202	 8.5319e+06	   73.3129	   20.9266	   0.56916	8.67606e+06	   73.0469	   20.7284	  0.396646	8.58985e+06	   72.7814	   20.9266	  0.569177	8.43562e+06	   73.0474	   21.1005	  0.766183	8.49607e+06	
         R10	   5228	   73.3132	   21.1005	  0.766164	8.23744e+06	   73.8446	   21.1004	  0.766126	8.55309e+06	   73.8438	   20.7284	  0.396646	9.28507e+06	   73.3125	   20.7284	  0.396646	8.75781e+06	   73.5789	   21.1005	  0.766145	8.37866e+06	   73.8442	   20.9266	  0.569143	8.91839e+06	   73.5781	   20.7284	  0.396646	9.00405e+06	   73.3129	   20.9266	   0.56916	8.49689e+06	
         R10	   5229	   73.8446	   21.1004	  0.766126	 8.7811e+06	   74.3762	   21.1004	  0.766087	8.46533e+06	    74.375	   20.7284	  0.396646	9.33961e+06	   73.8438	   20.7284	  0.396646	8.96191e+06	   74.1104	   21.1004	  0.766107	8.60179e+06	   74.3756	   20.9266	  0.569125	8.89695e+06	   74.1094	   20.7284	  0.396646	9.14268e+06	   73.8442	   20.9266	  0.569143	8.86971e+06	
         R10	   5230	   74.3762	   21.1004	  0.766087	 8.8536e+06	   74.9073	   21.1004	  0.766048	8.45027e+06	   74.9063	   20.7284	  0.396646	9.06291e+06	    74.375	   20.7284	  0.396646	9.32713e+06	   74.6417	   21.1004	  0.766068	8.63192e+06	   74.9068	   20.9266	  0.569108	8.75504e+06	   74.6406	   20.7284	  0.396646	9.18938e+06	   74.3756	   20.9266	  0.569125	9.08214e+06	
         R10	   5231	   74.9073	   21.1004	  0.766048	8.75763e+06	   75.4384	   21.1004	   0.76601	8.31711e+06	   75.4375	   20.7284	  0.396646	 8.8791e+06	   74.9063	   20.7284	  0.396646	9.48118e+06	   75.1729	   21.1004	  0.766029	8.52393e+06	    75.438	   20.9265	  0.569091	8.59778e+06	   75.1719	   20.7284	  0.396646	9.17765e+06	   74.9068	   20.9266	  0.569108	9.11586e+06	
         R10	   5232	   75.4384	   21.1004	   0.76601	8.22194e+06	   75.9692	   21.1003	  0.765971	9.03261e+06	   75.9688	   20.7284	  0.396646	9.03703e+06	   75.4375	   20.7284	  0.396646	9.19635e+06	   75.7038	   21.1003	  0.765991	8.61899e+06	    75.969	   20.9265	  0.569074	9.03064e+06	   75.7031	   20.7284	  0.396646	9.10916e+06	    75.438	   20.9265	  0.569091	8.70325e+06	
         R10	   5233	   75.9692	   21.1003	  0.765971	6.59451e+06	      76.5	   21.1005	  0.766142	8.70934e+06	      76.5	   20.7284	  0.396646	7.79252e+06	   75.9688	   20.7284	  0.396646	 8.0557e+06	   76.2346	   21.1004	  0.766057	7.31915e+06	      76.5	   20.9266	   0.56915	8.24708e+06	   76.2344	   20.7284	  0.396646	7.75539e+06	    75.969	   20.9265	  0.569074	7.28541e+06	
         R10	   5234	   75.9692	   21.1003	  0.765971	6.56216e+06	   75.9701	   21.3636	    1.2195	5.71971e+06	      76.5	   21.3636	    1.2195	1.07199e+07	      76.5	   21.1005	  0.766142	8.97391e+06	   75.9697	   21.2469	   0.98407	 6.0775e+06	   76.2351	   21.3636	    1.2195	7.29042e+06	      76.5	   21.2469	  0.984164	9.84426e+06	   76.2346	   21.1004	  0.766057	7.31878e+06	
         R10	   5235	   75.4384	   21.1004	   0.76601	8.15959e+06	   75.4399	   21.3636	    1.2195	7.46637e+06	   75.9701	   21.3636	    1.2195	8.72775e+06	   75.9692	   21.1003	  0.765971	9.03825e+06	   75.4391	   21.2469	  0.984091	7.80025e+06	    75.705	   21.3636	    1.2195	8.08222e+06	   75.9697	   21.2469	   0.98407	8.86783e+06	   75.7038	   21.1003	  0.765991	8.58165e+06	
         R10	   5236	   74.9073	   21.1004	  0.766048	8.62851e+06	   74.9092	   21.3636	    1.2195	7.19318e+06	   75.4399	   21.3636	    1.2195	7.48545e+06	   75.4384	   21.1004	   0.76601	8.35883e+06	   74.9082	   21.2469	  0.984112	7.88841e+06	   75.1745	   21.3636	    1.2195	7.33539e+06	   75.4391	   21.2469	  0.984091	 7.9119e+06	   75.1729	   21.1004	  0.766029	8.48629e+06	
         R10	   5237	   74.3762	   21.1004	  0.766087	8.69614e+06	   74.3782	   21.3636	    1.2195	7.08315e+06	   74.9092	   21.3636	    1.2195	7.62509e+06	   74.9073	   21.1004	  0.766048	 8.4191e+06	   74.3772	   21.2469	  0.984133	7.86732e+06	   74.6437	   21.3636	    1.2195	7.35385e+06	   74.9082	   21.2469	  0.984112	7.99599e+06	   74.6417	   21.1004	  0.766068	8.54637e+06	
         R10	   5238	   73.8446	   21.1004	  0.766126	8.76539e+06	   73.8467	   21.3636	    1.2195	7.01562e+06	   74.3782	   21.3636	    1.2195	7.75549e+06	   74.3762	   21.1004	  0.766087	8.30841e+06	   73.8456	   21.2469	  0.984155	7.86541e+06	   74.1124	   21.3636	    1.2195	7.38539e+06	   74.3772	   21.2469	  0.984133	8.00855e+06	   74.1104	   21.1004	  0.766107	8.52029e+06	
         R10	   5239	   73.3132	   21.1005	  0.766164	8.38848e+06	   73.3149	   21.3636	    1.2195	7.09792e+06	   73.8467	   21.3636	    1.2195	7.99544e+06	   73.8446	   21.1004	  0.766126	8.49438e+06	    73.314	    21.247	  0.984175	7.74123e+06	   73.5808	   21.3636	    1.2195	 7.5428e+06	   73.8456	   21.2469	  0.984155	 8.2169e+06	   73.5789	   21.1005	  0.766145	8.42025e+06	
         R10	   5240	   72.7815	   21.1005	  0.766202	8.41704e+06	   72.7826	   21.3636	    1.2195	8.72377e+06	   73.3149	   21.3636	    1.2195	 7.8961e+06	   73.3132	   21.1005	  0.766164	8.65874e+06	   72.7821	    21.247	  0.984196	 8.5429e+06	   73.0487	   21.3636	    1.2195	8.28749e+06	    73.314	    21.247	  0.984175	8.26452e+06	   73.0474	   21.1005	  0.766183	8.49797e+06	
         R10	   5241	   77.0299	   21.3636	    1.2195	4.79235e+06	     77.03	   21.1003	  0.765997	6.07274e+06	      76.5	   21.1005	  0.766142	  9.649e+06	      76.5	   21.3636	    1.2195	1.19169e+07	     77.03	   21.2469	  0.984084	5.34596e+06	    76.765	   21.1004	  0.766069	7.35242e+06	      76.5	   21.2469	  0.984164	1.07805e+07	   76.7649	   21.3636	    1.2195	7.30308e+06	
         R10	   5242	     77.03	   21.1003	  0.765997	5.98333e+06	   77.0313	   20.7284	  0.396646	6.15392e+06	      76.5	   20.7284	  0.396646	1.00267e+07	      76.5	   21.1005	  0.766142	9.47827e+06	   77.0306	   20.9265	  0.569085	6.04002e+06	   76.7656	   20.7284	  0.396646	 7.8888e+06	      76.5	   20.9266	   0.56915	9.73989e+06	    76.765	   21.1004	  0.766069	 7.3264e+06	
         R10	   5243	    77.561	   21.1004	  0.766087	8.47307e+06	   77.5625	   20.7284	  0.396646	8.64759e+06	   77.0313	   20.7284	  0.396646	9.40837e+06	     77.03	   21.1003	  0.765997	8.80227e+06	   77.5617	   20.9266	  0.569125	8.55808e+06	   77.2969	   20.7284	  0.396646	9.01993e+06	   77.0306	   20.9265	  0.569085	9.09529e+06	   77.2955	   21.1004	  0.766042	8.62103e+06	
         R10	   5244	    77.561	   21.1004	  0.766087	8.00456e+06	   78.0925	   21.1005	  0.766178	8.75096e+06	   78.0938	   20.7284	  0.396646	9.11372e+06	   77.5625	   20.7284	  0.396646	8.81043e+06	   77.8268	   21.1004	  0.766133	8.36901e+06	   78.0931	   20.9266	  0.569166	8.93088e+06	   77.8281	   20.7284	  0.396646	8.95587e+06	   77.5617	   20.9266	  0.569125	8.40743e+06	
         R10	   5245	   78.0925	   21.1005	  0.766178	 8.3926e+06	    78.625	   21.0996	  0.765063	8.58066e+06	    78.625	   20.7284	  0.396646	8.96077e+06	   78.0938	   20.7284	  0.396646	9.03737e+06	   78.3588	      21.1	  0.765621	8.47072e+06	    78.625	   20.9261	   0.56867	8.76973e+06	   78.3594	   20.7284	  0.396646	8.99352e+06	   78.0931	   20.9266	  0.569166	  8.713e+06	
         R10	   5246	   78.0925	   21.1005	  0.766178	8.36457e+06	   78.0924	   21.3636	    1.2195	7.31675e+06	    78.625	   21.3636	    1.2195	7.30448e+06	    78.625	   21.0996	  0.765063	8.46974e+06	   78.0925	    21.247	  0.984183	7.82542e+06	   78.3587	   21.3636	    1.2195	7.31019e+06	    78.625	   21.2466	  0.983574	7.87007e+06	   78.3588	      21.1	  0.765621	8.40426e+06	
         R10	   5247	    77.561	   21.1004	  0.766087	8.08488e+06	   77.5607	   21.3636	    1.2195	7.34288e+06	   78.0924	   21.3636	    1.2195	7.51587e+06	   78.0925	   21.1005	  0.766178	8.64157e+06	   77.5608	   21.2469	  0.984133	7.71165e+06	   77.8265	   21.3636	    1.2195	7.42653e+06	   78.0925	    21.247	  0.984183	8.06239e+06	   77.8268	   21.1004	  0.766133	8.35358e+06	
         R10	   5248	    77.561	   21.1004	  0.766087	8.48296e+06	     77.03	   21.1003	  0.765997	8.78931e+06	   77.0299	   21.3636	    1.2195	9.57397e+06	   77.5607	   21.3636	    1.2195	7.03554e+06	   77.2955	   21.1004	  0.766042	8.62201e+06	     77.03	   21.2469	  0.984084	9.17402e+06	   77.2953	   21.3636	    1.2195	8.28868e+06	   77.5608	   21.2469	  0.984133	7.75536e+06	
         R10	   5249	   72.7222	   21.5054	   1.77096	 5.4682e+06	   72.7826	   21.3636	    1.2195	5.74056e+06	     72.25	   21.3636	    1.2195	9.96978e+06	     72.25	   21.5054	   1.77096	1.44122e+07	   72.7524	   21.4542	   1.49016	4.22832e+06	   72.5163	   21.3636	    1.2195	7.73975e+06	     72.25	   21.4542	   1.49016	 1.2021e+07	   72.4861	   21.5054	   1.77096	6.86621e+06	
         R10	   5250	   73.1944	   21.5054	   1.77096	4.63632e+06	   73.3149	   21.3636	    1.2195	7.72987e+06	   72.7826	   21.3636	    1.2195	8.32838e+06	   72.7222	   21.5054	   1.77096	1.17703e+07	   73.2547	   21.4542	   1.49016	 6.0857e+06	   73.0487	   21.3636	    1.2195	7.99331e+06	   72.7524	   21.4542	   1.49016	9.84544e+06	   72.9583	   21.5054	   1.77096	8.18484e+06	
         R10	   5251	   73.6667	   21.5054	   1.77096	6.19362e+06	   73.8467	   21.3636	    1.2195	7.90665e+06	   73.3149	   21.3636	    1.2195	 7.1471e+06	   73.1944	   21.5054	   1.77096	 8.3472e+06	   73.7567	   21.4542	   1.49016	6.98909e+06	   73.5808	   21.3636	    1.2195	  7.524e+06	   73.2547	   21.4542	   1.49016	7.72507e+06	   73.4306	   21.5054	   1.77096	7.25755e+06	
         R10	   5252	   74.1389	   21.5054	   1.77096	6.66988e+06	   74.3782	   21.3636	    1.2195	7.59849e+06	   73.8467	   21.3636	    1.2195	7.05028e+06	   73.6667	   21.5054	   1.77096	7.27808e+06	   74.2585	   21.4542	   1.49016	7.08022e+06	   74.1124	   21.3636	    1.2195	7.32339e+06	   73.7567	   21.4542	   1.49016	 7.1074e+06	   73.9028	   21.5054	   1.77096	6.95081e+06	
         R10	   5253	   74.6111	   21.5054	   1.77096	6.77507e+06	   74.9092	   21.3636	    1.2195	7.48533e+06	   74.3782	   21.3636	    1.2195	7.05474e+06	   74.1389	   21.5054	   1.77096	7.06969e+06	   74.7602	   21.4542	   1.49016	7.08884e+06	   74.6437	   21.3636	    1.2195	7.26272e+06	   74.2585	   21.4542	   1.49016	6.96369e+06	    74.375	   21.5054	   1.77096	6.89826e+06	
         R10	   5254	   75.0833	   21.5054	   1.77096	6.91451e+06	   75.4399	   21.3636	    1.2195	7.34217e+06	   74.9092	   21.3636	    1.2195	7.08818e+06	   74.6111	   21.5054	   1.77096	7.14002e+06	   75.2616	   21.4542	   1.49016	7.08454e+06	   75.1745	   21.3636	    1.2195	7.20364e+06	   74.7602	   21.4542	   1.49016	6.99725e+06	   74.8472	   21.5054	   1.77096	7.00179e+06	
         R10	   5255	   75.5556	   21.5054	   1.77096	6.94322e+06	   75.9701	   21.3636	    1.2195	8.85306e+06	   75.4399	   21.3636	    1.2195	 7.2265e+06	   75.0833	   21.5054	   1.77096	6.92873e+06	   75.7628	   21.4542	   1.49016	7.88395e+06	    75.705	   21.3636	    1.2195	7.99814e+06	   75.2616	   21.4542	   1.49016	6.94115e+06	   75.3194	   21.5054	   1.77096	6.85665e+06	
         R10	   5256	   75.9701	   21.3636	    1.2195	5.85162e+06	   76.0278	   21.5054	   1.77096	4.36965e+06	      76.5	   21.5054	   1.77096	1.40366e+07	      76.5	   21.3636	    1.2195	1.18682e+07	    75.999	   21.4542	   1.49016	4.76862e+06	   76.2639	   21.5054	   1.77096	6.88563e+06	      76.5	   21.4542	   1.49016	1.29039e+07	   76.2351	   21.3636	    1.2195	7.55366e+06	
         R10	   5257	   75.5556	   21.5054	   1.77096	7.04201e+06	   76.0278	   21.5054	   1.77096	8.55286e+06	   75.9701	   21.3636	    1.2195	8.55138e+06	   75.7917	   21.5054	   1.77096	7.72596e+06	    75.999	   21.4542	   1.49016	8.46511e+06	   75.7628	   21.4542	   1.49016	 7.7635e+06	       N/A	       N/A	       N/A	        N/A	       N/A	       N/A	       N/A	        N/A	
         R10	   5258	   72.7222	      21.5	      2.25	8.68051e+06	   72.7222	   21.5054	   1.77096	3.86431e+06	     72.25	   21.5054	   1.77096	1.50296e+07	     72.25	      21.5	      2.25	7.83114e+06	   72.7222	   21.5171	   2.01064	4.49565e+06	   72.4861	   21.5054	   1.77096	6.52148e+06	     72.25	   21.5171	   2.01064	1.06044e+07	   72.4861	      21.5	      2.25	6.51649e+06	
         R10	   5259	   73.1944	      21.5	      2.25	7.51989e+06	   73.1944	   21.5054	   1.77096	4.64909e+06	   72.7222	   21.5054	   1.77096	1.21507e+07	   72.7222	      21.5	      2.25	7.13203e+06	   73.1944	   21.5171	   2.01064	6.07359e+06	   72.9583	   21.5054	   1.77096	8.26437e+06	   72.7222	   21.5171	   2.01064	9.58782e+06	   72.9583	      21.5	      2.25	7.26166e+06	
         R10	   5260	   73.6667	      21.5	      2.25	6.88741e+06	   73.6667	   21.5054	   1.77096	6.49734e+06	   73.1944	   21.5054	   1.77096	8.20905e+06	   73.1944	      21.5	      2.25	7.66847e+06	   73.6667	   21.5171	   2.01064	6.68715e+06	   73.4306	   21.5054	   1.77096	 7.3188e+06	   73.1944	   21.5171	   2.01064	7.87347e+06	   73.4306	      21.5	      2.25	 7.2599e+06	
         R10	   5261	   74.1389	      21.5	      2.25	 6.4973e+06	   74.1389	   21.5054	   1.77096	7.14377e+06	   73.6667	   21.5054	   1.77096	7.20834e+06	   73.6667	      21.5	      2.25	7.07448e+06	   74.1389	   21.5171	   2.01064	 6.7978e+06	   73.9028	   21.5054	   1.77096	7.15773e+06	   73.6667	   21.5171	   2.01064	7.11114e+06	   73.9028	      21.5	      2.25	6.75878e+06	
         R10	   5262	   74.6111	      21.5	      2.25	6.29507e+06	   74.6111	   21.5054	   1.77096	7.31041e+06	   74.1389	   21.5054	   1.77096	6.96225e+06	   74.1389	      21.5	      2.25	6.56556e+06	   74.6111	   21.5171	   2.01064	6.70921e+06	    74.375	   21.5054	   1.77096	7.11677e+06	   74.1389	   21.5171	   2.01064	 6.7148e+06	    74.375	      21.5	      2.25	6.39642e+06	
         R10	   5263	   75.0833	      21.5	      2.25	6.36886e+06	   75.0833	   21.5054	   1.77096	7.67462e+06	   74.6111	   21.5054	   1.77096	7.09952e+06	   74.6111	      21.5	      2.25	6.32142e+06	   75.0833	   21.5171	   2.01064	6.64098e+06	   74.8472	   21.5054	   1.77096	7.36284e+06	   74.6111	   21.5171	   2.01064	6.58806e+06	   74.8472	      21.5	      2.25	6.28684e+06	
         R10	   5264	   75.5556	      21.5	      2.25	6.61012e+06	   75.5556	   21.5054	   1.77096	 7.8109e+06	   75.0833	   21.5054	   1.77096	7.70494e+06	   75.0833	      21.5	      2.25	6.35471e+06	   75.5556	   21.5171	   2.01064	6.62593e+06	   75.3194	   21.5054	   1.77096	7.75244e+06	   75.0833	   21.5171	   2.01064	6.63135e+06	   75.3194	      21.5	      2.25	6.46978e+06	
         R10	   5265	   76.0278	      21.5	      2.25	7.19252e+06	   76.0278	   21.5054	   1.77096	1.00319e+07	   75.5556	   21.5054	   1.77096	7.90593e+06	   75.5556	      21.5	      2.25	6.66381e+06	   76.0278	   21.5171	   2.01064	 7.1611e+06	   75.7917	   21.5054	   1.77096	8.94144e+06	   75.5556	   21.5171	   2.01064	6.65856e+06	   75.7917	      21.5	      2.25	 6.8833e+06	
         R10	   5266	      76.5	      21.5	      2.25	5.26527e+06	      76.5	   21.5054	   1.77096	1.44933e+07	   76.0278	   21.5054	   1.77096	7.17925e+06	   76.0278	      21.5	      2.25	7.31419e+06	      76.5	   21.5171	   2.01064	9.86685e+06	   76.2639	   21.5054	   1.77096	6.90389e+06	   76.0278	   21.5171	   2.01064	4.23563e+06	   76.2639	      21.5	      2.25	 6.2703e+06	
         R10	   5267	   77.0313	   21.5054	   1.77096	5.49712e+06	   77.0299	   21.3636	    1.2195	4.45594e+06	      76.5	   21.3636	    1.2195	1.27603e+07	      76.5	   21.5054	   1.77096	 1.3476e+07	   77.0306	   21.4542	   1.49016	4.62242e+06	   76.7649	   21.3636	    1.2195	7.52139e+06	      76.5	   21.4542	   1.49016	1.31077e+07	   76.7656	   21.5054	   1.77096	6.81604e+06	
         R10	   5268	   77.5625	   21.5054	   1.77096	6.52499e+06	   77.5607	   21.3636	    1.2195	6.81851e+06	   77.0299	   21.3636	    1.2195	9.50235e+06	   77.0313	   21.5054	   1.77096	8.86505e+06	   77.5616	   21.4542	   1.49016	6.60309e+06	   77.2953	   21.3636	    1.2195	8.15339e+06	   77.0306	   21.4542	   1.49016	9.08435e+06	   77.2969	   21.5054	   1.77096	7.68456e+06	
         R10	   5269	   78.0938	   21.5054	   1.77096	6.82068e+06	   78.0924	   21.3636	    1.2195	7.45774e+06	   77.5607	   21.3636	    1.2195	7.20421e+06	   77.5625	   21.5054	   1.77096	7.51266e+06	   78.0931	   21.4542	   1.49016	7.06924e+06	   77.8265	   21.3636	    1.2195	7.32863e+06	   77.5616	   21.4542	   1.49016	7.28372e+06	   77.8281	   21.5054	   1.77096	7.16383e+06	
         R10	   5270	    78.625	   21.5054	   1.77096	6.89481e+06	    78.625	   21.3636	    1.2195	7.34546e+06	   78.0924	   21.3636	    1.2195	7.14586e+06	   78.0938	   21.5054	   1.77096	 7.0767e+06	    78.625	   21.4542	   1.49016	7.05864e+06	   78.3587	   21.3636	    1.2195	 7.2423e+06	   78.0931	   21.4542	   1.49016	7.04957e+06	   78.3594	   21.5054	   1.77096	6.97717e+06	
         R10	   5271	   77.0313	      21.5	      2.25	7.15018e+06	   77.0313	   21.5054	   1.77096	7.05221e+06	      76.5	   21.5054	   1.77096	1.35803e+07	      76.5	      21.5	      2.25	 6.1045e+06	   77.0313	   21.5171	   2.01064	4.86931e+06	   76.7656	   21.5054	   1.77096	6.59017e+06	      76.5	   21.5171	   2.01064	 9.7075e+06	   76.7656	      21.5	      2.25	 6.4886e+06	
         R10	   5272	   77.5625	      21.5	      2.25	6.53155e+06	   77.5625	   21.5054	   1.77096	6.97434e+06	   77.0313	   21.5054	   1.77096	1.02688e+07	   77.0313	      21.5	      2.25	7.01462e+06	   77.5625	   21.5171	   2.01064	6.61533e+06	   77.2969	   21.5054	   1.77096	8.58309e+06	   77.0313	   21.5171	   2.01064	7.66653e+06	   77.2969	      21.5	      2.25	6.63304e+06	
         R10	   5273	   78.0938	      21.5	      2.25	6.43537e+06	   78.0938	   21.5054	   1.77096	7.10068e+06	   77.5625	   21.5054	   1.77096	7.66122e+06	   77.5625	      21.5	      2.25	6.50829e+06	   78.0938	   21.5171	   2.01064	6.71698e+06	   77.8281	   21.5054	   1.77096	7.37684e+06	   77.5625	   21.5171	   2.01064	6.99566e+06	   77.8281	      21.5	      2.25	6.45574e+06	
         R10	   5274	    78.625	      21.5	      2.25	6.65333e+06	    78.625	   21.5054	   1.77096	7.04721e+06	   78.0938	   21.5054	   1.77096	7.38742e+06	   78.0938	      21.5	      2.25	6.44387e+06	    78.625	   21.5171	   2.01064	6.84071e+06	   78.3594	   21.5054	   1.77096	 7.2119e+06	   78.0938	   21.5171	   2.01064	6.87469e+06	   78.3594	      21.5	      2.25	6.53195e+06	
         R10	   5275	    76.364	   15.3122	   2.41186	1.02003e+07	    76.364	      15.3	       2.4	1.04948e+07	    76.347	      15.3	       2.4	1.02898e+07	    76.347	   15.3122	   2.41186	1.00641e+07	    76.364	   15.3061	   2.40593	1.03472e+07	   76.3555	      15.3	       2.4	1.03916e+07	    76.347	   15.3061	   2.40593	1.01763e+07	   76.3555	   15.3122	   2.41186	1.01308e+07	
         R10	   5276	    76.381	   15.3122	   2.41186	1.04136e+07	    76.381	      15.3	       2.4	1.07898e+07	    76.364	      15.3	       2.4	1.05182e+07	    76.364	   15.3122	   2.41186	1.01984e+07	    76.381	   15.3061	   2.40593	1.06004e+07	   76.3725	      15.3	       2.4	 1.0653e+07	    76.364	   15.3061	   2.40593	1.03574e+07	   76.3725	   15.3122	   2.41186	 1.0305e+07	
         R10	   5277	    76.398	   15.3122	   2.41185	1.06854e+07	    76.398	      15.3	       2.4	1.11919e+07	    76.381	      15.3	       2.4	1.08478e+07	    76.381	   15.3122	   2.41186	1.03231e+07	    76.398	   15.3061	   2.40593	1.09352e+07	   76.3895	      15.3	       2.4	1.10175e+07	    76.381	   15.3061	   2.40593	1.05852e+07	   76.3895	   15.3122	   2.41186	1.05034e+07	
         R10	   5278	    76.415	   15.3122	   2.41185	1.09802e+07	    76.415	      15.3	       2.4	1.17514e+07	    76.398	      15.3	       2.4	1.12333e+07	    76.398	   15.3122	   2.41185	1.05961e+07	    76.415	   15.3061	   2.40593	1.13618e+07	   76.4065	      15.3	       2.4	1.14892e+07	    76.398	   15.3061	   2.40593	1.09134e+07	   76.4065	   15.3122	   2.41185	1.07869e+07	
         R10	   5279	    76.432	   15.3122	   2.41185	 1.1293e+07	    76.432	      15.3	       2.4	1.25685e+07	    76.415	      15.3	       2.4	1.17854e+07	    76.415	   15.3122	   2.41185	1.09033e+07	    76.432	   15.3061	   2.40593	1.19222e+07	   76.4235	      15.3	       2.4	1.21721e+07	    76.415	   15.3061	   2.40593	1.13409e+07	   76.4235	   15.3122	   2.41185	1.10969e+07	
         R10	   5280	    76.449	   15.3122	   2.41185	1.17538e+07	    76.449	      15.3	       2.4	1.35869e+07	    76.432	      15.3	       2.4	1.26469e+07	    76.432	   15.3122	   2.41185	1.12079e+07	    76.449	   15.3061	   2.40593	1.26592e+07	   76.4405	      15.3	       2.4	1.31115e+07	    76.432	   15.3061	   2.40593	 1.1918e+07	   76.4405	   15.3122	   2.41185	1.14756e+07	
         R10	   5281	    76.466	   15.3122	   2.41186	1.19854e+07	    76.466	      15.3	       2.4	1.52094e+07	    76.449	      15.3	       2.4	1.38389e+07	    76.449	   15.3122	   2.41185	1.15916e+07	    76.466	   15.3061	   2.40593	1.35623e+07	   76.4575	      15.3	       2.4	1.45091e+07	    76.449	   15.3061	   2.40593	1.26921e+07	   76.4575	   15.3122	   2.41186	1.17723e+07	
         R10	   5282	    76.483	   15.3122	   2.41186	1.23113e+07	    76.483	      15.3	       2.4	1.73388e+07	    76.466	      15.3	       2.4	1.53166e+07	    76.466	   15.3122	   2.41186	1.19708e+07	    76.483	   15.3061	   2.40593	1.47469e+07	   76.4745	      15.3	       2.4	1.62484e+07	    76.466	   15.3061	   2.40593	1.36006e+07	   76.4745	   15.3122	   2.41186	1.20382e+07	
         R10	   5283	      76.5	   15.3122	   2.41185	1.35468e+07	      76.5	      15.3	       2.4	 2.2291e+07	    76.483	      15.3	       2.4	 1.7222e+07	    76.483	   15.3122	   2.41186	1.26705e+07	      76.5	   15.3061	   2.40593	1.77512e+07	   76.4915	      15.3	       2.4	1.90909e+07	    76.483	   15.3061	   2.40593	1.48011e+07	   76.4915	   15.3122	   2.41186	1.24194e+07	
         R10	   5284	      76.5	   15.3244	   2.42371	1.17269e+07	      76.5	   15.3122	   2.41185	1.44403e+07	    76.483	   15.3122	   2.41186	1.30413e+07	    76.483	   15.3244	   2.42371	 1.1319e+07	      76.5	   15.3183	   2.41778	1.30642e+07	   76.4915	   15.3122	   2.41186	1.30775e+07	    76.483	   15.3183	   2.41778	1.21589e+07	   76.4915	   15.3244	   2.42371	1.12001e+07	
         R10	   5285	    76.483	   15.3366	   2.43557	1.06132e+07	      76.5	   15.3366	   2.43556	1.02526e+07	      76.5	   15.3244	   2.42371	1.17007e+07	    76.483	   15.3244	   2.42371	1.13486e+07	   76.4915	   15.3366	   2.43557	1.02756e+07	      76.5	   15.3305	   2.42964	1.09542e+07	   76.4915	   15.3244	   2.42371	1.12319e+07	    76.483	   15.3305	   2.42964	1.09807e+07	
         R10	   5286	    76.483	   15.3487	   2.44742	1.00481e+07	      76.5	   15.3487	   2.44742	9.43447e+06	      76.5	   15.3366	   2.43556	1.02531e+07	    76.483	   15.3366	   2.43557	1.06124e+07	   76.4915	   15.3487	   2.44742	9.66893e+06	      76.5	   15.3426	   2.44149	9.81743e+06	   76.4915	   15.3366	   2.43557	1.02733e+07	    76.483	   15.3426	   2.44149	1.03265e+07	
         R10	   5287	    76.483	   15.3609	   2.45928	 9.6311e+06	      76.5	   15.3609	   2.45928	 8.9891e+06	      76.5	   15.3487	   2.44742	9.47353e+06	    76.483	   15.3487	   2.44742	9.92867e+06	   76.4915	   15.3609	   2.45928	9.27348e+06	      76.5	   15.3548	   2.45335	9.21357e+06	   76.4915	   15.3487	   2.44742	9.61854e+06	    76.483	   15.3548	   2.45335	9.77183e+06	
         R10	   5288	    76.483	   15.3731	   2.47113	9.33133e+06	      76.5	   15.3731	   2.47113	8.68786e+06	      76.5	   15.3609	   2.45928	9.02723e+06	    76.483	   15.3609	   2.45928	9.46256e+06	   76.4915	   15.3731	   2.47113	8.98957e+06	      76.5	    15.367	    2.4652	8.84613e+06	   76.4915	   15.3609	   2.45928	9.20424e+06	    76.483	    15.367	    2.4652	 9.3904e+06	
         R10	   5289	    76.483	   15.3853	   2.48299	8.99627e+06	      76.5	   15.3853	   2.48299	8.54313e+06	      76.5	   15.3731	   2.47113	8.72455e+06	    76.483	   15.3731	   2.47113	9.24185e+06	   76.4915	   15.3853	   2.48299	8.75455e+06	      76.5	   15.3792	   2.47706	8.62678e+06	   76.4915	   15.3731	   2.47113	8.96105e+06	    76.483	   15.3792	   2.47706	9.11492e+06	
         R10	   5290	    76.483	   15.3975	   2.49484	8.79734e+06	      76.5	   15.3975	   2.49484	8.41189e+06	      76.5	   15.3853	   2.48299	8.54012e+06	    76.483	   15.3853	   2.48299	8.96774e+06	   76.4915	   15.3975	   2.49484	8.59507e+06	      76.5	   15.3914	   2.48891	8.47098e+06	   76.4915	   15.3853	   2.48299	8.73883e+06	    76.483	   15.3914	   2.48891	8.87942e+06	
         R10	   5291	    76.483	   15.4097	    2.5067	8.61185e+06	      76.5	   15.4097	    2.5067	8.30525e+06	      76.5	   15.3975	   2.49484	8.39837e+06	    76.483	   15.3975	   2.49484	8.79466e+06	   76.4915	   15.4097	    2.5067	 8.4509e+06	      76.5	   15.4036	   2.50077	 8.3488e+06	   76.4915	   15.3975	   2.49484	8.58736e+06	    76.483	   15.4036	   2.50077	8.70017e+06	
         R10	   5292	    76.483	   15.4218	   2.51855	8.47512e+06	      76.5	   15.4218	   2.51855	8.22455e+06	      76.5	   15.4097	    2.5067	8.30515e+06	    76.483	   15.4097	    2.5067	 8.6226e+06	   76.4915	   15.4218	   2.51855	8.34523e+06	      76.5	   15.4158	   2.51262	8.26231e+06	   76.4915	   15.4097	    2.5067	 8.4565e+06	    76.483	   15.4158	   2.51262	8.54682e+06	
         R10	   5293	    76.466	   15.4218	   2.51855	8.70568e+06	    76.483	   15.4218	   2.51855	8.46899e+06	    76.483	   15.4097	    2.5067	8.62476e+06	    76.466	   15.4097	    2.5067	8.89276e+06	   76.4745	   15.4218	   2.51855	8.58249e+06	    76.483	   15.4158	   2.51262	8.54545e+06	   76.4745	   15.4097	    2.5067	8.75258e+06	    76.466	   15.4158	   2.51262	8.79761e+06	
         R10	   5294	    76.449	   15.4097	    2.5067	9.03498e+06	    76.449	   15.4218	   2.51855	8.91014e+06	    76.466	   15.4218	   2.51855	8.68988e+06	    76.466	   15.4097	    2.5067	8.89762e+06	    76.449	   15.4158	   2.51262	8.97165e+06	   76.4575	   15.4218	   2.51855	8.79489e+06	    76.466	   15.4158	   2.51262	8.79268e+06	   76.4575	   15.4097	    2.5067	 8.9612e+06	
         R10	   5295	    76.432	   15.4097	    2.5067	9.17468e+06	    76.432	   15.4218	   2.51855	9.01089e+06	    76.449	   15.4218	   2.51855	8.86543e+06	    76.449	   15.4097	    2.5067	9.05654e+06	    76.432	   15.4158	   2.51262	9.09154e+06	   76.4405	   15.4218	   2.51855	8.93498e+06	    76.449	   15.4158	   2.51262	 8.9603e+06	   76.4405	   15.4097	    2.5067	9.11144e+06	
         R10	   5296	    76.415	   15.4097	    2.5067	 9.1955e+06	    76.415	   15.4218	   2.51855	9.15423e+06	    76.432	   15.4218	   2.51855	8.90841e+06	    76.432	   15.4097	    2.5067	9.25737e+06	    76.415	   15.4158	   2.51262	9.17435e+06	   76.4235	   15.4218	   2.51855	9.02826e+06	    76.432	   15.4158	   2.51262	9.08173e+06	   76.4235	   15.4097	    2.5067	9.22527e+06	
         R10	   5297	    76.398	   15.4097	    2.5067	9.15352e+06	    76.398	   15.4218	   2.51855	9.14428e+06	    76.415	   15.4218	   2.51855	9.04291e+06	    76.415	   15.4097	    2.5067	9.19167e+06	    76.398	   15.4158	   2.51262	9.14826e+06	   76.4065	   15.4218	   2.51855	9.09284e+06	    76.415	   15.4158	   2.51262	9.11622e+06	   76.4065	   15.4097	    2.5067	9.17216e+06	
         R10	   5298	    76.381	   15.4097	    2.5067	9.11138e+06	    76.381	   15.4218	   2.51855	9.20521e+06	    76.398	   15.4218	   2.51855	9.02543e+06	    76.398	   15.4097	    2.5067	9.14531e+06	    76.381	   15.4158	   2.51262	9.15815e+06	   76.3895	   15.4218	   2.51855	9.11295e+06	    76.398	   15.4158	   2.51262	 9.0848e+06	   76.3895	   15.4097	   2.50669	9.12686e+06	
         R10	   5299	    76.364	   15.4097	    2.5067	 9.1937e+06	    76.364	   15.4218	   2.51855	9.16579e+06	    76.381	   15.4218	   2.51855	9.17321e+06	    76.381	   15.4097	    2.5067	9.17557e+06	    76.364	   15.4158	   2.51262	9.17966e+06	   76.3725	   15.4218	   2.51855	 9.1695e+06	    76.381	   15.4158	   2.51262	 9.1733e+06	   76.3725	   15.4097	    2.5067	9.18315e+06	
         R10	   5300	    76.347	   15.4097	    2.5067	 9.2626e+06	    76.347	   15.4218	   2.51855	9.12984e+06	    76.364	   15.4218	   2.51855	9.12343e+06	    76.364	   15.4097	    2.5067	9.23797e+06	    76.347	   15.4158	   2.51262	9.19617e+06	   76.3555	   15.4218	   2.51855	9.12591e+06	    76.364	   15.4158	   2.51262	 9.1805e+06	   76.3555	   15.4097	    2.5067	9.25005e+06	
         R10	   5301	     76.33	   15.4097	    2.5067	9.18135e+06	     76.33	   15.4218	   2.51855	9.15059e+06	    76.347	   15.4218	   2.51855	9.11192e+06	    76.347	   15.4097	    2.5067	9.26091e+06	     76.33	   15.4158	   2.51262	9.16596e+06	   76.3385	   15.4218	   2.51855	9.13026e+06	    76.347	   15.4158	   2.51262	9.18624e+06	   76.3385	   15.4097	    2.5067	9.22085e+06	
         R10	   5302	     76.33	   15.3975	   2.49484	9.28441e+06	     76.33	   15.4097	    2.5067	9.18875e+06	    76.347	   15.4097	    2.5067	 9.2081e+06	    76.347	   15.3975	   2.49484	9.33599e+06	     76.33	   15.4036	   2.50077	9.23656e+06	   76.3385	   15.4097	    2.5067	9.19775e+06	    76.347	   15.4036	   2.50077	9.27198e+06	   76.3385	   15.3975	   2.49484	9.30969e+06	
         R10	   5303	    76.347	   15.3853	   2.48299	9.38709e+06	     76.33	   15.3853	   2.48299	9.34428e+06	     76.33	   15.3975	   2.49484	9.27922e+06	    76.347	   15.3975	   2.49484	 9.3185e+06	   76.3385	   15.3853	   2.48299	9.36532e+06	     76.33	   15.3914	   2.48891	9.31169e+06	   76.3385	   15.3975	   2.49484	 9.2984e+06	    76.347	   15.3914	   2.48891	9.35271e+06	
         R10	   5304	    76.347	   15.3731	   2.47113	9.44943e+06	     76.33	   15.3731	   2.47113	9.40373e+06	     76.33	   15.3853	   2.48299	9.33588e+06	    76.347	   15.3853	   2.48299	9.39729e+06	   76.3385	   15.3731	   2.47113	9.42627e+06	     76.33	   15.3792	   2.47706	9.36971e+06	   76.3385	   15.3853	   2.48299	9.36615e+06	    76.347	   15.3792	   2.47706	9.42323e+06	
         R10	   5305	    76.347	   15.3609	   2.45928	9.52506e+06	     76.33	   15.3609	   2.45928	9.45954e+06	     76.33	   15.3731	   2.47113	9.39574e+06	    76.347	   15.3731	   2.47113	9.45731e+06	   76.3385	   15.3609	   2.45928	9.49217e+06	     76.33	    15.367	    2.4652	 9.4274e+06	   76.3385	   15.3731	   2.47113	9.42618e+06	    76.347	    15.367	    2.4652	9.49103e+06	
         R10	   5306	    76.347	   15.3487	   2.44742	9.62125e+06	     76.33	   15.3487	   2.44742	9.60097e+06	     76.33	   15.3609	   2.45928	9.44823e+06	    76.347	   15.3609	   2.45928	9.51189e+06	   76.3385	   15.3487	   2.44742	9.61042e+06	     76.33	   15.3548	   2.45335	 9.5244e+06	   76.3385	   15.3609	   2.45928	9.47969e+06	    76.347	   15.3548	   2.45335	9.56642e+06	
         R10	   5307	    76.347	   15.3366	   2.43556	9.72136e+06	     76.33	   15.3366	   2.43556	9.64303e+06	     76.33	   15.3487	   2.44742	 9.5305e+06	    76.347	   15.3487	   2.44742	9.62358e+06	   76.3385	   15.3366	   2.43556	9.68205e+06	     76.33	   15.3426	   2.44149	9.58607e+06	   76.3385	   15.3487	   2.44742	9.57704e+06	    76.347	   15.3426	   2.44149	9.67134e+06	
         R10	   5308	    76.347	   15.3244	   2.42371	9.82795e+06	     76.33	   15.3244	   2.42371	9.78438e+06	     76.33	   15.3366	   2.43556	9.62438e+06	    76.347	   15.3366	   2.43556	9.70181e+06	   76.3385	   15.3244	   2.42371	9.80611e+06	     76.33	   15.3305	   2.42964	9.70371e+06	   76.3385	   15.3366	   2.43556	9.66249e+06	    76.347	   15.3305	   2.42964	9.76479e+06	
         R10	   5309	    76.347	   15.3122	   2.41186	1.00635e+07	    76.347	      15.3	       2.4	1.02899e+07	     76.33	      15.3	       2.4	1.01157e+07	     76.33	   15.3122	   2.41185	9.90931e+06	    76.347	   15.3061	   2.40593	1.01762e+07	   76.3385	      15.3	       2.4	 1.0202e+07	     76.33	   15.3061	   2.40593	1.00123e+07	   76.3385	   15.3122	   2.41185	9.98597e+06	
         R10	   5310	    76.381	   15.3244	   2.42371	1.01272e+07	    76.381	   15.3122	   2.41186	1.03289e+07	    76.364	   15.3122	   2.41186	1.02094e+07	    76.364	   15.3244	   2.42371	9.90847e+06	    76.381	   15.3183	   2.41778	 1.0226e+07	   76.3725	   15.3122	   2.41186	1.02682e+07	    76.364	   15.3183	   2.41778	 1.0058e+07	   76.3725	   15.3244	   2.42371	1.00175e+07	
         R10	   5311	    76.398	   15.3244	   2.42371	1.04319e+07	    76.398	   15.3122	   2.41185	1.04335e+07	    76.381	   15.3122	   2.41186	  1.052e+07	    76.381	   15.3244	   2.42371	  9.974e+06	    76.398	   15.3183	   2.41778	1.04311e+07	   76.3895	   15.3122	   2.41186	1.04757e+07	    76.381	   15.3183	   2.41778	1.02456e+07	   76.3895	   15.3244	   2.42371	1.02027e+07	
         R10	   5312	    76.415	   15.3244	   2.42371	1.03488e+07	    76.415	   15.3122	   2.41185	1.08401e+07	    76.398	   15.3122	   2.41185	 1.0842e+07	    76.398	   15.3244	   2.42371	 1.0205e+07	    76.415	   15.3183	   2.41778	1.05916e+07	   76.4065	   15.3122	   2.41185	1.08408e+07	    76.398	   15.3183	   2.41778	1.05162e+07	   76.4065	   15.3244	   2.42371	1.02756e+07	
         R10	   5313	    76.432	   15.3244	   2.42371	1.05212e+07	    76.432	   15.3122	   2.41185	 1.1257e+07	    76.415	   15.3122	   2.41185	1.09342e+07	    76.415	   15.3244	   2.42371	1.04039e+07	    76.432	   15.3183	   2.41778	1.08761e+07	   76.4235	   15.3122	   2.41185	1.10924e+07	    76.415	   15.3183	   2.41778	1.06658e+07	   76.4235	   15.3244	   2.42371	 1.0462e+07	
         R10	   5314	    76.449	   15.3244	   2.42371	 1.0634e+07	    76.449	   15.3122	   2.41185	1.17688e+07	    76.432	   15.3122	   2.41185	1.11896e+07	    76.432	   15.3244	   2.42371	1.06352e+07	    76.449	   15.3183	   2.41778	1.11804e+07	   76.4405	   15.3122	   2.41185	1.14733e+07	    76.432	   15.3183	   2.41778	1.09048e+07	   76.4405	   15.3244	   2.42371	1.06298e+07	
         R10	   5315	    76.466	   15.3244	   2.42371	1.08928e+07	    76.466	   15.3122	   2.41186	1.20373e+07	    76.449	   15.3122	   2.41185	1.16609e+07	    76.449	   15.3244	   2.42371	1.07749e+07	    76.466	   15.3183	   2.41778	1.14361e+07	   76.4575	   15.3122	   2.41186	1.18272e+07	    76.449	   15.3183	   2.41778	1.12049e+07	   76.4575	   15.3244	   2.42371	1.08038e+07	
         R10	   5316	    76.483	   15.3244	   2.42371	1.11728e+07	    76.483	   15.3122	   2.41186	1.24505e+07	    76.466	   15.3122	   2.41186	1.22448e+07	    76.466	   15.3244	   2.42371	1.09319e+07	    76.483	   15.3183	   2.41778	1.17878e+07	   76.4745	   15.3122	   2.41186	1.22127e+07	    76.466	   15.3183	   2.41778	1.15585e+07	   76.4745	   15.3244	   2.42371	1.09386e+07	
         R10	   5317	    76.483	   15.3366	   2.43557	1.04364e+07	    76.483	   15.3244	   2.42371	1.13189e+07	    76.466	   15.3244	   2.42371	1.09389e+07	    76.466	   15.3366	   2.43557	1.05829e+07	    76.483	   15.3305	   2.42964	1.08774e+07	   76.4745	   15.3244	   2.42371	1.10178e+07	    76.466	   15.3305	   2.42964	1.07553e+07	   76.4745	   15.3366	   2.43557	1.04401e+07	
         R10	   5318	    76.466	   15.3487	   2.44742	   1.02e+07	    76.483	   15.3487	   2.44742	9.93438e+06	    76.483	   15.3366	   2.43557	 1.0527e+07	    76.466	   15.3366	   2.43557	1.05825e+07	   76.4745	   15.3487	   2.44742	1.00006e+07	    76.483	   15.3426	   2.44149	1.02291e+07	   76.4745	   15.3366	   2.43557	1.04865e+07	    76.466	   15.3426	   2.44149	1.03911e+07	
         R10	   5319	    76.466	   15.3609	   2.45927	9.92061e+06	    76.483	   15.3609	   2.45928	9.45195e+06	    76.483	   15.3487	   2.44742	 1.0055e+07	    76.466	   15.3487	   2.44742	1.00578e+07	   76.4745	   15.3609	   2.45927	9.64918e+06	    76.483	   15.3548	   2.45335	  9.753e+06	   76.4745	   15.3487	   2.44742	1.00222e+07	    76.466	   15.3548	   2.45335	9.98483e+06	
         R10	   5320	    76.466	   15.3731	   2.47113	9.61977e+06	    76.483	   15.3731	   2.47113	 9.1146e+06	    76.483	   15.3609	   2.45928	9.63694e+06	    76.466	   15.3609	   2.45927	9.78424e+06	   76.4745	   15.3731	   2.47113	9.34617e+06	    76.483	    15.367	    2.4652	9.37454e+06	   76.4745	   15.3609	   2.45927	9.68362e+06	    76.466	    15.367	    2.4652	9.69748e+06	
         R10	   5321	    76.466	   15.3853	   2.48299	9.32533e+06	    76.483	   15.3853	   2.48299	8.97181e+06	    76.483	   15.3731	   2.47113	9.25043e+06	    76.466	   15.3731	   2.47113	9.50263e+06	   76.4745	   15.3853	   2.48299	9.13756e+06	    76.483	   15.3792	   2.47706	9.10866e+06	   76.4745	   15.3731	   2.47113	9.36099e+06	    76.466	   15.3792	   2.47706	 9.4116e+06	
         R10	   5322	    76.466	   15.3975	   2.49484	9.03422e+06	    76.483	   15.3975	   2.49484	8.77707e+06	    76.483	   15.3853	   2.48299	9.01694e+06	    76.466	   15.3853	   2.48299	9.25832e+06	   76.4745	   15.3975	   2.49484	8.90075e+06	    76.483	   15.3914	   2.48891	8.89265e+06	   76.4745	   15.3853	   2.48299	 9.1186e+06	    76.466	   15.3914	   2.48891	9.14427e+06	
         R10	   5323	    76.466	   15.4097	    2.5067	 8.8993e+06	    76.483	   15.4097	    2.5067	8.62297e+06	    76.483	   15.3975	   2.49484	8.80064e+06	    76.466	   15.3975	   2.49484	9.04179e+06	   76.4745	   15.4097	    2.5067	8.75519e+06	    76.483	   15.4036	   2.50077	8.70884e+06	   76.4745	   15.3975	   2.49484	8.91305e+06	    76.466	   15.4036	   2.50077	8.97012e+06	
         R10	   5324	    76.449	   15.4097	    2.5067	9.09362e+06	    76.466	   15.4097	    2.5067	8.87949e+06	    76.466	   15.3975	   2.49484	9.03164e+06	    76.449	   15.3975	   2.49484	9.14752e+06	   76.4575	   15.4097	    2.5067	8.98174e+06	    76.466	   15.4036	   2.50077	8.95516e+06	   76.4575	   15.3975	   2.49484	9.08497e+06	    76.449	   15.4036	   2.50077	9.11944e+06	
         R10	   5325	    76.432	   15.3975	   2.49484	9.31865e+06	    76.432	   15.4097	    2.5067	 9.1413e+06	    76.449	   15.4097	    2.5067	 9.0957e+06	    76.449	   15.3975	   2.49484	9.19226e+06	    76.432	   15.4036	   2.50077	9.22881e+06	   76.4405	   15.4097	    2.5067	9.11386e+06	    76.449	   15.4036	   2.50077	9.14382e+06	   76.4405	   15.3975	   2.49484	9.25152e+06	
         R10	   5326	    76.415	   15.3975	   2.49484	9.22729e+06	    76.415	   15.4097	    2.5067	9.17707e+06	    76.432	   15.4097	    2.5067	  9.242e+06	    76.432	   15.3975	   2.49484	 9.3826e+06	    76.415	   15.4036	   2.50077	 9.2009e+06	   76.4235	   15.4097	    2.5067	9.20574e+06	    76.432	   15.4036	   2.50077	9.31198e+06	   76.4235	   15.3975	   2.49484	9.29996e+06	
         R10	   5327	    76.398	   15.3975	   2.49484	9.38252e+06	    76.398	   15.4097	    2.5067	9.18766e+06	    76.415	   15.4097	    2.5067	8.97907e+06	    76.415	   15.3975	   2.49484	9.45361e+06	    76.398	   15.4036	   2.50077	9.28313e+06	   76.4065	   15.4097	    2.5067	9.08007e+06	    76.415	   15.4036	   2.50077	9.21606e+06	   76.4065	   15.3975	   2.49484	9.41369e+06	
         R10	   5328	    76.381	   15.3975	   2.49484	9.41611e+06	    76.381	   15.4097	    2.5067	 9.1976e+06	    76.398	   15.4097	    2.5067	9.04126e+06	    76.398	   15.3975	   2.49484	9.43977e+06	    76.381	   15.4036	   2.50077	9.30486e+06	   76.3895	   15.4097	   2.50669	9.11847e+06	    76.398	   15.4036	   2.50077	9.24023e+06	   76.3895	   15.3975	   2.49484	9.42573e+06	
         R10	   5329	    76.364	   15.3975	   2.49484	9.28589e+06	    76.364	   15.4097	    2.5067	9.34812e+06	    76.381	   15.4097	    2.5067	9.12871e+06	    76.381	   15.3975	   2.49484	9.48895e+06	    76.364	   15.4036	   2.50077	9.31694e+06	   76.3725	   15.4097	    2.5067	9.23716e+06	    76.381	   15.4036	   2.50077	9.30862e+06	   76.3725	   15.3975	   2.49484	9.38602e+06	
         R10	   5330	    76.347	   15.3975	   2.49484	9.31671e+06	    76.347	   15.4097	    2.5067	9.26531e+06	    76.364	   15.4097	    2.5067	9.24033e+06	    76.364	   15.3975	   2.49484	9.35475e+06	    76.347	   15.4036	   2.50077	9.29101e+06	   76.3555	   15.4097	    2.5067	9.25134e+06	    76.364	   15.4036	   2.50077	 9.2972e+06	   76.3555	   15.3975	   2.49484	9.33515e+06	
         R10	   5331	    76.347	   15.3853	   2.48299	9.38815e+06	    76.347	   15.3975	   2.49484	9.32686e+06	    76.364	   15.3975	   2.49484	9.36323e+06	    76.364	   15.3853	   2.48298	9.44222e+06	    76.347	   15.3914	   2.48891	9.35742e+06	   76.3555	   15.3975	   2.49484	9.34427e+06	    76.364	   15.3914	   2.48891	9.40267e+06	   76.3555	   15.3853	   2.48299	9.41457e+06	
         R10	   5332	    76.364	   15.3731	   2.47113	9.50816e+06	    76.347	   15.3731	   2.47113	9.45477e+06	    76.347	   15.3853	   2.48299	 9.3973e+06	    76.364	   15.3853	   2.48298	 9.4188e+06	   76.3555	   15.3731	   2.47113	9.48095e+06	    76.347	   15.3792	   2.47706	9.42592e+06	   76.3555	   15.3853	   2.48299	9.40761e+06	    76.364	   15.3792	   2.47706	 9.4633e+06	
         R10	   5333	    76.364	   15.3609	   2.45927	9.57437e+06	    76.347	   15.3609	   2.45928	9.53874e+06	    76.347	   15.3731	   2.47113	9.45142e+06	    76.364	   15.3731	   2.47113	9.50037e+06	   76.3555	   15.3609	   2.45928	9.55637e+06	    76.347	    15.367	    2.4652	9.49468e+06	   76.3555	   15.3731	   2.47113	9.47524e+06	    76.364	    15.367	    2.4652	9.53726e+06	
         R10	   5334	    76.364	   15.3487	   2.44742	9.63657e+06	    76.347	   15.3487	   2.44742	9.68454e+06	    76.347	   15.3609	   2.45928	9.46616e+06	    76.364	   15.3609	   2.45927	9.60975e+06	   76.3555	   15.3487	   2.44742	9.65914e+06	    76.347	   15.3548	   2.45335	9.57516e+06	   76.3555	   15.3609	   2.45928	 9.5377e+06	    76.364	   15.3548	   2.45335	9.62235e+06	
         R10	   5335	    76.364	   15.3366	   2.43557	9.73046e+06	    76.347	   15.3366	   2.43556	9.71733e+06	    76.347	   15.3487	   2.44742	9.62294e+06	    76.364	   15.3487	   2.44742	 9.7485e+06	   76.3555	   15.3366	   2.43557	9.72215e+06	    76.347	   15.3426	   2.44149	9.66954e+06	   76.3555	   15.3487	   2.44742	9.68521e+06	    76.364	   15.3426	   2.44149	9.73673e+06	
         R10	   5336	    76.347	   15.3122	   2.41186	1.00043e+07	     76.33	   15.3122	   2.41185	9.95409e+06	     76.33	   15.3244	   2.42371	9.73658e+06	    76.347	   15.3244	   2.42371	9.89195e+06	   76.3385	   15.3122	   2.41185	9.97882e+06	     76.33	   15.3183	   2.41778	9.84486e+06	   76.3385	   15.3244	   2.42371	9.81353e+06	    76.347	   15.3183	   2.41778	9.94793e+06	
         R10	   5337	    76.364	   15.3244	   2.42371	9.99285e+06	    76.364	   15.3122	   2.41186	1.02086e+07	    76.347	   15.3122	   2.41186	 1.0044e+07	    76.347	   15.3244	   2.42371	9.82118e+06	    76.364	   15.3183	   2.41778	1.00996e+07	   76.3555	   15.3122	   2.41186	1.01259e+07	    76.347	   15.3183	   2.41778	9.93164e+06	   76.3555	   15.3244	   2.42371	9.90652e+06	
         R10	   5338	    76.398	   15.3366	   2.43557	1.01086e+07	    76.398	   15.3244	   2.42371	1.02633e+07	    76.381	   15.3244	   2.42371	1.00448e+07	    76.381	   15.3366	   2.43557	9.87115e+06	    76.398	   15.3305	   2.42964	1.01853e+07	   76.3895	   15.3244	   2.42371	1.01526e+07	    76.381	   15.3305	   2.42964	9.95379e+06	   76.3895	   15.3366	   2.43557	9.98772e+06	
         R10	   5339	    76.415	   15.3366	   2.43556	1.02279e+07	    76.415	   15.3244	   2.42371	1.02745e+07	    76.398	   15.3244	   2.42371	1.03992e+07	    76.398	   15.3366	   2.43557	9.83237e+06	    76.415	   15.3305	   2.42964	1.02501e+07	   76.4065	   15.3244	   2.42371	1.03367e+07	    76.398	   15.3305	   2.42964	 1.0112e+07	   76.4065	   15.3366	   2.43556	1.00283e+07	
         R10	   5340	    76.432	   15.3366	   2.43556	1.03115e+07	    76.432	   15.3244	   2.42371	1.05002e+07	    76.415	   15.3244	   2.42371	1.05133e+07	    76.415	   15.3366	   2.43556	9.97718e+06	    76.432	   15.3305	   2.42964	1.04014e+07	   76.4235	   15.3244	   2.42371	1.05058e+07	    76.415	   15.3305	   2.42964	 1.0239e+07	   76.4235	   15.3366	   2.43556	 1.0139e+07	
         R10	   5341	    76.449	   15.3366	   2.43556	1.04009e+07	    76.449	   15.3244	   2.42371	1.07319e+07	    76.432	   15.3244	   2.42371	1.06124e+07	    76.432	   15.3366	   2.43556	 1.0238e+07	    76.449	   15.3305	   2.42964	1.05602e+07	   76.4405	   15.3244	   2.42371	1.06663e+07	    76.432	   15.3305	   2.42964	1.04179e+07	   76.4405	   15.3366	   2.43556	1.03071e+07	
         R10	   5342	    76.466	   15.3366	   2.43557	1.04378e+07	    76.466	   15.3244	   2.42371	1.09788e+07	    76.449	   15.3244	   2.42371	 1.0787e+07	    76.449	   15.3366	   2.43556	1.03933e+07	    76.466	   15.3305	   2.42964	1.07025e+07	   76.4575	   15.3244	   2.42371	1.08554e+07	    76.449	   15.3305	   2.42964	1.05822e+07	   76.4575	   15.3366	   2.43557	1.03834e+07	
         R10	   5343	    76.466	   15.3487	   2.44742	1.01595e+07	    76.466	   15.3366	   2.43557	1.04664e+07	    76.449	   15.3366	   2.43556	1.04416e+07	    76.449	   15.3487	   2.44742	 1.0112e+07	    76.466	   15.3426	   2.44149	1.03123e+07	   76.4575	   15.3366	   2.43557	1.04251e+07	    76.449	   15.3426	   2.44149	1.02751e+07	   76.4575	   15.3487	   2.44742	1.01116e+07	
         R10	   5344	    76.449	   15.3609	   2.45928	9.99448e+06	    76.466	   15.3609	   2.45927	9.73721e+06	    76.466	   15.3487	   2.44742	1.02785e+07	    76.449	   15.3487	   2.44742	9.96142e+06	   76.4575	   15.3609	   2.45927	9.85158e+06	    76.466	   15.3548	   2.45335	1.00077e+07	   76.4575	   15.3487	   2.44742	1.00844e+07	    76.449	   15.3548	   2.45335	9.97244e+06	
         R10	   5345	    76.449	   15.3731	   2.47113	9.82138e+06	    76.466	   15.3731	   2.47113	9.44101e+06	    76.466	   15.3609	   2.45927	9.93067e+06	    76.449	   15.3609	   2.45928	9.71928e+06	   76.4575	   15.3731	   2.47113	9.61856e+06	    76.466	    15.367	    2.4652	9.68565e+06	   76.4575	   15.3609	   2.45927	9.80543e+06	    76.449	    15.367	    2.4652	9.76626e+06	
         R10	   5346	    76.449	   15.3853	   2.48299	9.49749e+06	    76.466	   15.3853	   2.48299	9.21522e+06	    76.466	   15.3731	   2.47113	9.58826e+06	    76.449	   15.3731	   2.47113	9.66757e+06	   76.4575	   15.3853	   2.48299	9.34345e+06	    76.466	   15.3792	   2.47706	9.40098e+06	   76.4575	   15.3731	   2.47113	 9.6207e+06	    76.449	   15.3792	   2.47706	9.58068e+06	
         R10	   5347	    76.449	   15.3975	   2.49484	9.23231e+06	    76.466	   15.3975	   2.49484	8.97718e+06	    76.466	   15.3853	   2.48299	9.30483e+06	    76.449	   15.3853	   2.48299	9.43742e+06	   76.4575	   15.3975	   2.49484	9.09177e+06	    76.466	   15.3914	   2.48891	9.14035e+06	   76.4575	   15.3853	   2.48299	9.36392e+06	    76.449	   15.3914	   2.48891	9.33149e+06	
         R10	   5348	    76.432	   15.3975	   2.49484	9.39312e+06	    76.449	   15.3975	   2.49484	9.14704e+06	    76.449	   15.3853	   2.48299	9.52276e+06	    76.432	   15.3853	   2.48299	9.53669e+06	   76.4405	   15.3975	   2.49484	9.26255e+06	    76.449	   15.3914	   2.48891	9.33347e+06	   76.4405	   15.3853	   2.48299	9.52249e+06	    76.432	   15.3914	   2.48891	9.46441e+06	
         R10	   5349	    76.415	   15.3853	   2.48299	 9.4746e+06	    76.415	   15.3975	   2.49484	9.37457e+06	    76.432	   15.3975	   2.49484	9.37169e+06	    76.432	   15.3853	   2.48299	9.56458e+06	    76.415	   15.3914	   2.48891	9.42408e+06	   76.4235	   15.3975	   2.49484	9.36926e+06	    76.432	   15.3914	   2.48891	9.46797e+06	   76.4235	   15.3853	   2.48299	 9.5144e+06	
         R10	   5350	    76.398	   15.3853	   2.48299	9.50055e+06	    76.398	   15.3975	   2.49484	9.35268e+06	    76.415	   15.3975	   2.49484	9.37618e+06	    76.415	   15.3853	   2.48299	9.55312e+06	    76.398	   15.3914	   2.48891	9.42592e+06	   76.4065	   15.3975	   2.49484	 9.3619e+06	    76.415	   15.3914	   2.48891	9.46451e+06	   76.4065	   15.3853	   2.48299	9.52295e+06	
         R10	   5351	    76.381	   15.3853	   2.48298	9.44233e+06	    76.381	   15.3975	   2.49484	9.45513e+06	    76.398	   15.3975	   2.49484	9.32837e+06	    76.398	   15.3853	   2.48299	9.57552e+06	    76.381	   15.3914	   2.48891	9.44861e+06	   76.3895	   15.3975	   2.49484	  9.389e+06	    76.398	   15.3914	   2.48891	9.45174e+06	   76.3895	   15.3853	   2.48298	9.50704e+06	
         R10	   5352	    76.364	   15.3853	   2.48298	  9.415e+06	    76.364	   15.3975	   2.49484	9.38045e+06	    76.381	   15.3975	   2.49484	9.38741e+06	    76.381	   15.3853	   2.48298	9.47696e+06	    76.364	   15.3914	   2.48891	9.39771e+06	   76.3725	   15.3975	   2.49484	9.38181e+06	    76.381	   15.3914	   2.48891	9.43146e+06	   76.3725	   15.3853	   2.48298	9.44564e+06	
         R10	   5353	    76.364	   15.3731	   2.47113	9.49663e+06	    76.364	   15.3853	   2.48298	9.45969e+06	    76.381	   15.3853	   2.48298	9.44046e+06	    76.381	   15.3731	   2.47113	9.56865e+06	    76.364	   15.3792	   2.47706	9.47809e+06	   76.3725	   15.3853	   2.48298	9.44901e+06	    76.381	   15.3792	   2.47706	9.50428e+06	   76.3725	   15.3731	   2.47113	9.53175e+06	
         R10	   5354	    76.381	   15.3609	   2.45927	9.65137e+06	    76.364	   15.3609	   2.45927	9.62534e+06	    76.364	   15.3731	   2.47113	9.48317e+06	    76.381	   15.3731	   2.47113	  9.553e+06	   76.3725	   15.3609	   2.45927	9.63743e+06	    76.364	    15.367	    2.4652	9.55393e+06	   76.3725	   15.3731	   2.47113	9.51739e+06	    76.381	    15.367	    2.4652	 9.6021e+06	
         R10	   5355	    76.381	   15.3487	   2.44742	9.72559e+06	    76.364	   15.3487	   2.44742	9.65753e+06	    76.364	   15.3609	   2.45927	9.55814e+06	    76.381	   15.3609	   2.45927	9.69907e+06	   76.3725	   15.3487	   2.44742	9.69109e+06	    76.364	   15.3548	   2.45335	9.60723e+06	   76.3725	   15.3609	   2.45927	9.62816e+06	    76.381	   15.3548	   2.45335	 9.7118e+06	
         R10	   5356	    76.364	   15.3244	   2.42371	9.92077e+06	    76.347	   15.3244	   2.42371	9.91077e+06	    76.347	   15.3366	   2.43556	9.67446e+06	    76.364	   15.3366	   2.43557	 9.8022e+06	   76.3555	   15.3244	   2.42371	9.91456e+06	    76.347	   15.3305	   2.42964	9.79215e+06	   76.3555	   15.3366	   2.43557	9.73827e+06	    76.364	   15.3305	   2.42964	9.85894e+06	
         R10	   5357	    76.381	   15.3366	   2.43557	9.92408e+06	    76.381	   15.3244	   2.42371	1.01021e+07	    76.364	   15.3244	   2.42371	9.91308e+06	    76.364	   15.3366	   2.43557	9.77419e+06	    76.381	   15.3305	   2.42964	1.00123e+07	   76.3725	   15.3244	   2.42371	 1.0007e+07	    76.364	   15.3305	   2.42964	9.84284e+06	   76.3725	   15.3366	   2.43557	 9.8487e+06	
         R10	   5358	    76.415	   15.3487	   2.44742	9.93632e+06	    76.415	   15.3366	   2.43556	1.00703e+07	    76.398	   15.3366	   2.43557	9.95996e+06	    76.398	   15.3487	   2.44742	9.86983e+06	    76.415	   15.3426	   2.44149	1.00008e+07	   76.4065	   15.3366	   2.43556	1.00105e+07	    76.398	   15.3426	   2.44149	9.91315e+06	   76.4065	   15.3487	   2.44742	9.90212e+06	
         R10	   5359	    76.432	   15.3487	   2.44742	1.00146e+07	    76.432	   15.3366	   2.43556	1.02884e+07	    76.415	   15.3366	   2.43556	1.00907e+07	    76.415	   15.3487	   2.44742	9.93795e+06	    76.432	   15.3426	   2.44149	  1.015e+07	   76.4235	   15.3366	   2.43556	1.01851e+07	    76.415	   15.3426	   2.44149	1.00124e+07	   76.4235	   15.3487	   2.44742	9.97219e+06	
         R10	   5360	    76.449	   15.3487	   2.44742	1.01364e+07	    76.449	   15.3366	   2.43556	1.03657e+07	    76.432	   15.3366	   2.43556	1.02753e+07	    76.432	   15.3487	   2.44742	1.00251e+07	    76.449	   15.3426	   2.44149	1.02501e+07	   76.4405	   15.3366	   2.43556	1.03096e+07	    76.432	   15.3426	   2.44149	1.01485e+07	   76.4405	   15.3487	   2.44742	1.00715e+07	
         R10	   5361	    76.449	   15.3609	   2.45928	9.72578e+06	    76.449	   15.3487	   2.44742	1.01936e+07	    76.432	   15.3487	   2.44742	1.00593e+07	    76.432	   15.3609	   2.45928	9.89942e+06	    76.449	   15.3548	   2.45335	9.95902e+06	   76.4405	   15.3487	   2.44742	1.01097e+07	    76.432	   15.3548	   2.45335	9.97771e+06	   76.4405	   15.3609	   2.45928	9.80485e+06	
         R10	   5362	    76.432	   15.3731	   2.47113	9.82865e+06	    76.449	   15.3731	   2.47113	 9.4874e+06	    76.449	   15.3609	   2.45928	9.95679e+06	    76.432	   15.3609	   2.45928	 9.8135e+06	   76.4405	   15.3731	   2.47113	9.65132e+06	    76.449	    15.367	    2.4652	 9.7215e+06	   76.4405	   15.3609	   2.45928	9.87358e+06	    76.432	    15.367	    2.4652	 9.8197e+06	
         R10	   5363	    76.432	   15.3853	   2.48299	9.57127e+06	    76.449	   15.3853	   2.48299	9.46769e+06	    76.449	   15.3731	   2.47113	9.69058e+06	    76.432	   15.3731	   2.47113	9.68142e+06	   76.4405	   15.3853	   2.48299	9.51504e+06	    76.449	   15.3792	   2.47706	9.57869e+06	   76.4405	   15.3731	   2.47113	9.67854e+06	    76.432	   15.3792	   2.47706	9.62537e+06	
         R10	   5364	    76.415	   15.3853	   2.48299	9.57722e+06	    76.432	   15.3853	   2.48299	9.52341e+06	    76.432	   15.3731	   2.47113	9.75115e+06	    76.415	   15.3731	   2.47113	9.59653e+06	   76.4235	   15.3853	   2.48299	9.54384e+06	    76.432	   15.3792	   2.47706	9.63658e+06	   76.4235	   15.3731	   2.47113	9.67163e+06	    76.415	   15.3792	   2.47706	9.58672e+06	
         R10	   5365	    76.398	   15.3731	   2.47113	 9.5569e+06	    76.398	   15.3853	   2.48299	9.56318e+06	    76.415	   15.3853	   2.48299	9.54633e+06	    76.415	   15.3731	   2.47113	9.64258e+06	    76.398	   15.3792	   2.47706	9.55993e+06	   76.4065	   15.3853	   2.48299	9.54937e+06	    76.415	   15.3792	   2.47706	9.59276e+06	   76.4065	   15.3731	   2.47113	9.59903e+06	
         R10	   5366	    76.381	   15.3731	   2.47113	9.56419e+06	    76.381	   15.3853	   2.48298	9.47485e+06	    76.398	   15.3853	   2.48299	9.49522e+06	    76.398	   15.3731	   2.47113	 9.5981e+06	    76.381	   15.3792	   2.47706	 9.5193e+06	   76.3895	   15.3853	   2.48298	9.48375e+06	    76.398	   15.3792	   2.47706	9.54644e+06	   76.3895	   15.3731	   2.47113	9.57962e+06	
         R10	   5367	    76.381	   15.3609	   2.45927	9.64722e+06	    76.381	   15.3731	   2.47113	9.57239e+06	    76.398	   15.3731	   2.47113	9.57783e+06	    76.398	   15.3609	   2.45928	9.72837e+06	    76.381	    15.367	    2.4652	9.60957e+06	   76.3895	   15.3731	   2.47113	 9.5736e+06	    76.398	    15.367	    2.4652	9.65285e+06	   76.3895	   15.3609	   2.45928	9.68656e+06	
         R10	   5368	    76.381	   15.3366	   2.43557	9.88596e+06	    76.364	   15.3366	   2.43557	9.84631e+06	    76.364	   15.3487	   2.44742	9.67248e+06	    76.381	   15.3487	   2.44742	9.71822e+06	   76.3725	   15.3366	   2.43557	9.86596e+06	    76.364	   15.3426	   2.44149	 9.7583e+06	   76.3725	   15.3487	   2.44742	9.69477e+06	    76.381	   15.3426	   2.44149	 9.8019e+06	
         R10	   5369	    76.398	   15.3487	   2.44742	9.84326e+06	    76.398	   15.3366	   2.43557	9.98064e+06	    76.381	   15.3366	   2.43557	9.90475e+06	    76.381	   15.3487	   2.44742	9.70889e+06	    76.398	   15.3426	   2.44149	9.90987e+06	   76.3895	   15.3366	   2.43557	9.94225e+06	    76.381	   15.3426	   2.44149	 9.8055e+06	   76.3895	   15.3487	   2.44742	9.77534e+06	
         R10	   5370	    76.432	   15.3609	   2.45928	 9.7845e+06	    76.432	   15.3487	   2.44742	1.00676e+07	    76.415	   15.3487	   2.44742	9.95363e+06	    76.415	   15.3609	   2.45928	9.78973e+06	    76.432	   15.3548	   2.45335	9.92423e+06	   76.4235	   15.3487	   2.44742	1.00074e+07	    76.415	   15.3548	   2.45335	9.87149e+06	   76.4235	   15.3609	   2.45928	9.77781e+06	
         R10	   5371	    76.415	   15.3731	   2.47113	9.69832e+06	    76.432	   15.3731	   2.47113	9.66622e+06	    76.432	   15.3609	   2.45928	 9.8812e+06	    76.415	   15.3609	   2.45928	9.69098e+06	   76.4235	   15.3731	   2.47113	9.67212e+06	    76.432	    15.367	    2.4652	9.77095e+06	   76.4235	   15.3609	   2.45928	9.78425e+06	    76.415	    15.367	    2.4652	 9.6946e+06	
         R10	   5372	    76.398	   15.3609	   2.45928	9.66524e+06	    76.398	   15.3731	   2.47113	9.62228e+06	    76.415	   15.3731	   2.47113	9.63679e+06	    76.415	   15.3609	   2.45928	9.79387e+06	    76.398	    15.367	    2.4652	9.64374e+06	   76.4065	   15.3731	   2.47113	9.62515e+06	    76.415	    15.367	    2.4652	 9.7148e+06	   76.4065	   15.3609	   2.45928	9.72679e+06	
         R10	   5373	    76.398	   15.3487	   2.44742	9.82904e+06	    76.381	   15.3487	   2.44742	9.76501e+06	    76.381	   15.3609	   2.45927	9.64876e+06	    76.398	   15.3609	   2.45928	9.75049e+06	   76.3895	   15.3487	   2.44742	9.79605e+06	    76.381	   15.3548	   2.45335	9.70604e+06	   76.3895	   15.3609	   2.45928	9.69826e+06	    76.398	   15.3548	   2.45335	9.78924e+06	
         R10	   5374	    76.415	   15.3487	   2.44742	9.97708e+06	    76.398	   15.3487	   2.44742	9.83539e+06	    76.398	   15.3609	   2.45928	9.72579e+06	    76.415	   15.3609	   2.45928	9.75582e+06	   76.4065	   15.3487	   2.44742	9.90425e+06	    76.398	   15.3548	   2.45335	9.78006e+06	   76.4065	   15.3609	   2.45928	9.73855e+06	    76.415	   15.3548	   2.45335	9.86613e+06	
         R10	   5375	    76.534	   15.3122	   2.41186	1.08916e+07	    76.534	      15.3	       2.4	1.43969e+07	    76.517	      15.3	       2.4	1.64969e+07	    76.517	   15.3122	   2.41186	1.10921e+07	    76.534	   15.3061	   2.40593	 1.2603e+07	   76.5255	      15.3	       2.4	1.53644e+07	    76.517	   15.3061	   2.40593	1.37353e+07	   76.5255	   15.3122	   2.41186	1.08529e+07	
         R10	   5376	    76.551	   15.3122	   2.41186	1.05309e+07	    76.551	      15.3	       2.4	1.27851e+07	    76.534	      15.3	       2.4	1.43665e+07	    76.534	   15.3122	   2.41186	1.09246e+07	    76.551	   15.3061	   2.40593	 1.1647e+07	   76.5425	      15.3	       2.4	 1.3554e+07	    76.534	   15.3061	   2.40593	 1.2611e+07	   76.5425	   15.3122	   2.41186	1.07158e+07	
         R10	   5377	    76.568	   15.3122	   2.41185	1.02136e+07	    76.568	      15.3	       2.4	1.16385e+07	    76.551	      15.3	       2.4	1.27683e+07	    76.551	   15.3122	   2.41186	 1.0596e+07	    76.568	   15.3061	   2.40593	 1.0918e+07	   76.5595	      15.3	       2.4	1.21954e+07	    76.551	   15.3061	   2.40593	1.16679e+07	   76.5595	   15.3122	   2.41185	1.04009e+07	
         R10	   5378	    76.585	   15.3122	   2.41185	1.00008e+07	    76.585	      15.3	       2.4	1.08261e+07	    76.568	      15.3	       2.4	1.15806e+07	    76.568	   15.3122	   2.41185	1.01995e+07	    76.585	   15.3061	   2.40593	1.04051e+07	   76.5765	      15.3	       2.4	 1.1201e+07	    76.568	   15.3061	   2.40593	1.08843e+07	   76.5765	   15.3122	   2.41185	1.00953e+07	
         R10	   5379	    76.602	   15.3122	   2.41186	9.54111e+06	    76.602	      15.3	       2.4	1.02131e+07	    76.585	      15.3	       2.4	1.06832e+07	    76.585	   15.3122	   2.41185	 1.0006e+07	    76.602	   15.3061	   2.40593	9.87651e+06	   76.5935	      15.3	       2.4	1.04454e+07	    76.585	   15.3061	   2.40593	1.03403e+07	   76.5935	   15.3122	   2.41186	9.77346e+06	
         R10	   5380	    76.619	   15.3122	   2.41186	9.22866e+06	    76.619	      15.3	       2.4	9.78259e+06	    76.602	      15.3	       2.4	1.01411e+07	    76.602	   15.3122	   2.41186	9.65621e+06	    76.619	   15.3061	   2.40593	9.50529e+06	   76.6105	      15.3	       2.4	9.95921e+06	    76.602	   15.3061	   2.40593	9.89306e+06	   76.6105	   15.3122	   2.41186	 9.4423e+06	
         R10	   5381	    76.636	   15.3122	   2.41186	9.07903e+06	    76.636	      15.3	       2.4	9.44781e+06	    76.619	      15.3	       2.4	 9.6921e+06	    76.619	   15.3122	   2.41186	9.38709e+06	    76.636	   15.3061	   2.40593	9.26272e+06	   76.6275	      15.3	       2.4	 9.5687e+06	    76.619	   15.3061	   2.40593	9.53757e+06	   76.6275	   15.3122	   2.41186	9.23245e+06	
         R10	   5382	    76.653	   15.3122	   2.41185	8.95031e+06	    76.653	      15.3	       2.4	9.19453e+06	    76.636	      15.3	       2.4	9.40499e+06	    76.636	   15.3122	   2.41186	9.13053e+06	    76.653	   15.3061	   2.40593	9.07184e+06	   76.6445	      15.3	       2.4	 9.2988e+06	    76.636	   15.3061	   2.40593	9.26696e+06	   76.6445	   15.3122	   2.41185	9.03973e+06	
         R10	   5383	     76.67	   15.3122	   2.41185	8.82654e+06	     76.67	      15.3	       2.4	9.00213e+06	    76.653	      15.3	       2.4	9.18659e+06	    76.653	   15.3122	   2.41185	 8.9597e+06	     76.67	   15.3061	   2.40593	8.91409e+06	   76.6615	      15.3	       2.4	9.09339e+06	    76.653	   15.3061	   2.40593	 9.0724e+06	   76.6615	   15.3122	   2.41185	 8.8928e+06	
         R10	   5384	     76.67	   15.3244	   2.42371	8.63379e+06	     76.67	   15.3122	   2.41185	8.85206e+06	    76.653	   15.3122	   2.41185	8.92414e+06	    76.653	   15.3244	   2.42371	8.77374e+06	     76.67	   15.3183	   2.41778	8.74198e+06	   76.6615	   15.3122	   2.41185	8.88778e+06	    76.653	   15.3183	   2.41778	 8.8486e+06	   76.6615	   15.3244	   2.42371	8.70281e+06	
         R10	   5385	    76.653	   15.3366	   2.43557	8.64195e+06	     76.67	   15.3366	   2.43556	8.42852e+06	     76.67	   15.3244	   2.42371	8.69994e+06	    76.653	   15.3244	   2.42371	8.73816e+06	   76.6615	   15.3366	   2.43556	8.53486e+06	     76.67	   15.3305	   2.42964	 8.5633e+06	   76.6615	   15.3244	   2.42371	8.71871e+06	    76.653	   15.3305	   2.42964	8.68919e+06	
         R10	   5386	    76.653	   15.3487	   2.44742	8.44799e+06	     76.67	   15.3487	   2.44742	8.41266e+06	     76.67	   15.3366	   2.43556	8.55956e+06	    76.653	   15.3366	   2.43557	8.52646e+06	   76.6615	   15.3487	   2.44742	8.43021e+06	     76.67	   15.3426	   2.44149	8.48577e+06	   76.6615	   15.3366	   2.43556	8.54236e+06	    76.653	   15.3426	   2.44149	8.48649e+06	
         R10	   5387	    76.653	   15.3609	   2.45928	8.34453e+06	     76.67	   15.3609	   2.45928	8.29411e+06	     76.67	   15.3487	   2.44742	8.40884e+06	    76.653	   15.3487	   2.44742	8.44313e+06	   76.6615	   15.3609	   2.45928	8.31909e+06	     76.67	   15.3548	   2.45335	8.35057e+06	   76.6615	   15.3487	   2.44742	8.42595e+06	    76.653	   15.3548	   2.45335	8.39357e+06	
         R10	   5388	    76.653	   15.3731	   2.47113	8.31261e+06	     76.67	   15.3731	   2.47113	8.17134e+06	     76.67	   15.3609	   2.45928	8.31916e+06	    76.653	   15.3609	   2.45928	8.29771e+06	   76.6615	   15.3731	   2.47113	8.24144e+06	     76.67	    15.367	    2.4652	8.24506e+06	   76.6615	   15.3609	   2.45928	8.30803e+06	    76.653	    15.367	    2.4652	8.30497e+06	
         R10	   5389	    76.653	   15.3853	   2.48299	8.15389e+06	     76.67	   15.3853	   2.48299	8.13764e+06	     76.67	   15.3731	   2.47113	8.19694e+06	    76.653	   15.3731	   2.47113	8.27365e+06	   76.6615	   15.3853	   2.48299	8.14516e+06	     76.67	   15.3792	   2.47706	8.16715e+06	   76.6615	   15.3731	   2.47113	8.23443e+06	    76.653	   15.3792	   2.47706	 8.2137e+06	
         R10	   5390	    76.653	   15.3975	   2.49484	8.05763e+06	     76.67	   15.3975	   2.49484	8.06735e+06	     76.67	   15.3853	   2.48299	8.11107e+06	    76.653	   15.3853	   2.48299	8.16808e+06	   76.6615	   15.3975	   2.49484	8.06211e+06	     76.67	   15.3914	   2.48891	8.08917e+06	   76.6615	   15.3853	   2.48299	8.13908e+06	    76.653	   15.3914	   2.48891	8.11273e+06	
         R10	   5391	    76.653	   15.4097	    2.5067	7.99055e+06	     76.67	   15.4097	    2.5067	7.94425e+06	     76.67	   15.3975	   2.49484	8.05935e+06	    76.653	   15.3975	   2.49484	8.08103e+06	   76.6615	   15.4097	    2.5067	7.96644e+06	     76.67	   15.4036	   2.50077	8.00179e+06	   76.6615	   15.3975	   2.49484	8.06951e+06	    76.653	   15.4036	   2.50077	8.03573e+06	
         R10	   5392	    76.653	   15.4218	   2.51855	7.90694e+06	     76.67	   15.4218	   2.51855	7.90924e+06	     76.67	   15.4097	    2.5067	 7.9509e+06	    76.653	   15.4097	    2.5067	7.99685e+06	   76.6615	   15.4218	   2.51855	7.90751e+06	     76.67	   15.4158	   2.51262	7.93001e+06	   76.6615	   15.4097	    2.5067	7.97308e+06	    76.653	   15.4158	   2.51262	7.95188e+06	
         R10	   5393	    76.636	   15.4218	   2.51855	7.90348e+06	    76.653	   15.4218	   2.51855	7.92717e+06	    76.653	   15.4097	    2.5067	7.97155e+06	    76.636	   15.4097	    2.5067	8.01954e+06	   76.6445	   15.4218	   2.51855	7.91379e+06	    76.653	   15.4158	   2.51262	7.94934e+06	   76.6445	   15.4097	    2.5067	7.99503e+06	    76.636	   15.4158	   2.51262	7.96121e+06	
         R10	   5394	    76.619	   15.4097	    2.5067	8.06347e+06	    76.619	   15.4218	   2.51855	7.84879e+06	    76.636	   15.4218	   2.51855	7.91315e+06	    76.636	   15.4097	    2.5067	 7.9756e+06	    76.619	   15.4158	   2.51262	7.95579e+06	   76.6275	   15.4218	   2.51855	7.88077e+06	    76.636	   15.4158	   2.51262	 7.9441e+06	   76.6275	   15.4097	    2.5067	 8.0172e+06	
         R10	   5395	    76.602	   15.4097	    2.5067	8.02513e+06	    76.602	   15.4218	   2.51855	7.80695e+06	    76.619	   15.4218	   2.51855	7.93728e+06	    76.619	   15.4097	    2.5067	7.94534e+06	    76.602	   15.4158	   2.51262	7.91569e+06	   76.6105	   15.4218	   2.51855	7.87001e+06	    76.619	   15.4158	   2.51262	7.94065e+06	   76.6105	   15.4097	    2.5067	7.98295e+06	
         R10	   5396	    76.585	   15.4097	    2.5067	7.95857e+06	    76.585	   15.4218	   2.51855	7.82231e+06	    76.602	   15.4218	   2.51855	7.86984e+06	    76.602	   15.4097	    2.5067	7.98191e+06	    76.585	   15.4158	   2.51262	7.89032e+06	   76.5935	   15.4218	   2.51855	7.84362e+06	    76.602	   15.4158	   2.51262	7.92554e+06	   76.5935	   15.4097	    2.5067	7.96707e+06	
         R10	   5397	    76.568	   15.4097	    2.5067	7.96052e+06	    76.568	   15.4218	   2.51855	7.78234e+06	    76.585	   15.4218	   2.51855	7.86832e+06	    76.585	   15.4097	    2.5067	7.93601e+06	    76.568	   15.4158	   2.51262	7.87111e+06	   76.5765	   15.4218	   2.51855	7.82209e+06	    76.585	   15.4158	   2.51262	7.90172e+06	   76.5765	   15.4097	    2.5067	7.94395e+06	
         R10	   5398	    76.551	   15.4097	    2.5067	7.89506e+06	    76.551	   15.4218	   2.51855	7.64735e+06	    76.568	   15.4218	   2.51855	7.80331e+06	    76.568	   15.4097	    2.5067	7.92381e+06	    76.551	   15.4158	   2.51262	7.76992e+06	   76.5595	   15.4218	   2.51855	7.72149e+06	    76.568	   15.4158	   2.51262	7.86277e+06	   76.5595	   15.4097	    2.5067	7.90362e+06	
         R10	   5399	    76.534	   15.4097	    2.5067	7.75267e+06	    76.534	   15.4218	   2.51855	7.48794e+06	    76.551	   15.4218	   2.51855	7.75485e+06	    76.551	   15.4097	    2.5067	7.82379e+06	    76.534	   15.4158	   2.51262	7.61817e+06	   76.5425	   15.4218	   2.51855	7.61597e+06	    76.551	   15.4158	   2.51262	7.78681e+06	   76.5425	   15.4097	    2.5067	7.77643e+06	
         R10	   5400	    76.517	   15.4097	    2.5067	7.54408e+06	    76.517	   15.4218	   2.51855	7.38763e+06	    76.534	   15.4218	   2.51855	7.59635e+06	    76.534	   15.4097	    2.5067	7.62365e+06	    76.517	   15.4158	   2.51262	7.46566e+06	   76.5255	   15.4218	   2.51855	7.48405e+06	    76.534	   15.4158	   2.51262	7.60486e+06	   76.5255	   15.4097	   2.50669	7.57434e+06	
         R10	   5401	      76.5	   15.4097	    2.5067	7.36605e+06	      76.5	   15.4218	   2.51855	7.28002e+06	    76.517	   15.4218	   2.51855	7.44127e+06	    76.517	   15.4097	    2.5067	7.47768e+06	      76.5	   15.4158	   2.51262	7.32071e+06	   76.5085	   15.4218	   2.51855	7.35465e+06	    76.517	   15.4158	   2.51262	7.45832e+06	   76.5085	   15.4097	    2.5067	7.41343e+06	
         R10	   5402	      76.5	   15.3975	   2.49484	7.42358e+06	      76.5	   15.4097	    2.5067	7.32296e+06	    76.517	   15.4097	    2.5067	7.50844e+06	    76.517	   15.3975	   2.49484	7.66812e+06	      76.5	   15.4036	   2.50077	7.37158e+06	   76.5085	   15.4097	    2.5067	 7.4066e+06	    76.517	   15.4036	   2.50077	7.58386e+06	   76.5085	   15.3975	   2.49484	7.53299e+06	
         R10	   5403	    76.517	   15.3853	   2.48299	7.82435e+06	      76.5	   15.3853	   2.48299	7.54186e+06	      76.5	   15.3975	   2.49484	7.41389e+06	    76.517	   15.3975	   2.49484	7.68154e+06	   76.5085	   15.3853	   2.48299	7.66491e+06	      76.5	   15.3914	   2.48891	7.47358e+06	   76.5085	   15.3975	   2.49484	7.53442e+06	    76.517	   15.3914	   2.48891	7.74906e+06	
         R10	   5404	    76.517	   15.3731	   2.47113	8.03792e+06	      76.5	   15.3731	   2.47113	7.70591e+06	      76.5	   15.3853	   2.48299	7.54236e+06	    76.517	   15.3853	   2.48299	7.82675e+06	   76.5085	   15.3731	   2.47113	7.84013e+06	      76.5	   15.3792	   2.47706	7.61562e+06	   76.5085	   15.3853	   2.48299	7.66683e+06	    76.517	   15.3792	   2.47706	7.92758e+06	
         R10	   5405	    76.517	   15.3609	   2.45928	8.31568e+06	      76.5	   15.3609	   2.45928	7.99384e+06	      76.5	   15.3731	   2.47113	7.68071e+06	    76.517	   15.3731	   2.47113	8.05229e+06	   76.5085	   15.3609	   2.45928	8.10229e+06	      76.5	    15.367	    2.4652	7.82361e+06	   76.5085	   15.3731	   2.47113	7.83891e+06	    76.517	    15.367	    2.4652	8.17795e+06	
         R10	   5406	    76.517	   15.3487	   2.44742	8.68993e+06	      76.5	   15.3487	   2.44742	 8.4378e+06	      76.5	   15.3609	   2.45928	7.93251e+06	    76.517	   15.3609	   2.45928	8.36694e+06	   76.5085	   15.3487	   2.44742	8.46732e+06	      76.5	   15.3548	   2.45335	8.16463e+06	   76.5085	   15.3609	   2.45928	8.10245e+06	    76.517	   15.3548	   2.45335	8.52168e+06	
         R10	   5407	    76.517	   15.3366	   2.43557	9.18944e+06	      76.5	   15.3366	   2.43556	9.22767e+06	      76.5	   15.3487	   2.44742	8.40083e+06	    76.517	   15.3487	   2.44742	8.76907e+06	   76.5085	   15.3366	   2.43557	 9.0332e+06	      76.5	   15.3426	   2.44149	8.78837e+06	   76.5085	   15.3487	   2.44742	8.49421e+06	    76.517	   15.3426	   2.44149	8.97469e+06	
         R10	   5408	    76.517	   15.3244	   2.42371	9.96675e+06	      76.5	   15.3244	   2.42371	1.07978e+07	      76.5	   15.3366	   2.43556	9.24645e+06	    76.517	   15.3366	   2.43557	9.25345e+06	   76.5085	   15.3244	   2.42371	1.00303e+07	      76.5	   15.3305	   2.42964	9.99828e+06	   76.5085	   15.3366	   2.43557	9.06591e+06	    76.517	   15.3305	   2.42964	9.60974e+06	
         R10	   5409	    76.517	   15.3122	   2.41186	1.13486e+07	    76.517	      15.3	       2.4	1.63484e+07	      76.5	      15.3	       2.4	2.16625e+07	      76.5	   15.3122	   2.41185	1.28181e+07	    76.517	   15.3061	   2.40593	1.37296e+07	   76.5085	      15.3	       2.4	1.83107e+07	      76.5	   15.3061	   2.40593	1.70769e+07	   76.5085	   15.3122	   2.41186	1.13061e+07	
         R10	   5410	    76.551	   15.3244	   2.42371	 9.4799e+06	    76.551	   15.3122	   2.41186	1.08388e+07	    76.534	   15.3122	   2.41186	1.08325e+07	    76.534	   15.3244	   2.42371	 9.5726e+06	    76.551	   15.3183	   2.41778	1.01385e+07	   76.5425	   15.3122	   2.41186	1.08074e+07	    76.534	   15.3183	   2.41778	1.01815e+07	   76.5425	   15.3244	   2.42371	9.49317e+06	
         R10	   5411	    76.568	   15.3244	   2.42371	9.40673e+06	    76.568	   15.3122	   2.41185	1.02604e+07	    76.551	   15.3122	   2.41186	1.05013e+07	    76.551	   15.3244	   2.42371	9.60251e+06	    76.568	   15.3183	   2.41778	9.82337e+06	   76.5595	   15.3122	   2.41185	1.03773e+07	    76.551	   15.3183	   2.41778	1.00388e+07	   76.5595	   15.3244	   2.42371	9.49773e+06	
         R10	   5412	    76.585	   15.3244	   2.42371	9.17982e+06	    76.585	   15.3122	   2.41185	9.96086e+06	    76.568	   15.3122	   2.41185	1.01769e+07	    76.568	   15.3244	   2.42371	9.42086e+06	    76.585	   15.3183	   2.41778	 9.5596e+06	   76.5765	   15.3122	   2.41185	1.00677e+07	    76.568	   15.3183	   2.41778	9.78944e+06	   76.5765	   15.3244	   2.42371	 9.2942e+06	
         R10	   5413	    76.602	   15.3244	   2.42371	9.08025e+06	    76.602	   15.3122	   2.41186	9.73786e+06	    76.585	   15.3122	   2.41185	9.86886e+06	    76.585	   15.3244	   2.42371	9.38762e+06	    76.602	   15.3183	   2.41778	 9.4024e+06	   76.5935	   15.3122	   2.41186	9.80079e+06	    76.585	   15.3183	   2.41778	9.62532e+06	   76.5935	   15.3244	   2.42371	9.23091e+06	
         R10	   5414	    76.619	   15.3244	   2.42371	8.84977e+06	    76.619	   15.3122	   2.41186	9.54858e+06	    76.602	   15.3122	   2.41186	9.38887e+06	    76.602	   15.3244	   2.42371	9.32271e+06	    76.619	   15.3183	   2.41778	9.19589e+06	   76.6105	   15.3122	   2.41186	9.46761e+06	    76.602	   15.3183	   2.41778	9.35484e+06	   76.6105	   15.3244	   2.42371	9.08448e+06	
         R10	   5415	    76.636	   15.3244	   2.42371	8.70069e+06	    76.636	   15.3122	   2.41186	9.27504e+06	    76.619	   15.3122	   2.41186	9.15321e+06	    76.619	   15.3244	   2.42371	9.18822e+06	    76.636	   15.3183	   2.41778	8.98637e+06	   76.6275	   15.3122	   2.41186	9.21318e+06	    76.619	   15.3183	   2.41778	9.16819e+06	   76.6275	   15.3244	   2.42371	8.94387e+06	
         R10	   5416	    76.653	   15.3244	   2.42371	8.70092e+06	    76.653	   15.3122	   2.41185	 8.9946e+06	    76.636	   15.3122	   2.41186	9.03649e+06	    76.636	   15.3244	   2.42371	8.95793e+06	    76.653	   15.3183	   2.41778	8.84648e+06	   76.6445	   15.3122	   2.41185	9.01534e+06	    76.636	   15.3183	   2.41778	 8.9965e+06	   76.6445	   15.3244	   2.42371	8.82883e+06	
         R10	   5417	    76.653	   15.3366	   2.43557	8.56448e+06	    76.653	   15.3244	   2.42371	8.74266e+06	    76.636	   15.3244	   2.42371	8.84361e+06	    76.636	   15.3366	   2.43557	8.69246e+06	    76.653	   15.3305	   2.42964	8.65287e+06	   76.6445	   15.3244	   2.42371	8.79197e+06	    76.636	   15.3305	   2.42964	8.76685e+06	   76.6445	   15.3366	   2.43557	8.62795e+06	
         R10	   5418	    76.636	   15.3487	   2.44742	8.50785e+06	    76.653	   15.3487	   2.44742	8.42674e+06	    76.653	   15.3366	   2.43557	8.58915e+06	    76.636	   15.3366	   2.43557	8.66281e+06	   76.6445	   15.3487	   2.44742	8.46689e+06	    76.653	   15.3426	   2.44149	8.50703e+06	   76.6445	   15.3366	   2.43557	8.62592e+06	    76.636	   15.3426	   2.44149	8.58485e+06	
         R10	   5419	    76.636	   15.3609	   2.45928	8.39277e+06	    76.653	   15.3609	   2.45928	8.33818e+06	    76.653	   15.3487	   2.44742	8.47369e+06	    76.636	   15.3487	   2.44742	8.49493e+06	   76.6445	   15.3609	   2.45928	8.36528e+06	    76.653	   15.3548	   2.45335	8.40553e+06	   76.6445	   15.3487	   2.44742	8.48397e+06	    76.636	   15.3548	   2.45335	8.44345e+06	
         R10	   5420	    76.636	   15.3731	   2.47113	8.30108e+06	    76.653	   15.3731	   2.47113	8.23363e+06	    76.653	   15.3609	   2.45928	8.39191e+06	    76.636	   15.3609	   2.45928	8.37772e+06	   76.6445	   15.3731	   2.47113	8.26691e+06	    76.653	    15.367	    2.4652	8.31224e+06	   76.6445	   15.3609	   2.45928	8.38442e+06	    76.636	    15.367	    2.4652	8.33918e+06	
         R10	   5421	    76.636	   15.3853	   2.48299	8.18766e+06	    76.653	   15.3853	   2.48299	8.14979e+06	    76.653	   15.3731	   2.47113	8.26114e+06	    76.636	   15.3731	   2.47113	8.29149e+06	   76.6445	   15.3853	   2.48299	8.16749e+06	    76.653	   15.3792	   2.47706	8.20545e+06	   76.6445	   15.3731	   2.47113	8.27559e+06	    76.636	   15.3792	   2.47706	8.23939e+06	
         R10	   5422	    76.636	   15.3975	   2.49484	8.07277e+06	    76.653	   15.3975	   2.49484	8.12244e+06	    76.653	   15.3853	   2.48299	8.12357e+06	    76.636	   15.3853	   2.48299	8.21057e+06	   76.6445	   15.3975	   2.49484	8.09552e+06	    76.653	   15.3914	   2.48891	 8.1228e+06	   76.6445	   15.3853	   2.48299	8.16684e+06	    76.636	   15.3914	   2.48891	8.14103e+06	
         R10	   5423	    76.636	   15.4097	    2.5067	7.97953e+06	    76.653	   15.4097	    2.5067	 8.0057e+06	    76.653	   15.3975	   2.49484	8.03714e+06	    76.636	   15.3975	   2.49484	8.12556e+06	   76.6445	   15.4097	    2.5067	7.99089e+06	    76.653	   15.4036	   2.50077	8.02138e+06	   76.6445	   15.3975	   2.49484	8.08103e+06	    76.636	   15.4036	   2.50077	8.05224e+06	
         R10	   5424	    76.619	   15.4097	    2.5067	7.99079e+06	    76.636	   15.4097	    2.5067	8.01104e+06	    76.636	   15.3975	   2.49484	8.13807e+06	    76.619	   15.3975	   2.49484	8.00662e+06	   76.6275	   15.4097	    2.5067	7.99976e+06	    76.636	   15.4036	   2.50077	8.07438e+06	   76.6275	   15.3975	   2.49484	8.07066e+06	    76.619	   15.4036	   2.50077	 7.9984e+06	
         R10	   5425	    76.602	   15.3975	   2.49484	8.07463e+06	    76.602	   15.4097	    2.5067	7.97334e+06	    76.619	   15.4097	    2.5067	8.04316e+06	    76.619	   15.3975	   2.49484	8.09914e+06	    76.602	   15.4036	   2.50077	8.02334e+06	   76.6105	   15.4097	    2.5067	8.00672e+06	    76.619	   15.4036	   2.50077	8.07098e+06	   76.6105	   15.3975	   2.49484	8.08615e+06	
         R10	   5426	    76.585	   15.3975	   2.49484	8.10748e+06	    76.585	   15.4097	    2.5067	7.78373e+06	    76.602	   15.4097	    2.5067	8.02475e+06	    76.602	   15.3975	   2.49484	8.13204e+06	    76.585	   15.4036	   2.50077	7.94508e+06	   76.5935	   15.4097	    2.5067	7.90368e+06	    76.602	   15.4036	   2.50077	8.07777e+06	   76.5935	   15.3975	   2.49484	8.11769e+06	
         R10	   5427	    76.568	   15.3975	   2.49484	8.05089e+06	    76.568	   15.4097	    2.5067	7.89262e+06	    76.585	   15.4097	    2.5067	8.07856e+06	    76.585	   15.3975	   2.49484	7.92474e+06	    76.568	   15.4036	   2.50077	7.97137e+06	   76.5765	   15.4097	    2.5067	7.98387e+06	    76.585	   15.4036	   2.50077	 8.0004e+06	   76.5765	   15.3975	   2.49484	7.98577e+06	
         R10	   5428	    76.551	   15.3975	   2.49484	7.87388e+06	    76.551	   15.4097	    2.5067	7.88293e+06	    76.568	   15.4097	    2.5067	7.93819e+06	    76.568	   15.3975	   2.49484	8.10015e+06	    76.551	   15.4036	   2.50077	7.87604e+06	   76.5595	   15.4097	    2.5067	7.90341e+06	    76.568	   15.4036	   2.50077	8.01887e+06	   76.5595	   15.3975	   2.49484	 7.9855e+06	
         R10	   5429	    76.534	   15.3975	   2.49484	7.84873e+06	    76.534	   15.4097	    2.5067	7.71248e+06	    76.551	   15.4097	    2.5067	7.82883e+06	    76.551	   15.3975	   2.49484	 8.0409e+06	    76.534	   15.4036	   2.50077	7.77779e+06	   76.5425	   15.4097	    2.5067	7.76634e+06	    76.551	   15.4036	   2.50077	7.93373e+06	   76.5425	   15.3975	   2.49484	7.94191e+06	
         R10	   5430	    76.517	   15.3975	   2.49484	7.70155e+06	    76.517	   15.4097	    2.5067	7.44032e+06	    76.534	   15.4097	    2.5067	7.78574e+06	    76.534	   15.3975	   2.49484	7.86826e+06	    76.517	   15.4036	   2.50077	7.56834e+06	   76.5255	   15.4097	   2.50669	7.60167e+06	    76.534	   15.4036	   2.50077	7.82371e+06	   76.5255	   15.3975	   2.49484	 7.7776e+06	
         R10	   5431	    76.517	   15.3853	   2.48299	7.86457e+06	    76.517	   15.3975	   2.49484	7.65118e+06	    76.534	   15.3975	   2.49484	7.90515e+06	    76.534	   15.3853	   2.48298	7.95386e+06	    76.517	   15.3914	   2.48891	7.75329e+06	   76.5255	   15.3975	   2.49484	7.77076e+06	    76.534	   15.3914	   2.48891	7.92649e+06	   76.5255	   15.3853	   2.48299	7.89695e+06	
         R10	   5432	    76.534	   15.3731	   2.47113	8.13341e+06	    76.517	   15.3731	   2.47113	8.08248e+06	    76.517	   15.3853	   2.48299	7.84047e+06	    76.534	   15.3853	   2.48298	8.00202e+06	   76.5255	   15.3731	   2.47113	8.08775e+06	    76.517	   15.3792	   2.47706	 7.9571e+06	   76.5255	   15.3853	   2.48299	7.90582e+06	    76.534	   15.3792	   2.47706	 8.0637e+06	
         R10	   5433	    76.534	   15.3609	   2.45928	8.47262e+06	    76.517	   15.3609	   2.45928	8.33868e+06	    76.517	   15.3731	   2.47113	8.02118e+06	    76.534	   15.3731	   2.47113	8.20416e+06	   76.5255	   15.3609	   2.45928	 8.3701e+06	    76.517	    15.367	    2.4652	 8.1754e+06	   76.5255	   15.3731	   2.47113	8.08964e+06	    76.534	    15.367	    2.4652	8.33357e+06	
         R10	   5434	    76.534	   15.3487	   2.44742	8.77757e+06	    76.517	   15.3487	   2.44742	8.70523e+06	    76.517	   15.3609	   2.45928	8.27311e+06	    76.534	   15.3609	   2.45928	8.54508e+06	   76.5255	   15.3487	   2.44742	 8.6886e+06	    76.517	   15.3548	   2.45335	8.48461e+06	   76.5255	   15.3609	   2.45928	8.37243e+06	    76.534	   15.3548	   2.45335	8.65945e+06	
         R10	   5435	    76.534	   15.3366	   2.43557	9.07713e+06	    76.517	   15.3366	   2.43557	9.18923e+06	    76.517	   15.3487	   2.44742	 8.6229e+06	    76.534	   15.3487	   2.44742	8.85593e+06	   76.5255	   15.3366	   2.43557	9.04625e+06	    76.517	   15.3426	   2.44149	8.90368e+06	   76.5255	   15.3487	   2.44742	8.68396e+06	    76.534	   15.3426	   2.44149	 8.9656e+06	
         R10	   5436	    76.517	   15.3122	   2.41186	1.17261e+07	      76.5	   15.3122	   2.41185	1.36631e+07	      76.5	   15.3244	   2.42371	1.07252e+07	    76.517	   15.3244	   2.42371	1.00244e+07	   76.5085	   15.3122	   2.41186	1.19699e+07	      76.5	   15.3183	   2.41778	1.21793e+07	   76.5085	   15.3244	   2.42371	1.00395e+07	    76.517	   15.3183	   2.41778	1.08528e+07	
         R10	   5437	    76.534	   15.3244	   2.42371	9.58649e+06	    76.534	   15.3122	   2.41186	1.10976e+07	    76.517	   15.3122	   2.41186	1.12359e+07	    76.517	   15.3244	   2.42371	9.72068e+06	    76.534	   15.3183	   2.41778	1.03172e+07	   76.5255	   15.3122	   2.41186	1.10312e+07	    76.517	   15.3183	   2.41778	1.04532e+07	   76.5255	   15.3244	   2.42371	9.52039e+06	
         R10	   5438	    76.568	   15.3366	   2.43556	8.94755e+06	    76.568	   15.3244	   2.42371	9.47195e+06	    76.551	   15.3244	   2.42371	 9.5361e+06	    76.551	   15.3366	   2.43557	9.06412e+06	    76.568	   15.3305	   2.42964	9.20258e+06	   76.5595	   15.3244	   2.42371	9.49421e+06	    76.551	   15.3305	   2.42964	9.29422e+06	   76.5595	   15.3366	   2.43556	8.99303e+06	
         R10	   5439	    76.585	   15.3366	   2.43556	8.83488e+06	    76.585	   15.3244	   2.42371	9.31428e+06	    76.568	   15.3244	   2.42371	9.40337e+06	    76.568	   15.3366	   2.43556	9.04821e+06	    76.585	   15.3305	   2.42964	9.06671e+06	   76.5765	   15.3244	   2.42371	9.35692e+06	    76.568	   15.3305	   2.42964	9.22347e+06	   76.5765	   15.3366	   2.43556	8.93632e+06	
         R10	   5440	    76.602	   15.3366	   2.43557	8.74416e+06	    76.602	   15.3244	   2.42371	9.20864e+06	    76.585	   15.3244	   2.42371	9.15605e+06	    76.585	   15.3366	   2.43556	9.00647e+06	    76.602	   15.3305	   2.42964	8.97577e+06	   76.5935	   15.3244	   2.42371	9.18056e+06	    76.585	   15.3305	   2.42964	9.07753e+06	   76.5935	   15.3366	   2.43556	8.87402e+06	
         R10	   5441	    76.619	   15.3366	   2.43557	8.66173e+06	    76.619	   15.3244	   2.42371	9.10124e+06	    76.602	   15.3244	   2.42371	9.19741e+06	    76.602	   15.3366	   2.43557	8.78337e+06	    76.619	   15.3305	   2.42964	 8.8792e+06	   76.6105	   15.3244	   2.42371	9.14869e+06	    76.602	   15.3305	   2.42964	8.98917e+06	   76.6105	   15.3366	   2.43557	8.72102e+06	
         R10	   5442	    76.636	   15.3366	   2.43557	8.56737e+06	    76.636	   15.3244	   2.42371	8.94637e+06	    76.619	   15.3244	   2.42371	8.89846e+06	    76.619	   15.3366	   2.43557	8.90565e+06	    76.636	   15.3305	   2.42964	8.75573e+06	   76.6275	   15.3244	   2.42371	 8.9197e+06	    76.619	   15.3305	   2.42964	8.90015e+06	   76.6275	   15.3366	   2.43557	8.73602e+06	
         R10	   5443	    76.636	   15.3487	   2.44742	8.49306e+06	    76.636	   15.3366	   2.43557	8.68525e+06	    76.619	   15.3366	   2.43557	8.69234e+06	    76.619	   15.3487	   2.44742	8.59729e+06	    76.636	   15.3426	   2.44149	8.58843e+06	   76.6275	   15.3366	   2.43557	8.68799e+06	    76.619	   15.3426	   2.44149	8.64312e+06	   76.6275	   15.3487	   2.44742	 8.5447e+06	
         R10	   5444	    76.619	   15.3609	   2.45927	 8.4561e+06	    76.636	   15.3609	   2.45928	8.39126e+06	    76.636	   15.3487	   2.44742	 8.4974e+06	    76.619	   15.3487	   2.44742	 8.5745e+06	   76.6275	   15.3609	   2.45928	8.42279e+06	    76.636	   15.3548	   2.45335	8.44361e+06	   76.6275	   15.3487	   2.44742	8.53552e+06	    76.619	   15.3548	   2.45335	8.51465e+06	
         R10	   5445	    76.619	   15.3731	   2.47113	8.32013e+06	    76.636	   15.3731	   2.47113	8.30289e+06	    76.636	   15.3609	   2.45928	 8.4006e+06	    76.619	   15.3609	   2.45927	8.45142e+06	   76.6275	   15.3731	   2.47113	8.31077e+06	    76.636	    15.367	    2.4652	8.35144e+06	   76.6275	   15.3609	   2.45928	8.42506e+06	    76.619	    15.367	    2.4652	8.38556e+06	
         R10	   5446	    76.619	   15.3853	   2.48298	8.20815e+06	    76.636	   15.3853	   2.48299	8.19712e+06	    76.636	   15.3731	   2.47113	 8.2961e+06	    76.619	   15.3731	   2.47113	8.34222e+06	   76.6275	   15.3853	   2.48299	8.20069e+06	    76.636	   15.3792	   2.47706	8.24657e+06	   76.6275	   15.3731	   2.47113	8.31848e+06	    76.619	   15.3792	   2.47706	8.27492e+06	
         R10	   5447	    76.619	   15.3975	   2.49484	8.05061e+06	    76.636	   15.3975	   2.49484	8.12645e+06	    76.636	   15.3853	   2.48299	 8.1763e+06	    76.619	   15.3853	   2.48298	8.28993e+06	   76.6275	   15.3975	   2.49484	8.08797e+06	    76.636	   15.3914	   2.48891	8.15113e+06	   76.6275	   15.3853	   2.48299	8.23128e+06	    76.619	   15.3914	   2.48891	8.17016e+06	
         R10	   5448	    76.602	   15.3975	   2.49484	7.96068e+06	    76.619	   15.3975	   2.49484	8.13391e+06	    76.619	   15.3853	   2.48298	 8.1025e+06	    76.602	   15.3853	   2.48298	8.38834e+06	   76.6105	   15.3975	   2.49484	8.04493e+06	    76.619	   15.3914	   2.48891	8.11721e+06	   76.6105	   15.3853	   2.48298	8.24191e+06	    76.602	   15.3914	   2.48891	8.17368e+06	
         R10	   5449	    76.585	   15.3853	   2.48299	8.44859e+06	    76.585	   15.3975	   2.49484	  7.911e+06	    76.602	   15.3975	   2.49484	8.28079e+06	    76.602	   15.3853	   2.48298	7.96756e+06	    76.585	   15.3914	   2.48891	 8.1789e+06	   76.5935	   15.3975	   2.49484	8.09029e+06	    76.602	   15.3914	   2.48891	8.12336e+06	   76.5935	   15.3853	   2.48299	8.20465e+06	
         R10	   5450	    76.568	   15.3853	   2.48299	8.30382e+06	    76.568	   15.3975	   2.49484	8.01608e+06	    76.585	   15.3975	   2.49484	8.10106e+06	    76.585	   15.3853	   2.48299	8.06533e+06	    76.568	   15.3914	   2.48891	 8.1599e+06	   76.5765	   15.3975	   2.49484	8.04916e+06	    76.585	   15.3914	   2.48891	8.08023e+06	   76.5765	   15.3853	   2.48299	8.17794e+06	
         R10	   5451	    76.551	   15.3853	   2.48299	8.14832e+06	    76.551	   15.3975	   2.49484	7.81494e+06	    76.568	   15.3975	   2.49484	8.06538e+06	    76.568	   15.3853	   2.48299	8.20712e+06	    76.551	   15.3914	   2.48891	7.98109e+06	   76.5595	   15.3975	   2.49484	 7.9375e+06	    76.568	   15.3914	   2.48891	 8.1314e+06	   76.5595	   15.3853	   2.48299	8.16031e+06	
         R10	   5452	    76.534	   15.3853	   2.48298	8.10135e+06	    76.534	   15.3975	   2.49484	7.73187e+06	    76.551	   15.3975	   2.49484	8.09969e+06	    76.551	   15.3853	   2.48299	7.95599e+06	    76.534	   15.3914	   2.48891	 7.9151e+06	   76.5425	   15.3975	   2.49484	7.90947e+06	    76.551	   15.3914	   2.48891	8.02499e+06	   76.5425	   15.3853	   2.48299	8.01806e+06	
         R10	   5453	    76.534	   15.3731	   2.47113	8.31881e+06	    76.534	   15.3853	   2.48298	7.94744e+06	    76.551	   15.3853	   2.48299	8.23407e+06	    76.551	   15.3731	   2.47113	8.10526e+06	    76.534	   15.3792	   2.47706	8.13169e+06	   76.5425	   15.3853	   2.48299	8.08251e+06	    76.551	   15.3792	   2.47706	8.16246e+06	   76.5425	   15.3731	   2.47113	8.18825e+06	
         R10	   5454	    76.551	   15.3609	   2.45928	8.54775e+06	    76.534	   15.3609	   2.45928	 8.5545e+06	    76.534	   15.3731	   2.47113	 8.2126e+06	    76.551	   15.3731	   2.47113	8.36528e+06	   76.5425	   15.3609	   2.45928	8.53072e+06	    76.534	    15.367	    2.4652	8.38161e+06	   76.5425	   15.3731	   2.47113	8.26614e+06	    76.551	    15.367	    2.4652	8.45596e+06	
         R10	   5455	    76.551	   15.3487	   2.44742	8.79278e+06	    76.534	   15.3487	   2.44742	8.78381e+06	    76.534	   15.3609	   2.45928	8.48193e+06	    76.551	   15.3609	   2.45928	8.58722e+06	   76.5425	   15.3487	   2.44742	8.75971e+06	    76.534	   15.3548	   2.45335	8.63145e+06	   76.5425	   15.3609	   2.45928	8.51298e+06	    76.551	   15.3548	   2.45335	8.68944e+06	
         R10	   5456	    76.534	   15.3244	   2.42371	9.59709e+06	    76.517	   15.3244	   2.42371	1.00099e+07	    76.517	   15.3366	   2.43557	9.04699e+06	    76.534	   15.3366	   2.43557	 9.1496e+06	   76.5255	   15.3244	   2.42371	 9.6724e+06	    76.517	   15.3305	   2.42964	 9.5284e+06	   76.5255	   15.3366	   2.43557	 9.0058e+06	    76.534	   15.3305	   2.42964	9.36995e+06	
         R10	   5457	    76.551	   15.3366	   2.43557	9.05824e+06	    76.551	   15.3244	   2.42371	9.55825e+06	    76.534	   15.3244	   2.42371	9.65506e+06	    76.534	   15.3366	   2.43557	9.01708e+06	    76.551	   15.3305	   2.42964	9.30093e+06	   76.5425	   15.3244	   2.42371	9.57228e+06	    76.534	   15.3305	   2.42964	9.33082e+06	   76.5425	   15.3366	   2.43557	9.00435e+06	
         R10	   5458	    76.585	   15.3487	   2.44742	8.67528e+06	    76.585	   15.3366	   2.43556	8.97245e+06	    76.568	   15.3366	   2.43556	8.98529e+06	    76.568	   15.3487	   2.44742	8.73854e+06	    76.585	   15.3426	   2.44149	8.82078e+06	   76.5765	   15.3366	   2.43556	8.97301e+06	    76.568	   15.3426	   2.44149	 8.8604e+06	   76.5765	   15.3487	   2.44742	8.70315e+06	
         R10	   5459	    76.602	   15.3487	   2.44742	8.60964e+06	    76.602	   15.3366	   2.43557	8.85952e+06	    76.585	   15.3366	   2.43556	8.85833e+06	    76.585	   15.3487	   2.44742	8.74955e+06	    76.602	   15.3426	   2.44149	 8.7322e+06	   76.5935	   15.3366	   2.43556	8.85692e+06	    76.585	   15.3426	   2.44149	 8.8031e+06	   76.5935	   15.3487	   2.44742	8.67646e+06	
         R10	   5460	    76.619	   15.3487	   2.44742	8.55611e+06	    76.619	   15.3366	   2.43557	8.75504e+06	    76.602	   15.3366	   2.43557	 8.8272e+06	    76.602	   15.3487	   2.44742	8.63267e+06	    76.619	   15.3426	   2.44149	8.65448e+06	   76.6105	   15.3366	   2.43557	8.79062e+06	    76.602	   15.3426	   2.44149	8.72898e+06	   76.6105	   15.3487	   2.44742	8.59386e+06	
         R10	   5461	    76.619	   15.3609	   2.45927	8.43767e+06	    76.619	   15.3487	   2.44742	8.58112e+06	    76.602	   15.3487	   2.44742	8.63497e+06	    76.602	   15.3609	   2.45927	8.50615e+06	    76.619	   15.3548	   2.45335	8.50876e+06	   76.6105	   15.3487	   2.44742	8.60628e+06	    76.602	   15.3548	   2.45335	8.56994e+06	   76.6105	   15.3609	   2.45927	8.47042e+06	
         R10	   5462	    76.602	   15.3731	   2.47113	8.37942e+06	    76.619	   15.3731	   2.47113	8.33508e+06	    76.619	   15.3609	   2.45927	8.44199e+06	    76.602	   15.3609	   2.45927	8.49909e+06	   76.6105	   15.3731	   2.47113	8.35572e+06	    76.619	    15.367	    2.4652	8.38814e+06	   76.6105	   15.3609	   2.45927	8.46887e+06	    76.602	    15.367	    2.4652	8.43909e+06	
         R10	   5463	    76.602	   15.3853	   2.48298	8.12043e+06	    76.619	   15.3853	   2.48298	8.29959e+06	    76.619	   15.3731	   2.47113	8.32323e+06	    76.602	   15.3731	   2.47113	8.42049e+06	   76.6105	   15.3853	   2.48298	8.20625e+06	    76.619	   15.3792	   2.47706	 8.3114e+06	   76.6105	   15.3731	   2.47113	8.37029e+06	    76.602	   15.3792	   2.47706	8.26977e+06	
         R10	   5464	    76.585	   15.3853	   2.48299	 8.0199e+06	    76.602	   15.3853	   2.48298	 8.3967e+06	    76.602	   15.3731	   2.47113	8.27385e+06	    76.585	   15.3731	   2.47113	8.50528e+06	   76.5935	   15.3853	   2.48299	8.20078e+06	    76.602	   15.3792	   2.47706	8.33437e+06	   76.5935	   15.3731	   2.47113	8.38653e+06	    76.585	   15.3792	   2.47706	8.26078e+06	
         R10	   5465	    76.568	   15.3731	   2.47113	 8.5495e+06	    76.568	   15.3853	   2.48299	 8.0593e+06	    76.585	   15.3853	   2.48299	 8.4119e+06	    76.585	   15.3731	   2.47113	8.17476e+06	    76.568	   15.3792	   2.47706	8.30378e+06	   76.5765	   15.3853	   2.48299	8.22893e+06	    76.585	   15.3792	   2.47706	8.29173e+06	   76.5765	   15.3731	   2.47113	8.35899e+06	
         R10	   5466	    76.551	   15.3731	   2.47113	 8.5883e+06	    76.551	   15.3853	   2.48299	7.82076e+06	    76.568	   15.3853	   2.48299	8.39287e+06	    76.568	   15.3731	   2.47113	8.24239e+06	    76.551	   15.3792	   2.47706	8.20442e+06	   76.5595	   15.3853	   2.48299	8.10075e+06	    76.568	   15.3792	   2.47706	8.31591e+06	   76.5595	   15.3731	   2.47113	8.40654e+06	
         R10	   5467	    76.551	   15.3609	   2.45928	8.60863e+06	    76.551	   15.3731	   2.47113	 8.3261e+06	    76.568	   15.3731	   2.47113	8.51705e+06	    76.568	   15.3609	   2.45928	8.45901e+06	    76.551	    15.367	    2.4652	8.46399e+06	   76.5595	   15.3731	   2.47113	8.39823e+06	    76.568	    15.367	    2.4652	 8.4872e+06	   76.5595	   15.3609	   2.45928	8.52446e+06	
         R10	   5468	    76.551	   15.3366	   2.43557	9.10162e+06	    76.534	   15.3366	   2.43557	9.07778e+06	    76.534	   15.3487	   2.44742	8.74502e+06	    76.551	   15.3487	   2.44742	 8.7497e+06	   76.5425	   15.3366	   2.43557	9.05157e+06	    76.534	   15.3426	   2.44149	8.91121e+06	   76.5425	   15.3487	   2.44742	8.72001e+06	    76.551	   15.3426	   2.44149	8.92383e+06	
         R10	   5469	    76.568	   15.3487	   2.44742	8.78243e+06	    76.568	   15.3366	   2.43556	8.99192e+06	    76.551	   15.3366	   2.43557	9.04301e+06	    76.551	   15.3487	   2.44742	8.69532e+06	    76.568	   15.3426	   2.44149	 8.8861e+06	   76.5595	   15.3366	   2.43556	9.00834e+06	    76.551	   15.3426	   2.44149	8.86437e+06	   76.5595	   15.3487	   2.44742	8.71471e+06	
         R10	   5470	    76.602	   15.3609	   2.45927	8.49947e+06	    76.602	   15.3487	   2.44742	8.63688e+06	    76.585	   15.3487	   2.44742	 8.7248e+06	    76.585	   15.3609	   2.45927	8.51026e+06	    76.602	   15.3548	   2.45335	8.56754e+06	   76.5935	   15.3487	   2.44742	8.67839e+06	    76.585	   15.3548	   2.45335	8.61681e+06	   76.5935	   15.3609	   2.45927	8.50212e+06	
         R10	   5471	    76.585	   15.3731	   2.47113	8.34637e+06	    76.602	   15.3731	   2.47113	8.38269e+06	    76.602	   15.3609	   2.45927	 8.5053e+06	    76.585	   15.3609	   2.45927	8.56664e+06	   76.5935	   15.3731	   2.47113	8.36008e+06	    76.602	    15.367	    2.4652	 8.4437e+06	   76.5935	   15.3609	   2.45927	8.53331e+06	    76.585	    15.367	    2.4652	8.45575e+06	
         R10	   5472	    76.568	   15.3609	   2.45928	 8.6611e+06	    76.568	   15.3731	   2.47113	8.23562e+06	    76.585	   15.3731	   2.47113	8.47828e+06	    76.585	   15.3609	   2.45927	8.45556e+06	    76.568	    15.367	    2.4652	 8.4471e+06	   76.5765	   15.3731	   2.47113	8.34617e+06	    76.585	    15.367	    2.4652	8.46669e+06	   76.5765	   15.3609	   2.45927	8.55317e+06	
         R10	   5473	    76.568	   15.3487	   2.44742	8.61807e+06	    76.551	   15.3487	   2.44742	8.79574e+06	    76.551	   15.3609	   2.45928	8.59387e+06	    76.568	   15.3609	   2.45928	8.57869e+06	   76.5595	   15.3487	   2.44742	8.69978e+06	    76.551	   15.3548	   2.45335	8.69234e+06	   76.5595	   15.3609	   2.45928	8.57173e+06	    76.568	   15.3548	   2.45335	8.59824e+06	
         R10	   5474	    76.585	   15.3487	   2.44742	8.68236e+06	    76.568	   15.3487	   2.44742	8.74743e+06	    76.568	   15.3609	   2.45928	8.49418e+06	    76.585	   15.3609	   2.45927	8.59536e+06	   76.5765	   15.3487	   2.44742	 8.7069e+06	    76.568	   15.3548	   2.45335	8.61975e+06	   76.5765	   15.3609	   2.45927	8.54001e+06	    76.585	   15.3548	   2.45335	8.63775e+06	
         R10	   5475	    76.364	    15.147	       2.4	8.64873e+06	    76.364	     15.13	       2.4	8.78908e+06	    76.347	     15.13	       2.4	8.49142e+06	    76.347	    15.147	       2.4	8.34776e+06	    76.364	   15.1385	       2.4	 8.7185e+06	   76.3555	     15.13	       2.4	8.64003e+06	    76.347	   15.1385	       2.4	8.41926e+06	   76.3555	    15.147	       2.4	8.49793e+06	
         R10	   5476	    76.381	    15.147	       2.4	8.99626e+06	    76.381	     15.13	       2.4	9.12583e+06	    76.364	     15.13	       2.4	8.78894e+06	    76.364	    15.147	       2.4	8.64861e+06	    76.381	   15.1385	       2.4	9.06053e+06	   76.3725	     15.13	       2.4	8.95719e+06	    76.364	   15.1385	       2.4	8.71837e+06	   76.3725	    15.147	       2.4	8.82218e+06	
         R10	   5477	    76.398	    15.147	       2.4	9.39131e+06	    76.398	     15.13	       2.4	9.49684e+06	    76.381	     15.13	       2.4	9.12667e+06	    76.381	    15.147	       2.4	8.99663e+06	    76.398	   15.1385	       2.4	9.44346e+06	   76.3895	     15.13	       2.4	9.31156e+06	    76.381	   15.1385	       2.4	9.06114e+06	   76.3895	    15.147	       2.4	9.19374e+06	
         R10	   5478	    76.415	    15.147	       2.4	  9.824e+06	    76.415	     15.13	       2.4	9.89527e+06	    76.398	     15.13	       2.4	9.49813e+06	    76.398	    15.147	       2.4	9.39213e+06	    76.415	   15.1385	       2.4	9.85893e+06	   76.4065	     15.13	       2.4	9.69643e+06	    76.398	   15.1385	       2.4	 9.4445e+06	   76.4065	    15.147	       2.4	9.60777e+06	
         R10	   5479	    76.432	    15.147	       2.4	  1.028e+07	    76.432	     15.13	       2.4	 1.0304e+07	    76.415	     15.13	       2.4	9.89651e+06	    76.415	    15.147	       2.4	9.82558e+06	    76.432	   15.1385	       2.4	1.02913e+07	   76.4235	     15.13	       2.4	1.00998e+07	    76.415	   15.1385	       2.4	9.86034e+06	   76.4235	    15.147	       2.4	1.00523e+07	
         R10	   5480	    76.449	    15.147	       2.4	1.07371e+07	    76.449	     15.13	       2.4	1.07047e+07	    76.432	     15.13	       2.4	1.03095e+07	    76.432	    15.147	       2.4	1.02818e+07	    76.449	   15.1385	       2.4	1.07202e+07	   76.4405	     15.13	       2.4	1.05063e+07	    76.432	   15.1385	       2.4	1.02949e+07	   76.4405	    15.147	       2.4	1.05086e+07	
         R10	   5481	    76.466	    15.147	       2.4	1.11528e+07	    76.466	     15.13	       2.4	1.10877e+07	    76.449	     15.13	       2.4	1.07015e+07	    76.449	    15.147	       2.4	1.07412e+07	    76.466	   15.1385	       2.4	1.11198e+07	   76.4575	     15.13	       2.4	1.08937e+07	    76.449	   15.1385	       2.4	1.07207e+07	   76.4575	    15.147	       2.4	1.09457e+07	
         R10	   5482	    76.483	    15.147	       2.4	1.15125e+07	    76.483	     15.13	       2.4	1.13924e+07	    76.466	     15.13	       2.4	1.10872e+07	    76.466	    15.147	       2.4	1.11583e+07	    76.483	   15.1385	       2.4	1.14522e+07	   76.4745	     15.13	       2.4	1.12386e+07	    76.466	   15.1385	       2.4	1.11223e+07	   76.4745	    15.147	       2.4	1.13337e+07	
         R10	   5483	      76.5	    15.147	       2.4	1.17641e+07	      76.5	     15.13	       2.4	1.16498e+07	    76.483	     15.13	       2.4	1.13977e+07	    76.483	    15.147	       2.4	1.15121e+07	      76.5	   15.1385	       2.4	1.17068e+07	   76.4915	     15.13	       2.4	1.15225e+07	    76.483	   15.1385	       2.4	1.14547e+07	   76.4915	    15.147	       2.4	1.16363e+07	
         R10	   5484	      76.5	    15.164	       2.4	1.19161e+07	      76.5	    15.147	       2.4	1.17651e+07	    76.483	    15.147	       2.4	1.15099e+07	    76.483	    15.164	       2.4	1.16515e+07	      76.5	   15.1555	       2.4	1.18405e+07	   76.4915	    15.147	       2.4	1.16357e+07	    76.483	   15.1555	       2.4	1.15804e+07	   76.4915	    15.164	       2.4	1.17811e+07	
         R10	   5485	    76.483	    15.181	       2.4	1.18238e+07	      76.5	    15.181	       2.4	1.21177e+07	      76.5	    15.164	       2.4	1.19173e+07	    76.483	    15.164	       2.4	1.16498e+07	   76.4915	    15.181	       2.4	1.19664e+07	      76.5	   15.1725	       2.4	1.20175e+07	   76.4915	    15.164	       2.4	1.17809e+07	    76.483	   15.1725	       2.4	1.17364e+07	
         R10	   5486	    76.483	    15.198	       2.4	1.20287e+07	      76.5	    15.198	       2.4	1.23881e+07	      76.5	    15.181	       2.4	1.21201e+07	    76.483	    15.181	       2.4	1.18225e+07	   76.4915	    15.198	       2.4	1.22009e+07	      76.5	   15.1895	       2.4	 1.2254e+07	   76.4915	    15.181	       2.4	1.19669e+07	    76.483	   15.1895	       2.4	 1.1925e+07	
         R10	   5487	    76.483	    15.215	       2.4	1.22492e+07	      76.5	    15.215	       2.4	1.27518e+07	      76.5	    15.198	       2.4	1.23934e+07	    76.483	    15.198	       2.4	1.20286e+07	   76.4915	    15.215	       2.4	1.24869e+07	      76.5	   15.2065	       2.4	1.25724e+07	   76.4915	    15.198	       2.4	1.22035e+07	    76.483	   15.2065	       2.4	1.21381e+07	
         R10	   5488	    76.483	    15.232	       2.4	1.24257e+07	      76.5	    15.232	       2.4	1.32321e+07	      76.5	    15.215	       2.4	1.27633e+07	    76.483	    15.215	       2.4	1.22545e+07	   76.4915	    15.232	       2.4	 1.2803e+07	      76.5	   15.2235	       2.4	1.29975e+07	   76.4915	    15.215	       2.4	1.24954e+07	    76.483	   15.2235	       2.4	1.23388e+07	
         R10	   5489	    76.483	    15.249	       2.4	1.23984e+07	      76.5	    15.249	       2.4	1.38192e+07	      76.5	    15.232	       2.4	1.32575e+07	    76.483	    15.232	       2.4	1.24472e+07	   76.4915	    15.249	       2.4	1.30572e+07	      76.5	   15.2405	       2.4	1.35382e+07	   76.4915	    15.232	       2.4	1.28265e+07	    76.483	   15.2405	       2.4	  1.242e+07	
         R10	   5490	    76.483	    15.266	       2.4	1.18013e+07	      76.5	    15.266	       2.4	1.43276e+07	      76.5	    15.249	       2.4	1.38668e+07	    76.483	    15.249	       2.4	1.24618e+07	   76.4915	    15.266	       2.4	1.29711e+07	      76.5	   15.2575	       2.4	1.40964e+07	   76.4915	    15.249	       2.4	1.31121e+07	    76.483	   15.2575	       2.4	1.21236e+07	
         R10	   5491	    76.483	    15.283	       2.4	1.02568e+07	      76.5	    15.283	       2.4	1.45052e+07	      76.5	    15.266	       2.4	1.44207e+07	    76.483	    15.266	       2.4	1.19011e+07	   76.4915	    15.283	       2.4	1.21529e+07	      76.5	   15.2745	       2.4	1.44156e+07	   76.4915	    15.266	       2.4	1.30681e+07	    76.483	   15.2745	       2.4	1.09913e+07	
         R10	   5492	    76.483	      15.3	       2.4	1.09856e+07	      76.5	      15.3	       2.4	1.54877e+07	      76.5	    15.283	       2.4	1.41801e+07	    76.483	    15.283	       2.4	9.92727e+06	   76.4915	      15.3	       2.4	1.32182e+07	      76.5	   15.2915	       2.4	1.36211e+07	   76.4915	    15.283	       2.4	1.18018e+07	    76.483	   15.2915	       2.4	9.98452e+06	
         R10	   5493	    76.466	      15.3	       2.4	9.21726e+06	    76.483	      15.3	       2.4	1.13352e+07	    76.483	    15.283	       2.4	9.98877e+06	    76.466	    15.283	       2.4	8.16026e+06	   76.4745	      15.3	       2.4	1.01868e+07	    76.483	   15.2915	       2.4	1.02018e+07	   76.4745	    15.283	       2.4	9.07194e+06	    76.466	   15.2915	       2.4	8.56827e+06	
         R10	   5494	    76.449	    15.283	       2.4	7.78061e+06	    76.449	      15.3	       2.4	8.35434e+06	    76.466	      15.3	       2.4	9.41972e+06	    76.466	    15.283	       2.4	8.31927e+06	    76.449	   15.2915	       2.4	8.03194e+06	   76.4575	      15.3	       2.4	 8.8289e+06	    76.466	   15.2915	       2.4	8.74869e+06	   76.4575	    15.283	       2.4	8.04309e+06	
         R10	   5495	    76.432	    15.283	       2.4	 7.5913e+06	    76.432	      15.3	       2.4	8.02775e+06	    76.449	      15.3	       2.4	 8.4325e+06	    76.449	    15.283	       2.4	 7.8104e+06	    76.432	   15.2915	       2.4	7.79729e+06	   76.4405	      15.3	       2.4	8.20492e+06	    76.449	   15.2915	       2.4	8.08641e+06	   76.4405	    15.283	       2.4	7.69208e+06	
         R10	   5496	    76.415	    15.283	       2.4	7.50644e+06	    76.415	      15.3	       2.4	7.86502e+06	    76.432	      15.3	       2.4	8.04611e+06	    76.432	    15.283	       2.4	7.59623e+06	    76.415	   15.2915	       2.4	7.68085e+06	   76.4235	      15.3	       2.4	7.94442e+06	    76.432	   15.2915	       2.4	7.80898e+06	   76.4235	    15.283	       2.4	 7.5459e+06	
         R10	   5497	    76.398	    15.283	       2.4	7.45455e+06	    76.398	      15.3	       2.4	7.75002e+06	    76.415	      15.3	       2.4	  7.851e+06	    76.415	    15.283	       2.4	 7.5093e+06	    76.398	   15.2915	       2.4	7.60013e+06	   76.4065	      15.3	       2.4	7.79524e+06	    76.415	   15.2915	       2.4	7.67529e+06	   76.4065	    15.283	       2.4	7.47871e+06	
         R10	   5498	    76.381	    15.283	       2.4	7.41813e+06	    76.381	      15.3	       2.4	7.66747e+06	    76.398	      15.3	       2.4	7.73014e+06	    76.398	    15.283	       2.4	7.45725e+06	    76.381	   15.2915	       2.4	7.54172e+06	   76.3895	      15.3	       2.4	7.69569e+06	    76.398	   15.2915	       2.4	7.59155e+06	   76.3895	    15.283	       2.4	7.43573e+06	
         R10	   5499	    76.364	    15.283	       2.4	7.39445e+06	    76.364	      15.3	       2.4	7.60146e+06	    76.381	      15.3	       2.4	7.65903e+06	    76.381	    15.283	       2.4	7.42014e+06	    76.364	   15.2915	       2.4	7.49745e+06	   76.3725	      15.3	       2.4	7.62848e+06	    76.381	   15.2915	       2.4	7.53851e+06	   76.3725	    15.283	       2.4	7.40593e+06	
         R10	   5500	    76.347	    15.283	       2.4	7.37393e+06	    76.347	      15.3	       2.4	7.55438e+06	    76.364	      15.3	       2.4	7.60839e+06	    76.364	    15.283	       2.4	7.39182e+06	    76.347	   15.2915	       2.4	7.46393e+06	   76.3555	      15.3	       2.4	7.58023e+06	    76.364	   15.2915	       2.4	7.49961e+06	   76.3555	    15.283	       2.4	7.38186e+06	
         R10	   5501	     76.33	    15.283	       2.4	7.35564e+06	     76.33	      15.3	       2.4	7.52976e+06	    76.347	      15.3	       2.4	7.55692e+06	    76.347	    15.283	       2.4	7.37256e+06	     76.33	   15.2915	       2.4	7.44261e+06	   76.3385	      15.3	       2.4	7.54245e+06	    76.347	   15.2915	       2.4	7.46452e+06	   76.3385	    15.283	       2.4	7.36335e+06	
         R10	   5502	     76.33	    15.266	       2.4	7.28756e+06	     76.33	    15.283	       2.4	7.36009e+06	    76.347	    15.283	       2.4	7.37848e+06	    76.347	    15.266	       2.4	7.31277e+06	     76.33	   15.2745	       2.4	 7.3237e+06	   76.3385	    15.283	       2.4	7.36853e+06	    76.347	   15.2745	       2.4	7.34531e+06	   76.3385	    15.266	       2.4	7.29941e+06	
         R10	   5503	    76.347	    15.249	       2.4	7.35032e+06	     76.33	    15.249	       2.4	7.29119e+06	     76.33	    15.266	       2.4	7.28954e+06	    76.347	    15.266	       2.4	7.31411e+06	   76.3385	    15.249	       2.4	7.31992e+06	     76.33	   15.2575	       2.4	7.29018e+06	   76.3385	    15.266	       2.4	7.30108e+06	    76.347	   15.2575	       2.4	 7.3319e+06	
         R10	   5504	    76.347	    15.232	       2.4	7.46589e+06	     76.33	    15.232	       2.4	7.36259e+06	     76.33	    15.249	       2.4	7.29127e+06	    76.347	    15.249	       2.4	7.35297e+06	   76.3385	    15.232	       2.4	7.41334e+06	     76.33	   15.2405	       2.4	7.32674e+06	   76.3385	    15.249	       2.4	7.32127e+06	    76.347	   15.2405	       2.4	 7.4092e+06	
         R10	   5505	    76.347	    15.215	       2.4	7.63155e+06	     76.33	    15.215	       2.4	7.47998e+06	     76.33	    15.232	       2.4	7.36279e+06	    76.347	    15.232	       2.4	7.46824e+06	   76.3385	    15.215	       2.4	7.55488e+06	     76.33	   15.2235	       2.4	7.42123e+06	   76.3385	    15.232	       2.4	 7.4146e+06	    76.347	   15.2235	       2.4	7.54976e+06	
         R10	   5506	    76.347	    15.198	       2.4	7.81856e+06	     76.33	    15.198	       2.4	7.62647e+06	     76.33	    15.215	       2.4	7.48089e+06	    76.347	    15.215	       2.4	7.63352e+06	   76.3385	    15.198	       2.4	7.72173e+06	     76.33	   15.2065	       2.4	7.55353e+06	   76.3385	    15.215	       2.4	7.55631e+06	    76.347	   15.2065	       2.4	7.72591e+06	
         R10	   5507	    76.347	    15.181	       2.4	8.00779e+06	     76.33	    15.181	       2.4	7.78351e+06	     76.33	    15.198	       2.4	7.62771e+06	    76.347	    15.198	       2.4	7.81948e+06	   76.3385	    15.181	       2.4	  7.895e+06	     76.33	   15.1895	       2.4	7.70545e+06	   76.3385	    15.198	       2.4	7.72282e+06	    76.347	   15.1895	       2.4	7.91346e+06	
         R10	   5508	    76.347	    15.164	       2.4	8.18627e+06	     76.33	    15.164	       2.4	7.94261e+06	     76.33	    15.181	       2.4	7.78572e+06	    76.347	    15.181	       2.4	8.00841e+06	   76.3385	    15.164	       2.4	8.06395e+06	     76.33	   15.1725	       2.4	7.86396e+06	   76.3385	    15.181	       2.4	7.89642e+06	    76.347	   15.1725	       2.4	 8.0971e+06	
         R10	   5509	    76.347	    15.147	       2.4	8.34782e+06	    76.347	     15.13	       2.4	8.49194e+06	     76.33	     15.13	       2.4	8.23092e+06	     76.33	    15.147	       2.4	8.09352e+06	    76.347	   15.1385	       2.4	8.41955e+06	   76.3385	     15.13	       2.4	8.36117e+06	     76.33	   15.1385	       2.4	8.16196e+06	   76.3385	    15.147	       2.4	 8.2203e+06	
         R10	   5510	    76.381	    15.164	       2.4	8.83571e+06	    76.381	    15.147	       2.4	8.99705e+06	    76.364	    15.147	       2.4	8.64871e+06	    76.364	    15.164	       2.4	8.48164e+06	    76.381	   15.1555	       2.4	8.91587e+06	   76.3725	    15.147	       2.4	8.82262e+06	    76.364	   15.1555	       2.4	 8.5648e+06	   76.3725	    15.164	       2.4	 8.6583e+06	
         R10	   5511	    76.398	    15.164	       2.4	9.24973e+06	    76.398	    15.147	       2.4	9.39189e+06	    76.381	    15.147	       2.4	8.99734e+06	    76.381	    15.164	       2.4	8.83556e+06	    76.398	   15.1555	       2.4	9.32012e+06	   76.3895	    15.147	       2.4	9.19438e+06	    76.381	   15.1555	       2.4	8.91593e+06	   76.3895	    15.164	       2.4	9.04233e+06	
         R10	   5512	    76.415	    15.164	       2.4	9.71964e+06	    76.415	    15.147	       2.4	9.82506e+06	    76.398	    15.147	       2.4	9.39325e+06	    76.398	    15.164	       2.4	9.25044e+06	    76.415	   15.1555	       2.4	 9.7715e+06	   76.4065	    15.147	       2.4	9.60886e+06	    76.398	   15.1555	       2.4	9.32116e+06	   76.4065	    15.164	       2.4	9.48471e+06	
         R10	   5513	    76.432	    15.164	       2.4	1.02296e+07	    76.432	    15.147	       2.4	1.02821e+07	    76.415	    15.147	       2.4	9.82707e+06	    76.415	    15.164	       2.4	9.72143e+06	    76.432	   15.1555	       2.4	1.02549e+07	   76.4235	    15.147	       2.4	1.00541e+07	    76.415	   15.1555	       2.4	 9.7734e+06	   76.4235	    15.164	       2.4	  9.975e+06	
         R10	   5514	    76.449	    15.164	       2.4	1.07527e+07	    76.449	    15.147	       2.4	1.07357e+07	    76.432	    15.147	       2.4	1.02842e+07	    76.432	    15.164	       2.4	1.02331e+07	    76.449	   15.1555	       2.4	1.07433e+07	   76.4405	    15.147	       2.4	1.05091e+07	    76.432	   15.1555	       2.4	1.02577e+07	   76.4405	    15.164	       2.4	1.04919e+07	
         R10	   5515	    76.466	    15.164	       2.4	1.12428e+07	    76.466	    15.147	       2.4	1.11568e+07	    76.449	    15.147	       2.4	1.07415e+07	    76.449	    15.164	       2.4	1.07568e+07	    76.466	   15.1555	       2.4	1.11992e+07	   76.4575	    15.147	       2.4	1.09478e+07	    76.449	   15.1555	       2.4	1.07483e+07	   76.4575	    15.164	       2.4	1.09981e+07	
         R10	   5516	    76.483	    15.164	       2.4	1.16477e+07	    76.483	    15.147	       2.4	1.15099e+07	    76.466	    15.147	       2.4	  1.116e+07	    76.466	    15.164	       2.4	1.12479e+07	    76.483	   15.1555	       2.4	1.15785e+07	   76.4745	    15.147	       2.4	1.13332e+07	    76.466	   15.1555	       2.4	1.12034e+07	   76.4745	    15.164	       2.4	1.14453e+07	
         R10	   5517	    76.483	    15.181	       2.4	1.18167e+07	    76.483	    15.164	       2.4	1.16471e+07	    76.466	    15.164	       2.4	1.12497e+07	    76.466	    15.181	       2.4	1.13367e+07	    76.483	   15.1725	       2.4	1.17315e+07	   76.4745	    15.164	       2.4	 1.1446e+07	    76.466	   15.1725	       2.4	1.12923e+07	   76.4745	    15.181	       2.4	1.15731e+07	
         R10	   5518	    76.466	    15.198	       2.4	1.14049e+07	    76.483	    15.198	       2.4	1.20147e+07	    76.483	    15.181	       2.4	1.18167e+07	    76.466	    15.181	       2.4	1.13405e+07	   76.4745	    15.198	       2.4	1.17044e+07	    76.483	   15.1895	       2.4	1.19151e+07	   76.4745	    15.181	       2.4	 1.1575e+07	    76.466	   15.1895	       2.4	1.13714e+07	
         R10	   5519	    76.466	    15.215	       2.4	1.14051e+07	    76.483	    15.215	       2.4	1.22226e+07	    76.483	    15.198	       2.4	1.20155e+07	    76.466	    15.198	       2.4	1.14132e+07	   76.4745	    15.215	       2.4	1.18059e+07	    76.483	   15.2065	       2.4	1.21182e+07	   76.4745	    15.198	       2.4	 1.1709e+07	    76.466	   15.2065	       2.4	1.14073e+07	
         R10	   5520	    76.466	    15.232	       2.4	1.12423e+07	    76.483	    15.232	       2.4	1.23791e+07	    76.483	    15.215	       2.4	1.22253e+07	    76.466	    15.215	       2.4	1.14219e+07	   76.4745	    15.232	       2.4	1.17995e+07	    76.483	   15.2235	       2.4	1.23007e+07	   76.4745	    15.215	       2.4	1.18155e+07	    76.466	   15.2235	       2.4	1.13294e+07	
         R10	   5521	    76.466	    15.249	       2.4	1.07534e+07	    76.483	    15.249	       2.4	1.23176e+07	    76.483	    15.232	       2.4	1.23852e+07	    76.466	    15.232	       2.4	1.12704e+07	   76.4745	    15.249	       2.4	1.15212e+07	    76.483	   15.2405	       2.4	 1.2349e+07	   76.4745	    15.232	       2.4	1.18164e+07	    76.466	   15.2405	       2.4	1.10081e+07	
         R10	   5522	    76.466	    15.266	       2.4	9.71887e+06	    76.483	    15.266	       2.4	1.17205e+07	    76.483	    15.249	       2.4	1.23296e+07	    76.466	    15.249	       2.4	1.07803e+07	   76.4745	    15.266	       2.4	1.07073e+07	    76.483	   15.2575	       2.4	1.20175e+07	   76.4745	    15.249	       2.4	1.15405e+07	    76.466	   15.2575	       2.4	1.02429e+07	
         R10	   5523	    76.466	    15.283	       2.4	8.55199e+06	    76.483	    15.283	       2.4	1.00819e+07	    76.483	    15.266	       2.4	1.16944e+07	    76.466	    15.266	       2.4	9.67127e+06	   76.4745	    15.283	       2.4	9.31291e+06	    76.483	   15.2745	       2.4	1.08349e+07	   76.4745	    15.266	       2.4	1.06707e+07	    76.466	   15.2745	       2.4	 9.0651e+06	
         R10	   5524	    76.449	    15.283	       2.4	7.86612e+06	    76.466	    15.283	       2.4	8.49056e+06	    76.466	    15.266	       2.4	9.70322e+06	    76.449	    15.266	       2.4	8.50453e+06	   76.4575	    15.283	       2.4	8.17087e+06	    76.466	   15.2745	       2.4	9.05176e+06	   76.4575	    15.266	       2.4	9.10355e+06	    76.449	   15.2745	       2.4	 8.1651e+06	
         R10	   5525	    76.432	    15.266	       2.4	7.93583e+06	    76.432	    15.283	       2.4	7.62721e+06	    76.449	    15.283	       2.4	7.85828e+06	    76.449	    15.266	       2.4	8.55806e+06	    76.432	   15.2745	       2.4	7.77125e+06	   76.4405	    15.283	       2.4	7.73502e+06	    76.449	   15.2745	       2.4	8.18822e+06	   76.4405	    15.266	       2.4	8.24408e+06	
         R10	   5526	    76.415	    15.266	       2.4	7.65328e+06	    76.415	    15.283	       2.4	7.51637e+06	    76.432	    15.283	       2.4	7.62762e+06	    76.432	    15.266	       2.4	7.96321e+06	    76.415	   15.2745	       2.4	7.57988e+06	   76.4235	    15.283	       2.4	 7.5667e+06	    76.432	   15.2745	       2.4	7.78526e+06	   76.4235	    15.266	       2.4	7.80504e+06	
         R10	   5527	    76.398	    15.266	       2.4	7.49893e+06	    76.398	    15.283	       2.4	7.46091e+06	    76.415	    15.283	       2.4	7.52242e+06	    76.415	    15.266	       2.4	7.66308e+06	    76.398	   15.2745	       2.4	7.47739e+06	   76.4065	    15.283	       2.4	7.48852e+06	    76.415	   15.2745	       2.4	7.58781e+06	   76.4065	    15.266	       2.4	7.57845e+06	
         R10	   5528	    76.381	    15.266	       2.4	7.40879e+06	    76.381	    15.283	       2.4	7.42339e+06	    76.398	    15.283	       2.4	7.46682e+06	    76.398	    15.266	       2.4	7.50155e+06	    76.381	   15.2745	       2.4	7.41482e+06	   76.3895	    15.283	       2.4	7.44317e+06	    76.398	   15.2745	       2.4	7.48162e+06	   76.3895	    15.266	       2.4	7.45331e+06	
         R10	   5529	    76.364	    15.266	       2.4	7.35037e+06	    76.364	    15.283	       2.4	 7.3995e+06	    76.381	    15.283	       2.4	7.42532e+06	    76.381	    15.266	       2.4	7.40916e+06	    76.364	   15.2745	       2.4	7.37429e+06	   76.3725	    15.283	       2.4	7.41107e+06	    76.381	   15.2745	       2.4	7.41595e+06	   76.3725	    15.266	       2.4	7.37844e+06	
         R10	   5530	    76.347	    15.266	       2.4	 7.3129e+06	    76.347	    15.283	       2.4	7.37796e+06	    76.364	    15.283	       2.4	7.39735e+06	    76.364	    15.266	       2.4	7.35121e+06	    76.347	   15.2745	       2.4	7.34512e+06	   76.3555	    15.283	       2.4	7.38665e+06	    76.364	   15.2745	       2.4	7.37364e+06	   76.3555	    15.266	       2.4	7.33109e+06	
         R10	   5531	    76.347	    15.249	       2.4	7.34961e+06	    76.347	    15.266	       2.4	7.31416e+06	    76.364	    15.266	       2.4	7.35421e+06	    76.364	    15.249	       2.4	7.43725e+06	    76.347	   15.2575	       2.4	7.33157e+06	   76.3555	    15.266	       2.4	7.33321e+06	    76.364	   15.2575	       2.4	 7.3952e+06	   76.3555	    15.249	       2.4	7.39234e+06	
         R10	   5532	    76.364	    15.232	       2.4	7.61469e+06	    76.347	    15.232	       2.4	7.46449e+06	    76.347	    15.249	       2.4	7.35197e+06	    76.364	    15.249	       2.4	7.44047e+06	   76.3555	    15.232	       2.4	7.53847e+06	    76.347	   15.2405	       2.4	  7.408e+06	   76.3555	    15.249	       2.4	7.39512e+06	    76.364	   15.2405	       2.4	7.52731e+06	
         R10	   5533	    76.364	    15.215	       2.4	7.83764e+06	    76.347	    15.215	       2.4	7.62977e+06	    76.347	    15.232	       2.4	7.46753e+06	    76.364	    15.232	       2.4	 7.6176e+06	   76.3555	    15.215	       2.4	7.73269e+06	    76.347	   15.2235	       2.4	7.54851e+06	   76.3555	    15.232	       2.4	7.54144e+06	    76.364	   15.2235	       2.4	7.72752e+06	
         R10	   5534	    76.364	    15.198	       2.4	8.06952e+06	    76.347	    15.198	       2.4	7.81709e+06	    76.347	    15.215	       2.4	7.63227e+06	    76.364	    15.215	       2.4	7.83968e+06	   76.3555	    15.198	       2.4	7.94248e+06	    76.347	   15.2065	       2.4	7.72455e+06	   76.3555	    15.215	       2.4	7.73496e+06	    76.364	   15.2065	       2.4	7.95449e+06	
         R10	   5535	    76.364	    15.181	       2.4	8.28793e+06	    76.347	    15.181	       2.4	8.00677e+06	    76.347	    15.198	       2.4	7.81875e+06	    76.364	    15.198	       2.4	8.07078e+06	   76.3555	    15.181	       2.4	8.14673e+06	    76.347	   15.1895	       2.4	7.91259e+06	   76.3555	    15.198	       2.4	7.94394e+06	    76.364	   15.1895	       2.4	8.17914e+06	
         R10	   5536	    76.347	    15.147	       2.4	8.34813e+06	     76.33	    15.147	       2.4	8.09345e+06	     76.33	    15.164	       2.4	7.94258e+06	    76.347	    15.164	       2.4	8.18685e+06	   76.3385	    15.147	       2.4	8.22042e+06	     76.33	   15.1555	       2.4	8.01777e+06	   76.3385	    15.164	       2.4	8.06422e+06	    76.347	   15.1555	       2.4	 8.2672e+06	
         R10	   5537	    76.364	    15.164	       2.4	8.48208e+06	    76.364	    15.147	       2.4	8.64863e+06	    76.347	    15.147	       2.4	8.34773e+06	    76.347	    15.164	       2.4	8.18629e+06	    76.364	   15.1555	       2.4	8.56497e+06	   76.3555	    15.147	       2.4	8.49786e+06	    76.347	   15.1555	       2.4	8.26672e+06	   76.3555	    15.164	       2.4	8.33374e+06	
         R10	   5538	    76.398	    15.181	       2.4	9.06115e+06	    76.398	    15.164	       2.4	9.25054e+06	    76.381	    15.164	       2.4	  8.836e+06	    76.381	    15.181	       2.4	8.63596e+06	    76.398	   15.1725	       2.4	9.15516e+06	   76.3895	    15.164	       2.4	9.04296e+06	    76.381	   15.1725	       2.4	8.73552e+06	   76.3895	    15.181	       2.4	8.84812e+06	
         R10	   5539	    76.415	    15.181	       2.4	9.56389e+06	    76.415	    15.164	       2.4	9.72083e+06	    76.398	    15.164	       2.4	9.25164e+06	    76.398	    15.181	       2.4	9.06133e+06	    76.415	   15.1725	       2.4	9.64141e+06	   76.4065	    15.164	       2.4	 9.4859e+06	    76.398	   15.1725	       2.4	9.15579e+06	   76.4065	    15.181	       2.4	9.31223e+06	
         R10	   5540	    76.432	    15.181	       2.4	 1.0134e+07	    76.432	    15.164	       2.4	1.02317e+07	    76.415	    15.164	       2.4	9.72344e+06	    76.415	    15.181	       2.4	 9.5653e+06	    76.432	   15.1725	       2.4	1.01817e+07	   76.4235	    15.164	       2.4	9.97702e+06	    76.415	   15.1725	       2.4	9.64341e+06	   76.4235	    15.181	       2.4	 9.8491e+06	
         R10	   5541	    76.449	    15.181	       2.4	1.07409e+07	    76.449	    15.164	       2.4	1.07541e+07	    76.432	    15.164	       2.4	1.02359e+07	    76.432	    15.181	       2.4	1.01376e+07	    76.449	   15.1725	       2.4	1.07463e+07	   76.4405	    15.164	       2.4	 1.0494e+07	    76.432	   15.1725	       2.4	1.01856e+07	   76.4405	    15.181	       2.4	1.04381e+07	
         R10	   5542	    76.466	    15.181	       2.4	1.13284e+07	    76.466	    15.164	       2.4	1.12446e+07	    76.449	    15.164	       2.4	1.07592e+07	    76.449	    15.181	       2.4	1.07474e+07	    76.466	   15.1725	       2.4	1.12856e+07	   76.4575	    15.164	       2.4	1.10001e+07	    76.449	   15.1725	       2.4	1.07521e+07	   76.4575	    15.181	       2.4	1.10357e+07	
         R10	   5543	    76.466	    15.198	       2.4	 1.1392e+07	    76.466	    15.181	       2.4	1.13313e+07	    76.449	    15.181	       2.4	1.07519e+07	    76.449	    15.198	       2.4	1.06787e+07	    76.466	   15.1895	       2.4	1.13604e+07	   76.4575	    15.181	       2.4	1.10393e+07	    76.449	   15.1895	       2.4	1.07137e+07	   76.4575	    15.198	       2.4	1.10326e+07	
         R10	   5544	    76.449	    15.215	       2.4	1.04996e+07	    76.466	    15.215	       2.4	1.13864e+07	    76.466	    15.198	       2.4	1.13973e+07	    76.449	    15.198	       2.4	1.06862e+07	   76.4575	    15.215	       2.4	1.09399e+07	    76.466	   15.2065	       2.4	  1.139e+07	   76.4575	    15.198	       2.4	1.10389e+07	    76.449	   15.2065	       2.4	1.05909e+07	
         R10	   5545	    76.449	    15.232	       2.4	1.01315e+07	    76.466	    15.232	       2.4	1.12184e+07	    76.466	    15.215	       2.4	1.13952e+07	    76.449	    15.215	       2.4	1.05095e+07	   76.4575	    15.232	       2.4	1.06721e+07	    76.466	   15.2235	       2.4	1.13042e+07	   76.4575	    15.215	       2.4	1.09491e+07	    76.449	   15.2235	       2.4	1.03184e+07	
         R10	   5546	    76.449	    15.249	       2.4	9.48753e+06	    76.466	    15.249	       2.4	1.07286e+07	    76.466	    15.232	       2.4	1.12307e+07	    76.449	    15.232	       2.4	1.01394e+07	   76.4575	    15.249	       2.4	1.01064e+07	    76.466	   15.2405	       2.4	1.09766e+07	   76.4575	    15.232	       2.4	1.06822e+07	    76.449	   15.2405	       2.4	9.81176e+06	
         R10	   5547	    76.449	    15.266	       2.4	8.57807e+06	    76.466	    15.266	       2.4	9.73699e+06	    76.466	    15.249	       2.4	1.07361e+07	    76.449	    15.249	       2.4	9.47454e+06	   76.4575	    15.266	       2.4	9.15678e+06	    76.466	   15.2575	       2.4	1.02304e+07	   76.4575	    15.249	       2.4	1.01037e+07	    76.449	   15.2575	       2.4	9.02322e+06	
         R10	   5548	    76.432	    15.266	       2.4	7.97985e+06	    76.449	    15.266	       2.4	8.59359e+06	    76.449	    15.249	       2.4	9.48181e+06	    76.432	    15.249	       2.4	 8.6196e+06	   76.4405	    15.266	       2.4	8.28385e+06	    76.449	   15.2575	       2.4	9.03457e+06	   76.4405	    15.249	       2.4	9.04981e+06	    76.432	   15.2575	       2.4	8.29773e+06	
         R10	   5549	    76.415	    15.249	       2.4	8.09203e+06	    76.415	    15.266	       2.4	7.67475e+06	    76.432	    15.266	       2.4	7.99108e+06	    76.432	    15.249	       2.4	8.63488e+06	    76.415	   15.2575	       2.4	7.88178e+06	   76.4235	    15.266	       2.4	7.82963e+06	    76.432	   15.2575	       2.4	8.31099e+06	   76.4235	    15.249	       2.4	8.36159e+06	
         R10	   5550	    76.398	    15.249	       2.4	7.76797e+06	    76.398	    15.266	       2.4	7.50965e+06	    76.415	    15.266	       2.4	7.67833e+06	    76.415	    15.249	       2.4	 8.1037e+06	    76.398	   15.2575	       2.4	7.63759e+06	   76.4065	    15.266	       2.4	7.59142e+06	    76.415	   15.2575	       2.4	7.88944e+06	   76.4065	    15.249	       2.4	7.93376e+06	
         R10	   5551	    76.381	    15.249	       2.4	 7.5656e+06	    76.381	    15.266	       2.4	7.41327e+06	    76.398	    15.266	       2.4	7.51057e+06	    76.398	    15.249	       2.4	7.77478e+06	    76.381	   15.2575	       2.4	7.48859e+06	   76.3895	    15.266	       2.4	7.46004e+06	    76.398	   15.2575	       2.4	7.64148e+06	   76.3895	    15.249	       2.4	7.66841e+06	
         R10	   5552	    76.364	    15.249	       2.4	7.43564e+06	    76.364	    15.266	       2.4	7.35302e+06	    76.381	    15.266	       2.4	 7.4143e+06	    76.381	    15.249	       2.4	7.56911e+06	    76.364	   15.2575	       2.4	 7.3938e+06	   76.3725	    15.266	       2.4	7.38232e+06	    76.381	   15.2575	       2.4	7.49087e+06	   76.3725	    15.249	       2.4	7.50097e+06	
         R10	   5553	    76.364	    15.232	       2.4	7.61227e+06	    76.364	    15.249	       2.4	7.43952e+06	    76.381	    15.249	       2.4	7.57419e+06	    76.381	    15.232	       2.4	7.82912e+06	    76.364	   15.2405	       2.4	7.52563e+06	   76.3725	    15.249	       2.4	7.50544e+06	    76.381	   15.2405	       2.4	 7.7014e+06	   76.3725	    15.232	       2.4	7.71936e+06	
         R10	   5554	    76.381	    15.215	       2.4	8.11968e+06	    76.364	    15.215	       2.4	7.83536e+06	    76.364	    15.232	       2.4	7.61609e+06	    76.381	    15.232	       2.4	7.83307e+06	   76.3725	    15.215	       2.4	7.97643e+06	    76.364	   15.2235	       2.4	7.72562e+06	   76.3725	    15.232	       2.4	7.72324e+06	    76.381	   15.2235	       2.4	7.97632e+06	
         R10	   5555	    76.381	    15.198	       2.4	8.39587e+06	    76.364	    15.198	       2.4	8.06789e+06	    76.364	    15.215	       2.4	 7.8382e+06	    76.381	    15.215	       2.4	8.12198e+06	   76.3725	    15.198	       2.4	8.23108e+06	    76.364	   15.2065	       2.4	7.95293e+06	   76.3725	    15.215	       2.4	7.97901e+06	    76.381	   15.2065	       2.4	8.25877e+06	
         R10	   5556	    76.364	    15.164	       2.4	8.48202e+06	    76.347	    15.164	       2.4	8.18572e+06	    76.347	    15.181	       2.4	8.00747e+06	    76.364	    15.181	       2.4	8.28849e+06	   76.3555	    15.164	       2.4	8.33342e+06	    76.347	   15.1725	       2.4	8.09635e+06	   76.3555	    15.181	       2.4	8.14735e+06	    76.364	   15.1725	       2.4	8.38493e+06	
         R10	   5557	    76.381	    15.181	       2.4	 8.6366e+06	    76.381	    15.164	       2.4	8.83597e+06	    76.364	    15.164	       2.4	8.48153e+06	    76.364	    15.181	       2.4	8.28771e+06	    76.381	   15.1725	       2.4	8.73582e+06	   76.3725	    15.164	       2.4	8.65837e+06	    76.364	   15.1725	       2.4	 8.3843e+06	   76.3725	    15.181	       2.4	 8.4616e+06	
         R10	   5558	    76.415	    15.198	       2.4	 9.3368e+06	    76.415	    15.181	       2.4	9.56528e+06	    76.398	    15.181	       2.4	9.06213e+06	    76.398	    15.198	       2.4	8.81395e+06	    76.415	   15.1895	       2.4	 9.4501e+06	   76.4065	    15.181	       2.4	9.31331e+06	    76.398	   15.1895	       2.4	8.93746e+06	   76.4065	    15.198	       2.4	9.07486e+06	
         R10	   5559	    76.432	    15.198	       2.4	9.96363e+06	    76.432	    15.181	       2.4	1.01363e+07	    76.415	    15.181	       2.4	9.56753e+06	    76.415	    15.198	       2.4	 9.3374e+06	    76.432	   15.1895	       2.4	1.00486e+07	   76.4235	    15.181	       2.4	9.85139e+06	    76.415	   15.1895	       2.4	9.45151e+06	   76.4235	    15.198	       2.4	9.64999e+06	
         R10	   5560	    76.449	    15.198	       2.4	1.06707e+07	    76.449	    15.181	       2.4	1.07436e+07	    76.432	    15.181	       2.4	1.01415e+07	    76.432	    15.198	       2.4	9.96703e+06	    76.449	   15.1895	       2.4	1.07056e+07	   76.4405	    15.181	       2.4	1.04414e+07	    76.432	   15.1895	       2.4	1.00529e+07	   76.4405	    15.198	       2.4	1.03177e+07	
         R10	   5561	    76.449	    15.215	       2.4	1.04911e+07	    76.449	    15.198	       2.4	1.06747e+07	    76.432	    15.198	       2.4	9.97172e+06	    76.432	    15.215	       2.4	9.68311e+06	    76.449	   15.2065	       2.4	 1.0581e+07	   76.4405	    15.198	       2.4	1.03221e+07	    76.432	   15.2065	       2.4	9.82603e+06	   76.4405	    15.215	       2.4	1.00861e+07	
         R10	   5562	    76.432	    15.232	       2.4	9.24393e+06	    76.449	    15.232	       2.4	1.01256e+07	    76.449	    15.215	       2.4	1.04958e+07	    76.432	    15.215	       2.4	9.68655e+06	   76.4405	    15.232	       2.4	9.68406e+06	    76.449	   15.2235	       2.4	1.03087e+07	   76.4405	    15.215	       2.4	1.00902e+07	    76.432	   15.2235	       2.4	9.46428e+06	
         R10	   5563	    76.432	    15.249	       2.4	8.64138e+06	    76.449	    15.249	       2.4	9.48865e+06	    76.449	    15.232	       2.4	1.01283e+07	    76.432	    15.232	       2.4	9.24032e+06	   76.4405	    15.249	       2.4	 9.0641e+06	    76.449	   15.2405	       2.4	  9.807e+06	   76.4405	    15.232	       2.4	9.68365e+06	    76.432	   15.2405	       2.4	8.94053e+06	
         R10	   5564	    76.415	    15.249	       2.4	8.10855e+06	    76.432	    15.249	       2.4	8.64731e+06	    76.432	    15.232	       2.4	9.24367e+06	    76.415	    15.232	       2.4	8.58877e+06	   76.4235	    15.249	       2.4	8.37606e+06	    76.432	   15.2405	       2.4	8.94518e+06	   76.4235	    15.232	       2.4	8.91529e+06	    76.415	   15.2405	       2.4	8.34859e+06	
         R10	   5565	    76.398	    15.232	       2.4	8.13586e+06	    76.398	    15.249	       2.4	7.77901e+06	    76.415	    15.249	       2.4	8.11425e+06	    76.415	    15.232	       2.4	 8.5952e+06	    76.398	   15.2405	       2.4	7.95727e+06	   76.4065	    15.249	       2.4	7.94456e+06	    76.415	   15.2405	       2.4	8.35466e+06	   76.4065	    15.232	       2.4	8.36416e+06	
         R10	   5566	    76.381	    15.232	       2.4	7.82528e+06	    76.381	    15.249	       2.4	7.57221e+06	    76.398	    15.249	       2.4	7.78261e+06	    76.398	    15.232	       2.4	8.14131e+06	    76.381	   15.2405	       2.4	7.69849e+06	   76.3895	    15.249	       2.4	7.67562e+06	    76.398	   15.2405	       2.4	 7.9618e+06	   76.3895	    15.232	       2.4	7.98183e+06	
         R10	   5567	    76.381	    15.215	       2.4	8.11669e+06	    76.381	    15.232	       2.4	7.83076e+06	    76.398	    15.232	       2.4	8.14602e+06	    76.398	    15.215	       2.4	8.50363e+06	    76.381	   15.2235	       2.4	7.97367e+06	   76.3895	    15.232	       2.4	7.98692e+06	    76.398	   15.2235	       2.4	8.32478e+06	   76.3895	    15.215	       2.4	8.30912e+06	
         R10	   5568	    76.381	    15.181	       2.4	8.63644e+06	    76.364	    15.181	       2.4	8.28691e+06	    76.364	    15.198	       2.4	8.06958e+06	    76.381	    15.198	       2.4	8.39684e+06	   76.3725	    15.181	       2.4	8.46113e+06	    76.364	   15.1895	       2.4	8.17803e+06	   76.3725	    15.198	       2.4	8.23242e+06	    76.381	   15.1895	       2.4	8.51631e+06	
         R10	   5569	    76.398	    15.198	       2.4	8.81466e+06	    76.398	    15.181	       2.4	9.06167e+06	    76.381	    15.181	       2.4	8.63575e+06	    76.381	    15.198	       2.4	8.39557e+06	    76.398	   15.1895	       2.4	8.93759e+06	   76.3895	    15.181	       2.4	8.84826e+06	    76.381	   15.1895	       2.4	8.51532e+06	   76.3895	    15.198	       2.4	8.60444e+06	
         R10	   5570	    76.432	    15.215	       2.4	 9.6809e+06	    76.432	    15.198	       2.4	9.96636e+06	    76.415	    15.198	       2.4	9.33894e+06	    76.415	    15.215	       2.4	9.01698e+06	    76.432	   15.2065	       2.4	9.82229e+06	   76.4235	    15.198	       2.4	9.65212e+06	    76.415	   15.2065	       2.4	9.17724e+06	   76.4235	    15.215	       2.4	9.34837e+06	
         R10	   5571	    76.415	    15.232	       2.4	8.59631e+06	    76.432	    15.232	       2.4	9.24559e+06	    76.432	    15.215	       2.4	9.68286e+06	    76.415	    15.215	       2.4	9.01572e+06	   76.4235	    15.232	       2.4	8.92002e+06	    76.432	   15.2235	       2.4	 9.4633e+06	   76.4235	    15.215	       2.4	9.34871e+06	    76.415	   15.2235	       2.4	8.80576e+06	
         R10	   5572	    76.398	    15.215	       2.4	8.50059e+06	    76.398	    15.232	       2.4	8.14301e+06	    76.415	    15.232	       2.4	8.59978e+06	    76.415	    15.215	       2.4	9.01734e+06	    76.398	   15.2235	       2.4	8.32175e+06	   76.4065	    15.232	       2.4	8.37003e+06	    76.415	   15.2235	       2.4	 8.8083e+06	   76.4065	    15.215	       2.4	8.75815e+06	
         R10	   5573	    76.398	    15.198	       2.4	8.81436e+06	    76.381	    15.198	       2.4	8.39412e+06	    76.381	    15.215	       2.4	8.12005e+06	    76.398	    15.215	       2.4	8.50558e+06	   76.3895	    15.198	       2.4	8.60356e+06	    76.381	   15.2065	       2.4	8.25693e+06	   76.3895	    15.215	       2.4	8.31179e+06	    76.398	   15.2065	       2.4	8.65966e+06	
         R10	   5574	    76.415	    15.198	       2.4	9.33773e+06	    76.398	    15.198	       2.4	8.81349e+06	    76.398	    15.215	       2.4	8.50367e+06	    76.415	    15.215	       2.4	 9.0181e+06	   76.4065	    15.198	       2.4	9.07509e+06	    76.398	   15.2065	       2.4	8.65826e+06	   76.4065	    15.215	       2.4	8.76008e+06	    76.415	   15.2065	       2.4	 9.1772e+06	
         R10	   5575	    76.534	    15.147	       2.4	1.08022e+07	    76.534	     15.13	       2.4	1.07307e+07	    76.517	     15.13	       2.4	1.10509e+07	    76.517	    15.147	       2.4	1.11558e+07	    76.534	   15.1385	       2.4	 1.0766e+07	   76.5255	     15.13	       2.4	1.08896e+07	    76.517	   15.1385	       2.4	1.11031e+07	   76.5255	    15.147	       2.4	1.09774e+07	
         R10	   5576	    76.551	    15.147	       2.4	 1.0381e+07	    76.551	     15.13	       2.4	1.03581e+07	    76.534	     15.13	       2.4	 1.0728e+07	    76.534	    15.147	       2.4	1.07991e+07	    76.551	   15.1385	       2.4	1.03689e+07	   76.5425	     15.13	       2.4	1.05421e+07	    76.534	   15.1385	       2.4	1.07631e+07	   76.5425	    15.147	       2.4	1.05888e+07	
         R10	   5577	    76.568	    15.147	       2.4	9.92872e+06	    76.568	     15.13	       2.4	9.95707e+06	    76.551	     15.13	       2.4	1.03571e+07	    76.551	    15.147	       2.4	1.03776e+07	    76.568	   15.1385	       2.4	9.94215e+06	   76.5595	     15.13	       2.4	1.01564e+07	    76.551	   15.1385	       2.4	1.03667e+07	   76.5595	    15.147	       2.4	1.01524e+07	
         R10	   5578	    76.585	    15.147	       2.4	9.47729e+06	    76.585	     15.13	       2.4	9.55105e+06	    76.568	     15.13	       2.4	9.95673e+06	    76.568	    15.147	       2.4	9.92555e+06	    76.585	   15.1385	       2.4	9.51345e+06	   76.5765	     15.13	       2.4	9.75346e+06	    76.568	   15.1385	       2.4	 9.9404e+06	   76.5765	    15.147	       2.4	9.70094e+06	
         R10	   5579	    76.602	    15.147	       2.4	9.05083e+06	    76.602	     15.13	       2.4	9.16154e+06	    76.585	     15.13	       2.4	9.54794e+06	    76.585	    15.147	       2.4	9.47614e+06	    76.602	   15.1385	       2.4	9.10554e+06	   76.5935	     15.13	       2.4	9.35447e+06	    76.585	   15.1385	       2.4	9.51133e+06	   76.5935	    15.147	       2.4	9.26317e+06	
         R10	   5580	    76.619	    15.147	       2.4	8.66513e+06	    76.619	     15.13	       2.4	8.79522e+06	    76.602	     15.13	       2.4	9.15813e+06	    76.602	    15.147	       2.4	9.05061e+06	    76.619	   15.1385	       2.4	8.72966e+06	   76.6105	     15.13	       2.4	8.97645e+06	    76.602	   15.1385	       2.4	9.10374e+06	   76.6105	    15.147	       2.4	 8.8576e+06	
         R10	   5581	    76.636	    15.147	       2.4	8.32565e+06	    76.636	     15.13	       2.4	8.46734e+06	    76.619	     15.13	       2.4	8.79321e+06	    76.619	    15.147	       2.4	8.66543e+06	    76.636	   15.1385	       2.4	8.39607e+06	   76.6275	     15.13	       2.4	8.63003e+06	    76.619	   15.1385	       2.4	8.72881e+06	   76.6275	    15.147	       2.4	8.49523e+06	
         R10	   5582	    76.653	    15.147	       2.4	8.03476e+06	    76.653	     15.13	       2.4	8.17586e+06	    76.636	     15.13	       2.4	 8.4667e+06	    76.636	    15.147	       2.4	 8.3259e+06	    76.653	   15.1385	       2.4	8.10497e+06	   76.6445	     15.13	       2.4	8.32099e+06	    76.636	   15.1385	       2.4	8.39589e+06	   76.6445	    15.147	       2.4	8.17996e+06	
         R10	   5583	     76.67	    15.147	       2.4	7.79057e+06	     76.67	     15.13	       2.4	7.92466e+06	    76.653	     15.13	       2.4	8.17611e+06	    76.653	    15.147	       2.4	8.03456e+06	     76.67	   15.1385	       2.4	7.85734e+06	   76.6615	     15.13	       2.4	8.05006e+06	    76.653	   15.1385	       2.4	  8.105e+06	   76.6615	    15.147	       2.4	7.91215e+06	
         R10	   5584	     76.67	    15.164	       2.4	7.64226e+06	     76.67	    15.147	       2.4	7.78922e+06	    76.653	    15.147	       2.4	8.03537e+06	    76.653	    15.164	       2.4	7.87688e+06	     76.67	   15.1555	       2.4	7.71547e+06	   76.6615	    15.147	       2.4	7.91186e+06	    76.653	   15.1555	       2.4	7.95581e+06	   76.6615	    15.164	       2.4	  7.759e+06	
         R10	   5585	    76.653	    15.181	       2.4	 7.7025e+06	     76.67	    15.181	       2.4	7.49074e+06	     76.67	    15.164	       2.4	7.64239e+06	    76.653	    15.164	       2.4	7.87629e+06	   76.6615	    15.181	       2.4	7.59589e+06	     76.67	   15.1725	       2.4	7.56632e+06	   76.6615	    15.164	       2.4	7.75878e+06	    76.653	   15.1725	       2.4	7.78914e+06	
         R10	   5586	    76.653	    15.198	       2.4	7.51992e+06	     76.67	    15.198	       2.4	7.33823e+06	     76.67	    15.181	       2.4	7.48943e+06	    76.653	    15.181	       2.4	7.70193e+06	   76.6615	    15.198	       2.4	 7.4282e+06	     76.67	   15.1895	       2.4	7.41362e+06	   76.6615	    15.181	       2.4	7.59496e+06	    76.653	   15.1895	       2.4	7.61072e+06	
         R10	   5587	    76.653	    15.215	       2.4	 7.3404e+06	     76.67	    15.215	       2.4	7.19884e+06	     76.67	    15.198	       2.4	7.33722e+06	    76.653	    15.198	       2.4	7.51876e+06	   76.6615	    15.215	       2.4	7.26864e+06	     76.67	   15.2065	       2.4	7.26785e+06	   76.6615	    15.198	       2.4	7.42712e+06	    76.653	   15.2065	       2.4	7.42942e+06	
         R10	   5588	    76.653	    15.232	       2.4	7.18305e+06	     76.67	    15.232	       2.4	7.08777e+06	     76.67	    15.215	       2.4	7.19775e+06	    76.653	    15.215	       2.4	7.33853e+06	   76.6615	    15.232	       2.4	7.13442e+06	     76.67	   15.2235	       2.4	7.14258e+06	   76.6615	    15.215	       2.4	7.26716e+06	    76.653	   15.2235	       2.4	7.26062e+06	
         R10	   5589	    76.653	    15.249	       2.4	7.07504e+06	     76.67	    15.249	       2.4	7.02153e+06	     76.67	    15.232	       2.4	7.08684e+06	    76.653	    15.232	       2.4	7.18081e+06	   76.6615	    15.249	       2.4	7.04737e+06	     76.67	   15.2405	       2.4	7.05399e+06	   76.6615	    15.232	       2.4	7.13285e+06	    76.653	   15.2405	       2.4	7.12769e+06	
         R10	   5590	    76.653	    15.266	       2.4	7.04058e+06	     76.67	    15.266	       2.4	7.02146e+06	     76.67	    15.249	       2.4	 7.0239e+06	    76.653	    15.249	       2.4	7.07272e+06	   76.6615	    15.266	       2.4	7.03023e+06	     76.67	   15.2575	       2.4	 7.0225e+06	   76.6615	    15.249	       2.4	7.04741e+06	    76.653	   15.2575	       2.4	7.05634e+06	
         R10	   5591	    76.653	    15.283	       2.4	 7.1067e+06	     76.67	    15.283	       2.4	7.09713e+06	     76.67	    15.266	       2.4	7.02249e+06	    76.653	    15.266	       2.4	7.03794e+06	   76.6615	    15.283	       2.4	7.10112e+06	     76.67	   15.2745	       2.4	 7.0597e+06	   76.6615	    15.266	       2.4	7.02945e+06	    76.653	   15.2745	       2.4	7.07204e+06	
         R10	   5592	    76.653	      15.3	       2.4	 7.2768e+06	     76.67	      15.3	       2.4	7.26259e+06	     76.67	    15.283	       2.4	7.09029e+06	    76.653	    15.283	       2.4	7.10211e+06	   76.6615	      15.3	       2.4	7.26881e+06	     76.67	   15.2915	       2.4	7.17634e+06	   76.6615	    15.283	       2.4	7.09537e+06	    76.653	   15.2915	       2.4	7.18927e+06	
         R10	   5593	    76.636	      15.3	       2.4	7.31582e+06	    76.653	      15.3	       2.4	7.27979e+06	    76.653	    15.283	       2.4	7.10197e+06	    76.636	    15.283	       2.4	 7.1122e+06	   76.6445	      15.3	       2.4	7.29653e+06	    76.653	   15.2915	       2.4	7.19069e+06	   76.6445	    15.283	       2.4	7.10606e+06	    76.636	   15.2915	       2.4	7.21355e+06	
         R10	   5594	    76.619	    15.283	       2.4	 7.1324e+06	    76.619	      15.3	       2.4	7.35306e+06	    76.636	      15.3	       2.4	 7.3197e+06	    76.636	    15.283	       2.4	7.11128e+06	    76.619	   15.2915	       2.4	7.24175e+06	   76.6275	      15.3	       2.4	 7.3345e+06	    76.636	   15.2915	       2.4	7.21503e+06	   76.6275	    15.283	       2.4	7.12041e+06	
         R10	   5595	    76.602	    15.283	       2.4	7.15756e+06	    76.602	      15.3	       2.4	7.40333e+06	    76.619	      15.3	       2.4	7.38707e+06	    76.619	    15.283	       2.4	7.12462e+06	    76.602	   15.2915	       2.4	7.27839e+06	   76.6105	      15.3	       2.4	7.39206e+06	    76.619	   15.2915	       2.4	7.25483e+06	   76.6105	    15.283	       2.4	7.13904e+06	
         R10	   5596	    76.585	    15.283	       2.4	 7.1889e+06	    76.585	      15.3	       2.4	 7.5262e+06	    76.602	      15.3	       2.4	7.44484e+06	    76.602	    15.283	       2.4	7.14991e+06	    76.585	   15.2915	       2.4	7.35305e+06	   76.5935	      15.3	       2.4	7.48018e+06	    76.602	   15.2915	       2.4	7.29526e+06	   76.5935	    15.283	       2.4	  7.166e+06	
         R10	   5597	    76.568	    15.283	       2.4	7.25748e+06	    76.568	      15.3	       2.4	7.72549e+06	    76.585	      15.3	       2.4	7.51597e+06	    76.585	    15.283	       2.4	7.19353e+06	    76.568	   15.2915	       2.4	7.47984e+06	   76.5765	      15.3	       2.4	7.60983e+06	    76.585	   15.2915	       2.4	7.35026e+06	   76.5765	    15.283	       2.4	7.21957e+06	
         R10	   5598	    76.551	    15.283	       2.4	7.44916e+06	    76.551	      15.3	       2.4	8.04842e+06	    76.568	      15.3	       2.4	 7.6726e+06	    76.568	    15.283	       2.4	7.26075e+06	    76.551	   15.2915	       2.4	  7.715e+06	   76.5595	      15.3	       2.4	 7.8332e+06	    76.568	   15.2915	       2.4	7.45499e+06	   76.5595	    15.283	       2.4	7.34551e+06	
         R10	   5599	    76.534	    15.283	       2.4	7.90476e+06	    76.534	      15.3	       2.4	8.99687e+06	    76.551	      15.3	       2.4	7.98323e+06	    76.551	    15.283	       2.4	7.41777e+06	    76.534	   15.2915	       2.4	8.33172e+06	   76.5425	      15.3	       2.4	 8.4263e+06	    76.551	   15.2915	       2.4	7.66632e+06	   76.5425	    15.283	       2.4	7.65358e+06	
         R10	   5600	    76.517	    15.283	       2.4	9.56028e+06	    76.517	      15.3	       2.4	1.08455e+07	    76.534	      15.3	       2.4	 8.8159e+06	    76.534	    15.283	       2.4	7.74341e+06	    76.517	   15.2915	       2.4	9.74982e+06	   76.5255	      15.3	       2.4	9.73427e+06	    76.534	   15.2915	       2.4	8.16212e+06	   76.5255	    15.283	       2.4	8.65017e+06	
         R10	   5601	      76.5	    15.283	       2.4	1.35326e+07	      76.5	      15.3	       2.4	1.51779e+07	    76.517	      15.3	       2.4	1.04671e+07	    76.517	    15.283	       2.4	9.50453e+06	      76.5	   15.2915	       2.4	1.30515e+07	   76.5085	      15.3	       2.4	1.28165e+07	    76.517	   15.2915	       2.4	9.51772e+06	   76.5085	    15.283	       2.4	1.12589e+07	
         R10	   5602	      76.5	    15.266	       2.4	1.39229e+07	      76.5	    15.283	       2.4	1.39497e+07	    76.517	    15.283	       2.4	9.78149e+06	    76.517	    15.266	       2.4	1.14508e+07	      76.5	   15.2745	       2.4	1.38862e+07	   76.5085	    15.283	       2.4	1.16414e+07	    76.517	   15.2745	       2.4	1.05233e+07	   76.5085	    15.266	       2.4	1.25968e+07	
         R10	   5603	    76.517	    15.249	       2.4	1.20306e+07	      76.5	    15.249	       2.4	1.34334e+07	      76.5	    15.266	       2.4	1.38409e+07	    76.517	    15.266	       2.4	1.13369e+07	   76.5085	    15.249	       2.4	 1.2681e+07	      76.5	   15.2575	       2.4	1.36363e+07	   76.5085	    15.266	       2.4	1.24995e+07	    76.517	   15.2575	       2.4	1.16755e+07	
         R10	   5604	    76.517	    15.232	       2.4	1.20372e+07	      76.5	    15.232	       2.4	1.28546e+07	      76.5	    15.249	       2.4	1.33861e+07	    76.517	    15.249	       2.4	1.19656e+07	   76.5085	    15.232	       2.4	1.24206e+07	      76.5	   15.2405	       2.4	1.31202e+07	   76.5085	    15.249	       2.4	1.26254e+07	    76.517	   15.2405	       2.4	1.19984e+07	
         R10	   5605	    76.517	    15.215	       2.4	1.18617e+07	      76.5	    15.215	       2.4	1.23794e+07	      76.5	    15.232	       2.4	 1.2829e+07	    76.517	    15.232	       2.4	1.20153e+07	   76.5085	    15.215	       2.4	1.21073e+07	      76.5	   15.2235	       2.4	 1.2604e+07	   76.5085	    15.232	       2.4	1.23968e+07	    76.517	   15.2235	       2.4	 1.1937e+07	
         R10	   5606	    76.517	    15.198	       2.4	1.16491e+07	      76.5	    15.198	       2.4	1.20222e+07	      76.5	    15.215	       2.4	1.23676e+07	    76.517	    15.215	       2.4	1.18562e+07	   76.5085	    15.198	       2.4	1.18284e+07	      76.5	   15.2065	       2.4	1.21947e+07	   76.5085	    15.215	       2.4	1.20985e+07	    76.517	   15.2065	       2.4	1.17518e+07	
         R10	   5607	    76.517	    15.181	       2.4	1.14537e+07	      76.5	    15.181	       2.4	1.17582e+07	      76.5	    15.198	       2.4	1.20166e+07	    76.517	    15.198	       2.4	1.16491e+07	   76.5085	    15.181	       2.4	1.16017e+07	      76.5	   15.1895	       2.4	1.18873e+07	   76.5085	    15.198	       2.4	1.18255e+07	    76.517	   15.1895	       2.4	1.15508e+07	
         R10	   5608	    76.517	    15.164	       2.4	1.12895e+07	      76.5	    15.164	       2.4	1.15629e+07	      76.5	    15.181	       2.4	1.17557e+07	    76.517	    15.181	       2.4	1.14551e+07	   76.5085	    15.164	       2.4	1.14236e+07	      76.5	   15.1725	       2.4	1.16592e+07	   76.5085	    15.181	       2.4	1.16011e+07	    76.517	   15.1725	       2.4	1.13719e+07	
         R10	   5609	    76.517	    15.147	       2.4	1.11582e+07	    76.517	     15.13	       2.4	1.10523e+07	      76.5	     15.13	       2.4	1.13062e+07	      76.5	    15.147	       2.4	1.14167e+07	    76.517	   15.1385	       2.4	 1.1105e+07	   76.5085	     15.13	       2.4	 1.1178e+07	      76.5	   15.1385	       2.4	1.13613e+07	   76.5085	    15.147	       2.4	1.12857e+07	
         R10	   5610	    76.551	    15.164	       2.4	1.03923e+07	    76.551	    15.147	       2.4	1.03824e+07	    76.534	    15.147	       2.4	1.07997e+07	    76.534	    15.164	       2.4	1.08773e+07	    76.551	   15.1555	       2.4	1.03865e+07	   76.5425	    15.147	       2.4	1.05898e+07	    76.534	   15.1555	       2.4	1.08379e+07	   76.5425	    15.164	       2.4	1.06332e+07	
         R10	   5611	    76.568	    15.164	       2.4	9.87348e+06	    76.568	    15.147	       2.4	9.93042e+06	    76.551	    15.147	       2.4	1.03787e+07	    76.551	    15.164	       2.4	1.03879e+07	    76.568	   15.1555	       2.4	9.90101e+06	   76.5595	    15.147	       2.4	1.01537e+07	    76.551	   15.1555	       2.4	1.03824e+07	   76.5595	    15.164	       2.4	1.01297e+07	
         R10	   5612	    76.585	    15.164	       2.4	9.36945e+06	    76.585	    15.147	       2.4	9.47904e+06	    76.568	    15.147	       2.4	9.92689e+06	    76.568	    15.164	       2.4	9.87059e+06	    76.585	   15.1555	       2.4	9.42339e+06	   76.5765	    15.147	       2.4	9.70248e+06	    76.568	   15.1555	       2.4	 9.8978e+06	   76.5765	    15.164	       2.4	9.61949e+06	
         R10	   5613	    76.602	    15.164	       2.4	8.90849e+06	    76.602	    15.147	       2.4	9.05187e+06	    76.585	    15.147	       2.4	9.47695e+06	    76.585	    15.164	       2.4	9.36782e+06	    76.602	   15.1555	       2.4	8.97949e+06	   76.5935	    15.147	       2.4	9.26409e+06	    76.585	   15.1555	       2.4	9.42153e+06	   76.5935	    15.164	       2.4	9.13778e+06	
         R10	   5614	    76.619	    15.164	       2.4	8.50451e+06	    76.619	    15.147	       2.4	8.66578e+06	    76.602	    15.147	       2.4	9.05139e+06	    76.602	    15.164	       2.4	 8.9078e+06	    76.619	   15.1555	       2.4	8.58462e+06	   76.6105	    15.147	       2.4	8.85831e+06	    76.602	   15.1555	       2.4	 8.9789e+06	   76.6105	    15.164	       2.4	8.70578e+06	
         R10	   5615	    76.636	    15.164	       2.4	8.16111e+06	    76.636	    15.147	       2.4	8.32566e+06	    76.619	    15.147	       2.4	8.66566e+06	    76.619	    15.164	       2.4	8.50444e+06	    76.636	   15.1555	       2.4	8.24299e+06	   76.6275	    15.147	       2.4	8.49536e+06	    76.619	   15.1555	       2.4	8.58452e+06	   76.6275	    15.164	       2.4	8.33232e+06	
         R10	   5616	    76.653	    15.164	       2.4	7.87602e+06	    76.653	    15.147	       2.4	8.03488e+06	    76.636	    15.147	       2.4	8.32607e+06	    76.636	    15.164	       2.4	8.16154e+06	    76.653	   15.1555	       2.4	7.95514e+06	   76.6445	    15.147	       2.4	8.18011e+06	    76.636	   15.1555	       2.4	8.24341e+06	   76.6445	    15.164	       2.4	8.01825e+06	
         R10	   5617	    76.653	    15.181	       2.4	7.70191e+06	    76.653	    15.164	       2.4	 7.8756e+06	    76.636	    15.164	       2.4	8.16144e+06	    76.636	    15.181	       2.4	7.97141e+06	    76.653	   15.1725	       2.4	7.78849e+06	   76.6445	    15.164	       2.4	8.01799e+06	    76.636	   15.1725	       2.4	8.06609e+06	   76.6445	    15.181	       2.4	7.83595e+06	
         R10	   5618	    76.636	    15.198	       2.4	7.75882e+06	    76.653	    15.198	       2.4	7.51906e+06	    76.653	    15.181	       2.4	7.70107e+06	    76.636	    15.181	       2.4	7.97083e+06	   76.6445	    15.198	       2.4	7.63801e+06	    76.653	   15.1895	       2.4	7.60986e+06	   76.6445	    15.181	       2.4	7.83523e+06	    76.636	   15.1895	       2.4	7.86458e+06	
         R10	   5619	    76.636	    15.215	       2.4	7.53465e+06	    76.653	    15.215	       2.4	7.33928e+06	    76.653	    15.198	       2.4	7.51728e+06	    76.636	    15.198	       2.4	7.75762e+06	   76.6445	    15.215	       2.4	7.43585e+06	    76.653	   15.2065	       2.4	7.42812e+06	   76.6445	    15.198	       2.4	7.63652e+06	    76.636	   15.2065	       2.4	7.64599e+06	
         R10	   5620	    76.636	    15.232	       2.4	7.32072e+06	    76.653	    15.232	       2.4	7.18243e+06	    76.653	    15.215	       2.4	7.33684e+06	    76.636	    15.215	       2.4	7.53268e+06	   76.6445	    15.232	       2.4	7.25035e+06	    76.653	   15.2235	       2.4	7.25946e+06	   76.6445	    15.215	       2.4	7.43364e+06	    76.636	   15.2235	       2.4	7.42657e+06	
         R10	   5621	    76.636	    15.249	       2.4	7.15188e+06	    76.653	    15.249	       2.4	7.07389e+06	    76.653	    15.232	       2.4	7.17949e+06	    76.636	    15.232	       2.4	7.31799e+06	   76.6445	    15.249	       2.4	7.11171e+06	    76.653	   15.2405	       2.4	7.12645e+06	   76.6445	    15.232	       2.4	7.24752e+06	    76.636	   15.2405	       2.4	7.23466e+06	
         R10	   5622	    76.636	    15.266	       2.4	7.07111e+06	    76.653	    15.266	       2.4	7.04119e+06	    76.653	    15.249	       2.4	7.07111e+06	    76.636	    15.249	       2.4	7.14885e+06	   76.6445	    15.266	       2.4	 7.0551e+06	    76.653	   15.2575	       2.4	7.05585e+06	   76.6445	    15.249	       2.4	7.10881e+06	    76.636	   15.2575	       2.4	7.10947e+06	
         R10	   5623	    76.636	    15.283	       2.4	7.11716e+06	    76.653	    15.283	       2.4	 7.1044e+06	    76.653	    15.266	       2.4	7.03953e+06	    76.636	    15.266	       2.4	7.06849e+06	   76.6445	    15.283	       2.4	7.10975e+06	    76.653	   15.2745	       2.4	7.07169e+06	   76.6445	    15.266	       2.4	7.05297e+06	    76.636	   15.2745	       2.4	7.09223e+06	
         R10	   5624	    76.619	    15.283	       2.4	7.13639e+06	    76.636	    15.283	       2.4	7.11661e+06	    76.636	    15.266	       2.4	7.06853e+06	    76.619	    15.266	       2.4	7.11513e+06	   76.6275	    15.283	       2.4	7.12509e+06	    76.636	   15.2745	       2.4	7.09198e+06	   76.6275	    15.266	       2.4	7.09042e+06	    76.619	   15.2745	       2.4	7.12453e+06	
         R10	   5625	    76.602	    15.266	       2.4	7.19472e+06	    76.602	    15.283	       2.4	7.16698e+06	    76.619	    15.283	       2.4	7.12902e+06	    76.619	    15.266	       2.4	 7.1162e+06	    76.602	   15.2745	       2.4	7.17841e+06	   76.6105	    15.283	       2.4	7.14594e+06	    76.619	   15.2745	       2.4	7.12142e+06	   76.6105	    15.266	       2.4	7.15348e+06	
         R10	   5626	    76.585	    15.266	       2.4	7.34001e+06	    76.585	    15.283	       2.4	7.20729e+06	    76.602	    15.283	       2.4	7.15402e+06	    76.602	    15.266	       2.4	7.19436e+06	    76.585	   15.2745	       2.4	7.26892e+06	   76.5935	    15.283	       2.4	7.17733e+06	    76.602	   15.2745	       2.4	7.17179e+06	   76.5935	    15.266	       2.4	7.26444e+06	
         R10	   5627	    76.568	    15.266	       2.4	 7.6176e+06	    76.568	    15.283	       2.4	7.28343e+06	    76.585	    15.283	       2.4	 7.2057e+06	    76.585	    15.266	       2.4	7.32904e+06	    76.568	   15.2745	       2.4	7.44082e+06	   76.5765	    15.283	       2.4	7.23885e+06	    76.585	   15.2745	       2.4	7.26259e+06	   76.5765	    15.266	       2.4	7.46982e+06	
         R10	   5628	    76.551	    15.266	       2.4	8.17913e+06	    76.551	    15.283	       2.4	7.48735e+06	    76.568	    15.283	       2.4	7.29566e+06	    76.568	    15.266	       2.4	7.58837e+06	    76.551	   15.2745	       2.4	7.81387e+06	   76.5595	    15.283	       2.4	7.38332e+06	    76.568	   15.2745	       2.4	7.43216e+06	   76.5595	    15.266	       2.4	7.88032e+06	
         R10	   5629	    76.534	    15.266	       2.4	9.27477e+06	    76.534	    15.283	       2.4	8.08914e+06	    76.551	    15.283	       2.4	7.49292e+06	    76.551	    15.266	       2.4	8.12598e+06	    76.534	   15.2745	       2.4	8.63616e+06	   76.5425	    15.283	       2.4	7.78226e+06	    76.551	   15.2745	       2.4	7.78979e+06	   76.5425	    15.266	       2.4	8.69982e+06	
         R10	   5630	    76.517	    15.266	       2.4	1.12396e+07	    76.517	    15.283	       2.4	9.58083e+06	    76.534	    15.283	       2.4	8.14439e+06	    76.534	    15.266	       2.4	9.23815e+06	    76.517	   15.2745	       2.4	1.03565e+07	   76.5255	    15.283	       2.4	 8.8596e+06	    76.534	   15.2745	       2.4	 8.6441e+06	   76.5255	    15.266	       2.4	1.02284e+07	
         R10	   5631	    76.517	    15.249	       2.4	1.18944e+07	    76.517	    15.266	       2.4	1.12569e+07	    76.534	    15.266	       2.4	9.29387e+06	    76.534	    15.249	       2.4	1.03574e+07	    76.517	   15.2575	       2.4	1.15677e+07	   76.5255	    15.266	       2.4	1.02645e+07	    76.534	   15.2575	       2.4	9.81912e+06	   76.5255	    15.249	       2.4	1.11125e+07	
         R10	   5632	    76.534	    15.232	       2.4	1.08608e+07	    76.517	    15.232	       2.4	1.19726e+07	    76.517	    15.249	       2.4	1.18815e+07	    76.534	    15.249	       2.4	1.03325e+07	   76.5255	    15.232	       2.4	1.14059e+07	    76.517	   15.2405	       2.4	1.19246e+07	   76.5255	    15.249	       2.4	1.10936e+07	    76.534	   15.2405	       2.4	1.05929e+07	
         R10	   5633	    76.534	    15.215	       2.4	 1.1025e+07	    76.517	    15.215	       2.4	1.18303e+07	    76.517	    15.232	       2.4	1.19658e+07	    76.534	    15.232	       2.4	 1.0833e+07	   76.5255	    15.215	       2.4	  1.142e+07	    76.517	   15.2235	       2.4	1.18965e+07	   76.5255	    15.232	       2.4	1.13889e+07	    76.534	   15.2235	       2.4	1.09263e+07	
         R10	   5634	    76.534	    15.198	       2.4	1.10284e+07	    76.517	    15.198	       2.4	1.16344e+07	    76.517	    15.215	       2.4	1.18275e+07	    76.534	    15.215	       2.4	1.10084e+07	   76.5255	    15.198	       2.4	1.13262e+07	    76.517	   15.2065	       2.4	  1.173e+07	   76.5255	    15.215	       2.4	1.14104e+07	    76.534	   15.2065	       2.4	1.10164e+07	
         R10	   5635	    76.534	    15.181	       2.4	1.09662e+07	    76.517	    15.181	       2.4	1.14466e+07	    76.517	    15.198	       2.4	1.16335e+07	    76.534	    15.198	       2.4	  1.102e+07	   76.5255	    15.181	       2.4	1.12029e+07	    76.517	   15.1895	       2.4	1.15394e+07	   76.5255	    15.198	       2.4	1.13216e+07	    76.534	   15.1895	       2.4	1.09917e+07	
         R10	   5636	    76.517	    15.147	       2.4	1.11572e+07	      76.5	    15.147	       2.4	1.14166e+07	      76.5	    15.164	       2.4	1.15619e+07	    76.517	    15.164	       2.4	 1.1291e+07	   76.5085	    15.147	       2.4	1.12852e+07	      76.5	   15.1555	       2.4	1.14892e+07	   76.5085	    15.164	       2.4	1.14238e+07	    76.517	   15.1555	       2.4	1.12238e+07	
         R10	   5637	    76.534	    15.164	       2.4	1.08826e+07	    76.534	    15.147	       2.4	1.08027e+07	    76.517	    15.147	       2.4	1.11557e+07	    76.517	    15.164	       2.4	1.12862e+07	    76.534	   15.1555	       2.4	 1.0842e+07	   76.5255	    15.147	       2.4	1.09776e+07	    76.517	   15.1555	       2.4	1.12206e+07	   76.5255	    15.164	       2.4	1.10821e+07	
         R10	   5638	    76.568	    15.181	       2.4	9.77291e+06	    76.568	    15.164	       2.4	9.87617e+06	    76.551	    15.164	       2.4	1.03896e+07	    76.551	    15.181	       2.4	 1.0369e+07	    76.568	   15.1725	       2.4	9.82335e+06	   76.5595	    15.164	       2.4	1.01319e+07	    76.551	   15.1725	       2.4	1.03781e+07	   76.5595	    15.181	       2.4	1.00699e+07	
         R10	   5639	    76.585	    15.181	       2.4	9.21132e+06	    76.585	    15.164	       2.4	9.37138e+06	    76.568	    15.164	       2.4	 9.8723e+06	    76.568	    15.181	       2.4	9.76944e+06	    76.585	   15.1725	       2.4	9.29038e+06	   76.5765	    15.164	       2.4	 9.6213e+06	    76.568	   15.1725	       2.4	 9.8197e+06	   76.5765	    15.181	       2.4	9.48982e+06	
         R10	   5640	    76.602	    15.181	       2.4	8.71948e+06	    76.602	    15.164	       2.4	8.90964e+06	    76.585	    15.164	       2.4	9.36911e+06	    76.585	    15.181	       2.4	9.20999e+06	    76.602	   15.1725	       2.4	8.81386e+06	   76.5935	    15.164	       2.4	  9.139e+06	    76.585	   15.1725	       2.4	9.28859e+06	   76.5935	    15.181	       2.4	8.96428e+06	
         R10	   5641	    76.619	    15.181	       2.4	8.30685e+06	    76.619	    15.164	       2.4	8.50486e+06	    76.602	    15.164	       2.4	8.90857e+06	    76.602	    15.181	       2.4	8.71951e+06	    76.619	   15.1725	       2.4	8.40538e+06	   76.6105	    15.164	       2.4	8.70633e+06	    76.602	   15.1725	       2.4	8.81335e+06	   76.6105	    15.181	       2.4	8.51265e+06	
         R10	   5642	    76.636	    15.181	       2.4	7.97052e+06	    76.636	    15.164	       2.4	8.16098e+06	    76.619	    15.164	       2.4	8.50466e+06	    76.619	    15.181	       2.4	8.30745e+06	    76.636	   15.1725	       2.4	8.06541e+06	   76.6275	    15.164	       2.4	8.33237e+06	    76.619	   15.1725	       2.4	8.40558e+06	   76.6275	    15.181	       2.4	8.13834e+06	
         R10	   5643	    76.636	    15.198	       2.4	7.75758e+06	    76.636	    15.181	       2.4	7.96972e+06	    76.619	    15.181	       2.4	8.30728e+06	    76.619	    15.198	       2.4	8.07169e+06	    76.636	   15.1895	       2.4	7.86341e+06	   76.6275	    15.181	       2.4	8.13785e+06	    76.619	   15.1895	       2.4	8.18914e+06	   76.6275	    15.198	       2.4	7.91372e+06	
         R10	   5644	    76.619	    15.215	       2.4	7.80301e+06	    76.636	    15.215	       2.4	7.53317e+06	    76.636	    15.198	       2.4	7.75592e+06	    76.619	    15.198	       2.4	8.07071e+06	   76.6275	    15.215	       2.4	7.66687e+06	    76.636	   15.2065	       2.4	 7.6444e+06	   76.6275	    15.198	       2.4	7.91241e+06	    76.619	   15.2065	       2.4	7.93668e+06	
         R10	   5645	    76.619	    15.232	       2.4	7.52262e+06	    76.636	    15.232	       2.4	7.31931e+06	    76.636	    15.215	       2.4	7.53053e+06	    76.619	    15.215	       2.4	 7.8008e+06	   76.6275	    15.232	       2.4	 7.4195e+06	    76.636	   15.2235	       2.4	7.42479e+06	   76.6275	    15.215	       2.4	7.66445e+06	    76.619	   15.2235	       2.4	7.66164e+06	
         R10	   5646	    76.619	    15.249	       2.4	7.27322e+06	    76.636	    15.249	       2.4	7.15078e+06	    76.636	    15.232	       2.4	7.31572e+06	    76.619	    15.232	       2.4	7.51877e+06	   76.6275	    15.249	       2.4	7.21047e+06	    76.636	   15.2405	       2.4	7.23297e+06	   76.6275	    15.232	       2.4	7.41578e+06	    76.619	   15.2405	       2.4	7.39574e+06	
         R10	   5647	    76.619	    15.266	       2.4	7.12023e+06	    76.636	    15.266	       2.4	7.07076e+06	    76.636	    15.249	       2.4	7.14714e+06	    76.619	    15.249	       2.4	7.26836e+06	   76.6275	    15.266	       2.4	7.09407e+06	    76.636	   15.2575	       2.4	7.10844e+06	   76.6275	    15.249	       2.4	7.20623e+06	    76.619	   15.2575	       2.4	 7.1935e+06	
         R10	   5648	    76.602	    15.266	       2.4	7.20321e+06	    76.619	    15.266	       2.4	7.12057e+06	    76.619	    15.249	       2.4	7.26473e+06	    76.602	    15.249	       2.4	7.45887e+06	   76.6105	    15.266	       2.4	7.15989e+06	    76.619	   15.2575	       2.4	7.19184e+06	   76.6105	    15.249	       2.4	7.35986e+06	    76.602	   15.2575	       2.4	 7.3299e+06	
         R10	   5649	    76.585	    15.249	       2.4	7.76846e+06	    76.585	    15.266	       2.4	7.35408e+06	    76.602	    15.266	       2.4	7.20425e+06	    76.602	    15.249	       2.4	7.45175e+06	    76.585	   15.2575	       2.4	7.55978e+06	   76.5935	    15.266	       2.4	 7.2764e+06	    76.602	   15.2575	       2.4	7.32683e+06	   76.5935	    15.249	       2.4	7.60781e+06	
         R10	   5650	    76.568	    15.249	       2.4	8.27446e+06	    76.568	    15.266	       2.4	7.64557e+06	    76.585	    15.266	       2.4	7.35061e+06	    76.585	    15.249	       2.4	7.75728e+06	    76.568	   15.2575	       2.4	7.95814e+06	   76.5765	    15.266	       2.4	7.49449e+06	    76.585	   15.2575	       2.4	7.55242e+06	   76.5765	    15.249	       2.4	8.01371e+06	
         R10	   5651	    76.551	    15.249	       2.4	9.09161e+06	    76.551	    15.266	       2.4	8.21243e+06	    76.568	    15.266	       2.4	7.63141e+06	    76.568	    15.249	       2.4	8.25944e+06	    76.551	   15.2575	       2.4	8.64909e+06	   76.5595	    15.266	       2.4	7.91853e+06	    76.568	   15.2575	       2.4	7.94354e+06	   76.5595	    15.249	       2.4	8.67437e+06	
         R10	   5652	    76.534	    15.249	       2.4	1.03157e+07	    76.534	    15.266	       2.4	9.31298e+06	    76.551	    15.266	       2.4	8.19614e+06	    76.551	    15.249	       2.4	9.08307e+06	    76.534	   15.2575	       2.4	9.80826e+06	   76.5425	    15.266	       2.4	8.75351e+06	    76.551	   15.2575	       2.4	8.63673e+06	   76.5425	    15.249	       2.4	9.69782e+06	
         R10	   5653	    76.534	    15.232	       2.4	1.08221e+07	    76.534	    15.249	       2.4	1.03096e+07	    76.551	    15.249	       2.4	9.09636e+06	    76.551	    15.232	       2.4	9.74749e+06	    76.534	   15.2405	       2.4	1.05628e+07	   76.5425	    15.249	       2.4	9.70142e+06	    76.551	   15.2405	       2.4	 9.4203e+06	   76.5425	    15.232	       2.4	1.02821e+07	
         R10	   5654	    76.551	    15.215	       2.4	1.01223e+07	    76.534	    15.215	       2.4	1.09989e+07	    76.534	    15.232	       2.4	1.08103e+07	    76.551	    15.232	       2.4	9.73979e+06	   76.5425	    15.215	       2.4	1.05576e+07	    76.534	   15.2235	       2.4	 1.0902e+07	   76.5425	    15.232	       2.4	1.02724e+07	    76.551	   15.2235	       2.4	9.92897e+06	
         R10	   5655	    76.551	    15.198	       2.4	1.03061e+07	    76.534	    15.198	       2.4	1.10126e+07	    76.534	    15.215	       2.4	1.09902e+07	    76.551	    15.215	       2.4	1.01127e+07	   76.5425	    15.198	       2.4	1.06567e+07	    76.534	   15.2065	       2.4	1.09995e+07	   76.5425	    15.215	       2.4	1.05485e+07	    76.551	   15.2065	       2.4	1.02074e+07	
         R10	   5656	    76.534	    15.164	       2.4	1.08843e+07	    76.517	    15.164	       2.4	1.12861e+07	    76.517	    15.181	       2.4	1.14466e+07	    76.534	    15.181	       2.4	1.09623e+07	   76.5255	    15.164	       2.4	1.10829e+07	    76.517	   15.1725	       2.4	1.13659e+07	   76.5255	    15.181	       2.4	 1.1201e+07	    76.534	   15.1725	       2.4	1.09224e+07	
         R10	   5657	    76.551	    15.181	       2.4	1.03753e+07	    76.551	    15.164	       2.4	1.03948e+07	    76.534	    15.164	       2.4	1.08788e+07	    76.534	    15.181	       2.4	1.09543e+07	    76.551	   15.1725	       2.4	1.03838e+07	   76.5425	    15.164	       2.4	1.06352e+07	    76.534	   15.1725	       2.4	1.09156e+07	   76.5425	    15.181	       2.4	1.06626e+07	
         R10	   5658	    76.585	    15.198	       2.4	8.98284e+06	    76.585	    15.181	       2.4	 9.2135e+06	    76.568	    15.181	       2.4	9.77172e+06	    76.568	    15.198	       2.4	9.59538e+06	    76.585	   15.1895	       2.4	9.09721e+06	   76.5765	    15.181	       2.4	9.49204e+06	    76.568	   15.1895	       2.4	9.68219e+06	   76.5765	    15.198	       2.4	9.28853e+06	
         R10	   5659	    76.602	    15.198	       2.4	8.47427e+06	    76.602	    15.181	       2.4	8.72023e+06	    76.585	    15.181	       2.4	9.21131e+06	    76.585	    15.198	       2.4	8.98252e+06	    76.602	   15.1895	       2.4	8.59667e+06	   76.5935	    15.181	       2.4	8.96531e+06	    76.585	   15.1895	       2.4	9.09597e+06	   76.5935	    15.198	       2.4	8.72778e+06	
         R10	   5660	    76.619	    15.198	       2.4	 8.0706e+06	    76.619	    15.181	       2.4	8.30661e+06	    76.602	    15.181	       2.4	8.71995e+06	    76.602	    15.198	       2.4	8.47514e+06	    76.619	   15.1895	       2.4	8.18826e+06	   76.6105	    15.181	       2.4	8.51275e+06	    76.602	   15.1895	       2.4	8.59697e+06	   76.6105	    15.198	       2.4	8.27207e+06	
         R10	   5661	    76.619	    15.215	       2.4	7.80116e+06	    76.619	    15.198	       2.4	8.06901e+06	    76.602	    15.198	       2.4	8.47477e+06	    76.602	    15.215	       2.4	8.17075e+06	    76.619	   15.2065	       2.4	7.93491e+06	   76.6105	    15.198	       2.4	8.27109e+06	    76.602	   15.2065	       2.4	8.32243e+06	   76.6105	    15.215	       2.4	7.98477e+06	
         R10	   5662	    76.602	    15.232	       2.4	7.81917e+06	    76.619	    15.232	       2.4	7.52051e+06	    76.619	    15.215	       2.4	7.79791e+06	    76.602	    15.215	       2.4	8.16888e+06	   76.6105	    15.232	       2.4	 7.6682e+06	    76.619	   15.2235	       2.4	7.65914e+06	   76.6105	    15.215	       2.4	7.98221e+06	    76.602	   15.2235	       2.4	7.99397e+06	
         R10	   5663	    76.602	    15.249	       2.4	7.46641e+06	    76.619	    15.249	       2.4	7.27112e+06	    76.619	    15.232	       2.4	7.51515e+06	    76.602	    15.232	       2.4	 7.8146e+06	   76.6105	    15.249	       2.4	7.36682e+06	    76.619	   15.2405	       2.4	7.39287e+06	   76.6105	    15.232	       2.4	7.66324e+06	    76.602	   15.2405	       2.4	7.64034e+06	
         R10	   5664	    76.585	    15.249	       2.4	7.77881e+06	    76.602	    15.249	       2.4	7.46241e+06	    76.602	    15.232	       2.4	7.80922e+06	    76.585	    15.232	       2.4	8.24932e+06	   76.5935	    15.249	       2.4	7.61831e+06	    76.602	   15.2405	       2.4	7.63565e+06	   76.5935	    15.232	       2.4	 8.0277e+06	    76.585	   15.2405	       2.4	8.01402e+06	
         R10	   5665	    76.568	    15.232	       2.4	8.87586e+06	    76.568	    15.249	       2.4	8.28685e+06	    76.585	    15.249	       2.4	7.77325e+06	    76.585	    15.232	       2.4	8.24285e+06	    76.568	   15.2405	       2.4	8.58111e+06	   76.5765	    15.249	       2.4	8.02789e+06	    76.585	   15.2405	       2.4	  8.008e+06	   76.5765	    15.232	       2.4	8.55822e+06	
         R10	   5666	    76.551	    15.232	       2.4	9.73727e+06	    76.551	    15.249	       2.4	9.09793e+06	    76.568	    15.249	       2.4	 8.2814e+06	    76.568	    15.232	       2.4	8.87174e+06	    76.551	   15.2405	       2.4	 9.4162e+06	   76.5595	    15.249	       2.4	8.68849e+06	    76.568	   15.2405	       2.4	8.57631e+06	   76.5595	    15.232	       2.4	9.30373e+06	
         R10	   5667	    76.551	    15.215	       2.4	 1.0109e+07	    76.551	    15.232	       2.4	9.73463e+06	    76.568	    15.232	       2.4	8.87561e+06	    76.568	    15.215	       2.4	9.31593e+06	    76.551	   15.2235	       2.4	9.91983e+06	   76.5595	    15.232	       2.4	9.30433e+06	    76.568	   15.2235	       2.4	9.09484e+06	   76.5595	    15.215	       2.4	9.71149e+06	
         R10	   5668	    76.551	    15.181	       2.4	1.03796e+07	    76.534	    15.181	       2.4	 1.0957e+07	    76.534	    15.198	       2.4	1.10074e+07	    76.551	    15.198	       2.4	1.02989e+07	   76.5425	    15.181	       2.4	1.06662e+07	    76.534	   15.1895	       2.4	1.09809e+07	   76.5425	    15.198	       2.4	1.06505e+07	    76.551	   15.1895	       2.4	1.03377e+07	
         R10	   5669	    76.568	    15.198	       2.4	9.59849e+06	    76.568	    15.181	       2.4	9.77668e+06	    76.551	    15.181	       2.4	1.03717e+07	    76.551	    15.198	       2.4	1.02912e+07	    76.568	   15.1895	       2.4	 9.6862e+06	   76.5595	    15.181	       2.4	1.00731e+07	    76.551	   15.1895	       2.4	1.03299e+07	   76.5595	    15.198	       2.4	9.94376e+06	
         R10	   5670	    76.602	    15.215	       2.4	8.16866e+06	    76.602	    15.198	       2.4	8.47375e+06	    76.585	    15.198	       2.4	8.98326e+06	    76.585	    15.215	       2.4	8.66604e+06	    76.602	   15.2065	       2.4	8.32088e+06	   76.5935	    15.198	       2.4	8.72788e+06	    76.585	   15.2065	       2.4	8.82394e+06	   76.5935	    15.215	       2.4	8.41638e+06	
         R10	   5671	    76.585	    15.232	       2.4	 8.2538e+06	    76.602	    15.232	       2.4	7.81622e+06	    76.602	    15.215	       2.4	 8.1655e+06	    76.585	    15.215	       2.4	8.66524e+06	   76.5935	    15.232	       2.4	8.03344e+06	    76.602	   15.2235	       2.4	7.99081e+06	   76.5935	    15.215	       2.4	 8.4144e+06	    76.585	   15.2235	       2.4	8.45927e+06	
         R10	   5672	    76.568	    15.215	       2.4	9.31276e+06	    76.568	    15.232	       2.4	 8.8779e+06	    76.585	    15.232	       2.4	8.25039e+06	    76.585	    15.215	       2.4	8.66351e+06	    76.568	   15.2235	       2.4	9.09444e+06	   76.5765	    15.232	       2.4	8.56301e+06	    76.585	   15.2235	       2.4	 8.4567e+06	   76.5765	    15.215	       2.4	8.98743e+06	
         R10	   5673	    76.568	    15.198	       2.4	9.60303e+06	    76.551	    15.198	       2.4	1.02951e+07	    76.551	    15.215	       2.4	1.01043e+07	    76.568	    15.215	       2.4	9.31271e+06	   76.5595	    15.198	       2.4	9.94795e+06	    76.551	   15.2065	       2.4	1.01977e+07	   76.5595	    15.215	       2.4	9.70753e+06	    76.568	   15.2065	       2.4	9.45649e+06	
         R10	   5674	    76.585	    15.198	       2.4	8.98431e+06	    76.568	    15.198	       2.4	9.59797e+06	    76.568	    15.215	       2.4	  9.311e+06	    76.585	    15.215	       2.4	8.66484e+06	   76.5765	    15.198	       2.4	9.29055e+06	    76.568	   15.2065	       2.4	9.45315e+06	   76.5765	    15.215	       2.4	8.98723e+06	    76.585	   15.2065	       2.4	8.82386e+06	
         R10	   5675	      76.5	   15.3687	   1.73882	9.01694e+06	      76.5	      15.3	   1.75401	9.12256e+06	      76.5	      15.3	   1.82323	9.55798e+06	      76.5	   15.3662	   1.81951	9.34017e+06	      76.5	   15.3343	   1.74641	9.06504e+06	      76.5	      15.3	   1.78862	9.34001e+06	      76.5	   15.3331	   1.82137	9.44407e+06	      76.5	   15.3674	   1.77917	9.17849e+06	
         R10	   5676	      76.5	   15.3662	   1.81951	9.42557e+06	      76.5	      15.3	   1.82323	 9.5352e+06	      76.5	      15.3	   1.88726	9.89166e+06	      76.5	   15.3619	   1.88534	9.75025e+06	      76.5	   15.3331	   1.82137	9.47619e+06	      76.5	      15.3	   1.85525	9.71336e+06	      76.5	    15.331	    1.8863	 9.8166e+06	      76.5	    15.364	   1.85243	 9.5878e+06	
         R10	   5677	      76.5	   15.3619	   1.88534	 9.7865e+06	      76.5	      15.3	   1.88726	9.87406e+06	      76.5	      15.3	    1.9461	1.02225e+07	      76.5	   15.3567	   1.94418	1.01043e+07	      76.5	    15.331	    1.8863	9.82612e+06	      76.5	      15.3	   1.91668	1.00482e+07	      76.5	   15.3283	   1.94514	1.01593e+07	      76.5	   15.3593	   1.91476	9.94533e+06	
         R10	   5678	      76.5	   15.3567	   1.94418	1.01197e+07	      76.5	      15.3	    1.9461	1.02163e+07	      76.5	      15.3	   1.99975	1.05626e+07	      76.5	   15.3514	   1.99781	1.04509e+07	      76.5	   15.3283	   1.94514	 1.0164e+07	      76.5	      15.3	   1.97293	1.03894e+07	      76.5	   15.3257	   1.99878	1.05027e+07	      76.5	   15.3541	   1.97099	1.02852e+07	
         R10	   5679	      76.5	   15.3514	   1.99781	1.04578e+07	      76.5	      15.3	   1.99975	1.05577e+07	      76.5	      15.3	   2.04821	1.09127e+07	      76.5	   15.3465	   2.04651	1.08022e+07	      76.5	   15.3257	   1.99878	1.05038e+07	      76.5	      15.3	   2.02398	1.07351e+07	      76.5	   15.3233	   2.04736	1.08535e+07	      76.5	    15.349	   2.02216	1.06299e+07	
         R10	   5680	      76.5	   15.3465	   2.04651	1.08055e+07	      76.5	      15.3	   2.04821	1.09081e+07	      76.5	      15.3	   2.09149	1.12749e+07	      76.5	    15.342	   2.08988	1.11614e+07	      76.5	   15.3233	   2.04736	1.08528e+07	      76.5	      15.3	   2.06985	1.10914e+07	      76.5	    15.321	   2.09068	 1.1214e+07	      76.5	   15.3443	    2.0682	1.09833e+07	
         R10	   5681	      76.5	    15.342	   2.08988	1.11632e+07	      76.5	      15.3	   2.09149	1.12706e+07	      76.5	      15.3	   2.12957	1.16477e+07	      76.5	   15.3373	   2.12784	1.15297e+07	      76.5	    15.321	   2.09068	1.12129e+07	      76.5	      15.3	   2.11053	 1.1459e+07	      76.5	   15.3186	   2.12871	1.15847e+07	      76.5	   15.3397	   2.10886	1.13464e+07	
         R10	   5682	      76.5	   15.3373	   2.12784	1.15314e+07	      76.5	      15.3	   2.12957	1.16449e+07	      76.5	      15.3	   2.16246	1.20221e+07	      76.5	   15.3318	   2.16055	1.19075e+07	      76.5	   15.3186	   2.12871	1.15841e+07	      76.5	      15.3	   2.14601	1.18334e+07	      76.5	   15.3159	   2.16151	1.19611e+07	      76.5	   15.3345	    2.1442	1.17194e+07	
         R10	   5683	      76.5	   15.3318	   2.16055	1.19091e+07	      76.5	      15.3	   2.16246	 1.2027e+07	      76.5	      15.3	   2.19016	1.23962e+07	      76.5	   15.3262	   2.18837	1.22875e+07	      76.5	   15.3159	   2.16151	1.19643e+07	      76.5	      15.3	   2.17631	1.22115e+07	      76.5	   15.3131	   2.18927	1.23387e+07	      76.5	    15.329	   2.17446	1.20983e+07	
         R10	   5684	      76.5	   15.3262	   2.18837	1.22875e+07	      76.5	      15.3	   2.19016	1.23957e+07	      76.5	      15.3	   2.21268	1.27519e+07	      76.5	   15.3214	   2.21456	1.27073e+07	      76.5	   15.3131	   2.18927	1.23385e+07	      76.5	      15.3	   2.20142	1.25738e+07	      76.5	   15.3107	   2.21362	1.27268e+07	      76.5	   15.3238	   2.20147	1.24974e+07	
         R10	   5685	      76.5	   15.3214	   2.21456	1.27056e+07	      76.5	      15.3	   2.21268	 1.2753e+07	      76.5	      15.3	      2.23	1.30629e+07	      76.5	   15.3141	   2.23981	1.31952e+07	      76.5	   15.3107	   2.21362	1.27265e+07	      76.5	      15.3	   2.22134	1.29079e+07	      76.5	   15.3071	    2.2349	1.31272e+07	      76.5	   15.3178	   2.22718	1.29503e+07	
         R10	   5686	      76.5	    15.337	   2.23521	 1.2984e+07	      76.5	   15.3283	   2.24961	1.33318e+07	      76.5	   15.3424	   2.25942	1.34302e+07	      76.5	   15.3523	   2.24433	1.30248e+07	      76.5	   15.3326	   2.24241	1.31577e+07	      76.5	   15.3354	   2.25452	1.33784e+07	      76.5	   15.3474	   2.25187	1.32274e+07	      76.5	   15.3446	   2.23977	1.30021e+07	
         R10	   5687	      76.5	   15.3523	   2.24433	1.30236e+07	      76.5	   15.3424	   2.25942	 1.3428e+07	      76.5	   15.3566	   2.26923	1.34816e+07	      76.5	   15.3646	   2.25493	1.30825e+07	      76.5	   15.3474	   2.25187	1.32256e+07	      76.5	   15.3495	   2.26432	1.34517e+07	      76.5	   15.3606	   2.26208	 1.3282e+07	      76.5	   15.3585	   2.24963	 1.3051e+07	
         R10	   5688	      76.5	   15.3646	   2.25493	1.30837e+07	      76.5	   15.3566	   2.26923	1.34865e+07	      76.5	   15.3707	   2.27903	1.34682e+07	      76.5	    15.381	     2.265	1.30339e+07	      76.5	   15.3606	   2.26208	1.32851e+07	      76.5	   15.3636	   2.27413	1.34739e+07	      76.5	   15.3758	   2.27202	 1.3251e+07	      76.5	   15.3728	   2.25996	1.30554e+07	
         R10	   5689	      76.5	    15.381	     2.265	1.30212e+07	      76.5	   15.3707	   2.27903	  1.347e+07	      76.5	   15.3848	   2.28884	1.33716e+07	      76.5	   15.3943	   2.27234	1.29127e+07	      76.5	   15.3758	   2.27202	1.32455e+07	      76.5	   15.3778	   2.28393	 1.3417e+07	      76.5	   15.3896	   2.28059	 1.3142e+07	      76.5	   15.3876	   2.26867	1.29647e+07	
         R10	   5690	      76.5	   15.3943	   2.27234	1.29053e+07	      76.5	   15.3848	   2.28884	1.33759e+07	      76.5	    15.399	   2.29864	  1.319e+07	      76.5	   15.4075	   2.28366	 1.2792e+07	      76.5	   15.3896	   2.28059	1.31404e+07	      76.5	   15.3919	   2.29374	1.32792e+07	      76.5	   15.4032	   2.29115	1.29907e+07	      76.5	   15.4009	     2.278	1.28457e+07	
         R10	   5691	      76.5	   15.4075	   2.28366	1.27938e+07	      76.5	    15.399	   2.29864	1.31887e+07	      76.5	   15.4131	   2.30845	1.29233e+07	      76.5	   15.4241	   2.29331	1.25129e+07	      76.5	   15.4032	   2.29115	 1.2991e+07	      76.5	   15.4061	   2.30355	1.30527e+07	      76.5	   15.4186	   2.30088	1.27178e+07	      76.5	   15.4158	   2.28849	1.26503e+07	
         R10	   5692	      76.5	   15.4241	   2.29331	 1.2507e+07	      76.5	   15.4131	   2.30845	1.29212e+07	      76.5	   15.4273	   2.31826	1.25947e+07	      76.5	   15.4366	   2.30084	1.22634e+07	      76.5	   15.4186	   2.30088	1.27138e+07	      76.5	   15.4202	   2.31335	1.27553e+07	      76.5	    15.432	   2.30955	1.24282e+07	      76.5	   15.4304	   2.29708	1.23837e+07	
         R10	   5693	      76.5	   15.4366	   2.30084	1.22664e+07	      76.5	   15.4273	   2.31826	1.25918e+07	      76.5	   15.4414	   2.32806	1.22249e+07	      76.5	   15.4515	   2.31319	1.19522e+07	      76.5	    15.432	   2.30955	1.24282e+07	      76.5	   15.4343	   2.32316	1.24063e+07	      76.5	   15.4465	   2.32063	1.20879e+07	      76.5	   15.4441	   2.30702	1.21069e+07	
         R10	   5694	      76.5	   15.4515	   2.31319	1.19482e+07	      76.5	   15.4414	   2.32806	1.22226e+07	      76.5	   15.4555	   2.33787	1.18395e+07	      76.5	   15.4656	   2.32337	1.16223e+07	      76.5	   15.4465	   2.32063	1.20848e+07	      76.5	   15.4485	   2.33297	1.20296e+07	      76.5	   15.4606	   2.33062	1.17302e+07	      76.5	   15.4586	   2.31828	1.17839e+07	
         R10	   5695	      76.5	   15.4656	   2.32337	1.16206e+07	      76.5	   15.4555	   2.33787	1.18376e+07	      76.5	   15.4697	   2.34768	1.14574e+07	      76.5	   15.4797	   2.33317	1.12883e+07	      76.5	   15.4606	   2.33062	1.17285e+07	      76.5	   15.4626	   2.34277	1.16465e+07	      76.5	   15.4747	   2.34042	1.13722e+07	      76.5	   15.4727	   2.32827	1.14535e+07	
         R10	   5696	      76.5	   15.4797	   2.33317	1.12871e+07	      76.5	   15.4697	   2.34768	1.14559e+07	      76.5	   15.4838	   2.35748	1.10911e+07	      76.5	   15.4939	   2.34298	 1.0962e+07	      76.5	   15.4747	   2.34042	1.13709e+07	      76.5	   15.4768	   2.35258	1.12728e+07	      76.5	   15.4889	   2.35023	 1.1026e+07	      76.5	   15.4868	   2.33808	1.11239e+07	
         R10	   5697	      76.5	   15.4939	   2.34298	1.09614e+07	      76.5	   15.4838	   2.35748	1.10899e+07	      76.5	    15.498	   2.36729	1.07487e+07	      76.5	    15.508	   2.35279	1.06507e+07	      76.5	   15.4889	   2.35023	1.10251e+07	      76.5	   15.4909	   2.36239	1.09189e+07	      76.5	    15.503	   2.36004	1.06992e+07	      76.5	    15.501	   2.34788	1.08056e+07	
         R10	   5698	      76.5	    15.508	   2.35279	1.06505e+07	      76.5	    15.498	   2.36729	1.07482e+07	      76.5	   15.5121	   2.37709	1.04328e+07	      76.5	   15.5228	   2.36281	1.03482e+07	      76.5	    15.503	   2.36004	1.06988e+07	      76.5	    15.505	   2.37219	1.05902e+07	      76.5	   15.5175	   2.36995	1.03901e+07	      76.5	   15.5154	    2.3578	 1.0499e+07	
         R10	   5699	      76.5	   15.5228	   2.36281	1.03489e+07	      76.5	   15.5121	   2.37709	1.04333e+07	      76.5	   15.5263	    2.3869	 1.0145e+07	      76.5	   15.5376	   2.37521	1.00541e+07	      76.5	   15.5175	   2.36995	1.03906e+07	      76.5	   15.5192	     2.382	 1.0289e+07	      76.5	   15.5319	   2.38105	1.00993e+07	      76.5	   15.5302	   2.36901	1.02012e+07	
         R10	   5700	      76.5	   15.5467	   2.42018	9.66198e+06	      76.5	   15.5285	   2.40889	9.96457e+06	      76.5	   15.5167	   2.42108	1.00524e+07	      76.5	   15.5316	   2.43326	9.76547e+06	      76.5	   15.5376	   2.41454	9.81316e+06	      76.5	   15.5226	   2.41498	1.00082e+07	      76.5	   15.5242	   2.42717	 9.9088e+06	      76.5	   15.5391	   2.42672	9.71337e+06	
         R10	   5701	      76.5	   15.5316	   2.43326	 9.7666e+06	      76.5	   15.5167	   2.42108	1.00528e+07	      76.5	   15.5048	   2.43326	 1.0144e+07	      76.5	   15.5178	   2.44575	9.87368e+06	      76.5	   15.5242	   2.42717	9.90956e+06	      76.5	   15.5108	   2.42717	 1.0098e+07	      76.5	   15.5113	    2.4395	1.00087e+07	      76.5	   15.5247	   2.43951	9.81983e+06	
         R10	   5702	      76.5	   15.5178	   2.44575	9.87157e+06	      76.5	   15.5048	   2.43326	1.01437e+07	      76.5	    15.493	   2.44544	1.02415e+07	      76.5	   15.5061	   2.45739	9.96982e+06	      76.5	   15.5113	    2.4395	1.00075e+07	      76.5	   15.4989	   2.43935	1.01923e+07	      76.5	   15.4996	   2.45142	1.01056e+07	      76.5	    15.512	   2.45157	9.92039e+06	
         R10	   5703	      76.5	   15.5061	   2.45739	9.96722e+06	      76.5	    15.493	   2.44544	1.02413e+07	      76.5	   15.4811	   2.45763	1.03541e+07	      76.5	   15.4939	   2.46863	1.00817e+07	      76.5	   15.4996	   2.45142	1.01042e+07	      76.5	    15.487	   2.45154	1.02974e+07	      76.5	   15.4875	   2.46313	1.02178e+07	      76.5	      15.5	   2.46301	1.00242e+07	
         R10	   5704	      76.5	   15.4939	   2.46863	1.00818e+07	      76.5	   15.4811	   2.45763	1.03541e+07	      76.5	   15.4693	   2.46981	1.04824e+07	      76.5	   15.4827	   2.48074	 1.0199e+07	      76.5	   15.4875	   2.46313	1.02179e+07	      76.5	   15.4752	   2.46372	1.04179e+07	      76.5	    15.476	   2.47528	1.03406e+07	      76.5	   15.4883	   2.47469	1.01401e+07	
         R10	   5705	      76.5	   15.4827	   2.48074	1.01991e+07	      76.5	   15.4693	   2.46981	1.04816e+07	      76.5	   15.4574	     2.482	1.06418e+07	      76.5	   15.4712	   2.49513	1.03259e+07	      76.5	    15.476	   2.47528	1.03403e+07	      76.5	   15.4633	   2.47591	1.05614e+07	      76.5	   15.4643	   2.48856	1.04838e+07	      76.5	   15.4769	   2.48794	1.02622e+07	
         R10	   5706	      76.5	   15.4712	   2.49513	1.03336e+07	      76.5	   15.4574	     2.482	1.06393e+07	      76.5	   15.4456	   2.49418	1.08306e+07	      76.5	   15.4602	   2.50524	1.04994e+07	      76.5	   15.4643	   2.48856	1.04864e+07	      76.5	   15.4515	   2.48809	1.07346e+07	      76.5	   15.4529	   2.49971	 1.0665e+07	      76.5	   15.4657	   2.50019	1.04163e+07	
         R10	   5707	      76.5	   15.4602	   2.50524	1.05031e+07	      76.5	   15.4456	   2.49418	1.08276e+07	      76.5	   15.4337	   2.50637	1.10716e+07	      76.5	   15.4462	    2.5201	 1.0743e+07	      76.5	   15.4529	   2.49971	1.06653e+07	      76.5	   15.4396	   2.50027	1.09492e+07	      76.5	     15.44	   2.51323	1.09073e+07	      76.5	   15.4532	   2.51267	1.06225e+07	
         R10	   5708	      76.5	   15.4462	    2.5201	1.07443e+07	      76.5	   15.4337	   2.50637	1.10618e+07	      76.5	   15.4218	   2.51855	1.13607e+07	      76.5	   15.4344	   2.53078	1.10247e+07	      76.5	     15.44	   2.51323	 1.0903e+07	      76.5	   15.4278	   2.51246	1.12107e+07	      76.5	   15.4281	   2.52466	1.11927e+07	      76.5	   15.4403	   2.52544	 1.0884e+07	
         R10	   5709	      76.5	   15.4462	    2.5201	1.07338e+07	      76.5	   15.4344	   2.53078	1.10223e+07	      76.5	   15.4512	   2.54714	1.06074e+07	      76.5	   15.4726	   2.52798	1.01947e+07	      76.5	   15.4403	   2.52544	1.08775e+07	      76.5	   15.4428	   2.53896	1.08149e+07	      76.5	   15.4619	   2.53756	1.03997e+07	      76.5	   15.4594	   2.52404	1.04641e+07	
         R10	   5710	      76.5	   15.4726	   2.52798	 1.0203e+07	      76.5	   15.4512	   2.54714	1.05984e+07	      76.5	   15.4723	   2.56762	1.01511e+07	      76.5	   15.4958	   2.54589	9.78277e+06	      76.5	   15.4619	   2.53756	1.03994e+07	      76.5	   15.4618	   2.55738	1.03747e+07	      76.5	    15.484	   2.55676	9.96528e+06	      76.5	   15.4842	   2.53693	9.99289e+06	
         R10	   5711	      76.5	   15.4958	   2.54589	 9.7786e+06	      76.5	   15.4723	   2.56762	1.01564e+07	      76.5	   15.4976	   2.59224	9.68287e+06	      76.5	   15.5257	   2.56725	9.32157e+06	      76.5	    15.484	   2.55676	9.96581e+06	      76.5	   15.4849	   2.57993	9.91963e+06	      76.5	   15.5116	   2.57975	9.50013e+06	      76.5	   15.5107	   2.55657	9.55006e+06	
         R10	   5712	      76.5	   15.5257	   2.56725	9.31834e+06	      76.5	   15.4976	   2.59224	9.69039e+06	      76.5	   15.5271	     2.621	9.21817e+06	      76.5	   15.5601	   2.59072	8.87478e+06	      76.5	   15.5116	   2.57975	9.50222e+06	      76.5	   15.5124	   2.60662	9.45425e+06	      76.5	   15.5436	   2.60586	9.04362e+06	      76.5	   15.5429	   2.57899	9.09653e+06	
         R10	   5713	      76.5	   15.5601	   2.59072	8.87463e+06	      76.5	   15.5271	     2.621	9.22143e+06	      76.5	   15.5609	   2.65388	8.76466e+06	      76.5	   15.5977	   2.61892	8.45868e+06	      76.5	   15.5436	   2.60586	9.04515e+06	      76.5	    15.544	   2.63744	8.99299e+06	      76.5	   15.5793	    2.6364	8.60804e+06	      76.5	   15.5789	   2.60482	8.66663e+06	
         R10	   5714	      76.5	   15.5977	   2.61892	8.45984e+06	      76.5	   15.5609	   2.65388	8.76278e+06	      76.5	    15.599	   2.69089	8.32673e+06	      76.5	   15.6389	   2.65253	8.06519e+06	      76.5	   15.5793	    2.6364	8.60773e+06	      76.5	     15.58	   2.67238	8.54468e+06	      76.5	   15.6189	   2.67171	8.19154e+06	      76.5	   15.6183	   2.63573	8.26249e+06	
         R10	   5715	      76.5	   15.6389	   2.65253	8.06684e+06	      76.5	    15.599	   2.69089	8.31984e+06	      76.5	   15.6413	   2.73204	 7.9115e+06	      76.5	   15.6855	   2.69013	7.69105e+06	      76.5	   15.6189	   2.67171	8.18908e+06	      76.5	   15.6201	   2.71146	8.11555e+06	      76.5	   15.6634	   2.71108	7.79572e+06	      76.5	   15.6622	   2.67133	7.87892e+06	
         R10	   5716	      76.5	   15.6855	   2.69013	7.69379e+06	      76.5	   15.6413	   2.73204	7.89376e+06	      76.5	   15.6878	   2.77731	7.52754e+06	      76.5	    15.737	    2.7305	7.35251e+06	      76.5	   15.6634	   2.71108	7.78854e+06	      76.5	   15.6645	   2.75467	7.71043e+06	      76.5	   15.7124	    2.7539	7.43216e+06	      76.5	   15.7112	   2.71031	7.52313e+06	
         R10	   5717	      76.5	    15.737	    2.7305	7.36246e+06	      76.5	   15.6878	   2.77731	7.49546e+06	      76.5	   15.7386	   2.82672	7.16222e+06	      76.5	   15.7874	   2.77603	7.11181e+06	      76.5	   15.7124	    2.7539	7.42165e+06	      76.5	   15.7132	   2.80201	7.32865e+06	      76.5	    15.763	   2.80137	7.12856e+06	      76.5	   15.7622	   2.75326	 7.2371e+06	
         R10	   5718	      76.5	   15.7874	   2.77603	 7.1068e+06	      76.5	   15.7386	   2.82672	7.09905e+06	      76.5	   15.7936	   2.88026	6.88599e+06	      76.5	   15.8419	   2.82919	6.90683e+06	      76.5	    15.763	   2.80137	7.09449e+06	      76.5	   15.7661	   2.85349	6.99106e+06	      76.5	   15.8178	   2.85472	6.87633e+06	      76.5	   15.8147	   2.80261	7.00646e+06	
         R10	   5719	      76.5	   15.8419	   2.82919	 7.0294e+06	      76.5	   15.7936	   2.88026	6.69405e+06	      76.5	   15.8529	   2.93793	6.91056e+06	      76.5	   15.9033	   2.87798	7.14962e+06	      76.5	   15.8178	   2.85472	 6.8477e+06	      76.5	   15.8232	   2.90909	6.79716e+06	      76.5	   15.8781	   2.90795	7.02308e+06	      76.5	   15.8726	   2.85359	7.08418e+06	
         R10	   5720	      76.5	   15.9033	   2.87798	8.11938e+06	      76.5	   15.8529	   2.93793	4.87472e+06	      76.5	   15.9164	   2.99973	1.17135e+07	      76.5	   15.9593	   2.92175	8.11298e+06	      76.5	   15.8781	   2.90795	6.48871e+06	      76.5	   15.8846	   2.96883	8.09691e+06	      76.5	   15.9378	   2.96074	9.89435e+06	      76.5	   15.9313	   2.89986	7.95759e+06	
         R10	   5721	      76.5	   15.9033	   2.87798	8.04694e+06	      76.5	   15.9593	   2.92175	 7.6326e+06	      76.5	   16.0036	   2.84119	6.71811e+06	      76.5	   15.9321	   2.79079	7.31103e+06	      76.5	   15.9313	   2.89986	 7.6739e+06	      76.5	   15.9814	   2.88147	 7.1167e+06	      76.5	   15.9679	   2.81599	7.00047e+06	      76.5	   15.9177	   2.83439	7.67744e+06	
         R10	   5722	      76.5	   15.9321	   2.79079	7.28598e+06	      76.5	   16.0036	   2.84119	6.70937e+06	      76.5	   16.0493	   2.75805	6.67331e+06	      76.5	   15.9769	   2.70814	7.12855e+06	      76.5	   15.9679	   2.81599	6.97726e+06	      76.5	   16.0265	   2.79962	6.66556e+06	      76.5	   16.0131	   2.73309	6.89919e+06	      76.5	   15.9545	   2.74947	7.20322e+06	
         R10	   5723	      76.5	   15.9769	   2.70814	7.12208e+06	      76.5	   16.0493	   2.75805	6.68521e+06	      76.5	   16.0965	   2.67232	6.94019e+06	      76.5	    16.012	   2.62473	7.22925e+06	      76.5	   16.0131	   2.73309	6.90123e+06	      76.5	   16.0729	   2.71519	6.80508e+06	      76.5	   16.0542	   2.64853	7.08399e+06	      76.5	   15.9945	   2.66643	7.17112e+06	
         R10	   5724	      76.5	    16.012	   2.62473	7.22198e+06	      76.5	   16.0965	   2.67232	6.93927e+06	      76.5	    16.145	   2.58402	7.30483e+06	      76.5	   16.0584	   2.53504	7.45661e+06	      76.5	   16.0542	   2.64853	7.07989e+06	      76.5	   16.1208	   2.62817	7.11896e+06	      76.5	   16.1017	   2.55953	7.38031e+06	      76.5	   16.0352	   2.57989	7.33681e+06	
         R10	   5725	      76.5	   16.0584	   2.53504	7.44928e+06	      76.5	    16.145	   2.58402	7.30516e+06	      76.5	    16.195	   2.49314	 7.7102e+06	      76.5	   16.1062	   2.44317	7.78708e+06	      76.5	   16.1017	   2.55953	7.37682e+06	      76.5	     16.17	   2.53858	7.50662e+06	      76.5	   16.1506	   2.46816	7.74833e+06	      76.5	   16.0823	   2.48911	7.61712e+06	
         R10	   5726	      76.5	   16.1062	   2.44317	 7.7749e+06	      76.5	    16.195	   2.49314	7.71156e+06	      76.5	   16.2464	   2.39967	8.13508e+06	      76.5	   16.1551	   2.34774	8.18155e+06	      76.5	   16.1506	   2.46816	7.74293e+06	      76.5	   16.2207	    2.4464	7.92296e+06	      76.5	   16.2008	   2.37371	8.15794e+06	      76.5	   16.1307	   2.39546	7.97782e+06	
         R10	   5727	      76.5	   16.1551	   2.34774	8.15993e+06	      76.5	   16.2464	   2.39967	8.13824e+06	      76.5	   16.2993	   2.30363	8.55138e+06	      76.5	   16.2041	   2.24944	8.61391e+06	      76.5	   16.2008	   2.37371	8.14873e+06	      76.5	   16.2729	   2.35165	8.34456e+06	      76.5	   16.2517	   2.27654	8.58207e+06	      76.5	   16.1796	   2.29859	8.38673e+06	
         R10	   5728	      76.5	   16.2041	   2.24944	8.58253e+06	      76.5	   16.2993	   2.30363	8.54876e+06	      76.5	   16.3535	     2.205	8.93645e+06	      76.5	   16.2567	   2.15454	9.13802e+06	      76.5	   16.2517	   2.27654	8.56507e+06	      76.5	   16.3264	   2.25431	8.74235e+06	      76.5	   16.3051	   2.17977	9.03662e+06	      76.5	   16.2304	   2.20199	8.86012e+06	
         R10	   5729	      76.5	   16.2567	   2.15454	9.08032e+06	      76.5	   16.3535	     2.205	8.94669e+06	      76.5	   16.4092	   2.10379	9.54105e+06	      76.5	   16.3126	   2.05747	9.59512e+06	      76.5	   16.3051	   2.17977	9.01246e+06	      76.5	   16.3814	   2.15439	9.24378e+06	      76.5	   16.3609	   2.08063	9.56767e+06	      76.5	   16.2847	   2.10601	9.33579e+06	
         R10	   5730	      76.5	   16.3126	   2.05747	9.47919e+06	      76.5	   16.4092	   2.10379	9.48486e+06	      76.5	   16.4663	         2	 1.0593e+07	      76.5	   16.3597	   1.96344	 1.0223e+07	      76.5	   16.3609	   2.08063	9.48173e+06	      76.5	   16.4377	   2.05189	1.00377e+07	      76.5	    16.413	   1.98172	 1.0406e+07	      76.5	   16.3361	   2.01045	9.84712e+06	
         R10	   5731	      76.5	   16.3126	   2.05747	9.59644e+06	      76.5	   16.3597	   1.96344	1.02734e+07	      76.5	   16.2559	   1.92784	 9.8055e+06	      76.5	   16.2166	   2.02144	9.47985e+06	      76.5	   16.3361	   2.01045	9.93052e+06	      76.5	   16.3078	   1.94564	1.00385e+07	      76.5	   16.2362	   1.97464	9.64065e+06	      76.5	   16.2646	   2.03946	  9.538e+06	
         R10	   5732	      76.5	   16.2166	   2.02144	9.53036e+06	      76.5	   16.2559	   1.92784	9.81869e+06	      76.5	   16.1549	    1.8932	9.58725e+06	      76.5	   16.1197	   1.98743	9.29775e+06	      76.5	   16.2362	   1.97464	9.67239e+06	      76.5	   16.2054	   1.91052	9.70182e+06	      76.5	   16.1373	   1.94032	9.44114e+06	      76.5	   16.1681	   2.00444	9.41351e+06	
         R10	   5733	      76.5	   16.1197	   1.98743	9.32698e+06	      76.5	   16.1549	    1.8932	9.58711e+06	      76.5	   16.0567	   1.85954	9.38767e+06	      76.5	   16.0256	   1.95475	9.16996e+06	      76.5	   16.1373	   1.94032	9.45572e+06	      76.5	   16.1058	   1.87637	9.48619e+06	      76.5	   16.0412	   1.90714	9.27796e+06	      76.5	   16.0727	   1.97109	9.24777e+06	
         R10	   5734	      76.5	   16.0256	   1.95475	9.19189e+06	      76.5	   16.0567	   1.85954	9.38665e+06	      76.5	   15.9614	   1.82684	9.22204e+06	      76.5	    15.931	   1.91877	9.08486e+06	      76.5	   16.0412	   1.90714	9.28842e+06	      76.5	   16.0091	   1.84319	9.30279e+06	      76.5	   15.9462	    1.8728	 9.1529e+06	      76.5	   15.9783	   1.93676	9.13719e+06	
         R10	   5735	      76.5	    15.931	   1.91877	9.09903e+06	      76.5	   15.9614	   1.82684	9.22296e+06	      76.5	   15.8689	    1.7951	9.08995e+06	      76.5	   15.8394	   1.88459	 9.0294e+06	      76.5	   15.9462	    1.8728	9.16045e+06	      76.5	   15.9151	   1.81097	9.15435e+06	      76.5	   15.8541	   1.83984	9.05926e+06	      76.5	   15.8852	   1.90168	 9.0623e+06	
         R10	   5736	      76.5	   15.8394	   1.88459	9.03856e+06	      76.5	   15.8689	    1.7951	9.09145e+06	      76.5	   15.7791	   1.76433	8.97721e+06	      76.5	   15.7506	   1.85109	8.99047e+06	      76.5	   15.8541	   1.83984	 9.0646e+06	      76.5	    15.824	   1.77972	9.03153e+06	      76.5	   15.7649	   1.80771	8.98344e+06	      76.5	    15.795	   1.86784	9.01163e+06	
         R10	   5737	      76.5	   15.7506	   1.85109	8.99665e+06	      76.5	   15.7791	   1.76433	8.97866e+06	      76.5	   15.6922	   1.73453	8.86816e+06	      76.5	   15.6645	   1.81869	8.95148e+06	      76.5	   15.7649	   1.80771	8.98725e+06	      76.5	   15.7357	   1.74943	8.91988e+06	      76.5	   15.6784	   1.77661	8.90925e+06	      76.5	   15.7076	   1.83489	8.96999e+06	
         R10	   5738	      76.5	   15.6645	   1.81869	8.95532e+06	      76.5	   15.6922	   1.73453	8.86952e+06	      76.5	   15.6082	   1.70569	 8.7455e+06	      76.5	   15.5845	   1.78673	8.89612e+06	      76.5	   15.6784	   1.77661	8.91185e+06	      76.5	   15.6502	   1.72011	8.80323e+06	      76.5	   15.5963	   1.74621	8.82006e+06	      76.5	   15.6245	   1.80271	8.92087e+06	
         R10	   5739	      76.5	   15.5845	   1.78673	8.89843e+06	      76.5	   15.6082	   1.70569	8.74689e+06	      76.5	   15.5269	   1.67782	8.58248e+06	      76.5	   15.5047	   1.75641	8.84045e+06	      76.5	   15.5963	   1.74621	8.82193e+06	      76.5	   15.5675	   1.69176	8.65955e+06	      76.5	   15.5158	   1.71711	8.71031e+06	      76.5	   15.5446	   1.77157	8.86308e+06	
         R10	   5740	      76.5	   15.5047	   1.75641	8.83747e+06	      76.5	   15.5269	   1.67782	8.58954e+06	      76.5	   15.4484	   1.65091	8.43687e+06	      76.5	   15.4339	   1.73552	8.77109e+06	      76.5	   15.5158	   1.71711	8.71237e+06	      76.5	   15.4877	   1.66437	8.50649e+06	      76.5	   15.4412	   1.69322	8.60328e+06	      76.5	   15.4693	   1.74596	8.79861e+06	
         R10	   5741	      76.5	   15.4326	   1.82068	9.35656e+06	      76.5	   15.3662	   1.81951	9.42411e+06	      76.5	   15.3619	   1.88534	9.74753e+06	      76.5	   15.4233	    1.8906	9.65136e+06	      76.5	   15.3994	    1.8201	9.38596e+06	      76.5	    15.364	   1.85243	9.58576e+06	      76.5	   15.3926	   1.88797	9.69517e+06	      76.5	   15.4279	   1.85564	9.50393e+06	
         R10	   5742	      76.5	   15.4233	    1.8906	9.69215e+06	      76.5	   15.3619	   1.88534	9.78553e+06	      76.5	   15.3567	   1.94418	1.01048e+07	      76.5	   15.4125	   1.94919	9.99658e+06	      76.5	   15.3926	   1.88797	9.73451e+06	      76.5	   15.3593	   1.91476	9.94513e+06	      76.5	   15.3846	   1.94668	1.00467e+07	      76.5	   15.4179	   1.91989	9.84434e+06	
         R10	   5743	      76.5	   15.4125	   1.94919	1.00173e+07	      76.5	   15.3567	   1.94418	1.01196e+07	      76.5	   15.3514	   1.99781	1.04504e+07	      76.5	   15.4017	   2.00274	1.03412e+07	      76.5	   15.3846	   1.94668	1.00645e+07	      76.5	   15.3541	   1.97099	 1.0285e+07	      76.5	   15.3766	   2.00027	 1.0392e+07	      76.5	   15.4071	   1.97596	1.01792e+07	
         R10	   5744	      76.5	   15.4017	   2.00274	1.03486e+07	      76.5	   15.3514	   1.99781	1.04574e+07	      76.5	   15.3465	   2.04651	1.08023e+07	      76.5	    15.392	   2.05185	1.06916e+07	      76.5	   15.3766	   2.00027	1.03991e+07	      76.5	    15.349	   2.02216	1.06298e+07	      76.5	   15.3693	   2.04918	1.07431e+07	      76.5	   15.3969	    2.0273	  1.052e+07	
         R10	   5745	      76.5	    15.392	   2.05185	1.06945e+07	      76.5	   15.3465	   2.04651	1.08055e+07	      76.5	    15.342	   2.08988	1.11621e+07	      76.5	   15.3849	   2.09576	1.10455e+07	      76.5	   15.3693	   2.04918	1.07461e+07	      76.5	   15.3443	    2.0682	1.09837e+07	      76.5	   15.3635	   2.09282	1.10995e+07	      76.5	   15.3885	    2.0738	1.08698e+07	
         R10	   5746	      76.5	   15.3849	   2.09576	1.10461e+07	      76.5	    15.342	   2.08988	 1.1164e+07	      76.5	   15.3373	   2.12784	1.15317e+07	      76.5	   15.3761	   2.13434	1.14203e+07	      76.5	   15.3635	   2.09282	1.11008e+07	      76.5	   15.3397	   2.10886	1.13478e+07	      76.5	   15.3567	   2.13109	1.14714e+07	      76.5	   15.3805	   2.11505	1.12331e+07	
         R10	   5747	      76.5	   15.3761	   2.13434	  1.142e+07	      76.5	   15.3373	   2.12784	1.15333e+07	      76.5	   15.3318	   2.16055	1.19098e+07	      76.5	   15.3656	   2.16659	1.18105e+07	      76.5	   15.3567	   2.13109	 1.1472e+07	      76.5	   15.3345	    2.1442	1.17215e+07	      76.5	   15.3487	   2.16357	1.18557e+07	      76.5	   15.3709	   2.15046	1.16152e+07	
         R10	   5748	      76.5	   15.3656	   2.16659	1.18067e+07	      76.5	   15.3318	   2.16055	1.19122e+07	      76.5	   15.3262	   2.18837	1.22887e+07	      76.5	   15.3523	   2.19368	1.22235e+07	      76.5	   15.3487	   2.16357	 1.1855e+07	      76.5	    15.329	   2.17446	1.21004e+07	      76.5	   15.3393	   2.19103	1.22526e+07	      76.5	    15.359	   2.18014	 1.2015e+07	
         R10	   5749	      76.5	   15.3523	   2.19368	1.22259e+07	      76.5	   15.3262	   2.18837	1.22886e+07	      76.5	   15.3214	   2.21456	1.27071e+07	      76.5	    15.345	    2.2154	1.25886e+07	      76.5	   15.3393	   2.19103	1.22538e+07	      76.5	   15.3238	   2.20147	1.24979e+07	      76.5	   15.3332	   2.21498	1.26446e+07	      76.5	   15.3487	   2.20454	1.24072e+07	
         R10	   5750	      76.5	   15.3214	   2.21456	1.27056e+07	      76.5	   15.3141	   2.23981	1.32002e+07	      76.5	   15.3283	   2.24961	1.33286e+07	      76.5	    15.337	   2.23521	1.29801e+07	      76.5	   15.3178	   2.22718	1.29529e+07	      76.5	   15.3212	   2.24471	1.32623e+07	      76.5	   15.3326	   2.24241	1.31542e+07	      76.5	   15.3292	   2.22489	  1.284e+07	
         R10	   5751	      76.5	    15.345	    2.2154	1.25864e+07	      76.5	    15.337	   2.23521	1.29843e+07	      76.5	   15.3523	   2.24433	1.30208e+07	      76.5	   15.3637	   2.22617	1.26055e+07	      76.5	    15.341	    2.2253	1.27853e+07	      76.5	   15.3446	   2.23977	1.30001e+07	      76.5	    15.358	   2.23525	 1.2813e+07	      76.5	   15.3544	   2.22078	1.25931e+07	
         R10	   5752	      76.5	   15.3637	   2.22617	1.26089e+07	      76.5	   15.3523	   2.24433	1.30213e+07	      76.5	   15.3646	   2.25493	1.30835e+07	      76.5	   15.3825	   2.23961	1.25991e+07	      76.5	    15.358	   2.23525	 1.2815e+07	      76.5	   15.3585	   2.24963	1.30503e+07	      76.5	   15.3736	   2.24727	1.28407e+07	      76.5	   15.3731	   2.23289	1.26004e+07	
         R10	   5753	      76.5	   15.4105	   2.24985	1.23351e+07	      76.5	   15.3943	   2.27234	1.28991e+07	      76.5	   15.4075	   2.28366	1.27911e+07	      76.5	   15.4278	   2.27102	 1.2252e+07	      76.5	   15.4024	   2.26109	 1.2617e+07	      76.5	   15.4009	     2.278	1.28421e+07	      76.5	   15.4177	   2.27734	1.25213e+07	      76.5	   15.4192	   2.26043	1.22885e+07	
         R10	   5754	      76.5	   15.4467	   2.28414	1.19565e+07	      76.5	   15.4366	   2.30084	1.22657e+07	      76.5	   15.4515	   2.31319	1.19509e+07	      76.5	   15.4623	   2.29777	 1.1684e+07	      76.5	   15.4417	   2.29249	1.21106e+07	      76.5	   15.4441	   2.30702	1.21059e+07	      76.5	   15.4569	   2.30548	1.18169e+07	      76.5	   15.4545	   2.29096	 1.1818e+07	
         R10	   5755	      76.5	   15.4623	   2.29777	1.16806e+07	      76.5	   15.4515	   2.31319	1.19479e+07	      76.5	   15.4656	   2.32337	1.16217e+07	      76.5	   15.4761	    2.3085	1.14052e+07	      76.5	   15.4569	   2.30548	1.18138e+07	      76.5	   15.4586	   2.31828	1.17834e+07	      76.5	   15.4709	   2.31593	1.15129e+07	      76.5	   15.4692	   2.30313	1.15417e+07	
         R10	   5756	      76.5	   15.4761	    2.3085	1.14039e+07	      76.5	   15.4656	   2.32337	1.16198e+07	      76.5	   15.4797	   2.33317	1.12878e+07	      76.5	   15.4902	   2.31811	1.11158e+07	      76.5	   15.4709	   2.31593	1.15114e+07	      76.5	   15.4727	   2.32827	1.14529e+07	      76.5	    15.485	   2.32564	1.12013e+07	      76.5	   15.4832	    2.3133	 1.1259e+07	
         R10	   5757	      76.5	   15.4902	   2.31811	1.11149e+07	      76.5	   15.4797	   2.33317	1.12868e+07	      76.5	   15.4939	   2.34298	1.09614e+07	      76.5	   15.5043	   2.32792	1.08271e+07	      76.5	    15.485	   2.32564	1.12003e+07	      76.5	   15.4868	   2.33808	1.11235e+07	      76.5	   15.4991	   2.33545	1.08937e+07	      76.5	   15.4973	   2.32301	1.09704e+07	
         R10	   5758	      76.5	   15.5043	   2.32792	1.08263e+07	      76.5	   15.4939	   2.34298	1.09608e+07	      76.5	    15.508	   2.35279	1.06509e+07	      76.5	   15.5185	   2.33774	1.05455e+07	      76.5	   15.4991	   2.33545	 1.0893e+07	      76.5	    15.501	   2.34788	1.08054e+07	      76.5	   15.5133	   2.34526	1.05977e+07	      76.5	   15.5114	   2.33283	1.06854e+07	
         R10	   5759	      76.5	   15.5185	   2.33774	1.05449e+07	      76.5	    15.508	   2.35279	1.06504e+07	      76.5	   15.5228	   2.36281	1.03475e+07	      76.5	   15.5339	   2.34848	1.02574e+07	      76.5	   15.5133	   2.34526	1.05972e+07	      76.5	   15.5154	    2.3578	1.04986e+07	      76.5	   15.5284	   2.35564	1.03021e+07	      76.5	   15.5262	   2.34311	1.04008e+07	
         R10	   5760	      76.5	   15.5339	   2.34848	1.02525e+07	      76.5	   15.5228	   2.36281	1.03488e+07	      76.5	   15.5376	   2.37521	1.00537e+07	      76.5	   15.5555	   2.35957	9.90305e+06	      76.5	   15.5284	   2.35564	1.03003e+07	      76.5	   15.5302	   2.36901	1.02009e+07	      76.5	   15.5465	   2.36739	9.97793e+06	      76.5	   15.5447	   2.35402	1.00775e+07	
         R10	   5761	      76.5	    15.557	   2.40256	9.64151e+06	      76.5	   15.5404	   2.39671	9.88513e+06	      76.5	   15.5285	   2.40889	9.96461e+06	      76.5	   15.5467	   2.42018	9.66377e+06	      76.5	   15.5487	   2.39963	9.76326e+06	      76.5	   15.5345	    2.4028	9.92458e+06	      76.5	   15.5376	   2.41454	9.81405e+06	      76.5	   15.5518	   2.41137	9.65218e+06	
         R10	   5762	      76.5	   15.5371	   2.45443	9.57719e+06	      76.5	   15.5178	   2.44575	9.87374e+06	      76.5	   15.5061	   2.45739	9.96139e+06	      76.5	   15.5285	   2.47502	9.57523e+06	      76.5	   15.5275	   2.45009	9.72539e+06	      76.5	    15.512	   2.45157	 9.9173e+06	      76.5	   15.5173	   2.46621	9.76816e+06	      76.5	   15.5328	   2.46473	 9.5758e+06	
         R10	   5763	      76.5	   15.5139	   2.52159	9.58564e+06	      76.5	   15.4958	   2.54589	9.79531e+06	      76.5	   15.5257	   2.56725	9.33759e+06	      76.5	   15.5474	    2.5366	9.14142e+06	      76.5	   15.5048	   2.53374	9.68951e+06	      76.5	   15.5107	   2.55657	9.56643e+06	      76.5	   15.5365	   2.55193	9.23813e+06	      76.5	   15.5306	    2.5291	9.36341e+06	
         R10	   5764	      76.5	   15.5474	    2.5366	9.13916e+06	      76.5	   15.5257	   2.56725	9.33501e+06	      76.5	   15.5601	   2.59072	8.89096e+06	      76.5	   15.5869	   2.55385	8.70578e+06	      76.5	   15.5365	   2.55193	9.23571e+06	      76.5	   15.5429	   2.57899	9.11295e+06	      76.5	   15.5735	   2.57228	8.79644e+06	      76.5	   15.5671	   2.54523	8.92231e+06	
         R10	   5765	      76.5	   15.5869	   2.55385	8.70598e+06	      76.5	   15.5601	   2.59072	8.88992e+06	      76.5	   15.5977	   2.61892	8.47305e+06	      76.5	   15.6283	   2.57859	8.31838e+06	      76.5	   15.5735	   2.57228	8.79601e+06	      76.5	   15.5789	   2.60482	8.68146e+06	      76.5	    15.613	   2.59876	8.39334e+06	      76.5	   15.6076	   2.56622	8.51209e+06	
         R10	   5766	      76.5	   15.6283	   2.57859	8.31796e+06	      76.5	   15.5977	   2.61892	8.47379e+06	      76.5	   15.6389	   2.65253	8.07809e+06	      76.5	   15.6722	   2.60997	7.96858e+06	      76.5	    15.613	   2.59876	8.39348e+06	      76.5	   15.6183	   2.63573	8.27592e+06	      76.5	   15.6556	   2.63125	8.02058e+06	      76.5	   15.6503	   2.59428	8.14321e+06	
         R10	   5767	      76.5	   15.6722	   2.60997	7.96664e+06	      76.5	   15.6389	   2.65253	 8.0804e+06	      76.5	   15.6855	   2.69013	7.70302e+06	      76.5	   15.7217	   2.64523	7.65282e+06	      76.5	   15.6556	   2.63125	8.02073e+06	      76.5	   15.6622	   2.67133	7.89169e+06	      76.5	   15.7036	   2.66768	7.67486e+06	      76.5	    15.697	    2.6276	7.80968e+06	
         R10	   5768	      76.5	   15.7217	   2.64523	7.64695e+06	      76.5	   15.6855	   2.69013	7.70752e+06	      76.5	    15.737	    2.7305	7.37564e+06	      76.5	   15.7791	   2.68022	7.40348e+06	      76.5	   15.7036	   2.66768	7.67411e+06	      76.5	   15.7112	   2.71031	7.54156e+06	      76.5	    15.758	   2.70536	7.38583e+06	      76.5	   15.7504	   2.66272	7.52513e+06	
         R10	   5769	      76.5	   15.7791	   2.68022	7.38631e+06	      76.5	    15.737	    2.7305	7.38372e+06	      76.5	   15.7874	   2.77603	7.09777e+06	      76.5	    15.833	   2.72333	7.26961e+06	      76.5	    15.758	   2.70536	7.38103e+06	      76.5	   15.7622	   2.75326	7.24075e+06	      76.5	   15.8102	   2.74968	7.18024e+06	      76.5	    15.806	   2.70177	7.32794e+06	
         R10	   5770	      76.5	   15.8894	   2.66886	 7.3262e+06	      76.5	   15.9769	   2.70814	7.15534e+06	      76.5	    16.012	   2.62473	7.24202e+06	      76.5	   15.9277	   2.58173	  7.457e+06	      76.5	   15.9332	    2.6885	 7.2391e+06	      76.5	   15.9945	   2.66643	7.19461e+06	      76.5	   15.9699	   2.60323	7.34911e+06	      76.5	   15.9086	   2.62529	7.39017e+06	
         R10	   5771	      76.5	   15.9277	   2.58173	7.44388e+06	      76.5	    16.012	   2.62473	7.23093e+06	      76.5	   16.0584	   2.53504	7.47222e+06	      76.5	   15.9747	   2.49193	7.65792e+06	      76.5	   15.9699	   2.60323	7.33679e+06	      76.5	   16.0352	   2.57989	7.34926e+06	      76.5	   16.0166	   2.51349	 7.5648e+06	      76.5	   15.9512	   2.53683	7.54938e+06	
         R10	   5772	      76.5	   15.9747	   2.49193	7.64309e+06	      76.5	   16.0584	   2.53504	7.46928e+06	      76.5	   16.1062	   2.44317	7.81073e+06	      76.5	   16.0208	   2.39962	7.94548e+06	      76.5	   16.0166	   2.51349	7.55585e+06	      76.5	   16.0823	   2.48911	7.63894e+06	      76.5	   16.0635	    2.4214	7.87784e+06	      76.5	   15.9978	   2.44577	7.79347e+06	
         R10	   5773	      76.5	   16.0208	   2.39962	7.93209e+06	      76.5	   16.1062	   2.44317	7.79936e+06	      76.5	   16.1551	   2.34774	8.21102e+06	      76.5	    16.069	   2.30326	8.31344e+06	      76.5	   16.0635	    2.4214	7.86544e+06	      76.5	   16.1307	   2.39546	8.00479e+06	      76.5	   16.1121	    2.3255	8.26201e+06	      76.5	   16.0449	   2.35144	8.12241e+06	
         R10	   5774	      76.5	    16.069	   2.30326	 8.2942e+06	      76.5	   16.1551	   2.34774	8.19173e+06	      76.5	   16.2041	   2.24944	8.66803e+06	      76.5	   16.1145	   2.20696	8.70394e+06	      76.5	   16.1121	    2.3255	 8.2427e+06	      76.5	   16.1796	   2.29859	8.42969e+06	      76.5	   16.1593	    2.2282	8.68581e+06	      76.5	   16.0917	   2.25511	8.49894e+06	
         R10	   5775	      76.5	   16.1145	   2.20696	8.67215e+06	      76.5	   16.2041	   2.24944	8.64485e+06	      76.5	   16.2567	   2.15454	9.13651e+06	      76.5	   16.1647	   2.11263	 9.1111e+06	      76.5	   16.1593	    2.2282	8.65829e+06	      76.5	   16.2304	   2.20199	8.89013e+06	      76.5	   16.2107	   2.13358	9.12358e+06	      76.5	   16.1396	   2.15979	8.89134e+06	
         R10	   5776	      76.5	   16.1647	   2.11263	9.07352e+06	      76.5	   16.2567	   2.15454	9.06835e+06	      76.5	   16.3126	   2.05747	 9.6935e+06	      76.5	   16.2166	   2.02144	9.50964e+06	      76.5	   16.2107	   2.13358	9.07085e+06	      76.5	   16.2847	   2.10601	9.37977e+06	      76.5	   16.2646	   2.03946	9.60122e+06	      76.5	   16.1906	   2.06703	9.29028e+06	
         R10	   5777	      76.5	   16.1647	   2.11263	 9.0976e+06	      76.5	   16.2166	   2.02144	9.57336e+06	      76.5	   16.1197	   1.98743	9.38251e+06	      76.5	   16.0762	   2.07972	9.03653e+06	      76.5	   16.1906	   2.06703	9.33446e+06	      76.5	   16.1681	   2.00444	9.47762e+06	      76.5	   16.0979	   2.03357	9.20864e+06	      76.5	   16.1204	   2.09617	9.06684e+06	
         R10	   5778	      76.5	   16.0762	   2.07972	9.06197e+06	      76.5	   16.1197	   1.98743	9.41149e+06	      76.5	   16.0256	   1.95475	9.25702e+06	      76.5	   15.9907	   2.04191	9.03409e+06	      76.5	   16.0979	   2.03357	9.23582e+06	      76.5	   16.0727	   1.97109	9.33356e+06	      76.5	   16.0082	   1.99833	9.14512e+06	      76.5	   16.0334	   2.06082	9.04766e+06	
         R10	   5779	      76.5	   15.9907	   2.04191	9.04674e+06	      76.5	   16.0256	   1.95475	9.27761e+06	      76.5	    15.931	   1.91877	9.17106e+06	      76.5	   15.8976	   2.00532	 9.0511e+06	      76.5	   16.0082	   1.99833	9.16173e+06	      76.5	   15.9783	   1.93676	9.22317e+06	      76.5	   15.9143	   1.96204	9.11082e+06	      76.5	   15.9441	   2.02361	9.04794e+06	
         R10	   5780	      76.5	   15.8976	   2.00532	9.06066e+06	      76.5	    15.931	   1.91877	9.18553e+06	      76.5	   15.8394	   1.88459	9.12076e+06	      76.5	   15.8076	   1.96933	9.09505e+06	      76.5	   15.9143	   1.96204	9.12283e+06	      76.5	   15.8852	   1.90168	9.15124e+06	      76.5	   15.8235	   1.92696	9.10775e+06	      76.5	   15.8526	   1.98732	9.07614e+06	
         R10	   5781	      76.5	   15.8076	   1.96933	9.10573e+06	      76.5	   15.8394	   1.88459	9.13015e+06	      76.5	   15.7506	   1.85109	 9.0842e+06	      76.5	   15.7197	   1.93316	9.16256e+06	      76.5	   15.8235	   1.92696	9.11778e+06	      76.5	    15.795	   1.86784	9.10431e+06	      76.5	   15.7352	   1.89213	9.12321e+06	      76.5	   15.7637	   1.95125	9.13114e+06	
         R10	   5782	      76.5	   15.7197	   1.93316	9.16896e+06	      76.5	   15.7506	   1.85109	9.09068e+06	      76.5	   15.6645	   1.81869	9.04956e+06	      76.5	   15.6373	   1.89656	9.21701e+06	      76.5	   15.7352	   1.89213	9.12965e+06	      76.5	   15.7076	   1.83489	9.06612e+06	      76.5	   15.6509	   1.85762	9.13308e+06	      76.5	   15.6785	   1.91486	9.18874e+06	
         R10	   5783	      76.5	   15.6373	   1.89656	9.21985e+06	      76.5	   15.6645	   1.81869	9.05264e+06	      76.5	   15.5845	   1.78673	9.00379e+06	      76.5	   15.5632	   1.86115	9.23097e+06	      76.5	   15.6509	   1.85762	9.13603e+06	      76.5	   15.6245	   1.80271	9.02347e+06	      76.5	   15.5738	   1.82394	9.11719e+06	      76.5	   15.6002	   1.87885	9.22068e+06	
         R10	   5784	      76.5	   15.4938	    1.8307	9.27891e+06	      76.5	   15.4326	   1.82068	 9.3424e+06	      76.5	   15.4233	    1.8906	9.65771e+06	      76.5	   15.4804	   1.90204	9.58622e+06	      76.5	   15.4632	   1.82569	9.30672e+06	      76.5	   15.4279	   1.85564	9.50003e+06	      76.5	   15.4518	   1.89632	 9.6184e+06	      76.5	   15.4871	   1.86637	9.43254e+06	
         R10	   5785	      76.5	   15.4804	   1.90204	9.61646e+06	      76.5	   15.4233	    1.8906	9.69569e+06	      76.5	   15.4125	   1.94919	9.99639e+06	      76.5	   15.4662	   1.95931	9.89853e+06	      76.5	   15.4518	   1.89632	9.65244e+06	      76.5	   15.4179	   1.91989	9.84601e+06	      76.5	   15.4394	   1.95425	9.94385e+06	      76.5	   15.4733	   1.93068	9.75747e+06	
         R10	   5786	      76.5	   15.4662	   1.95931	9.91317e+06	      76.5	   15.4125	   1.94919	1.00168e+07	      76.5	   15.4017	   2.00274	1.03411e+07	      76.5	   15.4501	    2.0121	1.02213e+07	      76.5	   15.4394	   1.95425	9.96133e+06	      76.5	   15.4071	   1.97596	1.01789e+07	      76.5	   15.4259	   2.00742	1.02777e+07	      76.5	   15.4582	    1.9857	1.00672e+07	
         R10	   5787	      76.5	   15.4501	    2.0121	1.02295e+07	      76.5	   15.4017	   2.00274	1.03485e+07	      76.5	    15.392	   2.05185	1.06919e+07	      76.5	   15.4372	   2.06081	1.05532e+07	      76.5	   15.4259	   2.00742	1.02855e+07	      76.5	   15.3969	    2.0273	1.05201e+07	      76.5	   15.4146	   2.05633	1.06188e+07	      76.5	   15.4436	   2.03646	1.03912e+07	
         R10	   5788	      76.5	   15.4372	   2.06081	1.05547e+07	      76.5	    15.392	   2.05185	1.06947e+07	      76.5	   15.3849	   2.09576	1.10451e+07	      76.5	   15.4276	   2.10533	1.08898e+07	      76.5	   15.4146	   2.05633	1.06211e+07	      76.5	   15.3885	    2.0738	1.08698e+07	      76.5	   15.4063	   2.10054	1.09632e+07	      76.5	   15.4324	   2.08307	 1.0722e+07	
         R10	   5789	      76.5	   15.4276	   2.10533	 1.0889e+07	      76.5	   15.3849	   2.09576	1.10454e+07	      76.5	   15.3761	   2.13434	1.14226e+07	      76.5	   15.4151	   2.14429	1.12573e+07	      76.5	   15.4063	   2.10054	 1.0963e+07	      76.5	   15.3805	   2.11505	1.12339e+07	      76.5	   15.3956	   2.13931	1.13354e+07	      76.5	   15.4214	   2.12481	 1.1073e+07	
         R10	   5790	      76.5	   15.4151	   2.14429	1.12575e+07	      76.5	   15.3761	   2.13434	 1.1422e+07	      76.5	   15.3656	   2.16659	1.18139e+07	      76.5	   15.4036	   2.18325	 1.1703e+07	      76.5	   15.3956	   2.13931	1.13352e+07	      76.5	   15.3709	   2.15046	1.16179e+07	      76.5	   15.3846	   2.17492	1.17519e+07	      76.5	   15.4093	   2.16377	  1.148e+07	
         R10	   5791	      76.5	   15.3756	   2.20538	1.22033e+07	      76.5	   15.3523	   2.19368	1.22237e+07	      76.5	    15.345	    2.2154	1.25871e+07	      76.5	   15.3637	   2.22617	1.26025e+07	      76.5	   15.3639	   2.19953	1.22102e+07	      76.5	   15.3487	   2.20454	1.24054e+07	      76.5	   15.3544	   2.22078	1.25919e+07	      76.5	   15.3696	   2.21577	1.24028e+07	
         R10	   5792	      76.5	   15.3825	   2.23961	1.26175e+07	      76.5	    15.381	     2.265	1.30297e+07	      76.5	   15.3943	   2.27234	1.28945e+07	      76.5	   15.4105	   2.24985	1.23294e+07	      76.5	   15.3817	   2.25231	1.28226e+07	      76.5	   15.3876	   2.26867	1.29597e+07	      76.5	   15.4024	   2.26109	1.26118e+07	      76.5	   15.3965	   2.24473	1.24676e+07	
         R10	   5793	      76.5	   15.4278	   2.27102	1.22514e+07	      76.5	   15.4241	   2.29331	1.25129e+07	      76.5	   15.4366	   2.30084	1.22612e+07	      76.5	   15.4467	   2.28414	1.19593e+07	      76.5	    15.426	   2.28216	1.23805e+07	      76.5	   15.4304	   2.29708	1.23855e+07	      76.5	   15.4417	   2.29249	1.21098e+07	      76.5	   15.4373	   2.27758	 1.2102e+07	
         R10	   5794	      76.5	   15.4611	   2.26646	1.15936e+07	      76.5	   15.4467	   2.28414	1.19561e+07	      76.5	   15.4623	   2.29777	1.16817e+07	      76.5	   15.4748	   2.28112	1.14078e+07	      76.5	   15.4539	    2.2753	1.17746e+07	      76.5	   15.4545	   2.29096	1.18166e+07	      76.5	   15.4685	   2.28945	1.15444e+07	      76.5	   15.4679	   2.27379	 1.1499e+07	
         R10	   5795	      76.5	   15.4748	   2.28112	 1.1401e+07	      76.5	   15.4623	   2.29777	1.16801e+07	      76.5	   15.4761	    2.3085	1.14046e+07	      76.5	   15.4877	   2.29329	1.11852e+07	      76.5	   15.4685	   2.28945	1.15402e+07	      76.5	   15.4692	   2.30313	1.15412e+07	      76.5	   15.4819	   2.30089	1.12945e+07	      76.5	   15.4813	    2.2872	1.12919e+07	
         R10	   5796	      76.5	   15.4877	   2.29329	1.11818e+07	      76.5	   15.4761	    2.3085	1.14032e+07	      76.5	   15.4902	   2.31811	1.11152e+07	      76.5	   15.5013	   2.30211	1.09415e+07	      76.5	   15.4819	   2.30089	1.12921e+07	      76.5	   15.4832	    2.3133	1.12584e+07	      76.5	   15.4957	   2.31011	1.10279e+07	      76.5	   15.4945	    2.2977	 1.1061e+07	
         R10	   5797	      76.5	   15.5013	   2.30211	1.09398e+07	      76.5	   15.4902	   2.31811	1.11146e+07	      76.5	   15.5043	   2.32792	1.08265e+07	      76.5	   15.5154	   2.31193	1.06866e+07	      76.5	   15.4957	   2.31011	1.10268e+07	      76.5	   15.4973	   2.32301	  1.097e+07	      76.5	   15.5099	   2.31992	1.07561e+07	      76.5	   15.5084	   2.30702	1.08127e+07	
         R10	   5798	      76.5	   15.5154	   2.31193	1.06863e+07	      76.5	   15.5043	   2.32792	 1.0826e+07	      76.5	   15.5185	   2.33774	 1.0546e+07	      76.5	   15.5298	   2.32182	1.04315e+07	      76.5	   15.5099	   2.31992	1.07557e+07	      76.5	   15.5114	   2.33283	1.06856e+07	      76.5	   15.5242	   2.32978	1.04883e+07	      76.5	   15.5226	   2.31687	1.05585e+07	
         R10	   5799	      76.5	   15.5298	   2.32182	1.04322e+07	      76.5	   15.5185	   2.33774	1.05445e+07	      76.5	   15.5339	   2.34848	1.02555e+07	      76.5	   15.5451	   2.33301	1.01685e+07	      76.5	   15.5242	   2.32978	1.04879e+07	      76.5	   15.5262	   2.34311	1.03996e+07	      76.5	   15.5395	   2.34075	1.02116e+07	      76.5	   15.5375	   2.32741	   1.03e+07	
         R10	   5800	      76.5	   15.5451	   2.33301	  1.017e+07	      76.5	   15.5339	   2.34848	1.02551e+07	      76.5	   15.5555	   2.35957	9.90254e+06	      76.5	   15.5585	   2.34324	9.95035e+06	      76.5	   15.5395	   2.34075	1.02122e+07	      76.5	   15.5447	   2.35402	1.00785e+07	      76.5	    15.557	    2.3514	 9.9261e+06	      76.5	   15.5518	   2.33812	1.00599e+07	
         R10	   5801	      76.5	   15.5376	   2.37521	1.00532e+07	      76.5	   15.5404	   2.39671	 9.8863e+06	      76.5	    15.557	   2.40256	9.64276e+06	      76.5	   15.5612	    2.3816	9.71506e+06	      76.5	    15.539	   2.38596	9.96913e+06	      76.5	   15.5487	   2.39963	9.76447e+06	      76.5	   15.5591	   2.39208	9.67841e+06	      76.5	   15.5494	    2.3784	9.88402e+06	
         R10	   5802	      76.5	    15.529	   2.49683	9.47715e+06	      76.5	   15.5139	   2.52159	9.58921e+06	      76.5	   15.5474	    2.5366	9.14499e+06	      76.5	   15.5623	    2.5036	9.08589e+06	      76.5	   15.5215	   2.50921	9.53249e+06	      76.5	   15.5306	    2.5291	9.36698e+06	      76.5	   15.5549	    2.5201	9.11451e+06	      76.5	   15.5457	   2.50021	 9.2813e+06	
         R10	   5803	      76.5	   15.5623	    2.5036	9.08197e+06	      76.5	   15.5474	    2.5366	9.14432e+06	      76.5	   15.5869	   2.55385	8.71178e+06	      76.5	   15.6068	   2.51448	8.65816e+06	      76.5	   15.5549	    2.5201	9.11222e+06	      76.5	   15.5671	   2.54523	8.92789e+06	      76.5	   15.5969	   2.53417	8.68372e+06	      76.5	   15.5846	   2.50904	8.86972e+06	
         R10	   5804	      76.5	   15.6068	   2.51448	8.65639e+06	      76.5	   15.5869	   2.55385	8.71218e+06	      76.5	   15.6283	   2.57859	8.32351e+06	      76.5	   15.6544	   2.53682	8.26877e+06	      76.5	   15.5969	   2.53417	8.68304e+06	      76.5	   15.6076	   2.56622	8.51775e+06	      76.5	   15.6413	   2.55771	8.29465e+06	      76.5	   15.6306	   2.52565	8.46236e+06	
         R10	   5805	      76.5	   15.6544	   2.53682	 8.2696e+06	      76.5	   15.6283	   2.57859	8.32263e+06	      76.5	   15.6722	   2.60997	7.97433e+06	      76.5	   15.7018	   2.56674	7.94447e+06	      76.5	   15.6413	   2.55771	8.29463e+06	      76.5	   15.6503	   2.59428	8.14843e+06	      76.5	    15.687	   2.58835	7.95775e+06	      76.5	   15.6781	   2.55178	8.10692e+06	
         R10	   5806	      76.5	   15.7018	   2.56674	7.94506e+06	      76.5	   15.6722	   2.60997	 7.9724e+06	      76.5	   15.7217	   2.64523	7.65761e+06	      76.5	   15.7508	   2.59913	7.68485e+06	      76.5	    15.687	   2.58835	 7.9571e+06	      76.5	    15.697	    2.6276	7.81496e+06	      76.5	   15.7362	   2.62218	7.66966e+06	      76.5	   15.7263	   2.58294	7.81489e+06	
         R10	   5807	      76.5	   15.7508	   2.59913	7.68425e+06	      76.5	   15.7217	   2.64523	7.64927e+06	      76.5	   15.7791	   2.68022	7.41252e+06	      76.5	    15.817	   2.62796	7.46993e+06	      76.5	   15.7362	   2.62218	7.66519e+06	      76.5	   15.7504	   2.66272	7.53084e+06	      76.5	    15.798	   2.65409	 7.4393e+06	      76.5	   15.7839	   2.61355	7.57697e+06	
         R10	   5808	      76.5	   15.8774	   2.52854	7.64351e+06	      76.5	   15.9277	   2.58173	7.45101e+06	      76.5	   15.9747	   2.49193	7.66468e+06	      76.5	   15.8938	   2.45438	7.84306e+06	      76.5	   15.9025	   2.55513	7.54705e+06	      76.5	   15.9512	   2.53683	7.55667e+06	      76.5	   15.9343	   2.47315	7.75363e+06	      76.5	   15.8856	   2.49146	7.74233e+06	
         R10	   5809	      76.5	   15.8938	   2.45438	7.83323e+06	      76.5	   15.9747	   2.49193	7.64848e+06	      76.5	   16.0208	   2.39962	7.95686e+06	      76.5	   15.9431	    2.3619	8.11713e+06	      76.5	   15.9343	   2.47315	7.74068e+06	      76.5	   15.9978	   2.44577	7.80183e+06	      76.5	   15.9819	   2.38076	8.03675e+06	      76.5	   15.9184	   2.40814	7.97426e+06	
         R10	   5810	      76.5	   15.9431	    2.3619	8.10523e+06	      76.5	   16.0208	   2.39962	7.94375e+06	      76.5	    16.069	   2.30326	8.32623e+06	      76.5	   15.9879	   2.26414	8.44458e+06	      76.5	   15.9819	   2.38076	8.02425e+06	      76.5	   16.0449	   2.35144	8.13463e+06	      76.5	   16.0284	    2.2837	8.38516e+06	      76.5	   15.9655	   2.31302	 8.2745e+06	
         R10	   5811	      76.5	   15.9879	   2.26414	8.43025e+06	      76.5	    16.069	   2.30326	 8.3066e+06	      76.5	   16.1145	   2.20696	8.72683e+06	      76.5	   16.0256	   2.17045	8.77414e+06	      76.5	   16.0284	    2.2837	 8.3682e+06	      76.5	   16.0917	   2.25511	 8.5166e+06	      76.5	   16.0701	    2.1887	8.75022e+06	      76.5	   16.0068	    2.2173	8.60208e+06	
         R10	   5812	      76.5	   16.0256	   2.17045	8.74419e+06	      76.5	   16.1145	   2.20696	8.69491e+06	      76.5	   16.1647	   2.11263	 9.1482e+06	      76.5	   16.0762	   2.07972	9.08203e+06	      76.5	   16.0701	    2.1887	8.71928e+06	      76.5	   16.1396	   2.15979	8.92121e+06	      76.5	   16.1204	   2.09617	9.11487e+06	      76.5	   16.0509	   2.12509	8.91289e+06	
         R10	   5813	      76.5	   15.9476	   2.13299	8.83879e+06	      76.5	   16.0256	   2.17045	8.75443e+06	      76.5	   16.0762	   2.07972	9.10831e+06	      76.5	   15.9907	   2.04191	9.08278e+06	      76.5	   15.9866	   2.15172	8.79626e+06	      76.5	   16.0509	   2.12509	8.93114e+06	      76.5	   16.0334	   2.06082	9.09512e+06	      76.5	   15.9691	   2.08745	8.96062e+06	
         R10	   5814	      76.5	   15.9476	   2.13299	8.83598e+06	      76.5	   15.9907	   2.04191	9.09871e+06	      76.5	   15.8976	   2.00532	9.09577e+06	      76.5	   15.8617	   2.09868	8.96627e+06	      76.5	   15.9691	   2.08745	 8.9672e+06	      76.5	   15.9441	   2.02361	9.09626e+06	      76.5	   15.8796	     2.052	9.03098e+06	      76.5	   15.9047	   2.11583	8.90044e+06	
         R10	   5815	      76.5	   15.8617	   2.09868	8.96563e+06	      76.5	   15.8976	   2.00532	9.10524e+06	      76.5	   15.8076	   1.96933	9.14894e+06	      76.5	   15.7729	   2.04263	9.15006e+06	      76.5	   15.8796	     2.052	9.03539e+06	      76.5	   15.8526	   1.98732	9.12538e+06	      76.5	   15.7903	   2.00598	9.14948e+06	      76.5	   15.8173	   2.07065	9.05593e+06	
         R10	   5816	      76.5	   15.7729	   2.04263	9.14159e+06	      76.5	   15.8076	   1.96933	9.15736e+06	      76.5	   15.7197	   1.93316	9.21453e+06	      76.5	   15.6886	   2.00876	9.32866e+06	      76.5	   15.7903	   2.00598	9.14946e+06	      76.5	   15.7637	   1.95125	9.18301e+06	      76.5	   15.7042	   1.97096	9.27158e+06	      76.5	   15.7308	    2.0257	9.23225e+06	
         R10	   5817	      76.5	   15.6886	   2.00876	9.33157e+06	      76.5	   15.7197	   1.93316	9.22147e+06	      76.5	   15.6373	   1.89656	9.26785e+06	      76.5	   15.6099	   1.97055	9.48475e+06	      76.5	   15.7042	   1.97096	9.27651e+06	      76.5	   15.6785	   1.91486	9.24051e+06	      76.5	   15.6236	   1.93355	9.37627e+06	      76.5	   15.6492	   1.98966	9.40369e+06	
         R10	   5818	      76.5	   15.5441	   1.92833	9.56527e+06	      76.5	   15.4804	   1.90204	9.61773e+06	      76.5	   15.4662	   1.95931	9.90246e+06	      76.5	   15.5217	   1.97976	9.80169e+06	      76.5	   15.5123	   1.91519	9.58683e+06	      76.5	   15.4733	   1.93068	9.76008e+06	      76.5	    15.494	   1.96954	 9.8483e+06	      76.5	   15.5329	   1.95405	9.68343e+06	
         R10	   5819	      76.5	   15.5217	   1.97976	9.81068e+06	      76.5	   15.4662	   1.95931	  9.917e+06	      76.5	   15.4501	    2.0121	 1.0222e+07	      76.5	    15.496	     2.027	1.01083e+07	      76.5	    15.494	   1.96954	9.85981e+06	      76.5	   15.4582	    1.9857	1.00695e+07	      76.5	    15.473	   2.01955	1.01621e+07	      76.5	   15.5089	   2.00338	9.95941e+06	
         R10	   5820	      76.5	    15.496	     2.027	 1.0109e+07	      76.5	   15.4501	    2.0121	1.02292e+07	      76.5	   15.4372	   2.06081	1.05522e+07	      76.5	     15.48	   2.07297	1.03957e+07	      76.5	    15.473	   2.01955	1.01661e+07	      76.5	   15.4436	   2.03646	1.03906e+07	      76.5	   15.4586	   2.06689	1.04707e+07	      76.5	    15.488	   2.04998	1.02523e+07	
         R10	   5821	      76.5	     15.48	   2.07297	 1.0401e+07	      76.5	   15.4372	   2.06081	1.05541e+07	      76.5	   15.4276	   2.10533	1.08883e+07	      76.5	   15.4696	   2.11706	1.06876e+07	      76.5	   15.4586	   2.06689	1.04744e+07	      76.5	   15.4324	   2.08307	 1.0721e+07	      76.5	   15.4486	    2.1112	1.07843e+07	      76.5	   15.4748	   2.09502	1.05439e+07	
         R10	   5822	      76.5	   15.4696	   2.11706	1.06869e+07	      76.5	   15.4276	   2.10533	1.08873e+07	      76.5	   15.4151	   2.14429	1.12614e+07	      76.5	   15.4548	   2.15718	1.10354e+07	      76.5	   15.4486	    2.1112	1.07834e+07	      76.5	   15.4214	   2.12481	1.10743e+07	      76.5	   15.4349	   2.15073	 1.1144e+07	      76.5	   15.4622	   2.13712	1.08609e+07	
         R10	   5823	      76.5	   15.4548	   2.15718	1.10342e+07	      76.5	   15.4151	   2.14429	1.12593e+07	      76.5	   15.4036	   2.18325	1.16913e+07	      76.5	   15.4388	    2.1867	1.13903e+07	      76.5	   15.4349	   2.15073	1.11423e+07	      76.5	   15.4093	   2.16377	1.14751e+07	      76.5	   15.4212	   2.18498	1.15369e+07	      76.5	   15.4468	   2.17194	1.12121e+07	
         R10	   5824	      76.5	   15.4036	   2.18325	1.17072e+07	      76.5	   15.3656	   2.16659	 1.1818e+07	      76.5	   15.3523	   2.19368	1.22247e+07	      76.5	   15.3756	   2.20538	1.21961e+07	      76.5	   15.3846	   2.17492	1.17558e+07	      76.5	    15.359	   2.18014	1.20213e+07	      76.5	   15.3639	   2.19953	1.22069e+07	      76.5	   15.3896	   2.19431	1.19505e+07	
         R10	   5825	      76.5	   15.4151	   2.21872	1.19331e+07	      76.5	   15.4036	   2.18325	1.16987e+07	      76.5	   15.3756	   2.20538	1.21935e+07	      76.5	   15.3931	   2.22249	1.22533e+07	      76.5	   15.4093	   2.20099	1.18125e+07	      76.5	   15.3896	   2.19431	1.19451e+07	      76.5	   15.3843	   2.21393	1.22204e+07	      76.5	   15.4041	   2.22061	1.20919e+07	
         R10	   5826	      76.5	   15.3931	   2.22249	1.22392e+07	      76.5	   15.3756	   2.20538	 1.2196e+07	      76.5	   15.3637	   2.22617	1.26047e+07	      76.5	   15.3825	   2.23961	1.26102e+07	      76.5	   15.3843	   2.21393	1.22145e+07	      76.5	   15.3696	   2.21577	1.24003e+07	      76.5	   15.3731	   2.23289	1.26041e+07	      76.5	   15.3878	   2.23105	1.24247e+07	
         R10	   5827	      76.5	   15.4886	   2.26539	1.11396e+07	      76.5	   15.4748	   2.28112	   1.14e+07	      76.5	   15.4877	   2.29329	1.11854e+07	      76.5	   15.5006	   2.27769	1.09591e+07	      76.5	   15.4817	   2.27326	1.12696e+07	      76.5	   15.4813	    2.2872	1.12916e+07	      76.5	   15.4942	   2.28549	 1.1072e+07	      76.5	   15.4946	   2.27154	1.10484e+07	
         R10	   5828	      76.5	   15.5006	   2.27769	1.09595e+07	      76.5	   15.4877	   2.29329	1.11815e+07	      76.5	   15.5013	   2.30211	1.09405e+07	      76.5	    15.513	   2.28506	1.07667e+07	      76.5	   15.4942	   2.28549	1.10702e+07	      76.5	   15.4945	    2.2977	1.10603e+07	      76.5	   15.5072	   2.29359	1.08532e+07	      76.5	   15.5068	   2.28138	1.08627e+07	
         R10	   5829	      76.5	    15.513	   2.28506	 1.0768e+07	      76.5	   15.5013	   2.30211	1.09401e+07	      76.5	   15.5154	   2.31193	1.06869e+07	      76.5	   15.5249	   2.29561	 1.0576e+07	      76.5	   15.5072	   2.29359	1.08537e+07	      76.5	   15.5084	   2.30702	1.08129e+07	      76.5	   15.5202	   2.30377	 1.0631e+07	      76.5	    15.519	   2.29034	1.06715e+07	
         R10	   5830	      76.5	   15.5249	   2.29561	1.05721e+07	      76.5	   15.5154	   2.31193	1.06863e+07	      76.5	   15.5298	   2.32182	1.04316e+07	      76.5	   15.5441	   2.30055	1.02959e+07	      76.5	   15.5202	   2.30377	1.06288e+07	      76.5	   15.5226	   2.31687	1.05585e+07	      76.5	    15.537	   2.31118	1.03631e+07	      76.5	   15.5345	   2.29808	1.04337e+07	
         R10	   5831	      76.5	   15.5441	   2.30055	1.02944e+07	      76.5	   15.5298	   2.32182	1.04315e+07	      76.5	   15.5451	   2.33301	1.01699e+07	      76.5	   15.5575	   2.31719	1.00707e+07	      76.5	    15.537	   2.31118	1.03623e+07	      76.5	   15.5375	   2.32741	1.03003e+07	      76.5	   15.5513	    2.3251	  1.012e+07	      76.5	   15.5508	   2.30887	1.01819e+07	
         R10	   5832	      76.5	   15.5575	   2.31719	1.00744e+07	      76.5	   15.5451	   2.33301	1.01662e+07	      76.5	   15.5585	   2.34324	 9.9503e+06	      76.5	   15.5703	   2.33073	9.85773e+06	      76.5	   15.5513	    2.3251	1.01199e+07	      76.5	   15.5518	   2.33812	 1.0058e+07	      76.5	   15.5644	   2.33698	9.90378e+06	      76.5	   15.5639	   2.32396	9.96573e+06	
         R10	   5833	      76.5	   15.5816	   2.38271	 9.4833e+06	      76.5	   15.5612	    2.3816	9.71417e+06	      76.5	    15.557	   2.40256	9.64261e+06	      76.5	   15.5776	   2.40893	9.38537e+06	      76.5	   15.5714	   2.38215	9.59867e+06	      76.5	   15.5591	   2.39208	9.67786e+06	      76.5	   15.5673	   2.40574	9.51392e+06	      76.5	   15.5796	   2.39582	 9.4337e+06	
         R10	   5834	      76.5	   15.5704	   2.47027	 9.1341e+06	      76.5	   15.5623	    2.5036	9.08166e+06	      76.5	   15.6068	   2.51448	8.66092e+06	      76.5	   15.6223	   2.47416	8.68697e+06	      76.5	   15.5664	   2.48693	9.10714e+06	      76.5	   15.5846	   2.50904	8.87094e+06	      76.5	   15.6145	   2.49432	8.67301e+06	      76.5	   15.5963	   2.47221	8.90999e+06	
         R10	   5835	      76.5	   15.6223	   2.47416	8.68758e+06	      76.5	   15.6068	   2.51448	8.66017e+06	      76.5	   15.6544	   2.53682	8.26975e+06	      76.5	   15.6764	   2.49538	8.28428e+06	      76.5	   15.6145	   2.49432	8.67292e+06	      76.5	   15.6306	   2.52565	8.46474e+06	      76.5	   15.6654	    2.5161	8.27605e+06	      76.5	   15.6494	   2.48477	8.48563e+06	
         R10	   5836	      76.5	   15.6764	   2.49538	8.28699e+06	      76.5	   15.6544	   2.53682	8.27091e+06	      76.5	   15.7018	   2.56674	 7.9489e+06	      76.5	   15.7284	   2.52255	7.97488e+06	      76.5	   15.6654	    2.5161	8.27797e+06	      76.5	   15.6781	   2.55178	 8.1098e+06	      76.5	   15.7151	   2.54464	7.96084e+06	      76.5	   15.7024	   2.50896	8.13076e+06	
         R10	   5837	      76.5	   15.7284	   2.52255	7.97728e+06	      76.5	   15.7018	   2.56674	7.94957e+06	      76.5	   15.7508	   2.59913	7.67887e+06	      76.5	   15.7738	   2.55229	7.76345e+06	      76.5	   15.7151	   2.54464	7.96236e+06	      76.5	   15.7263	   2.58294	7.81414e+06	      76.5	   15.7623	   2.57571	7.72033e+06	      76.5	   15.7511	   2.53742	 7.8703e+06	
         R10	   5838	      76.5	    15.824	   2.40879	8.09936e+06	      76.5	   15.8938	   2.45438	7.84031e+06	      76.5	   15.9431	    2.3619	8.12035e+06	      76.5	   15.8725	   2.32833	8.30875e+06	      76.5	   15.8589	   2.43159	7.96956e+06	      76.5	   15.9184	   2.40814	7.97943e+06	      76.5	   15.9078	   2.34511	8.21432e+06	      76.5	   15.8483	   2.36856	8.20317e+06	
         R10	   5839	      76.5	   15.8725	   2.32833	8.29988e+06	      76.5	   15.9431	    2.3619	8.11008e+06	      76.5	   15.9879	   2.26414	8.45449e+06	      76.5	   15.9131	   2.22752	8.60492e+06	      76.5	   15.9078	   2.34511	8.20474e+06	      76.5	   15.9655	   2.31302	8.28188e+06	      76.5	   15.9505	   2.24583	 8.5294e+06	      76.5	   15.8928	   2.27793	8.45183e+06	
         R10	   5840	      76.5	   15.9131	   2.22752	8.58694e+06	      76.5	   15.9879	   2.26414	8.43811e+06	      76.5	   16.0256	   2.17045	8.78179e+06	      76.5	   15.9476	   2.13299	8.87176e+06	      76.5	   15.9505	   2.24583	8.51221e+06	      76.5	   16.0068	    2.2173	8.60982e+06	      76.5	   15.9866	   2.15172	8.82646e+06	      76.5	   15.9303	   2.18026	8.72924e+06	
         R10	   5841	      76.5	   15.8453	   2.20389	8.76164e+06	      76.5	   15.9131	   2.22752	8.59151e+06	      76.5	   15.9476	   2.13299	8.87211e+06	      76.5	   15.8617	   2.09868	8.98392e+06	      76.5	   15.8792	   2.21571	8.67628e+06	      76.5	   15.9303	   2.18026	8.73169e+06	      76.5	   15.9047	   2.11583	8.92729e+06	      76.5	   15.8535	   2.15128	8.87232e+06	
         R10	   5842	      76.5	   15.7334	   2.10924	9.20385e+06	      76.5	   15.7729	   2.04263	9.17672e+06	      76.5	   15.6886	   2.00876	9.35789e+06	      76.5	   15.6614	    2.0768	9.47771e+06	      76.5	   15.7532	   2.07594	9.19027e+06	      76.5	   15.7308	    2.0257	9.26429e+06	      76.5	    15.675	   2.04278	9.41771e+06	      76.5	   15.6974	   2.09302	9.33849e+06	
         R10	   5843	      76.5	   15.6614	    2.0768	9.48306e+06	      76.5	   15.6886	   2.00876	9.35977e+06	      76.5	   15.6099	   1.97055	9.50953e+06	      76.5	   15.5826	    2.0332	9.74913e+06	      76.5	    15.675	   2.04278	9.42131e+06	      76.5	   15.6492	   1.98966	9.43027e+06	      76.5	   15.5963	   2.00188	 9.6293e+06	      76.5	    15.622	     2.055	9.61045e+06	
         R10	   5844	      76.5	   15.5241	   2.08609	1.02014e+07	      76.5	     15.48	   2.07297	1.03965e+07	      76.5	   15.4696	   2.11706	1.06877e+07	      76.5	   15.5109	   2.12873	1.04386e+07	      76.5	   15.5021	   2.07953	1.02961e+07	      76.5	   15.4748	   2.09502	1.05417e+07	      76.5	   15.4902	    2.1229	1.05602e+07	      76.5	   15.5175	   2.10741	1.03196e+07	
         R10	   5845	      76.5	   15.4947	   2.17571	1.07589e+07	      76.5	   15.4548	   2.15718	1.10358e+07	      76.5	   15.4388	    2.1867	1.13958e+07	      76.5	   15.4582	   2.21203	 1.1324e+07	      76.5	   15.4747	   2.16645	1.08932e+07	      76.5	   15.4468	   2.17194	1.12158e+07	      76.5	   15.4485	   2.19936	1.13564e+07	      76.5	   15.4764	   2.19387	1.10413e+07	
         R10	   5846	      76.5	   15.4582	   2.21203	1.13514e+07	      76.5	   15.4388	    2.1867	1.14025e+07	      76.5	   15.4036	   2.18325	1.17038e+07	      76.5	   15.4151	   2.21872	1.19373e+07	      76.5	   15.4485	   2.19936	1.13736e+07	      76.5	   15.4212	   2.18498	1.15494e+07	      76.5	   15.4093	   2.20099	1.18169e+07	      76.5	   15.4366	   2.21537	1.16406e+07	
         R10	   5847	      76.5	    15.481	    2.2488	1.12069e+07	      76.5	   15.4611	   2.26646	1.15978e+07	      76.5	   15.4748	   2.28112	1.14053e+07	      76.5	   15.4886	   2.26539	1.11315e+07	      76.5	   15.4711	   2.25763	1.14023e+07	      76.5	   15.4679	   2.27379	1.14998e+07	      76.5	   15.4817	   2.27326	1.12682e+07	      76.5	   15.4848	   2.25709	1.11681e+07	
         R10	   5848	      76.5	   15.5024	   2.25284	1.09041e+07	      76.5	   15.4886	   2.26539	1.11332e+07	      76.5	   15.5006	   2.27769	1.09614e+07	      76.5	   15.5142	    2.2567	1.07492e+07	      76.5	   15.4955	   2.25911	1.10186e+07	      76.5	   15.4946	   2.27154	1.10464e+07	      76.5	   15.5074	    2.2672	1.08549e+07	      76.5	   15.5083	   2.25477	1.08264e+07	
         R10	   5849	      76.5	   15.5142	    2.2567	 1.0744e+07	      76.5	   15.5006	   2.27769	1.09623e+07	      76.5	    15.513	   2.28506	1.07673e+07	      76.5	   15.5262	   2.26594	 1.0587e+07	      76.5	   15.5074	    2.2672	1.08527e+07	      76.5	   15.5068	   2.28138	1.08644e+07	      76.5	   15.5196	    2.2755	1.06768e+07	      76.5	   15.5202	   2.26132	 1.0665e+07	
         R10	   5850	      76.5	   15.5262	   2.26594	1.05886e+07	      76.5	    15.513	   2.28506	1.07666e+07	      76.5	   15.5249	   2.29561	1.05735e+07	      76.5	   15.5416	   2.27841	1.03738e+07	      76.5	   15.5196	    2.2755	1.06772e+07	      76.5	    15.519	   2.29034	1.06695e+07	      76.5	   15.5333	   2.28701	1.04734e+07	      76.5	   15.5339	   2.27217	1.04806e+07	
         R10	   5851	      76.5	   15.6177	   2.38533	 9.1336e+06	      76.5	   15.5816	   2.38271	9.47954e+06	      76.5	   15.5776	   2.40893	9.38258e+06	      76.5	   15.6113	   2.40923	9.06801e+06	      76.5	   15.5997	   2.38402	9.30638e+06	      76.5	   15.5796	   2.39582	9.43042e+06	      76.5	   15.5944	   2.40908	9.22506e+06	      76.5	   15.6145	   2.39728	9.10046e+06	
         R10	   5852	      76.5	   15.5724	   2.43746	9.28092e+06	      76.5	   15.5776	   2.40893	 9.3841e+06	      76.5	    15.557	   2.40256	9.64386e+06	      76.5	   15.5467	   2.42018	 9.6552e+06	      76.5	    15.575	   2.42319	9.33183e+06	      76.5	   15.5673	   2.40574	9.51391e+06	      76.5	   15.5518	   2.41137	9.64911e+06	      76.5	   15.5595	   2.42882	9.46786e+06	
         R10	   5853	      76.5	    15.656	   2.42567	8.66855e+06	      76.5	   15.6223	   2.47416	 8.6857e+06	      76.5	   15.6764	   2.49538	8.28398e+06	      76.5	    15.708	   2.44333	8.33241e+06	      76.5	   15.6391	   2.44991	8.67548e+06	      76.5	   15.6494	   2.48477	8.48454e+06	      76.5	   15.6922	   2.46935	8.30686e+06	      76.5	    15.682	    2.4345	8.50018e+06	
         R10	   5854	      76.5	    15.708	   2.44333	8.32767e+06	      76.5	   15.6764	   2.49538	8.28667e+06	      76.5	   15.7284	   2.52255	7.97579e+06	      76.5	   15.7677	   2.46944	8.02754e+06	      76.5	   15.6922	   2.46935	8.30587e+06	      76.5	   15.7024	   2.50896	8.13105e+06	      76.5	   15.7481	     2.496	8.00045e+06	      76.5	   15.7379	   2.45639	8.17736e+06	
         R10	   5855	      76.5	   15.7677	   2.46944	8.03132e+06	      76.5	   15.7284	   2.52255	7.97646e+06	      76.5	   15.7738	   2.55229	 7.7504e+06	      76.5	   15.8105	   2.49883	7.83816e+06	      76.5	   15.7481	     2.496	8.00265e+06	      76.5	   15.7511	   2.53742	7.86337e+06	      76.5	   15.7921	   2.52556	7.79341e+06	      76.5	   15.7891	   2.48414	7.93467e+06	
         R10	   5856	      76.5	   15.8331	   2.58669	7.53791e+06	      76.5	   15.7738	   2.55229	7.76509e+06	      76.5	   15.7508	   2.59913	7.67473e+06	      76.5	    15.817	   2.62796	7.47986e+06	      76.5	   15.8035	   2.56949	7.65147e+06	      76.5	   15.7623	   2.57571	7.71902e+06	      76.5	   15.7839	   2.61355	7.57721e+06	      76.5	   15.8251	   2.60733	7.50837e+06	
         R10	   5857	      76.5	   15.7557	    2.3786	8.39601e+06	      76.5	    15.824	   2.40879	8.10195e+06	      76.5	   15.8725	   2.32833	8.31107e+06	      76.5	   15.8098	   2.29598	8.53999e+06	      76.5	   15.7899	    2.3937	8.24871e+06	      76.5	   15.8483	   2.36856	8.20563e+06	      76.5	   15.8412	   2.31215	8.42522e+06	      76.5	   15.7828	   2.33729	 8.4666e+06	
         R10	   5858	      76.5	   15.8098	   2.29598	8.54202e+06	      76.5	   15.8725	   2.32833	8.30311e+06	      76.5	   15.9131	   2.22752	8.60804e+06	      76.5	   15.8453	   2.20389	8.75864e+06	      76.5	   15.8412	   2.31215	8.42229e+06	      76.5	   15.8928	   2.27793	  8.455e+06	      76.5	   15.8792	   2.21571	8.68302e+06	      76.5	   15.8276	   2.24994	8.64958e+06	
         R10	   5859	      76.5	   15.7517	    2.2673	8.81946e+06	      76.5	   15.8098	   2.29598	8.54397e+06	      76.5	   15.8453	   2.20389	8.76118e+06	      76.5	    15.777	   2.19395	8.93616e+06	      76.5	   15.7808	   2.28164	8.68133e+06	      76.5	   15.8276	   2.24994	8.65179e+06	      76.5	   15.8111	   2.19892	8.84832e+06	      76.5	   15.7643	   2.23062	8.87703e+06	
         R10	   5860	      76.5	   15.7057	   2.17504	9.23534e+06	      76.5	   15.7334	   2.10924	9.22845e+06	      76.5	   15.6614	    2.0768	9.49191e+06	      76.5	   15.6384	   2.14211	9.60696e+06	      76.5	   15.7195	   2.14214	 9.2315e+06	      76.5	   15.6974	   2.09302	9.35777e+06	      76.5	   15.6499	   2.10946	9.54893e+06	      76.5	    15.672	   2.15858	9.41882e+06	
         R10	   5861	      76.5	   15.5765	   2.09764	9.91981e+06	      76.5	   15.5241	   2.08609	1.01971e+07	      76.5	   15.5109	   2.12873	1.04437e+07	      76.5	   15.5518	   2.13844	1.01634e+07	      76.5	   15.5503	   2.09186	1.00556e+07	      76.5	   15.5175	   2.10741	1.03201e+07	      76.5	   15.5313	   2.13359	1.03015e+07	      76.5	   15.5641	   2.11804	1.00415e+07	
         R10	   5862	      76.5	   15.5109	   2.12873	1.04381e+07	      76.5	   15.4696	   2.11706	1.06861e+07	      76.5	   15.4548	   2.15718	1.10332e+07	      76.5	   15.4947	   2.17571	1.07709e+07	      76.5	   15.4902	    2.1229	1.05591e+07	      76.5	   15.4622	   2.13712	1.08594e+07	      76.5	   15.4747	   2.16645	1.08977e+07	      76.5	   15.5028	   2.15222	1.06038e+07	
         R10	   5863	      76.5	    15.481	    2.2488	1.12081e+07	      76.5	   15.4886	   2.26539	1.11421e+07	      76.5	   15.5024	   2.25284	1.09165e+07	      76.5	   15.4974	   2.22558	1.09052e+07	      76.5	   15.4848	   2.25709	 1.1174e+07	      76.5	   15.4955	   2.25911	1.10292e+07	      76.5	   15.4999	   2.23921	1.09089e+07	      76.5	   15.4892	   2.23719	1.10563e+07	
         R10	   5864	      76.5	   15.5428	   2.24893	1.03839e+07	      76.5	   15.5262	   2.26594	1.05869e+07	      76.5	   15.5416	   2.27841	  1.037e+07	      76.5	   15.5617	   2.26908	1.01468e+07	      76.5	   15.5345	   2.25744	1.04852e+07	      76.5	   15.5339	   2.27217	1.04777e+07	      76.5	   15.5517	   2.27374	1.02584e+07	      76.5	   15.5523	   2.25901	1.02642e+07	
         R10	   5865	      76.5	   15.5555	   2.35957	9.90335e+06	      76.5	   15.5612	    2.3816	9.71435e+06	      76.5	   15.5816	   2.38271	9.48302e+06	      76.5	    15.585	   2.35516	9.58451e+06	      76.5	   15.5583	   2.37058	9.80825e+06	      76.5	   15.5714	   2.38215	9.59861e+06	      76.5	   15.5833	   2.36894	9.53303e+06	      76.5	   15.5702	   2.35737	9.74377e+06	
         R10	   5866	      76.5	   15.6113	   2.40923	9.06673e+06	      76.5	   15.5776	   2.40893	9.38414e+06	      76.5	   15.5724	   2.43746	9.27311e+06	      76.5	   15.5969	   2.43849	9.06286e+06	      76.5	   15.5944	   2.40908	9.22521e+06	      76.5	    15.575	   2.42319	9.32792e+06	      76.5	   15.5847	   2.43797	9.16784e+06	      76.5	   15.6041	   2.42386	9.06419e+06	
         R10	   5867	      76.5	   15.7557	    2.3786	8.40029e+06	      76.5	   15.8098	   2.29598	8.54558e+06	      76.5	   15.7517	    2.2673	8.81517e+06	      76.5	   15.7281	   2.31949	8.74627e+06	      76.5	   15.7828	   2.33729	8.47149e+06	      76.5	   15.7808	   2.28164	8.68006e+06	      76.5	   15.7399	    2.2934	 8.7801e+06	      76.5	   15.7419	   2.34905	8.57249e+06	
         R10	   5868	      76.5	   15.5386	   2.16842	1.03328e+07	      76.5	   15.5518	   2.13844	1.01692e+07	      76.5	   15.5109	   2.12873	1.04389e+07	      76.5	   15.4947	   2.17571	1.07477e+07	      76.5	   15.5452	   2.15343	1.02507e+07	      76.5	   15.5313	   2.13359	1.03019e+07	      76.5	   15.5028	   2.15222	1.05926e+07	      76.5	   15.5166	   2.17206	1.05389e+07	
         R10	   5869	      76.5	   15.5255	   2.23291	1.05852e+07	      76.5	   15.4974	   2.22558	1.09078e+07	      76.5	   15.5024	   2.25284	1.09171e+07	      76.5	   15.5142	    2.2567	1.07374e+07	      76.5	   15.5115	   2.22925	1.07453e+07	      76.5	   15.4999	   2.23921	1.09109e+07	      76.5	   15.5083	   2.25477	 1.0827e+07	      76.5	   15.5199	   2.24481	1.06608e+07	
         R10	   5870	      76.5	   15.5255	   2.23291	1.05874e+07	      76.5	   15.5142	    2.2567	 1.0748e+07	      76.5	   15.5262	   2.26594	1.05861e+07	      76.5	   15.5428	   2.24893	1.03829e+07	      76.5	   15.5199	   2.24481	1.06672e+07	      76.5	   15.5202	   2.26132	1.06666e+07	      76.5	   15.5345	   2.25744	1.04843e+07	      76.5	   15.5342	   2.24092	1.04841e+07	
         R10	   5871	      76.5	   15.5368	   2.21888	1.04397e+07	      76.5	   15.5255	   2.23291	1.05841e+07	      76.5	   15.5428	   2.24893	1.03811e+07	      76.5	   15.5608	   2.23494	 1.0187e+07	      76.5	   15.5311	    2.2259	1.05119e+07	      76.5	   15.5342	   2.24092	1.04816e+07	      76.5	   15.5518	   2.24193	 1.0284e+07	      76.5	   15.5488	   2.22691	1.03123e+07	
         R10	   5872	      76.5	   15.5729	   2.29223	9.96884e+06	      76.5	   15.5617	   2.26908	1.01438e+07	      76.5	   15.5416	   2.27841	1.03762e+07	      76.5	   15.5441	   2.30055	1.02924e+07	      76.5	   15.5673	   2.28066	1.00554e+07	      76.5	   15.5517	   2.27374	  1.026e+07	      76.5	   15.5428	   2.28948	1.03334e+07	      76.5	   15.5585	   2.29639	1.01305e+07	
         R10	   5873	      76.5	   15.6777	   2.30985	9.03185e+06	      76.5	   15.7281	   2.31949	8.73369e+06	      76.5	   15.7517	    2.2673	8.81644e+06	      76.5	   15.6918	   2.24066	9.17288e+06	      76.5	   15.7029	   2.31467	8.88258e+06	      76.5	   15.7399	    2.2934	8.77445e+06	      76.5	   15.7218	   2.25398	8.99398e+06	      76.5	   15.6848	   2.27526	9.10056e+06	
         R10	   5874	      76.5	   15.5832	   2.15064	9.94483e+06	      76.5	   15.5518	   2.13844	1.01814e+07	      76.5	   15.5386	   2.16842	1.03316e+07	      76.5	   15.5786	   2.17189	 1.0016e+07	      76.5	   15.5675	   2.14454	1.00622e+07	      76.5	   15.5452	   2.15343	1.02563e+07	      76.5	   15.5586	   2.17016	1.01725e+07	      76.5	   15.5809	   2.16127	9.98011e+06	
         R10	   5875	      76.5	   15.7557	    2.3786	 8.3941e+06	      76.5	   15.7281	   2.31949	8.72714e+06	      76.5	   15.6777	   2.30985	9.02594e+06	      76.5	   15.6771	    2.3798	 8.7474e+06	      76.5	   15.7419	   2.34905	8.55987e+06	      76.5	   15.7029	   2.31467	8.87629e+06	      76.5	   15.6774	   2.34482	8.88461e+06	      76.5	   15.7164	    2.3792	 8.5702e+06	
         R10	   5876	      76.5	   15.4151	   2.21872	1.19299e+07	      76.5	   15.3931	   2.22249	 1.2234e+07	      76.5	   15.3825	   2.23961	1.25984e+07	      76.5	   15.4105	   2.24985	1.23462e+07	      76.5	   15.4041	   2.22061	1.20806e+07	      76.5	   15.3878	   2.23105	1.24162e+07	      76.5	   15.3965	   2.24473	1.24667e+07	      76.5	   15.4128	   2.23429	1.21367e+07	
         R10	   5877	      76.5	   15.4417	   2.26005	1.18939e+07	      76.5	   15.4278	   2.27102	1.22484e+07	      76.5	   15.4467	   2.28414	1.19552e+07	      76.5	   15.4611	   2.26646	1.15982e+07	      76.5	   15.4347	   2.26553	1.20711e+07	      76.5	   15.4373	   2.27758	1.20986e+07	      76.5	   15.4539	    2.2753	1.17765e+07	      76.5	   15.4514	   2.26326	1.17446e+07	
         R10	   5878	      76.5	   15.4417	   2.26005	1.19169e+07	      76.5	   15.4611	   2.26646	1.15975e+07	      76.5	   15.4623	   2.24308	1.14691e+07	      76.5	   15.4351	   2.24298	1.18719e+07	      76.5	   15.4514	   2.26326	1.17557e+07	      76.5	   15.4617	   2.25477	1.15321e+07	      76.5	   15.4487	   2.24303	1.16688e+07	      76.5	   15.4384	   2.25152	 1.1893e+07	
         R10	   5879	      76.5	   15.4417	   2.26005	1.18983e+07	      76.5	   15.4351	   2.24298	1.18758e+07	      76.5	   15.4105	   2.24985	1.23481e+07	      76.5	   15.4278	   2.27102	 1.2249e+07	      76.5	   15.4384	   2.25152	1.18855e+07	      76.5	   15.4228	   2.24641	1.21108e+07	      76.5	   15.4192	   2.26043	1.22938e+07	      76.5	   15.4347	   2.26553	1.20736e+07	
         R10	   5880	      76.5	   15.4582	   2.21203	1.13352e+07	      76.5	   15.4151	   2.21872	1.19244e+07	      76.5	   15.4105	   2.24985	1.23292e+07	      76.5	   15.4351	   2.24298	1.18537e+07	      76.5	   15.4366	   2.21537	1.16262e+07	      76.5	   15.4128	   2.23429	1.21257e+07	      76.5	   15.4228	   2.24641	1.20901e+07	      76.5	   15.4466	    2.2275	1.15943e+07	
         R10	   5881	      76.5	   15.4974	   2.22558	1.09251e+07	      76.5	   15.4582	   2.21203	1.13475e+07	      76.5	   15.4623	   2.24308	1.14724e+07	      76.5	    15.481	    2.2488	1.11955e+07	      76.5	   15.4778	    2.2188	1.11321e+07	      76.5	   15.4602	   2.22755	1.14078e+07	      76.5	   15.4717	   2.24594	1.13329e+07	      76.5	   15.4892	   2.23719	1.10601e+07	
         R10	   5882	      76.5	   15.5703	   2.33073	9.86483e+06	      76.5	   15.5585	   2.34324	9.94384e+06	      76.5	    15.585	   2.35516	9.58802e+06	      76.5	   15.5644	   2.33698	9.90414e+06	      76.5	   15.5717	    2.3492	9.76563e+06	      76.5	   15.5776	   2.34295	9.72567e+06	       N/A	       N/A	       N/A	        N/A	       N/A	       N/A	       N/A	        N/A	
         R10	   5883	      76.5	   15.5456	   2.44371	9.53855e+06	      76.5	   15.5371	   2.45443	9.56665e+06	      76.5	   15.5704	   2.47027	9.14192e+06	      76.5	   15.5724	   2.43746	9.28189e+06	      76.5	   15.5414	   2.44907	9.55244e+06	      76.5	   15.5537	   2.46235	 9.3541e+06	      76.5	   15.5714	   2.45386	9.21119e+06	      76.5	    15.559	   2.44058	9.40994e+06	
         R10	   5884	      76.5	   15.5456	   2.44371	9.53601e+06	      76.5	   15.5724	   2.43746	9.28005e+06	      76.5	   15.5467	   2.42018	9.65505e+06	      76.5	   15.5316	   2.43326	9.77037e+06	      76.5	    15.559	   2.44058	9.40775e+06	      76.5	   15.5595	   2.42882	9.46736e+06	      76.5	   15.5391	   2.42672	 9.7124e+06	      76.5	   15.5386	   2.43849	9.65312e+06	
         R10	   5885	      76.5	   15.5456	   2.44371	9.53753e+06	      76.5	   15.5316	   2.43326	9.76729e+06	      76.5	   15.5178	   2.44575	9.87168e+06	      76.5	   15.5371	   2.45443	9.58046e+06	      76.5	   15.5386	   2.43849	9.65235e+06	      76.5	   15.5247	   2.43951	 9.8192e+06	      76.5	   15.5275	   2.45009	9.72599e+06	      76.5	   15.5414	   2.44907	9.55877e+06	
         R10	   5886	      76.5	   15.4903	   2.50639	9.97775e+06	      76.5	   15.5139	   2.52159	9.59365e+06	      76.5	    15.529	   2.49683	9.47811e+06	      76.5	   15.5029	   2.48988	 9.8467e+06	      76.5	   15.5021	   2.51399	9.78565e+06	      76.5	   15.5215	   2.50921	9.53517e+06	      76.5	    15.516	   2.49336	9.66226e+06	      76.5	   15.4966	   2.49814	9.91183e+06	
         R10	   5887	      76.5	   15.4903	   2.50639	9.97424e+06	      76.5	   15.4726	   2.52798	1.02118e+07	      76.5	   15.4958	   2.54589	9.79855e+06	      76.5	   15.5139	   2.52159	9.58843e+06	      76.5	   15.4814	   2.51718	1.00922e+07	      76.5	   15.4842	   2.53693	1.00052e+07	      76.5	   15.5048	   2.53374	9.69253e+06	      76.5	   15.5021	   2.51399	9.78129e+06	
         R10	   5888	      76.5	   15.4903	   2.50639	9.97541e+06	      76.5	   15.4712	   2.49513	1.03233e+07	      76.5	   15.4602	   2.50524	1.05028e+07	      76.5	   15.4726	   2.52798	1.02186e+07	      76.5	   15.4808	   2.50076	1.01493e+07	      76.5	   15.4657	   2.50019	1.04128e+07	      76.5	   15.4664	   2.51661	1.03605e+07	      76.5	   15.4814	   2.51718	1.00962e+07	
         R10	   5889	      76.5	   15.5029	   2.48988	 9.8494e+06	      76.5	   15.4827	   2.48074	1.01969e+07	      76.5	   15.4712	   2.49513	1.03304e+07	      76.5	   15.4903	   2.50639	9.97846e+06	      76.5	   15.4928	   2.48531	1.00231e+07	      76.5	   15.4769	   2.48794	1.02633e+07	      76.5	   15.4808	   2.50076	1.01544e+07	      76.5	   15.4966	   2.49814	9.91353e+06	
         R10	   5890	      76.5	   15.5062	   2.47651	9.86207e+06	      76.5	   15.5285	   2.47502	 9.5746e+06	      76.5	   15.5061	   2.45739	9.96285e+06	      76.5	   15.4939	   2.46863	1.00861e+07	      76.5	   15.5173	   2.47577	9.71815e+06	      76.5	   15.5173	   2.46621	 9.7686e+06	      76.5	      15.5	   2.46301	1.00242e+07	      76.5	      15.5	   2.47257	9.97404e+06	
         R10	   5891	      76.5	   15.5062	   2.47651	9.87059e+06	      76.5	   15.4939	   2.46863	1.00817e+07	      76.5	   15.4827	   2.48074	1.01987e+07	      76.5	   15.5029	   2.48988	9.84872e+06	      76.5	      15.5	   2.47257	9.97609e+06	      76.5	   15.4883	   2.47469	1.01399e+07	      76.5	   15.4928	   2.48531	1.00236e+07	      76.5	   15.5045	    2.4832	9.85948e+06	
         R10	   5892	      76.5	   15.5062	   2.47651	9.85868e+06	      76.5	   15.5029	   2.48988	9.85046e+06	      76.5	    15.529	   2.49683	9.47961e+06	      76.5	   15.5285	   2.47502	9.58428e+06	      76.5	   15.5045	    2.4832	9.85441e+06	      76.5	    15.516	   2.49336	9.66489e+06	      76.5	   15.5288	   2.48592	9.53171e+06	      76.5	   15.5173	   2.47577	9.72132e+06	
         R10	   5893	      76.5	   15.5285	   2.47502	9.57168e+06	      76.5	    15.529	   2.49683	9.47921e+06	      76.5	   15.5623	    2.5036	9.08743e+06	      76.5	   15.5704	   2.47027	9.13992e+06	      76.5	   15.5288	   2.48592	9.52518e+06	      76.5	   15.5457	   2.50021	 9.2831e+06	      76.5	   15.5664	   2.48693	 9.1129e+06	      76.5	   15.5494	   2.47265	 9.3551e+06	
         R10	   5894	      76.5	   15.6223	   2.47416	8.67968e+06	      76.5	   15.5969	   2.43849	9.05092e+06	      76.5	   15.5724	   2.43746	9.27651e+06	      76.5	   15.5704	   2.47027	9.14297e+06	      76.5	   15.6096	   2.45632	  8.865e+06	      76.5	   15.5847	   2.43797	9.16356e+06	      76.5	   15.5714	   2.45386	9.20915e+06	      76.5	   15.5963	   2.47221	8.91076e+06	
         R10	   5895	      76.5	   15.6113	   2.40923	9.06226e+06	      76.5	   15.5969	   2.43849	 9.0517e+06	      76.5	   15.6223	   2.47416	8.69356e+06	      76.5	    15.656	   2.42567	8.67312e+06	      76.5	   15.6041	   2.42386	9.05628e+06	      76.5	   15.6096	   2.45632	8.87232e+06	      76.5	   15.6391	   2.44991	8.68157e+06	      76.5	   15.6336	   2.41745	8.86743e+06	
         R10	   5896	      76.5	   15.8685	    2.7755	7.22765e+06	      76.5	   15.8419	   2.82919	7.12298e+06	      76.5	   15.9033	   2.87798	7.05082e+06	      76.5	   15.9321	   2.79079	7.31033e+06	      76.5	   15.8552	   2.80235	7.17375e+06	      76.5	   15.8726	   2.85359	7.08367e+06	      76.5	   15.9177	   2.83439	7.17527e+06	      76.5	   15.9003	   2.78315	7.26804e+06	
         R10	   5897	      76.5	   15.8685	    2.7755	7.16833e+06	      76.5	   15.9321	   2.79079	7.22037e+06	      76.5	   15.8894	   2.66886	7.32535e+06	      76.5	    15.833	   2.72333	 7.2637e+06	      76.5	   15.9003	   2.78315	7.19404e+06	      76.5	   15.9108	   2.72983	 7.2661e+06	      76.5	   15.8612	    2.6961	7.29372e+06	      76.5	   15.8508	   2.74942	7.21428e+06	
         R10	   5898	      76.5	   15.8685	    2.7755	7.21376e+06	      76.5	    15.833	   2.72333	7.25046e+06	      76.5	   15.7874	   2.77603	7.10601e+06	      76.5	   15.8419	   2.82919	7.05274e+06	      76.5	   15.8508	   2.74942	7.23103e+06	      76.5	   15.8102	   2.74968	7.17467e+06	      76.5	   15.8147	   2.80261	7.07927e+06	      76.5	   15.8552	   2.80235	7.13234e+06	
         R10	   5899	      76.5	   15.8894	   2.66886	 7.3267e+06	      76.5	    15.817	   2.62796	7.48218e+06	      76.5	   15.7791	   2.68022	7.39841e+06	      76.5	    15.833	   2.72333	 7.2848e+06	      76.5	   15.8532	   2.64841	7.40422e+06	      76.5	    15.798	   2.65409	7.43851e+06	      76.5	    15.806	   2.70177	7.34153e+06	      76.5	   15.8612	    2.6961	7.30477e+06	
         R10	   5900	      76.5	   15.9277	   2.58173	7.47428e+06	      76.5	   15.8331	   2.58669	7.55428e+06	      76.5	    15.817	   2.62796	7.47502e+06	      76.5	   15.8894	   2.66886	7.31168e+06	      76.5	   15.8804	   2.58421	 7.5141e+06	      76.5	   15.8251	   2.60733	7.51407e+06	      76.5	   15.8532	   2.64841	 7.3933e+06	      76.5	   15.9086	   2.62529	7.39126e+06	
         R10	   5901	      76.5	   15.8351	   2.53586	7.70285e+06	      76.5	   15.8105	   2.49883	7.83352e+06	      76.5	   15.7738	   2.55229	7.76025e+06	      76.5	   15.8331	   2.58669	7.53622e+06	      76.5	   15.8228	   2.51735	7.76806e+06	      76.5	   15.7921	   2.52556	7.79611e+06	      76.5	   15.8035	   2.56949	7.64818e+06	      76.5	   15.8341	   2.56128	7.61902e+06	
         R10	   5902	      76.5	   15.8351	   2.53586	7.70371e+06	      76.5	   15.8331	   2.58669	7.53809e+06	      76.5	   15.9277	   2.58173	7.46289e+06	      76.5	   15.8774	   2.52854	7.62608e+06	      76.5	   15.8341	   2.56128	7.62026e+06	      76.5	   15.8804	   2.58421	7.50003e+06	      76.5	   15.9025	   2.55513	7.54434e+06	      76.5	   15.8563	    2.5322	7.66486e+06	
         R10	   5903	      76.5	   15.8351	   2.53586	7.69664e+06	      76.5	   15.8774	   2.52854	 7.6453e+06	      76.5	   15.8938	   2.45438	7.84885e+06	      76.5	   15.8105	   2.49883	7.82677e+06	      76.5	   15.8563	    2.5322	7.67096e+06	      76.5	   15.8856	   2.49146	7.74584e+06	      76.5	   15.8522	    2.4766	7.83675e+06	      76.5	   15.8228	   2.51735	7.76161e+06	
         R10	   5904	      76.5	   15.7677	   2.46944	8.02381e+06	      76.5	   15.8105	   2.49883	7.83389e+06	      76.5	   15.8938	   2.45438	7.84132e+06	      76.5	    15.824	   2.40879	8.10604e+06	      76.5	   15.7891	   2.48414	 7.9288e+06	      76.5	   15.8522	    2.4766	7.83673e+06	      76.5	   15.8589	   2.43159	 7.9734e+06	      76.5	   15.7959	   2.43912	8.06385e+06	
         R10	   5905	      76.5	    15.708	   2.44333	8.32762e+06	      76.5	   15.7677	   2.46944	8.02062e+06	      76.5	    15.824	   2.40879	8.10968e+06	      76.5	   15.7557	    2.3786	8.39889e+06	      76.5	   15.7379	   2.45639	8.17387e+06	      76.5	   15.7959	   2.43912	8.06405e+06	      76.5	   15.7899	    2.3937	8.25403e+06	      76.5	   15.7318	   2.41096	8.36161e+06	
         R10	   5906	      76.5	    15.656	   2.42567	8.67455e+06	      76.5	    15.708	   2.44333	 8.3294e+06	      76.5	   15.7557	    2.3786	8.39072e+06	      76.5	   15.6771	    2.3798	8.74077e+06	      76.5	    15.682	    2.4345	 8.5017e+06	      76.5	   15.7318	   2.41096	8.35845e+06	      76.5	   15.7164	    2.3792	8.56521e+06	      76.5	   15.6665	   2.40273	8.70655e+06	
         R10	   5907	      76.5	   15.6771	    2.3798	8.73872e+06	      76.5	   15.6177	   2.38533	9.13257e+06	      76.5	   15.6113	   2.40923	9.06356e+06	      76.5	    15.656	   2.42567	8.67901e+06	      76.5	   15.6474	   2.38256	 8.9351e+06	      76.5	   15.6145	   2.39728	9.09763e+06	      76.5	   15.6336	   2.41745	8.87104e+06	      76.5	   15.6665	   2.40273	 8.7077e+06	
         R10	   5908	      76.5	   15.7932	   2.13386	9.01047e+06	      76.5	   15.7334	   2.10924	9.23448e+06	      76.5	   15.7057	   2.17504	9.22854e+06	      76.5	    15.777	   2.19395	8.94997e+06	      76.5	   15.7633	   2.12155	9.12156e+06	      76.5	   15.7195	   2.14214	9.23112e+06	      76.5	   15.7413	   2.18449	9.08835e+06	      76.5	   15.7851	    2.1639	8.97991e+06	
         R10	   5909	      76.5	   15.7932	   2.13386	9.02288e+06	      76.5	    15.777	   2.19395	8.93584e+06	      76.5	   15.8453	   2.20389	8.75487e+06	      76.5	   15.8617	   2.09868	8.98226e+06	      76.5	   15.7851	    2.1639	8.97899e+06	      76.5	   15.8111	   2.19892	8.84507e+06	      76.5	   15.8535	   2.15128	8.86811e+06	      76.5	   15.8274	   2.11627	9.00241e+06	
         R10	   5910	      76.5	   15.7932	   2.13386	 9.0106e+06	      76.5	   15.8617	   2.09868	8.98202e+06	      76.5	   15.7729	   2.04263	9.17919e+06	      76.5	   15.7334	   2.10924	9.20393e+06	      76.5	   15.8274	   2.11627	8.99615e+06	      76.5	   15.8173	   2.07065	9.07865e+06	      76.5	   15.7532	   2.07594	9.19156e+06	      76.5	   15.7633	   2.12155	9.10632e+06	
         R10	   5911	      76.5	   15.6918	   2.24066	9.16648e+06	      76.5	   15.7517	    2.2673	8.81827e+06	      76.5	    15.777	   2.19395	8.93803e+06	      76.5	   15.7057	   2.17504	9.24697e+06	      76.5	   15.7218	   2.25398	8.99172e+06	      76.5	   15.7643	   2.23062	8.87735e+06	      76.5	   15.7413	   2.18449	 9.0917e+06	      76.5	   15.6988	   2.20785	9.20559e+06	
         R10	   5912	      76.5	   15.5984	   2.23455	9.82638e+06	      76.5	   15.5862	   2.25735	9.91582e+06	      76.5	   15.6111	   2.29418	9.58208e+06	      76.5	    15.637	   2.26387	 9.4599e+06	      76.5	   15.5923	   2.24595	 9.8708e+06	      76.5	   15.5987	   2.27577	9.74714e+06	      76.5	    15.624	   2.27903	9.52051e+06	      76.5	   15.6177	   2.24921	9.64167e+06	
         R10	   5913	      76.5	   15.6116	   2.20846	9.75141e+06	      76.5	    15.649	   2.21643	9.49563e+06	      76.5	   15.6384	   2.14211	9.63131e+06	      76.5	   15.6014	   2.18794	9.80819e+06	      76.5	   15.6303	   2.21245	9.62316e+06	      76.5	   15.6437	   2.17927	9.56028e+06	      76.5	   15.6199	   2.16503	9.71956e+06	      76.5	   15.6065	    2.1982	9.77905e+06	
         R10	   5914	      76.5	   15.6116	   2.20846	 9.7308e+06	      76.5	   15.6014	   2.18794	9.84342e+06	      76.5	   15.5623	   2.20506	1.01771e+07	      76.5	   15.5984	   2.23455	 9.8398e+06	      76.5	   15.6065	    2.1982	9.78662e+06	      76.5	   15.5818	    2.1965	1.00101e+07	      76.5	   15.5804	   2.21981	1.00064e+07	      76.5	    15.605	   2.22151	9.78504e+06	
         R10	   5915	      76.5	   15.6116	   2.20846	9.77275e+06	      76.5	   15.5984	   2.23455	9.82363e+06	      76.5	    15.637	   2.26387	9.46323e+06	      76.5	    15.649	   2.21643	9.47484e+06	      76.5	    15.605	   2.22151	9.79789e+06	      76.5	   15.6177	   2.24921	9.64208e+06	      76.5	    15.643	   2.24015	9.46776e+06	      76.5	   15.6303	   2.21245	9.62333e+06	
         R10	   5916	      76.5	   15.6918	   2.24066	9.16691e+06	      76.5	   15.7057	   2.17504	9.25396e+06	      76.5	   15.6384	   2.14211	9.61815e+06	      76.5	    15.649	   2.21643	9.49655e+06	      76.5	   15.6988	   2.20785	9.20937e+06	      76.5	    15.672	   2.15858	9.43388e+06	      76.5	   15.6437	   2.17927	9.55465e+06	      76.5	   15.6704	   2.22855	9.33088e+06	
         R10	   5917	      76.5	   15.6777	   2.30985	9.03719e+06	      76.5	   15.6918	   2.24066	9.17632e+06	      76.5	    15.649	   2.21643	9.48637e+06	      76.5	    15.637	   2.26387	9.45718e+06	      76.5	   15.6848	   2.27526	9.10495e+06	      76.5	   15.6704	   2.22855	9.33052e+06	      76.5	    15.643	   2.24015	9.47064e+06	      76.5	   15.6574	   2.28686	 9.2457e+06	
         R10	   5918	      76.5	   15.6368	   2.32051	 9.2698e+06	      76.5	   15.6777	   2.30985	9.02281e+06	      76.5	    15.637	   2.26387	9.45828e+06	      76.5	   15.6111	   2.29418	9.57709e+06	      76.5	   15.6573	   2.31518	9.14612e+06	      76.5	   15.6574	   2.28686	9.23882e+06	      76.5	    15.624	   2.27903	9.51723e+06	      76.5	   15.6239	   2.30734	9.42272e+06	
         R10	   5919	      76.5	   15.6368	   2.32051	9.26919e+06	      76.5	   15.6111	   2.29418	9.58428e+06	      76.5	   15.5986	   2.32704	9.57895e+06	      76.5	   15.6287	   2.34646	9.22437e+06	      76.5	   15.6239	   2.30734	9.42607e+06	      76.5	   15.6048	   2.31061	9.58068e+06	      76.5	   15.6136	   2.33675	9.40124e+06	      76.5	   15.6327	   2.33348	9.24625e+06	
         R10	   5920	      76.5	   15.6368	   2.32051	9.27162e+06	      76.5	   15.6287	   2.34646	9.20865e+06	      76.5	   15.6771	    2.3798	8.74861e+06	      76.5	   15.6777	   2.30985	9.03867e+06	      76.5	   15.6327	   2.33348	9.23957e+06	      76.5	   15.6529	   2.36313	8.97802e+06	      76.5	   15.6774	   2.34482	 8.8916e+06	      76.5	   15.6573	   2.31518	9.15504e+06	
         R10	   5921	      76.5	   15.6137	   2.36232	9.27494e+06	      76.5	    15.585	   2.35516	9.58552e+06	      76.5	   15.5816	   2.38271	9.48139e+06	      76.5	   15.6177	   2.38533	9.13209e+06	      76.5	   15.5993	   2.35874	9.43009e+06	      76.5	   15.5833	   2.36894	9.53268e+06	      76.5	   15.5997	   2.38402	9.30655e+06	      76.5	   15.6157	   2.37383	9.20318e+06	
         R10	   5922	      76.5	   15.6137	   2.36232	9.28231e+06	      76.5	   15.6177	   2.38533	9.13984e+06	      76.5	   15.6287	   2.34646	9.22726e+06	      76.5	   15.6157	   2.37383	9.21076e+06	      76.5	   15.6232	    2.3659	9.18258e+06	      76.5	   15.6212	   2.35439	9.25459e+06	       N/A	       N/A	       N/A	        N/A	       N/A	       N/A	       N/A	        N/A	
         R10	   5923	      76.5	   15.6137	   2.36232	9.27184e+06	      76.5	   15.6287	   2.34646	9.21868e+06	      76.5	   15.5986	   2.32704	9.58034e+06	      76.5	    15.585	   2.35516	9.58516e+06	      76.5	   15.6212	   2.35439	9.24501e+06	      76.5	   15.6136	   2.33675	9.39911e+06	      76.5	   15.5918	    2.3411	9.58198e+06	      76.5	   15.5993	   2.35874	9.42837e+06	
         R10	   5924	      76.5	   15.5811	   2.31504	9.79955e+06	      76.5	   15.5703	   2.33073	9.86419e+06	      76.5	    15.585	   2.35516	9.59073e+06	      76.5	   15.5986	   2.32704	9.57845e+06	      76.5	   15.5757	   2.32288	9.83157e+06	      76.5	   15.5776	   2.34295	9.72675e+06	      76.5	   15.5918	    2.3411	9.58382e+06	      76.5	   15.5898	   2.32104	9.68875e+06	
         R10	   5925	      76.5	   15.5811	   2.31504	9.81039e+06	      76.5	   15.5986	   2.32704	9.57097e+06	      76.5	   15.6111	   2.29418	9.57914e+06	      76.5	   15.5729	   2.29223	9.96472e+06	      76.5	   15.5898	   2.32104	9.69048e+06	      76.5	   15.6048	   2.31061	 9.5742e+06	      76.5	    15.592	   2.29321	9.77169e+06	      76.5	    15.577	   2.30363	9.88687e+06	
         R10	   5926	      76.5	   15.5811	   2.31504	9.81925e+06	      76.5	   15.5729	   2.29223	9.95887e+06	      76.5	   15.5575	   2.31719	1.00717e+07	      76.5	   15.5703	   2.33073	9.86063e+06	      76.5	    15.577	   2.30363	9.88829e+06	      76.5	   15.5652	   2.30471	1.00146e+07	      76.5	   15.5639	   2.32396	9.96581e+06	      76.5	   15.5757	   2.32288	9.83968e+06	
         R10	   5927	      76.5	   15.5617	   2.26908	 1.0148e+07	      76.5	   15.5729	   2.29223	9.95987e+06	      76.5	   15.6111	   2.29418	9.57613e+06	      76.5	   15.5862	   2.25735	9.91536e+06	      76.5	   15.5673	   2.28066	 1.0053e+07	      76.5	    15.592	   2.29321	9.76776e+06	      76.5	   15.5987	   2.27577	9.74395e+06	      76.5	    15.574	   2.26322	1.00316e+07	
         R10	   5928	      76.5	   15.5862	   2.25735	9.90761e+06	      76.5	   15.5608	   2.23494	1.01898e+07	      76.5	   15.5428	   2.24893	1.03839e+07	      76.5	   15.5617	   2.26908	1.01438e+07	      76.5	   15.5735	   2.24615	1.00474e+07	      76.5	   15.5518	   2.24193	1.02868e+07	      76.5	   15.5523	   2.25901	1.02627e+07	      76.5	    15.574	   2.26322	1.00256e+07	
         R10	   5929	      76.5	   15.5623	   2.20506	1.01732e+07	      76.5	   15.5608	   2.23494	1.01935e+07	      76.5	   15.5862	   2.25735	9.91229e+06	      76.5	   15.5984	   2.23455	9.84722e+06	      76.5	   15.5615	      2.22	1.01825e+07	      76.5	   15.5735	   2.24615	1.00516e+07	      76.5	   15.5923	   2.24595	9.87944e+06	      76.5	   15.5804	   2.21981	 1.0008e+07	
         R10	   5930	      76.5	   15.4974	   2.22558	 1.0902e+07	      76.5	   15.5255	   2.23291	1.05861e+07	      76.5	   15.5368	   2.21888	1.04435e+07	      76.5	   15.5132	   2.20249	1.06656e+07	      76.5	   15.5115	   2.22925	 1.0743e+07	      76.5	   15.5311	    2.2259	1.05148e+07	      76.5	    15.525	   2.21068	1.05529e+07	      76.5	   15.5053	   2.21403	1.07835e+07	
         R10	   5931	      76.5	   15.5132	   2.20249	1.06521e+07	      76.5	   15.4947	   2.17571	1.07623e+07	      76.5	   15.4582	   2.21203	 1.1332e+07	      76.5	   15.4974	   2.22558	1.09189e+07	      76.5	   15.5039	    2.1891	 1.0705e+07	      76.5	   15.4764	   2.19387	 1.1047e+07	      76.5	   15.4778	    2.2188	1.11215e+07	      76.5	   15.5053	   2.21403	1.07853e+07	
         R10	   5932	      76.5	   15.5623	   2.20506	1.01751e+07	      76.5	   15.5386	   2.16842	1.03461e+07	      76.5	   15.4947	   2.17571	1.07532e+07	      76.5	   15.5132	   2.20249	1.06698e+07	      76.5	   15.5504	   2.18674	1.02578e+07	      76.5	   15.5166	   2.17206	1.05483e+07	      76.5	   15.5039	    2.1891	1.07091e+07	      76.5	   15.5378	   2.20378	1.04206e+07	
         R10	   5933	      76.5	   15.6384	   2.14211	9.59263e+06	      76.5	   15.5832	   2.15064	9.95898e+06	      76.5	   15.5786	   2.17189	1.00295e+07	      76.5	   15.6014	   2.18794	9.84375e+06	      76.5	   15.6108	   2.14638	9.77497e+06	      76.5	   15.5809	   2.16127	 9.9941e+06	      76.5	     15.59	   2.17992	9.93597e+06	      76.5	   15.6199	   2.16503	9.71803e+06	
         R10	   5934	      76.5	   15.6384	   2.14211	9.61355e+06	      76.5	   15.5765	   2.09764	9.93761e+06	      76.5	   15.5518	   2.13844	1.01633e+07	      76.5	   15.5832	   2.15064	9.94088e+06	      76.5	   15.6075	   2.11987	9.77074e+06	      76.5	   15.5641	   2.11804	1.00504e+07	      76.5	   15.5675	   2.14454	1.00508e+07	      76.5	   15.6108	   2.14638	9.77643e+06	
         R10	   5935	      76.5	   15.5826	    2.0332	9.76263e+06	      76.5	   15.5765	   2.09764	9.93877e+06	      76.5	   15.6384	   2.14211	9.61179e+06	      76.5	   15.6614	    2.0768	9.50008e+06	      76.5	   15.5796	   2.06542	9.84985e+06	      76.5	   15.6075	   2.11987	9.77059e+06	      76.5	   15.6499	   2.10946	9.55546e+06	      76.5	    15.622	     2.055	9.62581e+06	
         R10	   5936	      76.5	   15.5296	   2.04743	1.00303e+07	      76.5	   15.5241	   2.08609	1.01978e+07	      76.5	   15.5765	   2.09764	9.92371e+06	      76.5	   15.5826	    2.0332	9.74549e+06	      76.5	   15.5269	   2.06676	1.01136e+07	      76.5	   15.5503	   2.09186	1.00582e+07	      76.5	   15.5796	   2.06542	9.83373e+06	      76.5	   15.5561	   2.04032	9.88626e+06	
         R10	   5937	      76.5	   15.5296	   2.04743	1.00258e+07	      76.5	   15.5826	    2.0332	9.76309e+06	      76.5	   15.5217	   1.97976	9.82847e+06	      76.5	    15.496	     2.027	1.00985e+07	      76.5	   15.5561	   2.04032	9.89286e+06	      76.5	   15.5522	   2.00648	9.78966e+06	      76.5	   15.5089	   2.00338	9.96344e+06	      76.5	   15.5128	   2.03722	1.00601e+07	
         R10	   5938	      76.5	   15.5296	   2.04743	1.00235e+07	      76.5	    15.496	     2.027	1.01174e+07	      76.5	     15.48	   2.07297	1.03942e+07	      76.5	   15.5241	   2.08609	1.02047e+07	      76.5	   15.5128	   2.03722	1.00686e+07	      76.5	    15.488	   2.04998	1.02557e+07	      76.5	   15.5021	   2.07953	1.02966e+07	      76.5	   15.5269	   2.06676	1.01138e+07	
         R10	   5939	      76.5	   15.5441	   1.92833	 9.5667e+06	      76.5	   15.5217	   1.97976	9.81756e+06	      76.5	   15.5826	    2.0332	9.74797e+06	      76.5	   15.6099	   1.97055	9.50986e+06	      76.5	   15.5329	   1.95405	9.69209e+06	      76.5	   15.5522	   2.00648	9.77701e+06	      76.5	   15.5963	   2.00188	9.62889e+06	      76.5	    15.577	   1.94944	9.53372e+06	
         R10	   5940	      76.5	   15.5632	   1.86115	9.28713e+06	      76.5	   15.5441	   1.92833	9.54041e+06	      76.5	   15.6099	   1.97055	9.48609e+06	      76.5	   15.6373	   1.89656	 9.2703e+06	      76.5	   15.5537	   1.89474	9.41374e+06	      76.5	    15.577	   1.94944	 9.5086e+06	      76.5	   15.6236	   1.93355	9.37817e+06	      76.5	   15.6002	   1.87885	9.27409e+06	
         R10	   5941	      76.5	   15.4938	    1.8307	9.28407e+06	      76.5	   15.4804	   1.90204	9.58699e+06	      76.5	   15.5441	   1.92833	9.53667e+06	      76.5	   15.5632	   1.86115	9.28543e+06	      76.5	   15.4871	   1.86637	9.43553e+06	      76.5	   15.5123	   1.91519	9.55734e+06	      76.5	   15.5537	   1.89474	9.41102e+06	      76.5	   15.5285	   1.84592	9.27987e+06	
         R10	   5942	      76.5	   15.5047	   1.75641	 8.9444e+06	      76.5	   15.4938	    1.8307	9.23071e+06	      76.5	   15.5632	   1.86115	9.22872e+06	      76.5	   15.5845	   1.78673	9.00706e+06	      76.5	   15.4992	   1.79355	9.08751e+06	      76.5	   15.5285	   1.84592	 9.2248e+06	      76.5	   15.5738	   1.82394	 9.1177e+06	      76.5	   15.5446	   1.77157	8.96988e+06	
         R10	   5943	      76.5	   15.4339	   1.73552	8.95436e+06	      76.5	   15.4326	   1.82068	9.27615e+06	      76.5	   15.4938	    1.8307	9.22888e+06	      76.5	   15.5047	   1.75641	8.94518e+06	      76.5	   15.4332	    1.7781	9.11498e+06	      76.5	   15.4632	   1.82569	 9.2493e+06	      76.5	   15.4992	   1.79355	9.08699e+06	      76.5	   15.4693	   1.74596	8.94383e+06	
         R10	   5944	      76.5	   15.4339	   1.73552	8.92859e+06	      76.5	   15.3687	   1.73882	9.05469e+06	      76.5	   15.3662	   1.81951	9.34456e+06	      76.5	   15.4326	   1.82068	9.28628e+06	      76.5	   15.4013	   1.73717	8.98804e+06	      76.5	   15.3674	   1.77917	9.19956e+06	      76.5	   15.3994	    1.8201	9.31075e+06	      76.5	   15.4332	    1.7781	9.10721e+06	
         R10	   5945	      76.5	   15.3687	   1.73882	9.03049e+06	      76.5	   15.4339	   1.73552	8.79186e+06	      76.5	   15.4484	   1.65091	8.44849e+06	      76.5	   15.3728	   1.62497	8.17794e+06	      76.5	   15.4013	   1.73717	8.90747e+06	      76.5	   15.4412	   1.69322	8.61982e+06	      76.5	   15.4106	   1.63794	 8.3031e+06	      76.5	   15.3707	    1.6819	8.60324e+06	
         R10	   5946	      76.5	   15.3728	   1.62497	8.34542e+06	      76.5	      15.3	    1.6796	8.57535e+06	      76.5	      15.3	   1.75401	9.19262e+06	      76.5	   15.3687	   1.73882	8.96002e+06	      76.5	   15.3364	   1.65229	 8.4549e+06	      76.5	      15.3	    1.7168	8.88387e+06	      76.5	   15.3343	   1.74641	9.07088e+06	      76.5	   15.3707	    1.6819	8.65116e+06	
         R10	   5947	      76.5	   15.3728	   1.62497	8.19211e+06	      76.5	      15.3	       1.6	7.16684e+06	      76.5	      15.3	    1.6796	9.44947e+06	      76.5	   15.3364	   1.61249	7.67796e+06	      76.5	      15.3	    1.6398	 8.2797e+06	      76.5	   15.3364	   1.65229	8.79234e+06	       N/A	       N/A	       N/A	        N/A	       N/A	       N/A	       N/A	        N/A	
         R10	   5948	      76.5	   15.5376	   2.37521	1.00565e+07	      76.5	   15.5263	    2.3869	1.01449e+07	      76.5	   15.5404	   2.39671	9.88686e+06	      76.5	   15.5319	   2.38105	1.01004e+07	      76.5	   15.5333	    2.3918	1.00157e+07	      76.5	    15.539	   2.38596	9.97096e+06	       N/A	       N/A	       N/A	        N/A	       N/A	       N/A	       N/A	        N/A	
         R10	   5949	      76.5	    15.345	    2.2154	1.25882e+07	      76.5	   15.3214	   2.21456	1.27169e+07	      76.5	    15.337	   2.23521	1.29763e+07	      76.5	   15.3332	   2.21498	1.26492e+07	      76.5	   15.3292	   2.22489	1.28438e+07	      76.5	    15.341	    2.2253	1.27822e+07	       N/A	       N/A	       N/A	        N/A	       N/A	       N/A	       N/A	        N/A	
         R10	   5950	      76.5	   15.3825	   2.23961	1.25816e+07	      76.5	   15.3646	   2.25493	1.30866e+07	      76.5	    15.381	     2.265	1.30371e+07	      76.5	   15.3736	   2.24727	1.28335e+07	      76.5	   15.3728	   2.25996	1.30586e+07	      76.5	   15.3817	   2.25231	1.28082e+07	       N/A	       N/A	       N/A	        N/A	       N/A	       N/A	       N/A	        N/A	
         R10	   5951	      76.5	   15.4278	   2.27102	1.22288e+07	      76.5	   15.4075	   2.28366	1.27916e+07	      76.5	   15.4241	   2.29331	1.25218e+07	      76.5	   15.4177	   2.27734	  1.251e+07	      76.5	   15.4158	   2.28849	1.26539e+07	      76.5	    15.426	   2.28216	1.23737e+07	       N/A	       N/A	       N/A	        N/A	       N/A	       N/A	       N/A	        N/A	
         R10	   5952	      76.5	   15.5416	   2.27841	1.03774e+07	      76.5	   15.5249	   2.29561	  1.057e+07	      76.5	   15.5441	   2.30055	1.02979e+07	      76.5	   15.5333	   2.28701	1.04734e+07	      76.5	   15.5345	   2.29808	1.04337e+07	      76.5	   15.5428	   2.28948	1.03367e+07	       N/A	       N/A	       N/A	        N/A	       N/A	       N/A	       N/A	        N/A	
         R10	   5953	      76.5	   15.5555	   2.35957	9.90802e+06	      76.5	   15.5376	   2.37521	1.00501e+07	      76.5	   15.5612	    2.3816	9.71533e+06	      76.5	   15.5465	   2.36739	9.97859e+06	      76.5	   15.5494	    2.3784	9.88255e+06	      76.5	   15.5583	   2.37058	9.81101e+06	       N/A	       N/A	       N/A	        N/A	       N/A	       N/A	       N/A	        N/A	
         R10	   5954	      76.5	   15.5729	   2.29223	 9.9655e+06	      76.5	   15.5441	   2.30055	1.02924e+07	      76.5	   15.5575	   2.31719	1.00717e+07	      76.5	   15.5585	   2.29639	1.01288e+07	      76.5	   15.5508	   2.30887	1.01815e+07	      76.5	   15.5652	   2.30471	1.00179e+07	       N/A	       N/A	       N/A	        N/A	       N/A	       N/A	       N/A	        N/A	
         R10	   5955	      76.5	   15.4623	   2.24308	1.14708e+07	      76.5	   15.4611	   2.26646	1.15907e+07	      76.5	    15.481	    2.2488	1.12037e+07	      76.5	   15.4617	   2.25477	1.15295e+07	      76.5	   15.4711	   2.25763	1.13971e+07	      76.5	   15.4717	   2.24594	1.13362e+07	       N/A	       N/A	       N/A	        N/A	       N/A	       N/A	       N/A	        N/A	
         R10	   5956	      76.5	   15.4351	   2.24298	1.18669e+07	      76.5	   15.4623	   2.24308	1.14709e+07	      76.5	   15.4582	   2.21203	1.13354e+07	      76.5	   15.4487	   2.24303	1.16673e+07	      76.5	   15.4602	   2.22755	1.14007e+07	      76.5	   15.4466	    2.2275	 1.1601e+07	       N/A	       N/A	       N/A	        N/A	       N/A	       N/A	       N/A	        N/A	
         R10	   5957	      76.5	   15.5623	   2.20506	1.01791e+07	      76.5	   15.5786	   2.17189	1.00094e+07	      76.5	   15.5386	   2.16842	1.03414e+07	      76.5	   15.5704	   2.18848	1.00938e+07	      76.5	   15.5586	   2.17016	1.01743e+07	      76.5	   15.5504	   2.18674	1.02576e+07	       N/A	       N/A	       N/A	        N/A	       N/A	       N/A	       N/A	        N/A	
         R10	   5958	      76.5	   15.5623	   2.20506	1.01655e+07	      76.5	   15.5368	   2.21888	1.04374e+07	      76.5	   15.5608	   2.23494	1.01908e+07	      76.5	   15.5495	   2.21197	1.03014e+07	      76.5	   15.5488	   2.22691	1.03129e+07	      76.5	   15.5615	      2.22	1.01773e+07	       N/A	       N/A	       N/A	        N/A	       N/A	       N/A	       N/A	        N/A	
         R10	   5959	      76.5	   15.5623	   2.20506	1.01617e+07	      76.5	   15.5132	   2.20249	1.06712e+07	      76.5	   15.5368	   2.21888	1.04391e+07	      76.5	   15.5378	   2.20378	1.04148e+07	      76.5	    15.525	   2.21068	1.05539e+07	      76.5	   15.5495	   2.21197	1.03004e+07	       N/A	       N/A	       N/A	        N/A	       N/A	       N/A	       N/A	        N/A	
         R10	   5960	      76.5	   15.5623	   2.20506	1.01465e+07	      76.5	   15.6014	   2.18794	9.84581e+06	      76.5	   15.5786	   2.17189	1.00167e+07	      76.5	   15.5818	    2.1965	9.99599e+06	      76.5	     15.59	   2.17992	9.93053e+06	      76.5	   15.5704	   2.18848	1.00811e+07	       N/A	       N/A	       N/A	        N/A	       N/A	       N/A	       N/A	        N/A	
         R10	   5961	      76.5	   15.9321	   2.79079	7.20759e+06	      76.5	   15.9769	   2.70814	7.16593e+06	      76.5	   15.8894	   2.66886	7.32726e+06	      76.5	   15.9545	   2.74947	7.18433e+06	      76.5	   15.9332	    2.6885	7.24454e+06	      76.5	   15.9108	   2.72983	7.25972e+06	       N/A	       N/A	       N/A	        N/A	       N/A	       N/A	       N/A	        N/A	
         R10	   5962	      76.5	   15.4462	    2.5201	1.07417e+07	      76.5	   15.4726	   2.52798	1.02153e+07	      76.5	   15.4602	   2.50524	1.05068e+07	      76.5	   15.4594	   2.52404	1.04783e+07	      76.5	   15.4664	   2.51661	1.03609e+07	      76.5	   15.4532	   2.51267	1.06237e+07	       N/A	       N/A	       N/A	        N/A	       N/A	       N/A	       N/A	        N/A	
         R10	   5963	      76.5	   15.5371	   2.45443	9.56803e+06	      76.5	   15.5285	   2.47502	9.57543e+06	      76.5	   15.5704	   2.47027	9.14421e+06	      76.5	   15.5328	   2.46473	9.57129e+06	      76.5	   15.5494	   2.47265	9.35914e+06	      76.5	   15.5537	   2.46235	9.35594e+06	       N/A	       N/A	       N/A	        N/A	       N/A	       N/A	       N/A	        N/A	
         R10	   5964	      76.5	   15.5585	   2.34324	9.94754e+06	      76.5	   15.5555	   2.35957	9.90257e+06	      76.5	    15.585	   2.35516	9.58221e+06	      76.5	    15.557	    2.3514	9.92466e+06	      76.5	   15.5702	   2.35737	9.74224e+06	      76.5	   15.5717	    2.3492	9.76459e+06	       N/A	       N/A	       N/A	        N/A	       N/A	       N/A	       N/A	        N/A	
         R10	   5965	      76.5	   15.6177	   2.38533	9.13292e+06	      76.5	   15.6771	    2.3798	8.75418e+06	      76.5	   15.6287	   2.34646	9.21431e+06	      76.5	   15.6474	   2.38256	8.94301e+06	      76.5	   15.6529	   2.36313	8.98356e+06	      76.5	   15.6232	    2.3659	9.17268e+06	       N/A	       N/A	       N/A	        N/A	       N/A	       N/A	       N/A	        N/A	
         R10	   5966	    76.347	      15.3	      2.23	6.88419e+06	     76.33	      15.3	      2.23	7.01753e+06	     76.33	      15.3	     2.247	7.10257e+06	    76.347	      15.3	     2.247	6.97973e+06	   76.3385	      15.3	      2.23	6.95072e+06	     76.33	      15.3	    2.2385	7.05991e+06	   76.3385	      15.3	     2.247	7.04105e+06	    76.347	      15.3	    2.2385	6.93187e+06	
         R10	   5967	    76.347	      15.3	     2.247	6.97937e+06	     76.33	      15.3	     2.247	7.10279e+06	     76.33	      15.3	     2.264	7.21102e+06	    76.347	      15.3	     2.264	7.10226e+06	   76.3385	      15.3	     2.247	7.04097e+06	     76.33	      15.3	    2.2555	7.15664e+06	   76.3385	      15.3	     2.264	7.15657e+06	    76.347	      15.3	    2.2555	7.04062e+06	
         R10	   5968	    76.347	      15.3	     2.264	7.10275e+06	     76.33	      15.3	     2.264	7.21149e+06	     76.33	      15.3	     2.281	7.33566e+06	    76.347	      15.3	     2.281	7.25502e+06	   76.3385	      15.3	     2.264	7.15705e+06	     76.33	      15.3	    2.2725	7.27308e+06	   76.3385	      15.3	     2.281	 7.2953e+06	    76.347	      15.3	    2.2725	7.17847e+06	
         R10	   5969	    76.347	      15.3	     2.281	7.25553e+06	     76.33	      15.3	     2.281	7.33663e+06	     76.33	      15.3	     2.298	 7.4731e+06	    76.347	      15.3	     2.298	7.43324e+06	   76.3385	      15.3	     2.281	7.29604e+06	     76.33	      15.3	    2.2895	7.40402e+06	   76.3385	      15.3	     2.298	7.45314e+06	    76.347	      15.3	    2.2895	7.34355e+06	
         R10	   5970	    76.347	      15.3	     2.298	7.43445e+06	     76.33	      15.3	     2.298	 7.4754e+06	     76.33	      15.3	     2.315	7.61781e+06	    76.347	      15.3	     2.315	 7.6302e+06	   76.3385	      15.3	     2.298	7.45489e+06	     76.33	      15.3	    2.3065	 7.5452e+06	   76.3385	      15.3	     2.315	7.62394e+06	    76.347	      15.3	    2.3065	7.53081e+06	
         R10	   5971	    76.347	      15.3	     2.315	7.63209e+06	     76.33	      15.3	     2.315	7.61953e+06	     76.33	      15.3	     2.332	7.75628e+06	    76.347	      15.3	     2.332	7.83426e+06	   76.3385	      15.3	     2.315	7.62575e+06	     76.33	      15.3	    2.3235	7.68574e+06	   76.3385	      15.3	     2.332	 7.7951e+06	    76.347	      15.3	    2.3235	7.73066e+06	
         R10	   5972	    76.347	      15.3	     2.332	7.83665e+06	     76.33	      15.3	     2.332	7.75726e+06	     76.33	      15.3	     2.349	7.88137e+06	    76.347	      15.3	     2.349	8.02779e+06	   76.3385	      15.3	     2.332	7.79678e+06	     76.33	      15.3	    2.3405	7.81629e+06	   76.3385	      15.3	     2.349	7.95415e+06	    76.347	      15.3	    2.3405	7.92838e+06	
         R10	   5973	    76.347	      15.3	     2.349	8.03241e+06	     76.33	      15.3	     2.349	7.87762e+06	     76.33	      15.3	     2.366	7.97717e+06	    76.347	      15.3	     2.366	8.19624e+06	   76.3385	      15.3	     2.349	7.95454e+06	     76.33	      15.3	    2.3575	7.92335e+06	   76.3385	      15.3	     2.366	8.08575e+06	    76.347	      15.3	    2.3575	8.10899e+06	
         R10	   5974	    76.347	      15.3	     2.366	 8.2005e+06	     76.33	      15.3	     2.366	7.97699e+06	     76.33	      15.3	     2.383	8.02682e+06	    76.347	      15.3	     2.383	8.32144e+06	   76.3385	      15.3	     2.366	8.08776e+06	     76.33	      15.3	    2.3745	7.99698e+06	   76.3385	      15.3	     2.383	8.17239e+06	    76.347	      15.3	    2.3745	  8.254e+06	
         R10	   5975	    76.347	      15.3	     2.383	8.32399e+06	     76.33	      15.3	     2.383	 8.0336e+06	     76.33	      15.3	       2.4	8.05155e+06	    76.347	      15.3	       2.4	8.38479e+06	   76.3385	      15.3	     2.383	8.17708e+06	     76.33	      15.3	    2.3915	8.03673e+06	   76.3385	      15.3	       2.4	8.21534e+06	    76.347	      15.3	    2.3915	 8.3457e+06	
         R10	   5976	    76.364	      15.3	     2.383	8.69813e+06	    76.347	      15.3	     2.383	8.32258e+06	    76.347	      15.3	       2.4	8.38095e+06	    76.364	      15.3	       2.4	8.84715e+06	   76.3555	      15.3	     2.383	8.50827e+06	    76.347	      15.3	    2.3915	8.34313e+06	   76.3555	      15.3	       2.4	 8.6108e+06	    76.364	      15.3	    2.3915	8.75997e+06	
         R10	   5977	    76.364	      15.3	     2.383	8.69481e+06	    76.364	      15.3	       2.4	8.83855e+06	    76.381	      15.3	       2.4	9.46775e+06	    76.381	      15.3	     2.383	9.18525e+06	    76.364	      15.3	    2.3915	8.75398e+06	   76.3725	      15.3	       2.4	9.14886e+06	    76.381	      15.3	    2.3915	9.30704e+06	   76.3725	      15.3	     2.383	8.93772e+06	
         R10	   5978	    76.381	      15.3	     2.383	9.17482e+06	    76.381	      15.3	       2.4	9.47929e+06	    76.398	      15.3	       2.4	1.03411e+07	    76.398	      15.3	     2.383	9.80854e+06	    76.381	      15.3	    2.3915	9.30789e+06	   76.3895	      15.3	       2.4	9.90424e+06	    76.398	      15.3	    2.3915	1.00441e+07	   76.3895	      15.3	     2.383	9.48932e+06	
         R10	   5979	    76.398	      15.3	     2.383	9.79232e+06	    76.398	      15.3	       2.4	1.03577e+07	    76.415	      15.3	       2.4	1.16034e+07	    76.415	      15.3	     2.383	1.05846e+07	    76.398	      15.3	    2.3915	1.00454e+07	   76.4065	      15.3	       2.4	1.09736e+07	    76.415	      15.3	    2.3915	1.10451e+07	   76.4065	      15.3	     2.383	1.01859e+07	
         R10	   5980	    76.415	      15.3	     2.383	1.05719e+07	    76.415	      15.3	       2.4	1.16117e+07	    76.432	      15.3	       2.4	1.34334e+07	    76.432	      15.3	     2.383	1.14767e+07	    76.415	      15.3	    2.3915	1.10449e+07	   76.4235	      15.3	       2.4	1.25141e+07	    76.432	      15.3	    2.3915	1.23772e+07	   76.4235	      15.3	     2.383	1.10216e+07	
         R10	   5981	    76.432	      15.3	     2.383	1.14876e+07	    76.432	      15.3	       2.4	1.34379e+07	    76.449	      15.3	       2.4	1.60901e+07	    76.449	      15.3	     2.383	1.22963e+07	    76.432	      15.3	    2.3915	1.23869e+07	   76.4405	      15.3	       2.4	1.47538e+07	    76.449	      15.3	    2.3915	1.40747e+07	   76.4405	      15.3	     2.383	1.18881e+07	
         R10	   5982	    76.449	      15.3	     2.383	1.23759e+07	    76.449	      15.3	       2.4	 1.6123e+07	    76.466	      15.3	       2.4	1.97683e+07	    76.466	      15.3	     2.383	1.23574e+07	    76.449	      15.3	    2.3915	 1.4131e+07	   76.4575	      15.3	       2.4	1.79259e+07	    76.466	      15.3	    2.3915	1.59115e+07	   76.4575	      15.3	     2.383	1.23541e+07	
         R10	   5983	    76.466	      15.3	     2.383	1.26037e+07	    76.466	      15.3	       2.4	1.99366e+07	    76.483	      15.3	       2.4	2.42289e+07	    76.483	      15.3	     2.383	1.04593e+07	    76.466	      15.3	    2.3915	1.61145e+07	   76.4745	      15.3	       2.4	2.19887e+07	    76.483	      15.3	    2.3915	1.72301e+07	   76.4745	      15.3	     2.383	1.13816e+07	
         R10	   5984	    76.483	      15.3	     2.383	1.04149e+07	    76.483	      15.3	       2.4	2.44809e+07	      76.5	      15.3	       2.4	3.13026e+07	      76.5	      15.3	     2.383	1.48469e+07	    76.483	      15.3	    2.3915	1.73544e+07	   76.4915	      15.3	       2.4	2.66622e+07	      76.5	      15.3	    2.3915	2.23145e+07	   76.4915	      15.3	     2.383	1.08708e+07	
         R10	   5985	    76.483	      15.3	     2.366	5.64462e+06	    76.483	      15.3	     2.383	1.05708e+07	      76.5	      15.3	     2.383	1.60914e+07	      76.5	      15.3	     2.366	 1.1057e+07	    76.483	      15.3	    2.3745	 8.0591e+06	   76.4915	      15.3	     2.383	1.18587e+07	      76.5	      15.3	    2.3745	1.35172e+07	   76.4915	      15.3	     2.366	7.64108e+06	
         R10	   5986	    76.483	      15.3	     2.366	6.02685e+06	      76.5	      15.3	     2.366	1.12433e+07	      76.5	      15.3	     2.349	8.38219e+06	    76.483	      15.3	     2.349	4.76957e+06	   76.4915	      15.3	     2.366	7.91567e+06	      76.5	      15.3	    2.3575	9.78273e+06	   76.4915	      15.3	     2.349	6.25785e+06	    76.483	      15.3	    2.3575	 5.3861e+06	
         R10	   5987	    76.483	      15.3	     2.349	4.90113e+06	      76.5	      15.3	     2.349	8.43914e+06	      76.5	      15.3	     2.332	6.83202e+06	    76.483	      15.3	     2.332	 4.6319e+06	   76.4915	      15.3	     2.349	6.34379e+06	      76.5	      15.3	    2.3405	7.58565e+06	   76.4915	      15.3	     2.332	5.56079e+06	    76.483	      15.3	    2.3405	4.75505e+06	
         R10	   5988	    76.483	      15.3	     2.332	4.66265e+06	      76.5	      15.3	     2.332	 6.8687e+06	      76.5	      15.3	     2.315	6.08601e+06	    76.483	      15.3	     2.315	4.71374e+06	   76.4915	      15.3	     2.332	5.59317e+06	      76.5	      15.3	    2.3235	6.43074e+06	   76.4915	      15.3	     2.315	5.30445e+06	    76.483	      15.3	    2.3235	4.67118e+06	
         R10	   5989	    76.483	      15.3	     2.315	4.71628e+06	      76.5	      15.3	     2.315	 6.1075e+06	      76.5	      15.3	     2.298	5.79575e+06	    76.483	      15.3	     2.298	4.89411e+06	   76.4915	      15.3	     2.315	 5.3159e+06	      76.5	      15.3	    2.3065	5.91915e+06	   76.4915	      15.3	     2.298	5.29049e+06	    76.483	      15.3	    2.3065	4.79078e+06	
         R10	   5990	    76.483	      15.3	     2.298	4.88896e+06	      76.5	      15.3	     2.298	5.80746e+06	      76.5	      15.3	     2.281	 5.7364e+06	    76.483	      15.3	     2.281	5.10659e+06	   76.4915	      15.3	     2.298	5.29345e+06	      76.5	      15.3	    2.2895	5.75171e+06	   76.4915	      15.3	     2.281	5.38933e+06	    76.483	      15.3	    2.2895	4.98772e+06	
         R10	   5991	    76.483	      15.3	     2.281	5.10142e+06	      76.5	      15.3	     2.281	5.74182e+06	      76.5	      15.3	     2.264	5.78635e+06	    76.483	      15.3	     2.264	5.32086e+06	   76.4915	      15.3	     2.281	5.38924e+06	      76.5	      15.3	    2.2725	5.75179e+06	   76.4915	      15.3	     2.264	5.53374e+06	    76.483	      15.3	    2.2725	5.20442e+06	
         R10	   5992	    76.483	      15.3	     2.264	5.31726e+06	      76.5	      15.3	     2.264	5.78772e+06	      76.5	      15.3	     2.247	5.88319e+06	    76.483	      15.3	     2.247	5.52445e+06	   76.4915	      15.3	     2.264	5.53248e+06	      76.5	      15.3	    2.2555	 5.8278e+06	   76.4915	      15.3	     2.247	  5.691e+06	    76.483	      15.3	    2.2555	5.41635e+06	
         R10	   5993	    76.483	      15.3	     2.247	5.52177e+06	      76.5	      15.3	     2.247	5.88582e+06	      76.5	      15.3	      2.23	5.99662e+06	    76.483	      15.3	      2.23	5.71594e+06	   76.4915	      15.3	     2.247	5.69091e+06	      76.5	      15.3	    2.2385	5.93625e+06	   76.4915	      15.3	      2.23	5.84769e+06	    76.483	      15.3	    2.2385	5.61574e+06	
         R10	   5994	    76.466	      15.3	     2.247	5.39479e+06	    76.483	      15.3	     2.247	5.52091e+06	    76.483	      15.3	      2.23	5.71147e+06	    76.466	      15.3	      2.23	5.59384e+06	   76.4745	      15.3	     2.247	 5.4438e+06	    76.483	      15.3	    2.2385	5.61319e+06	   76.4745	      15.3	      2.23	5.64313e+06	    76.466	      15.3	    2.2385	5.49279e+06	
         R10	   5995	    76.466	      15.3	     2.247	5.39715e+06	    76.466	      15.3	      2.23	5.59456e+06	    76.449	      15.3	      2.23	5.63856e+06	    76.449	      15.3	     2.247	5.49139e+06	    76.466	      15.3	    2.2385	5.49436e+06	   76.4575	      15.3	      2.23	5.60838e+06	    76.449	      15.3	    2.2385	5.56422e+06	   76.4575	      15.3	     2.247	5.43268e+06	
         R10	   5996	    76.449	      15.3	     2.247	5.49504e+06	    76.449	      15.3	      2.23	5.64175e+06	    76.432	      15.3	      2.23	5.80707e+06	    76.432	      15.3	     2.247	5.73481e+06	    76.449	      15.3	    2.2385	5.56766e+06	   76.4405	      15.3	      2.23	5.71868e+06	    76.432	      15.3	    2.2385	5.77048e+06	   76.4405	      15.3	     2.247	5.60758e+06	
         R10	   5997	    76.432	      15.3	     2.247	 5.7375e+06	    76.432	      15.3	      2.23	5.80932e+06	    76.415	      15.3	      2.23	6.03829e+06	    76.415	      15.3	     2.247	 6.0374e+06	    76.432	      15.3	    2.2385	5.77297e+06	   76.4235	      15.3	      2.23	5.92031e+06	    76.415	      15.3	    2.2385	6.03759e+06	   76.4235	      15.3	     2.247	5.88359e+06	
         R10	   5998	    76.415	      15.3	     2.247	6.03899e+06	    76.415	      15.3	      2.23	6.04066e+06	    76.398	      15.3	      2.23	6.28602e+06	    76.398	      15.3	     2.247	6.33667e+06	    76.415	      15.3	    2.2385	6.03957e+06	   76.4065	      15.3	      2.23	6.16145e+06	    76.398	      15.3	    2.2385	6.31122e+06	   76.4065	      15.3	     2.247	6.18599e+06	
         R10	   5999	    76.398	      15.3	     2.247	6.33712e+06	    76.398	      15.3	      2.23	6.28733e+06	    76.381	      15.3	      2.23	6.51842e+06	    76.381	      15.3	     2.247	6.59967e+06	    76.398	      15.3	    2.2385	 6.3121e+06	   76.3895	      15.3	      2.23	 6.4019e+06	    76.381	      15.3	    2.2385	6.55898e+06	   76.3895	      15.3	     2.247	6.46755e+06	
         R10	   6000	    76.381	      15.3	     2.247	6.59829e+06	    76.381	      15.3	      2.23	6.52135e+06	    76.364	      15.3	      2.23	6.71714e+06	    76.364	      15.3	     2.247	6.81456e+06	    76.381	      15.3	    2.2385	6.55975e+06	   76.3725	      15.3	      2.23	6.61876e+06	    76.364	      15.3	    2.2385	6.76579e+06	   76.3725	      15.3	     2.247	6.70603e+06	
         R10	   6001	    76.364	      15.3	     2.247	6.81408e+06	    76.364	      15.3	      2.23	6.72025e+06	    76.347	      15.3	      2.23	6.88733e+06	    76.347	      15.3	     2.247	6.97976e+06	    76.364	      15.3	    2.2385	6.76711e+06	   76.3555	      15.3	      2.23	6.80353e+06	    76.347	      15.3	    2.2385	6.93344e+06	   76.3555	      15.3	     2.247	6.89673e+06	
         R10	   6002	    76.364	      15.3	     2.264	6.94623e+06	    76.364	      15.3	     2.247	6.81322e+06	    76.347	      15.3	     2.247	6.97972e+06	    76.347	      15.3	     2.264	7.10349e+06	    76.364	      15.3	    2.2555	 6.8796e+06	   76.3555	      15.3	     2.247	6.89628e+06	    76.347	      15.3	    2.2555	 7.0414e+06	   76.3555	      15.3	     2.264	7.02473e+06	
         R10	   6003	    76.364	      15.3	     2.264	6.94623e+06	    76.347	      15.3	     2.264	7.10403e+06	    76.347	      15.3	     2.281	7.25625e+06	    76.364	      15.3	     2.281	7.12267e+06	   76.3555	      15.3	     2.264	  7.025e+06	    76.347	      15.3	    2.2725	7.17972e+06	   76.3555	      15.3	     2.281	7.18938e+06	    76.364	      15.3	    2.2725	7.03415e+06	
         R10	   6004	    76.364	      15.3	     2.281	7.12303e+06	    76.347	      15.3	     2.281	7.25752e+06	    76.347	      15.3	     2.298	 7.4347e+06	    76.364	      15.3	     2.298	7.34316e+06	   76.3555	      15.3	     2.281	 7.1902e+06	    76.347	      15.3	    2.2895	7.34527e+06	   76.3555	      15.3	     2.298	7.38889e+06	    76.364	      15.3	    2.2895	7.23238e+06	
         R10	   6005	    76.364	      15.3	     2.298	 7.3441e+06	    76.347	      15.3	     2.298	7.43665e+06	    76.347	      15.3	     2.315	7.63183e+06	    76.364	      15.3	     2.315	7.60259e+06	   76.3555	      15.3	     2.298	7.39034e+06	    76.347	      15.3	    2.3065	7.53272e+06	   76.3555	      15.3	     2.315	7.61718e+06	    76.364	      15.3	    2.3065	7.47184e+06	
         R10	   6006	    76.364	      15.3	     2.315	7.60462e+06	    76.347	      15.3	     2.315	 7.6346e+06	    76.347	      15.3	     2.332	7.83509e+06	    76.364	      15.3	     2.332	7.88985e+06	   76.3555	      15.3	     2.315	7.61958e+06	    76.347	      15.3	    2.3235	7.73232e+06	   76.3555	      15.3	     2.332	7.86237e+06	    76.364	      15.3	    2.3235	7.74439e+06	
         R10	   6007	    76.364	      15.3	     2.332	7.89315e+06	    76.347	      15.3	     2.332	7.83903e+06	    76.347	      15.3	     2.349	 8.0292e+06	    76.364	      15.3	     2.349	8.18533e+06	   76.3555	      15.3	     2.332	7.86599e+06	    76.347	      15.3	    2.3405	7.93027e+06	   76.3555	      15.3	     2.349	 8.1069e+06	    76.364	      15.3	    2.3405	8.03445e+06	
         R10	   6008	    76.364	      15.3	     2.349	8.18989e+06	    76.347	      15.3	     2.349	8.03343e+06	    76.347	      15.3	     2.366	8.19658e+06	    76.364	      15.3	     2.366	8.46262e+06	   76.3555	      15.3	     2.349	8.11129e+06	    76.347	      15.3	    2.3575	8.10964e+06	   76.3555	      15.3	     2.366	8.32864e+06	    76.364	      15.3	    2.3575	8.31903e+06	
         R10	   6009	    76.364	      15.3	     2.366	8.46923e+06	    76.347	      15.3	     2.366	 8.1985e+06	    76.347	      15.3	     2.383	8.32157e+06	    76.364	      15.3	     2.383	8.68992e+06	   76.3555	      15.3	     2.366	8.33288e+06	    76.347	      15.3	    2.3745	8.25308e+06	   76.3555	      15.3	     2.383	8.50372e+06	    76.364	      15.3	    2.3745	8.56968e+06	
         R10	   6010	    76.381	      15.3	     2.366	8.77863e+06	    76.364	      15.3	     2.366	8.46777e+06	    76.364	      15.3	     2.383	8.69196e+06	    76.381	      15.3	     2.383	9.16933e+06	   76.3725	      15.3	     2.366	8.62228e+06	    76.364	      15.3	    2.3745	8.57001e+06	   76.3725	      15.3	     2.383	8.92841e+06	    76.381	      15.3	    2.3745	8.95968e+06	
         R10	   6011	    76.381	      15.3	     2.366	8.78119e+06	    76.381	      15.3	     2.383	9.16817e+06	    76.398	      15.3	     2.383	9.78041e+06	    76.398	      15.3	     2.366	9.11027e+06	    76.381	      15.3	    2.3745	 8.9603e+06	   76.3895	      15.3	     2.383	9.47205e+06	    76.398	      15.3	    2.3745	9.42497e+06	   76.3895	      15.3	     2.366	8.94497e+06	
         R10	   6012	    76.398	      15.3	     2.366	9.11947e+06	    76.398	      15.3	     2.383	9.78026e+06	    76.415	      15.3	     2.383	1.05298e+07	    76.415	      15.3	     2.366	9.40313e+06	    76.398	      15.3	    2.3745	9.42904e+06	   76.4065	      15.3	     2.383	1.01527e+07	    76.415	      15.3	    2.3745	9.93764e+06	   76.4065	      15.3	     2.366	9.26077e+06	
         R10	   6013	    76.415	      15.3	     2.366	9.42669e+06	    76.415	      15.3	     2.383	1.05386e+07	    76.432	      15.3	     2.383	1.13837e+07	    76.432	      15.3	     2.366	  9.505e+06	    76.415	      15.3	    2.3745	9.95282e+06	   76.4235	      15.3	     2.383	1.09587e+07	    76.432	      15.3	    2.3745	1.04058e+07	   76.4235	      15.3	     2.366	9.46551e+06	
         R10	   6014	    76.432	      15.3	     2.366	9.55753e+06	    76.432	      15.3	     2.383	1.14123e+07	    76.449	      15.3	     2.383	1.21338e+07	    76.449	      15.3	     2.366	9.09101e+06	    76.432	      15.3	    2.3745	1.04447e+07	   76.4405	      15.3	     2.383	1.17696e+07	    76.449	      15.3	    2.3745	1.05688e+07	   76.4405	      15.3	     2.366	 9.3233e+06	
         R10	   6015	    76.449	      15.3	     2.366	9.18186e+06	    76.449	      15.3	     2.383	1.21911e+07	    76.466	      15.3	     2.383	1.22296e+07	    76.466	      15.3	     2.366	7.59657e+06	    76.449	      15.3	    2.3745	1.06408e+07	   76.4575	      15.3	     2.383	 1.2197e+07	    76.466	      15.3	    2.3745	 9.8878e+06	   76.4575	      15.3	     2.366	8.37364e+06	
         R10	   6016	    76.466	      15.3	     2.366	7.63539e+06	    76.466	      15.3	     2.383	1.22729e+07	    76.483	      15.3	     2.383	1.07427e+07	    76.483	      15.3	     2.366	5.87266e+06	    76.466	      15.3	    2.3745	9.92819e+06	   76.4745	      15.3	     2.383	1.13432e+07	    76.483	      15.3	    2.3745	8.27988e+06	   76.4745	      15.3	     2.366	6.42601e+06	
         R10	   6017	    76.466	      15.3	     2.349	5.46744e+06	    76.466	      15.3	     2.366	7.72636e+06	    76.483	      15.3	     2.366	6.07439e+06	    76.483	      15.3	     2.349	4.77718e+06	    76.466	      15.3	    2.3575	6.59669e+06	   76.4745	      15.3	     2.366	6.57341e+06	    76.483	      15.3	    2.3575	5.41943e+06	   76.4745	      15.3	     2.349	4.81188e+06	
         R10	   6018	    76.466	      15.3	     2.349	5.57527e+06	    76.483	      15.3	     2.349	4.87383e+06	    76.483	      15.3	     2.332	4.61066e+06	    76.466	      15.3	     2.332	4.74769e+06	   76.4745	      15.3	     2.349	4.92006e+06	    76.483	      15.3	    2.3405	4.73304e+06	   76.4745	      15.3	     2.332	4.47924e+06	    76.466	      15.3	    2.3405	5.16053e+06	
         R10	   6019	    76.466	      15.3	     2.332	4.80753e+06	    76.483	      15.3	     2.332	4.64074e+06	    76.483	      15.3	     2.315	4.69696e+06	    76.466	      15.3	     2.315	 4.6403e+06	   76.4745	      15.3	     2.332	4.52733e+06	    76.483	      15.3	    2.3235	4.65411e+06	   76.4745	      15.3	     2.315	4.55657e+06	    76.466	      15.3	    2.3235	4.72214e+06	
         R10	   6020	    76.466	      15.3	     2.315	4.66547e+06	    76.483	      15.3	     2.315	4.70525e+06	    76.483	      15.3	     2.298	4.88168e+06	    76.466	      15.3	     2.298	4.76424e+06	   76.4745	      15.3	     2.315	4.57458e+06	    76.483	      15.3	    2.3065	 4.7805e+06	   76.4745	      15.3	     2.298	 4.7603e+06	    76.466	      15.3	    2.3065	4.71252e+06	
         R10	   6021	    76.466	      15.3	     2.298	4.77322e+06	    76.483	      15.3	     2.298	  4.884e+06	    76.483	      15.3	     2.281	5.09853e+06	    76.466	      15.3	     2.281	4.96543e+06	   76.4745	      15.3	     2.298	4.76648e+06	    76.483	      15.3	    2.2895	 4.9819e+06	   76.4745	      15.3	     2.281	4.99564e+06	    76.466	      15.3	    2.2895	4.86685e+06	
         R10	   6022	    76.466	      15.3	     2.281	 4.9678e+06	    76.483	      15.3	     2.281	5.09918e+06	    76.483	      15.3	     2.264	5.31579e+06	    76.466	      15.3	     2.264	5.18364e+06	   76.4745	      15.3	     2.281	4.99735e+06	    76.483	      15.3	    2.2725	5.20108e+06	   76.4745	      15.3	     2.264	5.22759e+06	    76.466	      15.3	    2.2725	5.07347e+06	
         R10	   6023	    76.466	      15.3	     2.264	5.18354e+06	    76.483	      15.3	     2.264	5.31594e+06	    76.483	      15.3	     2.247	5.52196e+06	    76.466	      15.3	     2.247	5.39532e+06	   76.4745	      15.3	     2.264	5.22769e+06	    76.483	      15.3	    2.2555	5.41456e+06	   76.4745	      15.3	     2.247	5.44454e+06	    76.466	      15.3	    2.2555	5.28756e+06	
         R10	   6024	    76.449	      15.3	     2.264	5.35866e+06	    76.466	      15.3	     2.264	5.18757e+06	    76.466	      15.3	     2.247	5.39651e+06	    76.449	      15.3	     2.247	5.49036e+06	   76.4575	      15.3	     2.264	5.25648e+06	    76.466	      15.3	    2.2555	5.29021e+06	   76.4575	      15.3	     2.247	5.43182e+06	    76.449	      15.3	    2.2555	5.42366e+06	
         R10	   6025	    76.449	      15.3	     2.264	5.36357e+06	    76.449	      15.3	     2.247	5.49362e+06	    76.432	      15.3	     2.247	5.73222e+06	    76.432	      15.3	     2.264	5.70493e+06	    76.449	      15.3	    2.2555	5.42776e+06	   76.4405	      15.3	     2.247	5.60555e+06	    76.432	      15.3	    2.2555	5.71811e+06	   76.4405	      15.3	     2.264	5.52518e+06	
         R10	   6026	    76.432	      15.3	     2.264	5.70826e+06	    76.432	      15.3	     2.247	5.73608e+06	    76.415	      15.3	     2.247	6.03477e+06	    76.415	      15.3	     2.264	6.09192e+06	    76.432	      15.3	    2.2555	5.72171e+06	   76.4235	      15.3	     2.247	5.88154e+06	    76.415	      15.3	    2.2555	6.06313e+06	   76.4235	      15.3	     2.264	5.89604e+06	
         R10	   6027	    76.415	      15.3	     2.264	 6.0931e+06	    76.415	      15.3	     2.247	 6.0374e+06	    76.398	      15.3	     2.247	6.33471e+06	    76.398	      15.3	     2.264	6.44363e+06	    76.415	      15.3	    2.2555	6.06504e+06	   76.4065	      15.3	     2.247	6.18421e+06	    76.398	      15.3	    2.2555	6.38909e+06	   76.4065	      15.3	     2.264	6.26671e+06	
         R10	   6028	    76.398	      15.3	     2.264	6.44343e+06	    76.398	      15.3	     2.247	6.33606e+06	    76.381	      15.3	     2.247	6.59845e+06	    76.381	      15.3	     2.264	6.72991e+06	    76.398	      15.3	    2.2555	6.38967e+06	   76.3895	      15.3	     2.247	6.46641e+06	    76.381	      15.3	    2.2555	6.66412e+06	   76.3895	      15.3	     2.264	  6.586e+06	
         R10	   6029	    76.381	      15.3	     2.264	6.72931e+06	    76.381	      15.3	     2.247	6.59806e+06	    76.364	      15.3	     2.247	6.81439e+06	    76.364	      15.3	     2.264	 6.9473e+06	    76.381	      15.3	    2.2555	6.66362e+06	   76.3725	      15.3	     2.247	6.70583e+06	    76.364	      15.3	    2.2555	6.88072e+06	   76.3725	      15.3	     2.264	6.83802e+06	
         R10	   6030	    76.381	      15.3	     2.281	6.91901e+06	    76.381	      15.3	     2.264	6.72879e+06	    76.364	      15.3	     2.264	6.94715e+06	    76.364	      15.3	     2.281	7.12432e+06	    76.381	      15.3	    2.2725	6.82374e+06	   76.3725	      15.3	     2.264	6.83769e+06	    76.364	      15.3	    2.2725	7.03544e+06	   76.3725	      15.3	     2.281	7.02149e+06	
         R10	   6031	    76.381	      15.3	     2.281	6.91882e+06	    76.364	      15.3	     2.281	7.12513e+06	    76.364	      15.3	     2.298	7.34514e+06	    76.381	      15.3	     2.298	7.17657e+06	   76.3725	      15.3	     2.281	 7.0218e+06	    76.364	      15.3	    2.2895	7.23442e+06	   76.3725	      15.3	     2.298	7.26076e+06	    76.381	      15.3	    2.2895	 7.0472e+06	
         R10	   6032	    76.381	      15.3	     2.298	7.17706e+06	    76.364	      15.3	     2.298	7.34718e+06	    76.364	      15.3	     2.315	7.60497e+06	    76.381	      15.3	     2.315	7.50361e+06	   76.3725	      15.3	     2.298	7.26203e+06	    76.364	      15.3	    2.3065	7.47456e+06	   76.3725	      15.3	     2.315	7.55425e+06	    76.381	      15.3	    2.3065	7.33901e+06	
         R10	   6033	    76.381	      15.3	     2.315	7.50544e+06	    76.364	      15.3	     2.315	7.60864e+06	    76.364	      15.3	     2.332	7.89218e+06	    76.381	      15.3	     2.332	7.89363e+06	   76.3725	      15.3	     2.315	7.55701e+06	    76.364	      15.3	    2.3235	7.74755e+06	   76.3725	      15.3	     2.332	7.89286e+06	    76.381	      15.3	    2.3235	7.69655e+06	
         R10	   6034	    76.381	      15.3	     2.332	7.89754e+06	    76.364	      15.3	     2.332	7.89706e+06	    76.364	      15.3	     2.349	8.18735e+06	    76.381	      15.3	     2.349	8.32672e+06	   76.3725	      15.3	     2.332	7.89725e+06	    76.364	      15.3	    2.3405	8.03739e+06	   76.3725	      15.3	     2.349	8.25679e+06	    76.381	      15.3	    2.3405	8.10638e+06	
         R10	   6035	    76.381	      15.3	     2.349	8.33394e+06	    76.364	      15.3	     2.349	8.19263e+06	    76.364	      15.3	     2.366	8.46351e+06	    76.381	      15.3	     2.366	8.76846e+06	   76.3725	      15.3	     2.349	8.26303e+06	    76.364	      15.3	    2.3575	8.32079e+06	   76.3725	      15.3	     2.366	 8.6151e+06	    76.381	      15.3	    2.3575	8.54157e+06	
         R10	   6036	    76.398	      15.3	     2.349	8.41828e+06	    76.381	      15.3	     2.349	8.33955e+06	    76.381	      15.3	     2.366	8.77184e+06	    76.398	      15.3	     2.366	9.09317e+06	   76.3895	      15.3	     2.349	8.37879e+06	    76.381	      15.3	    2.3575	8.54601e+06	   76.3895	      15.3	     2.366	8.93177e+06	    76.398	      15.3	    2.3575	8.74325e+06	
         R10	   6037	    76.398	      15.3	     2.349	8.43033e+06	    76.398	      15.3	     2.366	9.10088e+06	    76.415	      15.3	     2.366	9.37805e+06	    76.415	      15.3	     2.349	8.35484e+06	    76.398	      15.3	    2.3575	8.75304e+06	   76.4065	      15.3	     2.366	9.23896e+06	    76.415	      15.3	    2.3575	8.85136e+06	   76.4065	      15.3	     2.349	8.39255e+06	
         R10	   6038	    76.415	      15.3	     2.349	8.37757e+06	    76.415	      15.3	     2.366	9.39117e+06	    76.432	      15.3	     2.366	9.47532e+06	    76.432	      15.3	     2.349	7.98698e+06	    76.415	      15.3	    2.3575	8.86906e+06	   76.4235	      15.3	     2.366	9.43287e+06	    76.432	      15.3	    2.3575	8.71544e+06	   76.4235	      15.3	     2.349	8.18206e+06	
         R10	   6039	    76.432	      15.3	     2.349	8.02083e+06	    76.432	      15.3	     2.366	9.49782e+06	    76.449	      15.3	     2.366	9.07672e+06	    76.449	      15.3	     2.349	7.07887e+06	    76.432	      15.3	    2.3575	8.74323e+06	   76.4405	      15.3	     2.366	9.28593e+06	    76.449	      15.3	    2.3575	8.06683e+06	   76.4405	      15.3	     2.349	7.54708e+06	
         R10	   6040	    76.449	      15.3	     2.349	 7.1032e+06	    76.449	      15.3	     2.366	9.10419e+06	    76.466	      15.3	     2.366	7.69624e+06	    76.466	      15.3	     2.349	5.53173e+06	    76.449	      15.3	    2.3575	8.09243e+06	   76.4575	      15.3	     2.366	8.38117e+06	    76.466	      15.3	    2.3575	6.61332e+06	   76.4575	      15.3	     2.349	6.28195e+06	
         R10	   6041	    76.449	      15.3	     2.332	5.96404e+06	    76.449	      15.3	     2.349	7.11806e+06	    76.466	      15.3	     2.349	5.58702e+06	    76.466	      15.3	     2.332	4.79617e+06	    76.449	      15.3	    2.3405	6.54016e+06	   76.4575	      15.3	     2.349	6.31596e+06	    76.466	      15.3	    2.3405	5.19109e+06	   76.4575	      15.3	     2.332	5.33288e+06	
         R10	   6042	    76.449	      15.3	     2.332	5.99661e+06	    76.466	      15.3	     2.332	4.82571e+06	    76.466	      15.3	     2.315	4.66621e+06	    76.449	      15.3	     2.315	5.43597e+06	   76.4575	      15.3	     2.332	5.36452e+06	    76.466	      15.3	    2.3235	 4.7445e+06	   76.4575	      15.3	     2.315	5.00707e+06	    76.449	      15.3	    2.3235	5.71619e+06	
         R10	   6043	    76.449	      15.3	     2.315	5.45986e+06	    76.466	      15.3	     2.315	4.68042e+06	    76.466	      15.3	     2.298	4.77669e+06	    76.449	      15.3	     2.298	5.25647e+06	   76.4575	      15.3	     2.315	5.02673e+06	    76.466	      15.3	    2.3065	 4.7264e+06	   76.4575	      15.3	     2.298	4.98265e+06	    76.449	      15.3	    2.3065	 5.3575e+06	
         R10	   6044	    76.449	      15.3	     2.298	5.27004e+06	    76.466	      15.3	     2.298	4.78332e+06	    76.466	      15.3	     2.281	4.97123e+06	    76.449	      15.3	     2.281	5.26094e+06	   76.4575	      15.3	     2.298	4.99305e+06	    76.466	      15.3	    2.2895	4.87492e+06	   76.4575	      15.3	     2.281	5.09199e+06	    76.449	      15.3	    2.2895	5.26458e+06	
         R10	   6045	    76.449	      15.3	     2.281	 5.2678e+06	    76.466	      15.3	     2.281	4.97426e+06	    76.466	      15.3	     2.264	5.18616e+06	    76.449	      15.3	     2.264	5.35547e+06	   76.4575	      15.3	     2.281	5.09707e+06	    76.466	      15.3	    2.2725	5.07804e+06	   76.4575	      15.3	     2.264	5.25413e+06	    76.449	      15.3	    2.2725	5.31071e+06	
         R10	   6046	    76.432	      15.3	     2.281	5.75141e+06	    76.449	      15.3	     2.281	5.27428e+06	    76.449	      15.3	     2.264	5.36127e+06	    76.432	      15.3	     2.264	5.70059e+06	   76.4405	      15.3	     2.281	5.50223e+06	    76.449	      15.3	    2.2725	5.31688e+06	   76.4405	      15.3	     2.264	5.52181e+06	    76.432	      15.3	    2.2725	5.72558e+06	
         R10	   6047	    76.432	      15.3	     2.281	5.75448e+06	    76.432	      15.3	     2.264	5.70576e+06	    76.415	      15.3	     2.264	6.08834e+06	    76.415	      15.3	     2.281	6.23132e+06	    76.432	      15.3	    2.2725	5.72971e+06	   76.4235	      15.3	     2.264	5.89297e+06	    76.415	      15.3	    2.2725	6.15971e+06	   76.4235	      15.3	     2.281	5.98905e+06	
         R10	   6048	    76.415	      15.3	     2.281	6.23143e+06	    76.415	      15.3	     2.264	6.09119e+06	    76.398	      15.3	     2.264	6.44139e+06	    76.398	      15.3	     2.281	6.62669e+06	    76.415	      15.3	    2.2725	6.16119e+06	   76.4065	      15.3	     2.264	6.26463e+06	    76.398	      15.3	    2.2725	6.53398e+06	   76.4065	      15.3	     2.281	6.42774e+06	
         R10	   6049	    76.398	      15.3	     2.281	6.62533e+06	    76.398	      15.3	     2.264	 6.4422e+06	    76.381	      15.3	     2.264	6.72908e+06	    76.381	      15.3	     2.281	6.92072e+06	    76.398	      15.3	    2.2725	 6.5337e+06	   76.3895	      15.3	     2.264	6.58497e+06	    76.381	      15.3	    2.2725	6.82474e+06	   76.3895	      15.3	     2.281	6.77256e+06	
         R10	   6050	    76.398	      15.3	     2.298	6.90202e+06	    76.398	      15.3	     2.281	6.62432e+06	    76.381	      15.3	     2.281	6.92061e+06	    76.381	      15.3	     2.298	7.17917e+06	    76.398	      15.3	    2.2895	6.76295e+06	   76.3895	      15.3	     2.281	  6.772e+06	    76.381	      15.3	    2.2895	 7.0494e+06	   76.3895	      15.3	     2.298	7.04032e+06	
         R10	   6051	    76.398	      15.3	     2.298	6.90145e+06	    76.381	      15.3	     2.298	7.18072e+06	    76.381	      15.3	     2.315	7.50707e+06	    76.398	      15.3	     2.315	7.28944e+06	   76.3895	      15.3	     2.298	7.04082e+06	    76.381	      15.3	    2.3065	7.34257e+06	   76.3895	      15.3	     2.315	7.39814e+06	    76.398	      15.3	    2.3065	7.09455e+06	
         R10	   6052	    76.398	      15.3	     2.315	7.29029e+06	    76.381	      15.3	     2.315	7.51113e+06	    76.381	      15.3	     2.332	7.89741e+06	    76.398	      15.3	     2.332	7.79497e+06	   76.3895	      15.3	     2.315	 7.4006e+06	    76.381	      15.3	    2.3235	7.70127e+06	   76.3895	      15.3	     2.332	7.84616e+06	    76.398	      15.3	    2.3235	7.53991e+06	
         R10	   6053	    76.398	      15.3	     2.332	7.79866e+06	    76.381	      15.3	     2.332	7.90474e+06	    76.381	      15.3	     2.349	 8.3303e+06	    76.398	      15.3	     2.349	8.40922e+06	   76.3895	      15.3	     2.332	7.85168e+06	    76.381	      15.3	    2.3405	8.11173e+06	   76.3895	      15.3	     2.349	8.36964e+06	    76.398	      15.3	    2.3405	8.09753e+06	
         R10	   6054	    76.415	      15.3	     2.332	7.51657e+06	    76.398	      15.3	     2.332	 7.8099e+06	    76.398	      15.3	     2.349	8.41532e+06	    76.415	      15.3	     2.349	8.34546e+06	   76.4065	      15.3	     2.332	7.66309e+06	    76.398	      15.3	    2.3405	8.10613e+06	   76.4065	      15.3	     2.349	8.38034e+06	    76.415	      15.3	    2.3405	7.92481e+06	
         R10	   6055	    76.415	      15.3	     2.332	7.53114e+06	    76.415	      15.3	     2.349	8.35634e+06	    76.432	      15.3	     2.349	7.98378e+06	    76.432	      15.3	     2.332	6.94093e+06	    76.415	      15.3	    2.3405	7.93747e+06	   76.4235	      15.3	     2.349	8.16977e+06	    76.432	      15.3	    2.3405	7.45799e+06	   76.4235	      15.3	     2.332	7.23508e+06	
         R10	   6056	    76.432	      15.3	     2.332	6.95172e+06	    76.432	      15.3	     2.349	8.00026e+06	    76.449	      15.3	     2.349	7.09904e+06	    76.449	      15.3	     2.332	5.97818e+06	    76.432	      15.3	    2.3405	7.47166e+06	   76.4405	      15.3	     2.349	7.54641e+06	    76.449	      15.3	    2.3405	6.53754e+06	   76.4405	      15.3	     2.332	6.45833e+06	
         R10	   6057	    76.432	      15.3	     2.315	6.28457e+06	    76.432	      15.3	     2.332	6.95539e+06	    76.449	      15.3	     2.332	5.99519e+06	    76.449	      15.3	     2.315	5.45389e+06	    76.432	      15.3	    2.3235	6.61944e+06	   76.4405	      15.3	     2.332	6.46845e+06	    76.449	      15.3	    2.3235	5.72447e+06	   76.4405	      15.3	     2.315	5.85924e+06	
         R10	   6058	    76.432	      15.3	     2.315	6.29558e+06	    76.449	      15.3	     2.315	5.46559e+06	    76.449	      15.3	     2.298	5.27048e+06	    76.432	      15.3	     2.298	  5.914e+06	   76.4405	      15.3	     2.315	5.87058e+06	    76.449	      15.3	    2.3065	5.36743e+06	   76.4405	      15.3	     2.298	5.58094e+06	    76.432	      15.3	    2.3065	6.10475e+06	
         R10	   6059	    76.432	      15.3	     2.298	5.92411e+06	    76.449	      15.3	     2.298	5.27776e+06	    76.449	      15.3	     2.281	5.27007e+06	    76.432	      15.3	     2.281	5.74432e+06	   76.4405	      15.3	     2.298	5.58974e+06	    76.449	      15.3	    2.2895	5.27305e+06	   76.4405	      15.3	     2.281	 5.4965e+06	    76.432	      15.3	    2.2895	5.83396e+06	
         R10	   6060	    76.415	      15.3	     2.298	6.49038e+06	    76.432	      15.3	     2.298	5.92532e+06	    76.432	      15.3	     2.281	5.75085e+06	    76.415	      15.3	     2.281	 6.2268e+06	   76.4235	      15.3	     2.298	6.20469e+06	    76.432	      15.3	    2.2895	5.83785e+06	   76.4235	      15.3	     2.281	5.98496e+06	    76.415	      15.3	    2.2895	6.35854e+06	
         R10	   6061	    76.415	      15.3	     2.298	 6.4885e+06	    76.415	      15.3	     2.281	6.22912e+06	    76.398	      15.3	     2.281	6.62477e+06	    76.398	      15.3	     2.298	6.90483e+06	    76.415	      15.3	    2.2895	6.35876e+06	   76.4065	      15.3	     2.281	6.42562e+06	    76.398	      15.3	    2.2895	6.76459e+06	   76.4065	      15.3	     2.298	6.69578e+06	
         R10	   6062	    76.415	      15.3	     2.315	6.90383e+06	    76.415	      15.3	     2.298	6.48601e+06	    76.398	      15.3	     2.298	6.90443e+06	    76.398	      15.3	     2.315	7.29397e+06	    76.415	      15.3	    2.3065	6.69459e+06	   76.4065	      15.3	     2.298	6.69434e+06	    76.398	      15.3	    2.3065	7.09831e+06	   76.4065	      15.3	     2.315	7.09842e+06	
         R10	   6063	    76.415	      15.3	     2.315	6.90215e+06	    76.398	      15.3	     2.315	7.29708e+06	    76.398	      15.3	     2.332	7.80105e+06	    76.415	      15.3	     2.332	7.51521e+06	   76.4065	      15.3	     2.315	7.09916e+06	    76.398	      15.3	    2.3235	7.54633e+06	   76.4065	      15.3	     2.332	7.65797e+06	    76.415	      15.3	    2.3235	7.20683e+06	
         R10	   6064	    76.415	      15.3	     2.315	6.90766e+06	    76.415	      15.3	     2.332	7.52381e+06	    76.432	      15.3	     2.332	6.94611e+06	    76.432	      15.3	     2.315	6.28696e+06	    76.415	      15.3	    2.3235	7.21387e+06	   76.4235	      15.3	     2.332	7.23394e+06	    76.432	      15.3	    2.3235	6.61596e+06	   76.4235	      15.3	     2.315	6.59524e+06	
         R10	   6065	    76.415	      15.3	     2.298	6.48605e+06	    76.415	      15.3	     2.315	6.90876e+06	    76.432	      15.3	     2.315	6.29281e+06	    76.432	      15.3	     2.298	5.92056e+06	    76.415	      15.3	    2.3065	6.69708e+06	   76.4235	      15.3	     2.315	6.59869e+06	    76.432	      15.3	    2.3065	6.10665e+06	   76.4235	      15.3	     2.298	6.20013e+06	
         R10	   6066	    76.517	      15.3	      2.23	4.84031e+06	      76.5	      15.3	      2.23	4.98138e+06	      76.5	      15.3	     2.247	4.86445e+06	    76.517	      15.3	     2.247	4.67087e+06	   76.5085	      15.3	      2.23	4.89883e+06	      76.5	      15.3	    2.2385	4.91698e+06	   76.5085	      15.3	     2.247	4.74957e+06	    76.517	      15.3	    2.2385	4.75177e+06	
         R10	   6067	    76.517	      15.3	     2.247	4.67397e+06	      76.5	      15.3	     2.247	4.86304e+06	      76.5	      15.3	     2.264	4.77085e+06	    76.517	      15.3	     2.264	4.50357e+06	   76.5085	      15.3	     2.247	4.75055e+06	      76.5	      15.3	    2.2555	4.80771e+06	   76.5085	      15.3	     2.264	4.60885e+06	    76.517	      15.3	    2.2555	4.58307e+06	
         R10	   6068	    76.517	      15.3	     2.264	4.50684e+06	      76.5	      15.3	     2.264	4.76997e+06	      76.5	      15.3	     2.281	4.74321e+06	    76.517	      15.3	     2.281	4.34863e+06	   76.5085	      15.3	     2.264	4.61033e+06	      76.5	      15.3	    2.2725	4.74177e+06	   76.5085	      15.3	     2.281	4.49979e+06	    76.517	      15.3	    2.2725	4.41925e+06	
         R10	   6069	    76.517	      15.3	     2.281	4.35316e+06	      76.5	      15.3	     2.281	4.73899e+06	      76.5	      15.3	     2.298	4.85598e+06	    76.517	      15.3	     2.298	4.23252e+06	   76.5085	      15.3	     2.281	4.50041e+06	      76.5	      15.3	    2.2895	4.77361e+06	   76.5085	      15.3	     2.298	4.46643e+06	    76.517	      15.3	    2.2895	4.28033e+06	
         R10	   6070	    76.517	      15.3	     2.298	4.23677e+06	      76.5	      15.3	     2.298	4.84669e+06	      76.5	      15.3	     2.315	5.24919e+06	    76.517	      15.3	     2.315	4.20553e+06	   76.5085	      15.3	     2.298	 4.4647e+06	      76.5	      15.3	    2.3065	5.01175e+06	   76.5085	      15.3	     2.315	4.59346e+06	    76.517	      15.3	    2.3065	4.20411e+06	
         R10	   6071	    76.517	      15.3	     2.315	4.20251e+06	      76.5	      15.3	     2.315	5.23296e+06	      76.5	      15.3	     2.332	6.15748e+06	    76.517	      15.3	     2.332	4.34528e+06	   76.5085	      15.3	     2.315	4.58515e+06	      76.5	      15.3	    2.3235	5.64864e+06	   76.5085	      15.3	     2.332	5.02144e+06	    76.517	      15.3	    2.3235	4.25623e+06	
         R10	   6072	    76.517	      15.3	     2.332	4.31868e+06	      76.5	      15.3	     2.332	6.13216e+06	      76.5	      15.3	     2.349	7.90055e+06	    76.517	      15.3	     2.349	4.77819e+06	   76.5085	      15.3	     2.332	4.99754e+06	      76.5	      15.3	    2.3405	6.97405e+06	   76.5085	      15.3	     2.349	5.93718e+06	    76.517	      15.3	    2.3405	4.54073e+06	
         R10	   6073	    76.517	      15.3	     2.349	4.66769e+06	      76.5	      15.3	     2.349	7.86279e+06	      76.5	      15.3	     2.366	1.08432e+07	    76.517	      15.3	     2.366	5.97503e+06	   76.5085	      15.3	     2.349	5.86999e+06	      76.5	      15.3	    2.3575	9.33591e+06	   76.5085	      15.3	     2.366	7.61891e+06	    76.517	      15.3	    2.3575	5.31089e+06	
         R10	   6074	    76.517	      15.3	     2.366	5.60574e+06	      76.5	      15.3	     2.366	1.06738e+07	      76.5	      15.3	     2.383	1.57667e+07	    76.517	      15.3	     2.383	1.04595e+07	   76.5085	      15.3	     2.366	7.35477e+06	      76.5	      15.3	    2.3745	1.31752e+07	   76.5085	      15.3	     2.383	1.16253e+07	    76.517	      15.3	    2.3745	7.96784e+06	
         R10	   6075	    76.517	      15.3	     2.383	1.01855e+07	      76.5	      15.3	     2.383	1.44347e+07	      76.5	      15.3	       2.4	3.10253e+07	    76.517	      15.3	       2.4	2.44684e+07	   76.5085	      15.3	     2.383	1.05159e+07	      76.5	      15.3	    2.3915	2.19862e+07	   76.5085	      15.3	       2.4	2.65659e+07	    76.517	      15.3	    2.3915	1.72957e+07	
         R10	   6076	    76.534	      15.3	     2.383	1.22432e+07	    76.517	      15.3	     2.383	1.01451e+07	    76.517	      15.3	       2.4	2.41842e+07	    76.534	      15.3	       2.4	 1.9916e+07	   76.5255	      15.3	     2.383	1.10434e+07	    76.517	      15.3	    2.3915	1.71196e+07	   76.5255	      15.3	       2.4	2.19605e+07	    76.534	      15.3	    2.3915	1.59638e+07	
         R10	   6077	    76.534	      15.3	     2.383	1.20062e+07	    76.534	      15.3	       2.4	1.97603e+07	    76.551	      15.3	       2.4	1.61243e+07	    76.551	      15.3	     2.383	1.20213e+07	    76.534	      15.3	    2.3915	1.57736e+07	   76.5425	      15.3	       2.4	1.79213e+07	    76.551	      15.3	    2.3915	 1.3979e+07	   76.5425	      15.3	     2.383	1.20015e+07	
         R10	   6078	    76.551	      15.3	     2.383	 1.1956e+07	    76.551	      15.3	       2.4	1.60788e+07	    76.568	      15.3	       2.4	1.34344e+07	    76.568	      15.3	     2.383	1.11688e+07	    76.551	      15.3	    2.3915	1.39229e+07	   76.5595	      15.3	       2.4	1.47468e+07	    76.568	      15.3	    2.3915	1.22381e+07	   76.5595	      15.3	     2.383	1.15581e+07	
         R10	   6079	    76.568	      15.3	     2.383	 1.1156e+07	    76.568	      15.3	       2.4	1.34462e+07	    76.585	      15.3	       2.4	 1.1573e+07	    76.585	      15.3	     2.383	1.02777e+07	    76.568	      15.3	    2.3915	1.22371e+07	   76.5765	      15.3	       2.4	1.25032e+07	    76.585	      15.3	    2.3915	1.08844e+07	   76.5765	      15.3	     2.383	1.07135e+07	
         R10	   6080	    76.585	      15.3	     2.383	1.02836e+07	    76.585	      15.3	       2.4	1.15813e+07	    76.602	      15.3	       2.4	1.03048e+07	    76.602	      15.3	     2.383	9.50956e+06	    76.585	      15.3	    2.3915	1.08906e+07	   76.5935	      15.3	       2.4	1.09369e+07	    76.602	      15.3	    2.3915	9.88119e+06	   76.5935	      15.3	     2.383	9.89372e+06	
         R10	   6081	    76.602	      15.3	     2.383	9.52499e+06	    76.602	      15.3	       2.4	1.02824e+07	    76.619	      15.3	       2.4	9.40615e+06	    76.619	      15.3	     2.383	8.89642e+06	    76.602	      15.3	    2.3915	9.87584e+06	   76.6105	      15.3	       2.4	9.83868e+06	    76.619	      15.3	    2.3915	9.13442e+06	   76.6105	      15.3	     2.383	9.20817e+06	
         R10	   6082	    76.619	      15.3	     2.383	8.91186e+06	    76.619	      15.3	       2.4	9.38715e+06	    76.636	      15.3	       2.4	 8.7406e+06	    76.636	      15.3	     2.383	8.41997e+06	    76.619	      15.3	    2.3915	9.13149e+06	   76.6275	      15.3	       2.4	9.05978e+06	    76.636	      15.3	    2.3915	8.56851e+06	   76.6275	      15.3	     2.383	8.66352e+06	
         R10	   6083	    76.636	      15.3	     2.383	8.42627e+06	    76.636	      15.3	       2.4	8.73776e+06	    76.653	      15.3	       2.4	8.25461e+06	    76.653	      15.3	     2.383	8.04739e+06	    76.636	      15.3	    2.3915	8.57008e+06	   76.6445	      15.3	       2.4	8.49308e+06	    76.653	      15.3	    2.3915	 8.1427e+06	   76.6445	      15.3	     2.383	8.23472e+06	
         R10	   6084	    76.653	      15.3	     2.383	8.05027e+06	    76.653	      15.3	       2.4	 8.2538e+06	     76.67	      15.3	       2.4	7.89736e+06	     76.67	      15.3	     2.383	7.75457e+06	    76.653	      15.3	    2.3915	8.14362e+06	   76.6615	      15.3	       2.4	8.07293e+06	     76.67	      15.3	    2.3915	7.82025e+06	   76.6615	      15.3	     2.383	7.90064e+06	
         R10	   6085	    76.653	      15.3	     2.366	7.81558e+06	    76.653	      15.3	     2.383	8.04681e+06	     76.67	      15.3	     2.383	7.75278e+06	     76.67	      15.3	     2.366	7.59921e+06	    76.653	      15.3	    2.3745	7.92451e+06	   76.6615	      15.3	     2.383	7.89802e+06	     76.67	      15.3	    2.3745	7.67116e+06	   76.6615	      15.3	     2.366	7.70632e+06	
         R10	   6086	    76.653	      15.3	     2.366	7.81248e+06	     76.67	      15.3	     2.366	7.59751e+06	     76.67	      15.3	     2.349	7.43423e+06	    76.653	      15.3	     2.349	7.57383e+06	   76.6615	      15.3	     2.366	7.70392e+06	     76.67	      15.3	    2.3575	7.51185e+06	   76.6615	      15.3	     2.349	7.50349e+06	    76.653	      15.3	    2.3575	7.68791e+06	
         R10	   6087	    76.653	      15.3	     2.349	7.57027e+06	     76.67	      15.3	     2.349	7.43283e+06	     76.67	      15.3	     2.332	7.26653e+06	    76.653	      15.3	     2.332	7.33521e+06	   76.6615	      15.3	     2.349	7.50103e+06	     76.67	      15.3	    2.3405	7.34667e+06	   76.6615	      15.3	     2.332	7.30065e+06	    76.653	      15.3	    2.3405	 7.4489e+06	
         R10	   6088	    76.653	      15.3	     2.332	7.33352e+06	     76.67	      15.3	     2.332	7.26786e+06	     76.67	      15.3	     2.315	7.10314e+06	    76.653	      15.3	     2.315	7.11127e+06	   76.6615	      15.3	     2.332	7.30049e+06	     76.67	      15.3	    2.3235	7.18327e+06	   76.6615	      15.3	     2.315	7.10714e+06	    76.653	      15.3	    2.3235	 7.2198e+06	
         R10	   6089	    76.653	      15.3	     2.315	7.11006e+06	     76.67	      15.3	     2.315	7.10099e+06	     76.67	      15.3	     2.298	6.94859e+06	    76.653	      15.3	     2.298	6.90778e+06	   76.6615	      15.3	     2.315	7.10545e+06	     76.67	      15.3	    2.3065	7.02332e+06	   76.6615	      15.3	     2.298	6.92814e+06	    76.653	      15.3	    2.3065	7.00729e+06	
         R10	   6090	    76.653	      15.3	     2.298	6.90742e+06	     76.67	      15.3	     2.298	6.94716e+06	     76.67	      15.3	     2.281	6.80656e+06	    76.653	      15.3	     2.281	6.72992e+06	   76.6615	      15.3	     2.298	6.92725e+06	     76.67	      15.3	    2.2895	6.87593e+06	   76.6615	      15.3	     2.281	6.76817e+06	    76.653	      15.3	    2.2895	6.81774e+06	
         R10	   6091	    76.653	      15.3	     2.281	 6.7297e+06	     76.67	      15.3	     2.281	6.80537e+06	     76.67	      15.3	     2.264	6.68129e+06	    76.653	      15.3	     2.264	6.57907e+06	   76.6615	      15.3	     2.281	6.76747e+06	     76.67	      15.3	    2.2725	6.74278e+06	   76.6615	      15.3	     2.264	6.63007e+06	    76.653	      15.3	    2.2725	 6.6539e+06	
         R10	   6092	    76.653	      15.3	     2.264	6.57856e+06	     76.67	      15.3	     2.264	6.68081e+06	     76.67	      15.3	     2.247	6.57248e+06	    76.653	      15.3	     2.247	6.45548e+06	   76.6615	      15.3	     2.264	6.62957e+06	     76.67	      15.3	    2.2555	6.62634e+06	   76.6615	      15.3	     2.247	6.51383e+06	    76.653	      15.3	    2.2555	 6.5168e+06	
         R10	   6093	    76.653	      15.3	     2.247	6.45567e+06	     76.67	      15.3	     2.247	6.57303e+06	     76.67	      15.3	      2.23	6.48419e+06	    76.653	      15.3	      2.23	6.35877e+06	   76.6615	      15.3	     2.247	 6.5142e+06	     76.67	      15.3	    2.2385	6.52845e+06	   76.6615	      15.3	      2.23	6.42128e+06	    76.653	      15.3	    2.2385	6.40711e+06	
         R10	   6094	    76.636	      15.3	     2.247	6.29834e+06	    76.653	      15.3	     2.247	6.45648e+06	    76.653	      15.3	      2.23	6.35912e+06	    76.636	      15.3	      2.23	6.19939e+06	   76.6445	      15.3	     2.247	6.37713e+06	    76.653	      15.3	    2.2385	 6.4077e+06	   76.6445	      15.3	      2.23	6.27891e+06	    76.636	      15.3	    2.2385	6.24881e+06	
         R10	   6095	    76.636	      15.3	     2.247	6.29888e+06	    76.636	      15.3	      2.23	6.19831e+06	    76.619	      15.3	      2.23	 5.9997e+06	    76.619	      15.3	     2.247	6.09284e+06	    76.636	      15.3	    2.2385	6.24854e+06	   76.6275	      15.3	      2.23	6.09841e+06	    76.619	      15.3	    2.2385	6.04623e+06	   76.6275	      15.3	     2.247	6.19532e+06	
         R10	   6096	    76.619	      15.3	     2.247	6.09355e+06	    76.619	      15.3	      2.23	6.00175e+06	    76.602	      15.3	      2.23	5.76525e+06	    76.602	      15.3	     2.247	5.83689e+06	    76.619	      15.3	    2.2385	6.04761e+06	   76.6105	      15.3	      2.23	5.88242e+06	    76.602	      15.3	    2.2385	5.80098e+06	   76.6105	      15.3	     2.247	 5.9642e+06	
         R10	   6097	    76.602	      15.3	     2.247	5.83678e+06	    76.602	      15.3	      2.23	5.76535e+06	    76.585	      15.3	      2.23	5.50327e+06	    76.585	      15.3	     2.247	5.53448e+06	    76.602	      15.3	    2.2385	5.80097e+06	   76.5935	      15.3	      2.23	5.63234e+06	    76.585	      15.3	    2.2385	5.51861e+06	   76.5935	      15.3	     2.247	5.68361e+06	
         R10	   6098	    76.585	      15.3	     2.247	5.53362e+06	    76.585	      15.3	      2.23	5.50309e+06	    76.568	      15.3	      2.23	5.23631e+06	    76.568	      15.3	     2.247	5.20827e+06	    76.585	      15.3	    2.2385	5.51809e+06	   76.5765	      15.3	      2.23	5.36617e+06	    76.568	      15.3	    2.2385	 5.2217e+06	   76.5765	      15.3	     2.247	5.36696e+06	
         R10	   6099	    76.568	      15.3	     2.247	5.20605e+06	    76.568	      15.3	      2.23	5.23388e+06	    76.551	      15.3	      2.23	4.99911e+06	    76.551	      15.3	     2.247	4.90394e+06	    76.568	      15.3	    2.2385	5.21939e+06	   76.5595	      15.3	      2.23	5.11048e+06	    76.551	      15.3	    2.2385	4.95039e+06	   76.5595	      15.3	     2.247	5.04759e+06	
         R10	   6100	    76.551	      15.3	     2.247	4.90182e+06	    76.551	      15.3	      2.23	5.00722e+06	    76.534	      15.3	      2.23	4.84537e+06	    76.534	      15.3	     2.247	4.70137e+06	    76.551	      15.3	    2.2385	4.95326e+06	   76.5425	      15.3	      2.23	4.91749e+06	    76.534	      15.3	    2.2385	4.77138e+06	   76.5425	      15.3	     2.247	4.78907e+06	
         R10	   6101	    76.534	      15.3	     2.247	4.69579e+06	    76.534	      15.3	      2.23	4.84619e+06	    76.517	      15.3	      2.23	4.84433e+06	    76.517	      15.3	     2.247	4.66996e+06	    76.534	      15.3	    2.2385	4.76882e+06	   76.5255	      15.3	      2.23	4.83382e+06	    76.517	      15.3	    2.2385	4.75323e+06	   76.5255	      15.3	     2.247	4.66568e+06	
         R10	   6102	    76.534	      15.3	     2.264	4.54541e+06	    76.534	      15.3	     2.247	4.69754e+06	    76.517	      15.3	     2.247	4.67032e+06	    76.517	      15.3	     2.264	4.50325e+06	    76.534	      15.3	    2.2555	4.61874e+06	   76.5255	      15.3	     2.247	4.66668e+06	    76.517	      15.3	    2.2555	4.58129e+06	   76.5255	      15.3	     2.264	4.49807e+06	
         R10	   6103	    76.534	      15.3	     2.264	4.54549e+06	    76.517	      15.3	     2.264	4.50231e+06	    76.517	      15.3	     2.281	4.34677e+06	    76.534	      15.3	     2.281	4.41066e+06	   76.5255	      15.3	     2.264	4.49752e+06	    76.517	      15.3	    2.2725	 4.4164e+06	   76.5255	      15.3	     2.281	4.33633e+06	    76.534	      15.3	    2.2725	4.47478e+06	
         R10	   6104	    76.534	      15.3	     2.281	4.40945e+06	    76.517	      15.3	     2.281	4.34426e+06	    76.517	      15.3	     2.298	4.22572e+06	    76.534	      15.3	     2.298	4.31974e+06	   76.5255	      15.3	     2.281	4.33425e+06	    76.517	      15.3	    2.2895	4.27329e+06	   76.5255	      15.3	     2.298	4.20178e+06	    76.534	      15.3	    2.2895	4.36105e+06	
         R10	   6105	    76.534	      15.3	     2.298	4.31378e+06	    76.517	      15.3	     2.298	4.21988e+06	    76.517	      15.3	     2.315	4.18568e+06	    76.534	      15.3	     2.315	 4.3284e+06	   76.5255	      15.3	     2.298	4.19523e+06	    76.517	      15.3	    2.3065	4.18738e+06	   76.5255	      15.3	     2.315	4.13481e+06	    76.534	      15.3	    2.3065	 4.3183e+06	
         R10	   6106	    76.534	      15.3	     2.315	 4.3101e+06	    76.517	      15.3	     2.315	4.17143e+06	    76.517	      15.3	     2.332	4.29877e+06	    76.534	      15.3	     2.332	4.56328e+06	   76.5255	      15.3	     2.315	4.11699e+06	    76.517	      15.3	    2.3235	4.21966e+06	   76.5255	      15.3	     2.332	4.22143e+06	    76.534	      15.3	    2.3235	4.43571e+06	
         R10	   6107	    76.534	      15.3	     2.332	4.51563e+06	    76.517	      15.3	     2.332	4.25913e+06	    76.517	      15.3	     2.349	4.69299e+06	    76.534	      15.3	     2.349	5.33654e+06	   76.5255	      15.3	     2.332	4.17463e+06	    76.517	      15.3	    2.3405	4.47005e+06	   76.5255	      15.3	     2.349	4.69576e+06	    76.534	      15.3	    2.3405	4.92425e+06	
         R10	   6108	    76.534	      15.3	     2.349	 5.2355e+06	    76.517	      15.3	     2.349	4.58524e+06	    76.517	      15.3	     2.366	 5.9221e+06	    76.534	      15.3	     2.366	7.41282e+06	   76.5255	      15.3	     2.349	4.58516e+06	    76.517	      15.3	    2.3575	 5.2487e+06	   76.5255	      15.3	     2.366	6.32395e+06	    76.534	      15.3	    2.3575	6.31545e+06	
         R10	   6109	    76.534	      15.3	     2.366	7.29697e+06	    76.517	      15.3	     2.366	5.67536e+06	    76.517	      15.3	     2.383	1.05371e+07	    76.534	      15.3	     2.383	1.19741e+07	   76.5255	      15.3	     2.366	6.13927e+06	    76.517	      15.3	    2.3745	8.07216e+06	   76.5255	      15.3	     2.383	1.10897e+07	    76.534	      15.3	    2.3745	9.61296e+06	
         R10	   6110	    76.551	      15.3	     2.366	  8.737e+06	    76.534	      15.3	     2.366	7.23722e+06	    76.534	      15.3	     2.383	1.19188e+07	    76.551	      15.3	     2.383	1.18671e+07	   76.5425	      15.3	     2.366	 7.9671e+06	    76.534	      15.3	    2.3745	9.55683e+06	   76.5425	      15.3	     2.383	1.18799e+07	    76.551	      15.3	    2.3745	1.02636e+07	
         R10	   6111	    76.551	      15.3	     2.366	8.64682e+06	    76.551	      15.3	     2.383	1.18088e+07	    76.568	      15.3	     2.383	1.11042e+07	    76.568	      15.3	     2.366	9.09392e+06	    76.551	      15.3	    2.3745	1.01914e+07	   76.5595	      15.3	     2.383	1.14527e+07	    76.568	      15.3	    2.3745	1.00647e+07	   76.5595	      15.3	     2.366	8.86913e+06	
         R10	   6112	    76.568	      15.3	     2.366	9.04785e+06	    76.568	      15.3	     2.383	1.10687e+07	    76.585	      15.3	     2.383	1.02501e+07	    76.585	      15.3	     2.366	8.97466e+06	    76.568	      15.3	    2.3745	1.00248e+07	   76.5765	      15.3	     2.383	1.06563e+07	    76.585	      15.3	    2.3745	9.58652e+06	   76.5765	      15.3	     2.366	9.01088e+06	
         R10	   6113	    76.585	      15.3	     2.366	8.95638e+06	    76.585	      15.3	     2.383	1.02343e+07	    76.602	      15.3	     2.383	9.49688e+06	    76.602	      15.3	     2.366	8.68894e+06	    76.585	      15.3	    2.3745	9.57009e+06	   76.5935	      15.3	     2.383	9.86291e+06	    76.602	      15.3	    2.3745	9.07404e+06	   76.5935	      15.3	     2.366	8.82198e+06	
         R10	   6114	    76.602	      15.3	     2.366	 8.6799e+06	    76.602	      15.3	     2.383	9.49863e+06	    76.619	      15.3	     2.383	8.89137e+06	    76.619	      15.3	     2.366	8.37013e+06	    76.602	      15.3	    2.3745	9.07104e+06	   76.6105	      15.3	     2.383	9.19259e+06	    76.619	      15.3	    2.3745	8.61742e+06	   76.6105	      15.3	     2.366	8.52405e+06	
         R10	   6115	    76.619	      15.3	     2.366	8.36695e+06	    76.619	      15.3	     2.383	8.89534e+06	    76.636	      15.3	     2.383	8.41801e+06	    76.636	      15.3	     2.366	8.07225e+06	    76.619	      15.3	    2.3745	8.61808e+06	   76.6275	      15.3	     2.383	8.65438e+06	    76.636	      15.3	    2.3745	 8.2358e+06	   76.6275	      15.3	     2.366	 8.2185e+06	
         R10	   6116	    76.636	      15.3	     2.366	8.07294e+06	    76.636	      15.3	     2.383	8.41843e+06	    76.653	      15.3	     2.383	8.04569e+06	    76.653	      15.3	     2.366	7.81479e+06	    76.636	      15.3	    2.3745	8.23637e+06	   76.6445	      15.3	     2.383	   8.23e+06	    76.653	      15.3	    2.3745	7.92354e+06	   76.6445	      15.3	     2.366	7.94274e+06	
         R10	   6117	    76.636	      15.3	     2.349	7.71783e+06	    76.636	      15.3	     2.366	8.06675e+06	    76.653	      15.3	     2.366	7.81318e+06	    76.653	      15.3	     2.349	7.57386e+06	    76.636	      15.3	    2.3575	7.88533e+06	   76.6445	      15.3	     2.366	7.93886e+06	    76.653	      15.3	    2.3575	7.68827e+06	   76.6445	      15.3	     2.349	7.64539e+06	
         R10	   6118	    76.636	      15.3	     2.349	7.71414e+06	    76.653	      15.3	     2.349	7.57164e+06	    76.653	      15.3	     2.332	 7.3375e+06	    76.636	      15.3	     2.332	7.38321e+06	   76.6445	      15.3	     2.349	7.64244e+06	    76.653	      15.3	    2.3405	7.45072e+06	   76.6445	      15.3	     2.332	7.36023e+06	    76.636	      15.3	    2.3405	 7.5439e+06	
         R10	   6119	    76.636	      15.3	     2.332	7.38105e+06	    76.653	      15.3	     2.332	7.33442e+06	    76.653	      15.3	     2.315	7.11354e+06	    76.636	      15.3	     2.315	7.08259e+06	   76.6445	      15.3	     2.332	7.35761e+06	    76.653	      15.3	    2.3235	7.22137e+06	   76.6445	      15.3	     2.315	7.09803e+06	    76.636	      15.3	    2.3235	7.22884e+06	
         R10	   6120	    76.636	      15.3	     2.315	7.08157e+06	    76.653	      15.3	     2.315	7.11137e+06	    76.653	      15.3	     2.298	6.91003e+06	    76.636	      15.3	     2.298	6.82313e+06	   76.6445	      15.3	     2.315	7.09643e+06	    76.653	      15.3	    2.3065	7.00907e+06	   76.6445	      15.3	     2.298	6.86651e+06	    76.636	      15.3	    2.3065	6.95067e+06	
         R10	   6121	    76.636	      15.3	     2.298	6.82256e+06	    76.653	      15.3	     2.298	6.90869e+06	    76.653	      15.3	     2.281	6.73161e+06	    76.636	      15.3	     2.281	6.60672e+06	   76.6445	      15.3	     2.298	6.86556e+06	    76.653	      15.3	    2.2895	6.81922e+06	   76.6445	      15.3	     2.281	6.66903e+06	    76.636	      15.3	    2.2895	6.71381e+06	
         R10	   6122	    76.636	      15.3	     2.281	6.60663e+06	    76.653	      15.3	     2.281	6.73086e+06	    76.653	      15.3	     2.264	6.58015e+06	    76.636	      15.3	     2.264	6.43269e+06	   76.6445	      15.3	     2.281	 6.6686e+06	    76.653	      15.3	    2.2725	6.65502e+06	   76.6445	      15.3	     2.264	 6.5062e+06	    76.636	      15.3	    2.2725	6.51929e+06	
         R10	   6123	    76.636	      15.3	     2.264	6.43284e+06	    76.653	      15.3	     2.264	6.57985e+06	    76.653	      15.3	     2.247	6.45663e+06	    76.636	      15.3	     2.247	6.29786e+06	   76.6445	      15.3	     2.264	6.50613e+06	    76.653	      15.3	    2.2555	6.51801e+06	   76.6445	      15.3	     2.247	6.37697e+06	    76.636	      15.3	    2.2555	6.36521e+06	
         R10	   6124	    76.619	      15.3	     2.264	6.22908e+06	    76.636	      15.3	     2.264	6.43406e+06	    76.636	      15.3	     2.247	6.29871e+06	    76.619	      15.3	     2.247	6.09257e+06	   76.6275	      15.3	     2.264	6.33112e+06	    76.636	      15.3	    2.2555	6.36625e+06	   76.6275	      15.3	     2.247	6.19511e+06	    76.619	      15.3	    2.2555	6.16077e+06	
         R10	   6125	    76.619	      15.3	     2.264	6.23043e+06	    76.619	      15.3	     2.247	6.09232e+06	    76.602	      15.3	     2.247	5.83602e+06	    76.602	      15.3	     2.264	 5.9578e+06	    76.619	      15.3	    2.2555	6.16133e+06	   76.6105	      15.3	     2.247	5.96314e+06	    76.602	      15.3	    2.2555	5.89688e+06	   76.6105	      15.3	     2.264	6.09318e+06	
         R10	   6126	    76.602	      15.3	     2.264	5.95896e+06	    76.602	      15.3	     2.247	 5.8351e+06	    76.585	      15.3	     2.247	5.53322e+06	    76.585	      15.3	     2.264	5.61691e+06	    76.602	      15.3	    2.2555	  5.897e+06	   76.5935	      15.3	     2.247	5.68213e+06	    76.585	      15.3	    2.2555	5.57491e+06	   76.5935	      15.3	     2.264	5.78593e+06	
         R10	   6127	    76.585	      15.3	     2.264	5.61708e+06	    76.585	      15.3	     2.247	5.53155e+06	    76.568	      15.3	     2.247	 5.2066e+06	    76.568	      15.3	     2.264	5.22427e+06	    76.585	      15.3	    2.2555	5.57415e+06	   76.5765	      15.3	     2.247	5.36508e+06	    76.568	      15.3	    2.2555	5.21492e+06	   76.5765	      15.3	     2.264	 5.4163e+06	
         R10	   6128	    76.568	      15.3	     2.264	5.22286e+06	    76.568	      15.3	     2.247	5.20378e+06	    76.551	      15.3	     2.247	4.90463e+06	    76.551	      15.3	     2.264	4.83314e+06	    76.568	      15.3	    2.2555	5.21279e+06	   76.5595	      15.3	     2.247	5.04671e+06	    76.551	      15.3	    2.2555	4.86764e+06	   76.5595	      15.3	     2.264	5.01869e+06	
         R10	   6129	    76.551	      15.3	     2.264	4.83017e+06	    76.551	      15.3	     2.247	4.89962e+06	    76.534	      15.3	     2.247	4.69804e+06	    76.534	      15.3	     2.264	 4.5482e+06	    76.551	      15.3	    2.2555	4.86367e+06	   76.5425	      15.3	     2.247	4.78632e+06	    76.534	      15.3	    2.2555	4.62042e+06	   76.5425	      15.3	     2.264	4.67153e+06	
         R10	   6130	    76.551	      15.3	     2.281	4.80772e+06	    76.551	      15.3	     2.264	4.82775e+06	    76.534	      15.3	     2.264	4.54676e+06	    76.534	      15.3	     2.281	4.41462e+06	    76.551	      15.3	    2.2725	4.81652e+06	   76.5425	      15.3	     2.264	4.66955e+06	    76.534	      15.3	    2.2725	4.47751e+06	   76.5425	      15.3	     2.281	4.58608e+06	
         R10	   6131	    76.551	      15.3	     2.281	4.80199e+06	    76.534	      15.3	     2.281	4.41168e+06	    76.534	      15.3	     2.298	4.32374e+06	    76.551	      15.3	     2.298	4.87737e+06	   76.5425	      15.3	     2.281	4.58159e+06	    76.534	      15.3	    2.2895	4.36434e+06	   76.5425	      15.3	     2.298	4.56529e+06	    76.551	      15.3	    2.2895	4.83882e+06	
         R10	   6132	    76.551	      15.3	     2.298	4.86581e+06	    76.534	      15.3	     2.298	4.31841e+06	    76.534	      15.3	     2.315	4.33061e+06	    76.551	      15.3	     2.315	5.11397e+06	   76.5425	      15.3	     2.298	4.55652e+06	    76.534	      15.3	    2.3065	4.32192e+06	   76.5425	      15.3	     2.315	4.67539e+06	    76.551	      15.3	    2.3065	 4.9896e+06	
         R10	   6133	    76.551	      15.3	     2.315	  5.093e+06	    76.534	      15.3	     2.315	4.32017e+06	    76.534	      15.3	     2.332	4.55883e+06	    76.551	      15.3	     2.332	5.65209e+06	   76.5425	      15.3	     2.315	4.65903e+06	    76.534	      15.3	    2.3235	4.43874e+06	   76.5425	      15.3	     2.332	 5.0515e+06	    76.551	      15.3	    2.3235	 5.3722e+06	
         R10	   6134	    76.551	      15.3	     2.332	5.62043e+06	    76.534	      15.3	     2.332	4.53473e+06	    76.534	      15.3	     2.349	5.32127e+06	    76.551	      15.3	     2.349	6.72769e+06	   76.5425	      15.3	     2.332	5.02271e+06	    76.534	      15.3	    2.3405	4.92676e+06	   76.5425	      15.3	     2.349	5.97851e+06	    76.551	      15.3	    2.3405	6.17053e+06	
         R10	   6135	    76.551	      15.3	     2.349	6.70394e+06	    76.534	      15.3	     2.349	5.26152e+06	    76.534	      15.3	     2.366	 7.3619e+06	    76.551	      15.3	     2.366	8.68068e+06	   76.5425	      15.3	     2.349	5.93729e+06	    76.534	      15.3	    2.3575	6.30426e+06	   76.5425	      15.3	     2.366	7.99801e+06	    76.551	      15.3	    2.3575	7.67829e+06	
         R10	   6136	    76.568	      15.3	     2.349	7.54662e+06	    76.551	      15.3	     2.349	6.67357e+06	    76.551	      15.3	     2.366	8.65145e+06	    76.568	      15.3	     2.366	9.04635e+06	   76.5595	      15.3	     2.349	7.10504e+06	    76.551	      15.3	    2.3575	7.64913e+06	   76.5595	      15.3	     2.366	8.84723e+06	    76.568	      15.3	    2.3575	8.28029e+06	
         R10	   6137	    76.568	      15.3	     2.349	7.51286e+06	    76.568	      15.3	     2.366	9.02751e+06	    76.585	      15.3	     2.366	8.94653e+06	    76.585	      15.3	     2.349	7.87998e+06	    76.568	      15.3	    2.3575	8.25453e+06	   76.5765	      15.3	     2.366	8.98663e+06	    76.585	      15.3	    2.3575	8.39853e+06	   76.5765	      15.3	     2.349	7.69589e+06	
         R10	   6138	    76.585	      15.3	     2.349	7.85808e+06	    76.585	      15.3	     2.366	8.93534e+06	    76.602	      15.3	     2.366	8.67353e+06	    76.602	      15.3	     2.349	7.93274e+06	    76.585	      15.3	    2.3575	8.38228e+06	   76.5935	      15.3	     2.366	8.80379e+06	    76.602	      15.3	    2.3575	8.29124e+06	   76.5935	      15.3	     2.349	7.89536e+06	
         R10	   6139	    76.602	      15.3	     2.349	7.92208e+06	    76.602	      15.3	     2.366	8.66559e+06	    76.619	      15.3	     2.366	8.36228e+06	    76.619	      15.3	     2.349	7.85272e+06	    76.602	      15.3	    2.3575	  8.282e+06	   76.6105	      15.3	     2.366	8.51301e+06	    76.619	      15.3	    2.3575	 8.0983e+06	   76.6105	      15.3	     2.349	7.88725e+06	
         R10	   6140	    76.619	      15.3	     2.349	7.84804e+06	    76.619	      15.3	     2.366	8.35779e+06	    76.636	      15.3	     2.366	8.06853e+06	    76.636	      15.3	     2.349	7.71993e+06	    76.619	      15.3	    2.3575	8.09374e+06	   76.6275	      15.3	     2.366	8.21209e+06	    76.636	      15.3	    2.3575	7.88724e+06	   76.6275	      15.3	     2.349	7.78366e+06	
         R10	   6141	    76.619	      15.3	     2.332	7.38307e+06	    76.619	      15.3	     2.349	7.84268e+06	    76.636	      15.3	     2.349	7.71573e+06	    76.636	      15.3	     2.332	7.38682e+06	    76.619	      15.3	    2.3405	 7.6071e+06	   76.6275	      15.3	     2.349	 7.7789e+06	    76.636	      15.3	    2.3405	7.54648e+06	   76.6275	      15.3	     2.332	 7.3849e+06	
         R10	   6142	    76.619	      15.3	     2.332	7.38082e+06	    76.636	      15.3	     2.332	7.38315e+06	    76.636	      15.3	     2.315	7.08625e+06	    76.619	      15.3	     2.315	6.98944e+06	   76.6275	      15.3	     2.332	7.38194e+06	    76.636	      15.3	    2.3235	7.23171e+06	   76.6275	      15.3	     2.315	7.03778e+06	    76.619	      15.3	    2.3235	7.18191e+06	
         R10	   6143	    76.619	      15.3	     2.315	6.98869e+06	    76.636	      15.3	     2.315	7.08361e+06	    76.636	      15.3	     2.298	6.82606e+06	    76.619	      15.3	     2.298	6.66904e+06	   76.6275	      15.3	     2.315	7.03608e+06	    76.636	      15.3	    2.3065	6.95315e+06	   76.6275	      15.3	     2.298	6.74736e+06	    76.619	      15.3	    2.3065	 6.8273e+06	
         R10	   6144	    76.619	      15.3	     2.298	6.66907e+06	    76.636	      15.3	     2.298	6.82455e+06	    76.636	      15.3	     2.281	6.60879e+06	    76.619	      15.3	     2.281	6.41794e+06	   76.6275	      15.3	     2.298	6.74662e+06	    76.636	      15.3	    2.2895	6.71584e+06	   76.6275	      15.3	     2.281	6.51303e+06	    76.619	      15.3	    2.2895	6.54287e+06	
         R10	   6145	    76.619	      15.3	     2.281	6.41826e+06	    76.636	      15.3	     2.281	6.60823e+06	    76.636	      15.3	     2.264	6.43392e+06	    76.619	      15.3	     2.264	6.22863e+06	   76.6275	      15.3	     2.281	6.51291e+06	    76.636	      15.3	    2.2725	6.52071e+06	   76.6275	      15.3	     2.264	6.33083e+06	    76.619	      15.3	    2.2725	6.32324e+06	
         R10	   6146	    76.602	      15.3	     2.281	6.14562e+06	    76.619	      15.3	     2.281	6.42024e+06	    76.619	      15.3	     2.264	6.22962e+06	    76.602	      15.3	     2.264	 5.9568e+06	   76.6105	      15.3	     2.281	6.28215e+06	    76.619	      15.3	    2.2725	6.32473e+06	   76.6105	      15.3	     2.264	6.09227e+06	    76.602	      15.3	    2.2725	6.05116e+06	
         R10	   6147	    76.602	      15.3	     2.281	6.14765e+06	    76.602	      15.3	     2.264	5.95704e+06	    76.585	      15.3	     2.264	5.61549e+06	    76.585	      15.3	     2.281	5.77478e+06	    76.602	      15.3	    2.2725	 6.0523e+06	   76.5935	      15.3	     2.264	5.78425e+06	    76.585	      15.3	    2.2725	 5.6951e+06	   76.5935	      15.3	     2.281	5.95936e+06	
         R10	   6148	    76.585	      15.3	     2.281	5.77609e+06	    76.585	      15.3	     2.264	5.61392e+06	    76.568	      15.3	     2.264	5.22215e+06	    76.568	      15.3	     2.281	5.31164e+06	    76.585	      15.3	    2.2725	5.69497e+06	   76.5765	      15.3	     2.264	5.41363e+06	    76.568	      15.3	    2.2725	5.26657e+06	   76.5765	      15.3	     2.281	5.53931e+06	
         R10	   6149	    76.568	      15.3	     2.281	5.31124e+06	    76.568	      15.3	     2.264	5.21923e+06	    76.551	      15.3	     2.264	4.83081e+06	    76.551	      15.3	     2.281	4.81118e+06	    76.568	      15.3	    2.2725	 5.2649e+06	   76.5595	      15.3	     2.264	5.01567e+06	    76.551	      15.3	    2.2725	4.81983e+06	   76.5595	      15.3	     2.281	   5.05e+06	
         R10	   6150	    76.568	      15.3	     2.298	5.51249e+06	    76.568	      15.3	     2.281	5.30523e+06	    76.551	      15.3	     2.281	4.80759e+06	    76.551	      15.3	     2.298	4.87957e+06	    76.568	      15.3	    2.2895	5.40878e+06	   76.5595	      15.3	     2.281	5.04513e+06	    76.551	      15.3	    2.2895	4.84276e+06	   76.5595	      15.3	     2.298	5.18331e+06	
         R10	   6151	    76.568	      15.3	     2.298	5.50373e+06	    76.551	      15.3	     2.298	4.87355e+06	    76.551	      15.3	     2.315	5.11218e+06	    76.568	      15.3	     2.315	5.88667e+06	   76.5595	      15.3	     2.298	5.17583e+06	    76.551	      15.3	    2.3065	4.99262e+06	   76.5595	      15.3	     2.315	5.48657e+06	    76.568	      15.3	    2.3065	5.69511e+06	
         R10	   6152	    76.568	      15.3	     2.315	5.87634e+06	    76.551	      15.3	     2.315	5.10149e+06	    76.551	      15.3	     2.332	5.64205e+06	    76.568	      15.3	     2.332	6.52116e+06	   76.5595	      15.3	     2.315	5.47601e+06	    76.551	      15.3	    2.3235	5.37147e+06	   76.5595	      15.3	     2.332	 6.0712e+06	    76.568	      15.3	    2.3235	6.19731e+06	
         R10	   6153	    76.568	      15.3	     2.332	 6.5149e+06	    76.551	      15.3	     2.332	5.62358e+06	    76.551	      15.3	     2.349	6.70177e+06	    76.568	      15.3	     2.349	 7.5339e+06	   76.5595	      15.3	     2.332	6.05896e+06	    76.551	      15.3	    2.3405	6.15918e+06	   76.5595	      15.3	     2.349	7.11236e+06	    76.568	      15.3	    2.3405	7.01844e+06	
         R10	   6154	    76.585	      15.3	     2.332	7.04288e+06	    76.568	      15.3	     2.332	6.50225e+06	    76.568	      15.3	     2.349	  7.516e+06	    76.585	      15.3	     2.349	7.86403e+06	   76.5765	      15.3	     2.332	6.77048e+06	    76.568	      15.3	    2.3405	7.00318e+06	   76.5765	      15.3	     2.349	 7.6894e+06	    76.585	      15.3	    2.3405	 7.4465e+06	
         R10	   6155	    76.585	      15.3	     2.332	7.02869e+06	    76.585	      15.3	     2.349	7.85356e+06	    76.602	      15.3	     2.349	7.92112e+06	    76.602	      15.3	     2.332	7.29978e+06	    76.585	      15.3	    2.3405	7.43423e+06	   76.5935	      15.3	     2.349	7.88728e+06	    76.602	      15.3	    2.3405	7.60375e+06	   76.5935	      15.3	     2.332	7.16384e+06	
         R10	   6156	    76.602	      15.3	     2.332	7.28907e+06	    76.602	      15.3	     2.349	7.91568e+06	    76.619	      15.3	     2.349	7.84566e+06	    76.619	      15.3	     2.332	7.38968e+06	    76.602	      15.3	    2.3405	7.59575e+06	   76.6105	      15.3	     2.349	7.88052e+06	    76.619	      15.3	    2.3405	7.61184e+06	   76.6105	      15.3	     2.332	7.33933e+06	
         R10	   6157	    76.602	      15.3	     2.315	6.79166e+06	    76.602	      15.3	     2.332	7.28765e+06	    76.619	      15.3	     2.332	7.38427e+06	    76.619	      15.3	     2.315	6.99478e+06	    76.602	      15.3	    2.3235	7.03649e+06	   76.6105	      15.3	     2.332	 7.3359e+06	    76.619	      15.3	    2.3235	7.18628e+06	   76.6105	      15.3	     2.315	6.89295e+06	
         R10	   6158	    76.602	      15.3	     2.315	6.79198e+06	    76.619	      15.3	     2.315	6.99186e+06	    76.619	      15.3	     2.298	6.67267e+06	    76.602	      15.3	     2.298	6.41644e+06	   76.6105	      15.3	     2.315	6.89164e+06	    76.619	      15.3	    2.3065	 6.8307e+06	   76.6105	      15.3	     2.298	  6.544e+06	    76.602	      15.3	    2.3065	  6.603e+06	
         R10	   6159	    76.602	      15.3	     2.298	6.41728e+06	    76.619	      15.3	     2.298	6.67175e+06	    76.619	      15.3	     2.281	6.41995e+06	    76.602	      15.3	     2.281	6.14463e+06	   76.6105	      15.3	     2.298	6.54396e+06	    76.619	      15.3	    2.2895	6.54522e+06	   76.6105	      15.3	     2.281	6.28151e+06	    76.602	      15.3	    2.2895	6.28062e+06	
         R10	   6160	    76.585	      15.3	     2.298	6.03671e+06	    76.602	      15.3	     2.298	6.42072e+06	    76.602	      15.3	     2.281	6.14593e+06	    76.585	      15.3	     2.281	5.77284e+06	   76.5935	      15.3	     2.298	6.22718e+06	    76.602	      15.3	    2.2895	6.28299e+06	   76.5935	      15.3	     2.281	5.95751e+06	    76.585	      15.3	    2.2895	5.90472e+06	
         R10	   6161	    76.585	      15.3	     2.298	 6.0402e+06	    76.585	      15.3	     2.281	5.77217e+06	    76.568	      15.3	     2.281	5.30895e+06	    76.568	      15.3	     2.298	5.51071e+06	    76.585	      15.3	    2.2895	5.90613e+06	   76.5765	      15.3	     2.281	5.53597e+06	    76.568	      15.3	    2.2895	5.40976e+06	   76.5765	      15.3	     2.298	5.77111e+06	
         R10	   6162	    76.585	      15.3	     2.315	6.44615e+06	    76.585	      15.3	     2.298	6.03614e+06	    76.568	      15.3	     2.298	5.50658e+06	    76.568	      15.3	     2.315	5.88067e+06	    76.585	      15.3	    2.3065	 6.2405e+06	   76.5765	      15.3	     2.298	5.76698e+06	    76.568	      15.3	    2.3065	5.69353e+06	   76.5765	      15.3	     2.315	6.15987e+06	
         R10	   6163	    76.585	      15.3	     2.315	6.44411e+06	    76.568	      15.3	     2.315	5.87492e+06	    76.568	      15.3	     2.332	6.50962e+06	    76.585	      15.3	     2.332	7.03864e+06	   76.5765	      15.3	     2.315	6.15596e+06	    76.568	      15.3	    2.3235	6.19085e+06	   76.5765	      15.3	     2.332	  6.772e+06	    76.585	      15.3	    2.3235	6.73878e+06	
         R10	   6164	    76.585	      15.3	     2.315	6.43748e+06	    76.585	      15.3	     2.332	7.03008e+06	    76.602	      15.3	     2.332	7.29339e+06	    76.602	      15.3	     2.315	6.79848e+06	    76.585	      15.3	    2.3235	6.73121e+06	   76.5935	      15.3	     2.332	7.16132e+06	    76.602	      15.3	    2.3235	7.04275e+06	   76.5935	      15.3	     2.315	6.61696e+06	
         R10	   6165	    76.585	      15.3	     2.298	6.03435e+06	    76.585	      15.3	     2.315	6.43994e+06	    76.602	      15.3	     2.315	6.79666e+06	    76.602	      15.3	     2.298	6.41987e+06	    76.585	      15.3	    2.3065	6.23651e+06	   76.5935	      15.3	     2.315	6.61728e+06	    76.602	      15.3	    2.3065	6.60705e+06	   76.5935	      15.3	     2.298	6.22557e+06	
