Plate_ID,Description,Length,Breadth,Thickness,Young_Modulus,Yield_Strength,Longitudinal_Stress,Transverse_Stress,Shear_Stress,Von_Mises_Stress,Usage_Factor_Longitudinal,Usage_Factor_Transverse,Usage_Factor_Shear,Usage_Factor_Biaxial,Max_Usage_Factor,Safety_Status,Failure_Mode
Plate_G,Legacy Plate G,2.69,0.7,0.014,30450,34,0.5,0.5,0.7,1.3114877048604001,0.018579507467494236,0.03423163013230818,0.03741741034461673,0.05802728629398055,0.05802728629398055,SAFE,None
Plate_H,Legacy Plate H,2.64,0.7,0.01,30450,34,0.3,1.9,1.0,2.4758836806279896,0.015350857364795262,0.18167170485493989,0.05998657445933813,0.2172149986886696,0.2172149986886696,SAFE,None
Plate_I,Legacy Plate I,2.74,0.7,0.01,30450,34,0.6,3.0,2.2,4.698936049788292,0.030701714729590525,0.28820670389100966,0.13210301743345015,0.3595843432949558,0.3595843432949558,SAFE,None
Plate_J,Legacy Plate J,1.65,0.7,0.013,30450,34,0.8,4.5,0.7,4.331281565541543,0.03158479768914039,0.3002170069487347,0.037679238543912405,0.3398248201097937,0.3398248201097937,SAFE,None
Plate_K,Legacy Plate K,1.84,0.7,0.012,30450,34,0.0,5.8,0.8,5.96322060635023,0.0,0.4321005545043275,0.044047420820873796,0.49949077346832155,0.49949077346832155,SAFE,None
