Run 1, Result case LC1, 1: Case 1
Position      : Elements
Attribute     : G-STRESS
Shell surface : Upper

Superelement	Element	X-coord(1)	Y-coord(1)	Z-coord(1)	VONMISES(1)	X-coord(2)	Y-coord(2)	Z-coord(2)	VONMISES(2)	X-coord(3)	Y-coord(3)	Z-coord(3)	VONMISES(3)	X-coord(4)	Y-coord(4)	Z-coord(4)	VONMISES(4)	X-coord(5)	Y-coord(5)	Z-coord(5)	VONMISES(5)	X-coord(6)	Y-coord(6)	Z-coord(6)	VONMISES(6)	X-coord(7)	Y-coord(7)	Z-coord(7)	VONMISES(7)	X-coord(8)	Y-coord(8)	Z-coord(8)	VONMISES(8)	
         R10	      1	     72.25	     20.66	         6	        N/A	   72.6375	     20.66	         6	        N/A	    73.025	     20.66	         6	        N/A	       N/A	       N/A	       N/A	        N/A	       N/A	       N/A	       N/A	        N/A	       N/A	       N/A	       N/A	        N/A	       N/A	       N/A	       N/A	        N/A	       N/A	       N/A	       N/A	        N/A	
         R10	      2	    73.025	     20.66	         6	        N/A	   73.3845	     20.66	         6	        N/A	    73.744	     20.66	         6	        N/A	       N/A	       N/A	       N/A	        N/A	       N/A	       N/A	       N/A	        N/A	       N/A	       N/A	       N/A	        N/A	       N/A	       N/A	       N/A	        N/A	       N/A	       N/A	       N/A	        N/A	
         R10	      3	    73.744	     20.66	         6	        N/A	   74.0755	     20.66	         6	        N/A	   74.4071	     20.66	         6	        N/A	       N/A	       N/A	       N/A	        N/A	       N/A	       N/A	       N/A	        N/A	       N/A	       N/A	       N/A	        N/A	       N/A	       N/A	       N/A	        N/A	       N/A	       N/A	       N/A	        N/A	
         R10	      4	   74.4071	     20.66	         6	        N/A	   74.7107	     20.66	         6	        N/A	   75.0142	     20.66	         6	        N/A	       N/A	       N/A	       N/A	        N/A	       N/A	       N/A	       N/A	        N/A	       N/A	       N/A	       N/A	        N/A	       N/A	       N/A	       N/A	        N/A	       N/A	       N/A	       N/A	        N/A	
         R10	      5	   75.0142	     20.66	         6	        N/A	   75.2898	     20.66	         6	        N/A	   75.5654	     20.66	         6	        N/A	       N/A	       N/A	       N/A	        N/A	       N/A	       N/A	       N/A	        N/A	       N/A	       N/A	       N/A	        N/A	       N/A	       N/A	       N/A	        N/A	       N/A	       N/A	       N/A	        N/A	
         R10	      6	   75.5654	     20.66	         6	        N/A	   75.8131	     20.66	         6	        N/A	   76.0607	     20.66	         6	        N/A	       N/A	       N/A	       N/A	        N/A	       N/A	       N/A	       N/A	        N/A	       N/A	       N/A	       N/A	        N/A	       N/A	       N/A	       N/A	        N/A	       N/A	       N/A	       N/A	        N/A	
         R10	      7	   76.0607	     20.66	         6	        N/A	   76.2803	     20.66	         6	        N/A	      76.5	     20.66	         6	        N/A	       N/A	       N/A	       N/A	        N/A	       N/A	       N/A	       N/A	        N/A	       N/A	       N/A	       N/A	        N/A	       N/A	       N/A	       N/A	        N/A	       N/A	       N/A	       N/A	        N/A	
         R10	      8	      76.5	     20.66	         6	        N/A	   76.7279	     20.66	         6	        N/A	   76.9558	     20.66	         6	        N/A	       N/A	       N/A	       N/A	        N/A	       N/A	       N/A	       N/A	        N/A	       N/A	       N/A	       N/A	        N/A	       N/A	       N/A	       N/A	        N/A	       N/A	       N/A	       N/A	        N/A	
         R10	      9	   76.9558	     20.66	         6	        N/A	   77.2089	     20.66	         6	        N/A	   77.4619	     20.66	         6	        N/A	       N/A	       N/A	       N/A	        N/A	       N/A	       N/A	       N/A	        N/A	       N/A	       N/A	       N/A	        N/A	       N/A	       N/A	       N/A	        N/A	       N/A	       N/A	       N/A	        N/A	
         R10	     10	   77.4619	     20.66	         6	        N/A	   77.7401	     20.66	         6	        N/A	   78.0183	     20.66	         6	        N/A	       N/A	       N/A	       N/A	        N/A	       N/A	       N/A	       N/A	        N/A	       N/A	       N/A	       N/A	        N/A	       N/A	       N/A	       N/A	        N/A	       N/A	       N/A	       N/A	        N/A	
         R10	     11	   78.0183	     20.66	         6	        N/A	   78.3217	     20.66	         6	        N/A	    78.625	     20.66	         6	        N/A	       N/A	       N/A	       N/A	        N/A	       N/A	       N/A	       N/A	        N/A	       N/A	       N/A	       N/A	        N/A	       N/A	       N/A	       N/A	        N/A	       N/A	       N/A	       N/A	        N/A	
         R10	     12	     72.25	     19.83	         6	        N/A	   72.6515	     19.83	         6	        N/A	    73.053	     19.83	         6	        N/A	       N/A	       N/A	       N/A	        N/A	       N/A	       N/A	       N/A	        N/A	       N/A	       N/A	       N/A	        N/A	       N/A	       N/A	       N/A	        N/A	       N/A	       N/A	       N/A	        N/A	
         R10	     13	    73.053	     19.83	         6	        N/A	   73.4218	     19.83	         6	        N/A	   73.7907	     19.83	         6	        N/A	       N/A	       N/A	       N/A	        N/A	       N/A	       N/A	       N/A	        N/A	       N/A	       N/A	       N/A	        N/A	       N/A	       N/A	       N/A	        N/A	       N/A	       N/A	       N/A	        N/A	
         R10	     14	   73.7907	     19.83	         6	        N/A	   74.1269	     19.83	         6	        N/A	   74.4631	     19.83	         6	        N/A	       N/A	       N/A	       N/A	        N/A	       N/A	       N/A	       N/A	        N/A	       N/A	       N/A	       N/A	        N/A	       N/A	       N/A	       N/A	        N/A	       N/A	       N/A	       N/A	        N/A	
         R10	     15	   74.4631	     19.83	         6	        N/A	   74.7667	     19.83	         6	        N/A	   75.0702	     19.83	         6	        N/A	       N/A	       N/A	       N/A	        N/A	       N/A	       N/A	       N/A	        N/A	       N/A	       N/A	       N/A	        N/A	       N/A	       N/A	       N/A	        N/A	       N/A	       N/A	       N/A	        N/A	
         R10	     16	   75.0702	     19.83	         6	        N/A	   75.3412	     19.83	         6	        N/A	   75.6121	     19.83	         6	        N/A	       N/A	       N/A	       N/A	        N/A	       N/A	       N/A	       N/A	        N/A	       N/A	       N/A	       N/A	        N/A	       N/A	       N/A	       N/A	        N/A	       N/A	       N/A	       N/A	        N/A	
         R10	     17	   75.6121	     19.83	         6	        N/A	   75.8504	     19.83	         6	        N/A	   76.0887	     19.83	         6	        N/A	       N/A	       N/A	       N/A	        N/A	       N/A	       N/A	       N/A	        N/A	       N/A	       N/A	       N/A	        N/A	       N/A	       N/A	       N/A	        N/A	       N/A	       N/A	       N/A	        N/A	
         R10	     18	   76.0887	     19.83	         6	        N/A	   76.2943	     19.83	         6	        N/A	      76.5	     19.83	         6	        N/A	       N/A	       N/A	       N/A	        N/A	       N/A	       N/A	       N/A	        N/A	       N/A	       N/A	       N/A	        N/A	       N/A	       N/A	       N/A	        N/A	       N/A	       N/A	       N/A	        N/A	
         R10	     19	      76.5	     19.83	         6	        N/A	   76.7251	     19.83	         6	        N/A	   76.9503	     19.83	         6	        N/A	       N/A	       N/A	       N/A	        N/A	       N/A	       N/A	       N/A	        N/A	       N/A	       N/A	       N/A	        N/A	       N/A	       N/A	       N/A	        N/A	       N/A	       N/A	       N/A	        N/A	
         R10	     20	   76.9503	     19.83	         6	        N/A	   77.2024	     19.83	         6	        N/A	   77.4545	     19.83	         6	        N/A	       N/A	       N/A	       N/A	        N/A	       N/A	       N/A	       N/A	        N/A	       N/A	       N/A	       N/A	        N/A	       N/A	       N/A	       N/A	        N/A	       N/A	       N/A	       N/A	        N/A	
         R10	     21	   77.4545	     19.83	         6	        N/A	   77.7337	     19.83	         6	        N/A	   78.0128	     19.83	         6	        N/A	       N/A	       N/A	       N/A	        N/A	       N/A	       N/A	       N/A	        N/A	       N/A	       N/A	       N/A	        N/A	       N/A	       N/A	       N/A	        N/A	       N/A	       N/A	       N/A	        N/A	
         R10	     22	   78.0128	     19.83	         6	        N/A	   78.3189	     19.83	         6	        N/A	    78.625	     19.83	         6	        N/A	       N/A	       N/A	       N/A	        N/A	       N/A	       N/A	       N/A	        N/A	       N/A	       N/A	       N/A	        N/A	       N/A	       N/A	       N/A	        N/A	       N/A	       N/A	       N/A	        N/A	
         R10	     23	     72.25	      15.3	       0.8	        N/A	    72.618	      15.3	       0.8	        N/A	    72.986	      15.3	       0.8	        N/A	       N/A	       N/A	       N/A	        N/A	       N/A	       N/A	       N/A	        N/A	       N/A	       N/A	       N/A	        N/A	       N/A	       N/A	       N/A	        N/A	       N/A	       N/A	       N/A	        N/A	
         R10	     24	    72.986	      15.3	       0.8	        N/A	   73.2857	      15.3	       0.8	        N/A	   73.5855	      15.3	       0.8	        N/A	       N/A	       N/A	       N/A	        N/A	       N/A	       N/A	       N/A	        N/A	       N/A	       N/A	       N/A	        N/A	       N/A	       N/A	       N/A	        N/A	       N/A	       N/A	       N/A	        N/A	
         R10	     25	   73.5855	      15.3	       0.8	        N/A	    73.817	      15.3	       0.8	        N/A	   74.0485	      15.3	       0.8	        N/A	       N/A	       N/A	       N/A	        N/A	       N/A	       N/A	       N/A	        N/A	       N/A	       N/A	       N/A	        N/A	       N/A	       N/A	       N/A	        N/A	       N/A	       N/A	       N/A	        N/A	
         R10	     26	   74.0485	      15.3	       0.8	        N/A	   74.2117	      15.3	       0.8	        N/A	    74.375	      15.3	       0.8	        N/A	       N/A	       N/A	       N/A	        N/A	       N/A	       N/A	       N/A	        N/A	       N/A	       N/A	       N/A	        N/A	       N/A	       N/A	       N/A	        N/A	       N/A	       N/A	       N/A	        N/A	
         R10	     27	     72.25	      15.3	       1.6	        N/A	   72.6286	      15.3	       1.6	        N/A	   73.0071	      15.3	       1.6	        N/A	       N/A	       N/A	       N/A	        N/A	       N/A	       N/A	       N/A	        N/A	       N/A	       N/A	       N/A	        N/A	       N/A	       N/A	       N/A	        N/A	       N/A	       N/A	       N/A	        N/A	
         R10	     28	   73.0071	      15.3	       1.6	        N/A	   73.3104	      15.3	       1.6	        N/A	   73.6137	      15.3	       1.6	        N/A	       N/A	       N/A	       N/A	        N/A	       N/A	       N/A	       N/A	        N/A	       N/A	       N/A	       N/A	        N/A	       N/A	       N/A	       N/A	        N/A	       N/A	       N/A	       N/A	        N/A	
         R10	     29	   73.6137	      15.3	       1.6	        N/A	   73.8416	      15.3	       1.6	        N/A	   74.0696	      15.3	       1.6	        N/A	       N/A	       N/A	       N/A	        N/A	       N/A	       N/A	       N/A	        N/A	       N/A	       N/A	       N/A	        N/A	       N/A	       N/A	       N/A	        N/A	       N/A	       N/A	       N/A	        N/A	
         R10	     30	   74.0696	      15.3	       1.6	        N/A	   74.2223	      15.3	       1.6	        N/A	    74.375	      15.3	       1.6	        N/A	       N/A	       N/A	       N/A	        N/A	       N/A	       N/A	       N/A	        N/A	       N/A	       N/A	       N/A	        N/A	       N/A	       N/A	       N/A	        N/A	       N/A	       N/A	       N/A	        N/A	
         R10	     31	     72.25	      9.35	       2.4	        N/A	    72.675	      9.35	       2.4	        N/A	      73.1	      9.35	       2.4	        N/A	       N/A	       N/A	       N/A	        N/A	       N/A	       N/A	       N/A	        N/A	       N/A	       N/A	       N/A	        N/A	       N/A	       N/A	       N/A	        N/A	       N/A	       N/A	       N/A	        N/A	
         R10	     32	      73.1	      9.35	       2.4	        N/A	    73.525	      9.35	       2.4	        N/A	     73.95	      9.35	       2.4	        N/A	       N/A	       N/A	       N/A	        N/A	       N/A	       N/A	       N/A	        N/A	       N/A	       N/A	       N/A	        N/A	       N/A	       N/A	       N/A	        N/A	       N/A	       N/A	       N/A	        N/A	
         R10	     33	     73.95	      9.35	       2.4	        N/A	    74.375	      9.35	       2.4	        N/A	      74.8	      9.35	       2.4	        N/A	       N/A	       N/A	       N/A	        N/A	       N/A	       N/A	       N/A	        N/A	       N/A	       N/A	       N/A	        N/A	       N/A	       N/A	       N/A	        N/A	       N/A	       N/A	       N/A	        N/A	
         R10	     34	      74.8	      9.35	       2.4	        N/A	    75.225	      9.35	       2.4	        N/A	     75.65	      9.35	       2.4	        N/A	       N/A	       N/A	       N/A	        N/A	       N/A	       N/A	       N/A	        N/A	       N/A	       N/A	       N/A	        N/A	       N/A	       N/A	       N/A	        N/A	       N/A	       N/A	       N/A	        N/A	
         R10	     35	     75.65	      9.35	       2.4	        N/A	    76.075	      9.35	       2.4	        N/A	      76.5	      9.35	       2.4	        N/A	       N/A	       N/A	       N/A	        N/A	       N/A	       N/A	       N/A	        N/A	       N/A	       N/A	       N/A	        N/A	       N/A	       N/A	       N/A	        N/A	       N/A	       N/A	       N/A	        N/A	
         R10	     36	      76.5	      9.35	       2.4	        N/A	   77.0313	      9.35	       2.4	        N/A	   77.5625	      9.35	       2.4	        N/A	       N/A	       N/A	       N/A	        N/A	       N/A	       N/A	       N/A	        N/A	       N/A	       N/A	       N/A	        N/A	       N/A	       N/A	       N/A	        N/A	       N/A	       N/A	       N/A	        N/A	
         R10	     37	   77.5625	      9.35	       2.4	        N/A	   78.0938	      9.35	       2.4	        N/A	    78.625	      9.35	       2.4	        N/A	       N/A	       N/A	       N/A	        N/A	       N/A	       N/A	       N/A	        N/A	       N/A	       N/A	       N/A	        N/A	       N/A	       N/A	       N/A	        N/A	       N/A	       N/A	       N/A	        N/A	
         R10	     38	     72.25	      10.2	       2.4	        N/A	    72.675	      10.2	       2.4	        N/A	      73.1	      10.2	       2.4	        N/A	       N/A	       N/A	       N/A	        N/A	       N/A	       N/A	       N/A	        N/A	       N/A	       N/A	       N/A	        N/A	       N/A	       N/A	       N/A	        N/A	       N/A	       N/A	       N/A	        N/A	
         R10	     39	      73.1	      10.2	       2.4	        N/A	    73.525	      10.2	       2.4	        N/A	     73.95	      10.2	       2.4	        N/A	       N/A	       N/A	       N/A	        N/A	       N/A	       N/A	       N/A	        N/A	       N/A	       N/A	       N/A	        N/A	       N/A	       N/A	       N/A	        N/A	       N/A	       N/A	       N/A	        N/A	
         R10	     40	     73.95	      10.2	       2.4	        N/A	    74.375	      10.2	       2.4	        N/A	      74.8	      10.2	       2.4	        N/A	       N/A	       N/A	       N/A	        N/A	       N/A	       N/A	       N/A	        N/A	       N/A	       N/A	       N/A	        N/A	       N/A	       N/A	       N/A	        N/A	       N/A	       N/A	       N/A	        N/A	
         R10	     41	      74.8	      10.2	       2.4	        N/A	    75.225	      10.2	       2.4	        N/A	     75.65	      10.2	       2.4	        N/A	       N/A	       N/A	       N/A	        N/A	       N/A	       N/A	       N/A	        N/A	       N/A	       N/A	       N/A	        N/A	       N/A	       N/A	       N/A	        N/A	       N/A	       N/A	       N/A	        N/A	
         R10	     42	     75.65	      10.2	       2.4	        N/A	    76.075	      10.2	       2.4	        N/A	      76.5	      10.2	       2.4	        N/A	       N/A	       N/A	       N/A	        N/A	       N/A	       N/A	       N/A	        N/A	       N/A	       N/A	       N/A	        N/A	       N/A	       N/A	       N/A	        N/A	       N/A	       N/A	       N/A	        N/A	
         R10	     43	      76.5	      10.2	       2.4	        N/A	   77.0313	      10.2	       2.4	        N/A	   77.5625	      10.2	       2.4	        N/A	       N/A	       N/A	       N/A	        N/A	       N/A	       N/A	       N/A	        N/A	       N/A	       N/A	       N/A	        N/A	       N/A	       N/A	       N/A	        N/A	       N/A	       N/A	       N/A	        N/A	
         R10	     44	   77.5625	      10.2	       2.4	        N/A	   78.0938	      10.2	       2.4	        N/A	    78.625	      10.2	       2.4	        N/A	       N/A	       N/A	       N/A	        N/A	       N/A	       N/A	       N/A	        N/A	       N/A	       N/A	       N/A	        N/A	       N/A	       N/A	       N/A	        N/A	       N/A	       N/A	       N/A	        N/A	
         R10	     45	     72.25	     11.05	       2.4	        N/A	   72.6438	     11.05	       2.4	        N/A	   73.0377	     11.05	       2.4	        N/A	       N/A	       N/A	       N/A	        N/A	       N/A	       N/A	       N/A	        N/A	       N/A	       N/A	       N/A	        N/A	       N/A	       N/A	       N/A	        N/A	       N/A	       N/A	       N/A	        N/A	
         R10	     46	   73.0377	     11.05	       2.4	        N/A	   73.4156	     11.05	       2.4	        N/A	   73.7936	     11.05	       2.4	        N/A	       N/A	       N/A	       N/A	        N/A	       N/A	       N/A	       N/A	        N/A	       N/A	       N/A	       N/A	        N/A	       N/A	       N/A	       N/A	        N/A	       N/A	       N/A	       N/A	        N/A	
         R10	     47	   73.7936	     11.05	       2.4	        N/A	   74.1557	     11.05	       2.4	        N/A	   74.5178	     11.05	       2.4	        N/A	       N/A	       N/A	       N/A	        N/A	       N/A	       N/A	       N/A	        N/A	       N/A	       N/A	       N/A	        N/A	       N/A	       N/A	       N/A	        N/A	       N/A	       N/A	       N/A	        N/A	
         R10	     48	   74.5178	     11.05	       2.4	        N/A	    74.864	     11.05	       2.4	        N/A	   75.2102	     11.05	       2.4	        N/A	       N/A	       N/A	       N/A	        N/A	       N/A	       N/A	       N/A	        N/A	       N/A	       N/A	       N/A	        N/A	       N/A	       N/A	       N/A	        N/A	       N/A	       N/A	       N/A	        N/A	
         R10	     49	   75.2102	     11.05	       2.4	        N/A	   75.5406	     11.05	       2.4	        N/A	    75.871	     11.05	       2.4	        N/A	       N/A	       N/A	       N/A	        N/A	       N/A	       N/A	       N/A	        N/A	       N/A	       N/A	       N/A	        N/A	       N/A	       N/A	       N/A	        N/A	       N/A	       N/A	       N/A	        N/A	
         R10	     50	    75.871	     11.05	       2.4	        N/A	   76.1855	     11.05	       2.4	        N/A	      76.5	     11.05	       2.4	        N/A	       N/A	       N/A	       N/A	        N/A	       N/A	       N/A	       N/A	        N/A	       N/A	       N/A	       N/A	        N/A	       N/A	       N/A	       N/A	        N/A	       N/A	       N/A	       N/A	        N/A	
         R10	     51	      76.5	     11.05	       2.4	        N/A	   76.8799	     11.05	       2.4	        N/A	   77.2598	     11.05	       2.4	        N/A	       N/A	       N/A	       N/A	        N/A	       N/A	       N/A	       N/A	        N/A	       N/A	       N/A	       N/A	        N/A	       N/A	       N/A	       N/A	        N/A	       N/A	       N/A	       N/A	        N/A	
         R10	     52	   77.2598	     11.05	       2.4	        N/A	   77.6139	     11.05	       2.4	        N/A	   77.9681	     11.05	       2.4	        N/A	       N/A	       N/A	       N/A	        N/A	       N/A	       N/A	       N/A	        N/A	       N/A	       N/A	       N/A	        N/A	       N/A	       N/A	       N/A	        N/A	       N/A	       N/A	       N/A	        N/A	
         R10	     53	   77.9681	     11.05	       2.4	        N/A	   78.2966	     11.05	       2.4	        N/A	    78.625	     11.05	       2.4	        N/A	       N/A	       N/A	       N/A	        N/A	       N/A	       N/A	       N/A	        N/A	       N/A	       N/A	       N/A	        N/A	       N/A	       N/A	       N/A	        N/A	       N/A	       N/A	       N/A	        N/A	
         R10	     54	     72.25	      11.9	       2.4	        N/A	   72.6626	      11.9	       2.4	        N/A	   73.0751	      11.9	       2.4	        N/A	       N/A	       N/A	       N/A	        N/A	       N/A	       N/A	       N/A	        N/A	       N/A	       N/A	       N/A	        N/A	       N/A	       N/A	       N/A	        N/A	       N/A	       N/A	       N/A	        N/A	
         R10	     55	   73.0751	      11.9	       2.4	        N/A	   73.4514	      11.9	       2.4	        N/A	   73.8276	      11.9	       2.4	        N/A	       N/A	       N/A	       N/A	        N/A	       N/A	       N/A	       N/A	        N/A	       N/A	       N/A	       N/A	        N/A	       N/A	       N/A	       N/A	        N/A	       N/A	       N/A	       N/A	        N/A	
         R10	     56	   73.8276	      11.9	       2.4	        N/A	   74.1675	      11.9	       2.4	        N/A	   74.5074	      11.9	       2.4	        N/A	       N/A	       N/A	       N/A	        N/A	       N/A	       N/A	       N/A	        N/A	       N/A	       N/A	       N/A	        N/A	       N/A	       N/A	       N/A	        N/A	       N/A	       N/A	       N/A	        N/A	
         R10	     57	   74.5074	      11.9	       2.4	        N/A	    74.811	      11.9	       2.4	        N/A	   75.1146	      11.9	       2.4	        N/A	       N/A	       N/A	       N/A	        N/A	       N/A	       N/A	       N/A	        N/A	       N/A	       N/A	       N/A	        N/A	       N/A	       N/A	       N/A	        N/A	       N/A	       N/A	       N/A	        N/A	
         R10	     58	   75.1146	      11.9	       2.4	        N/A	   75.3818	      11.9	       2.4	        N/A	   75.6491	      11.9	       2.4	        N/A	       N/A	       N/A	       N/A	        N/A	       N/A	       N/A	       N/A	        N/A	       N/A	       N/A	       N/A	        N/A	       N/A	       N/A	       N/A	        N/A	       N/A	       N/A	       N/A	        N/A	
         R10	     59	   75.6491	      11.9	       2.4	        N/A	     75.88	      11.9	       2.4	        N/A	   76.1109	      11.9	       2.4	        N/A	       N/A	       N/A	       N/A	        N/A	       N/A	       N/A	       N/A	        N/A	       N/A	       N/A	       N/A	        N/A	       N/A	       N/A	       N/A	        N/A	       N/A	       N/A	       N/A	        N/A	
         R10	     60	   76.1109	      11.9	       2.4	        N/A	   76.3054	      11.9	       2.4	        N/A	      76.5	      11.9	       2.4	        N/A	       N/A	       N/A	       N/A	        N/A	       N/A	       N/A	       N/A	        N/A	       N/A	       N/A	       N/A	        N/A	       N/A	       N/A	       N/A	        N/A	       N/A	       N/A	       N/A	        N/A	
         R10	     61	      76.5	      11.9	       2.4	        N/A	   76.7141	      11.9	       2.4	        N/A	   76.9282	      11.9	       2.4	        N/A	       N/A	       N/A	       N/A	        N/A	       N/A	       N/A	       N/A	        N/A	       N/A	       N/A	       N/A	        N/A	       N/A	       N/A	       N/A	        N/A	       N/A	       N/A	       N/A	        N/A	
         R10	     62	   76.9282	      11.9	       2.4	        N/A	   77.1415	      11.9	       2.4	        N/A	   77.3548	      11.9	       2.4	        N/A	       N/A	       N/A	       N/A	        N/A	       N/A	       N/A	       N/A	        N/A	       N/A	       N/A	       N/A	        N/A	       N/A	       N/A	       N/A	        N/A	       N/A	       N/A	       N/A	        N/A	
         R10	     63	   77.3548	      11.9	       2.4	        N/A	   77.5673	      11.9	       2.4	        N/A	   77.7798	      11.9	       2.4	        N/A	       N/A	       N/A	       N/A	        N/A	       N/A	       N/A	       N/A	        N/A	       N/A	       N/A	       N/A	        N/A	       N/A	       N/A	       N/A	        N/A	       N/A	       N/A	       N/A	        N/A	
         R10	     64	   77.7798	      11.9	       2.4	        N/A	   77.9915	      11.9	       2.4	        N/A	   78.2032	      11.9	       2.4	        N/A	       N/A	       N/A	       N/A	        N/A	       N/A	       N/A	       N/A	        N/A	       N/A	       N/A	       N/A	        N/A	       N/A	       N/A	       N/A	        N/A	       N/A	       N/A	       N/A	        N/A	
         R10	     65	   78.2032	      11.9	       2.4	        N/A	   78.4141	      11.9	       2.4	        N/A	    78.625	      11.9	       2.4	        N/A	       N/A	       N/A	       N/A	        N/A	       N/A	       N/A	       N/A	        N/A	       N/A	       N/A	       N/A	        N/A	       N/A	       N/A	       N/A	        N/A	       N/A	       N/A	       N/A	        N/A	
         R10	     66	     72.25	     12.75	       2.4	        N/A	   72.6055	     12.75	       2.4	        N/A	    72.961	     12.75	       2.4	        N/A	       N/A	       N/A	       N/A	        N/A	       N/A	       N/A	       N/A	        N/A	       N/A	       N/A	       N/A	        N/A	       N/A	       N/A	       N/A	        N/A	       N/A	       N/A	       N/A	        N/A	
         R10	     67	    72.961	     12.75	       2.4	        N/A	   73.2867	     12.75	       2.4	        N/A	   73.6123	     12.75	       2.4	        N/A	       N/A	       N/A	       N/A	        N/A	       N/A	       N/A	       N/A	        N/A	       N/A	       N/A	       N/A	        N/A	       N/A	       N/A	       N/A	        N/A	       N/A	       N/A	       N/A	        N/A	
         R10	     68	   73.6123	     12.75	       2.4	        N/A	   73.9081	     12.75	       2.4	        N/A	   74.2039	     12.75	       2.4	        N/A	       N/A	       N/A	       N/A	        N/A	       N/A	       N/A	       N/A	        N/A	       N/A	       N/A	       N/A	        N/A	       N/A	       N/A	       N/A	        N/A	       N/A	       N/A	       N/A	        N/A	
         R10	     69	   74.2039	     12.75	       2.4	        N/A	   74.4699	     12.75	       2.4	        N/A	   74.7358	     12.75	       2.4	        N/A	       N/A	       N/A	       N/A	        N/A	       N/A	       N/A	       N/A	        N/A	       N/A	       N/A	       N/A	        N/A	       N/A	       N/A	       N/A	        N/A	       N/A	       N/A	       N/A	        N/A	
         R10	     70	   74.7358	     12.75	       2.4	        N/A	    74.972	     12.75	       2.4	        N/A	   75.2081	     12.75	       2.4	        N/A	       N/A	       N/A	       N/A	        N/A	       N/A	       N/A	       N/A	        N/A	       N/A	       N/A	       N/A	        N/A	       N/A	       N/A	       N/A	        N/A	       N/A	       N/A	       N/A	        N/A	
         R10	     71	   75.2081	     12.75	       2.4	        N/A	   75.4143	     12.75	       2.4	        N/A	   75.6206	     12.75	       2.4	        N/A	       N/A	       N/A	       N/A	        N/A	       N/A	       N/A	       N/A	        N/A	       N/A	       N/A	       N/A	        N/A	       N/A	       N/A	       N/A	        N/A	       N/A	       N/A	       N/A	        N/A	
         R10	     72	   75.6206	     12.75	       2.4	        N/A	    75.797	     12.75	       2.4	        N/A	   75.9734	     12.75	       2.4	        N/A	       N/A	       N/A	       N/A	        N/A	       N/A	       N/A	       N/A	        N/A	       N/A	       N/A	       N/A	        N/A	       N/A	       N/A	       N/A	        N/A	       N/A	       N/A	       N/A	        N/A	
         R10	     73	   75.9734	     12.75	       2.4	        N/A	     76.12	     12.75	       2.4	        N/A	   76.2666	     12.75	       2.4	        N/A	       N/A	       N/A	       N/A	        N/A	       N/A	       N/A	       N/A	        N/A	       N/A	       N/A	       N/A	        N/A	       N/A	       N/A	       N/A	        N/A	       N/A	       N/A	       N/A	        N/A	
         R10	     74	   76.2666	     12.75	       2.4	        N/A	   76.3833	     12.75	       2.4	        N/A	      76.5	     12.75	       2.4	        N/A	       N/A	       N/A	       N/A	        N/A	       N/A	       N/A	       N/A	        N/A	       N/A	       N/A	       N/A	        N/A	       N/A	       N/A	       N/A	        N/A	       N/A	       N/A	       N/A	        N/A	
         R10	     75	      76.5	     12.75	       2.4	        N/A	   76.6078	     12.75	       2.4	        N/A	   76.7156	     12.75	       2.4	        N/A	       N/A	       N/A	       N/A	        N/A	       N/A	       N/A	       N/A	        N/A	       N/A	       N/A	       N/A	        N/A	       N/A	       N/A	       N/A	        N/A	       N/A	       N/A	       N/A	        N/A	
         R10	     76	   76.7156	     12.75	       2.4	        N/A	   76.8305	     12.75	       2.4	        N/A	   76.9455	     12.75	       2.4	        N/A	       N/A	       N/A	       N/A	        N/A	       N/A	       N/A	       N/A	        N/A	       N/A	       N/A	       N/A	        N/A	       N/A	       N/A	       N/A	        N/A	       N/A	       N/A	       N/A	        N/A	
         R10	     77	   76.9455	     12.75	       2.4	        N/A	   77.0676	     12.75	       2.4	        N/A	   77.1897	     12.75	       2.4	        N/A	       N/A	       N/A	       N/A	        N/A	       N/A	       N/A	       N/A	        N/A	       N/A	       N/A	       N/A	        N/A	       N/A	       N/A	       N/A	        N/A	       N/A	       N/A	       N/A	        N/A	
         R10	     78	   77.1897	     12.75	       2.4	        N/A	   77.3189	     12.75	       2.4	        N/A	   77.4482	     12.75	       2.4	        N/A	       N/A	       N/A	       N/A	        N/A	       N/A	       N/A	       N/A	        N/A	       N/A	       N/A	       N/A	        N/A	       N/A	       N/A	       N/A	        N/A	       N/A	       N/A	       N/A	        N/A	
         R10	     79	   77.4482	     12.75	       2.4	        N/A	   77.5845	     12.75	       2.4	        N/A	   77.7209	     12.75	       2.4	        N/A	       N/A	       N/A	       N/A	        N/A	       N/A	       N/A	       N/A	        N/A	       N/A	       N/A	       N/A	        N/A	       N/A	       N/A	       N/A	        N/A	       N/A	       N/A	       N/A	        N/A	
         R10	     80	   77.7209	     12.75	       2.4	        N/A	   77.8645	     12.75	       2.4	        N/A	    78.008	     12.75	       2.4	        N/A	       N/A	       N/A	       N/A	        N/A	       N/A	       N/A	       N/A	        N/A	       N/A	       N/A	       N/A	        N/A	       N/A	       N/A	       N/A	        N/A	       N/A	       N/A	       N/A	        N/A	
         R10	     81	    78.008	     12.75	       2.4	        N/A	   78.1587	     12.75	       2.4	        N/A	   78.3093	     12.75	       2.4	        N/A	       N/A	       N/A	       N/A	        N/A	       N/A	       N/A	       N/A	        N/A	       N/A	       N/A	       N/A	        N/A	       N/A	       N/A	       N/A	        N/A	       N/A	       N/A	       N/A	        N/A	
         R10	     82	   78.3093	     12.75	       2.4	        N/A	   78.4672	     12.75	       2.4	        N/A	    78.625	     12.75	       2.4	        N/A	       N/A	       N/A	       N/A	        N/A	       N/A	       N/A	       N/A	        N/A	       N/A	       N/A	       N/A	        N/A	       N/A	       N/A	       N/A	        N/A	       N/A	       N/A	       N/A	        N/A	
         R10	     83	     72.25	      13.6	       2.4	        N/A	    72.618	      13.6	       2.4	        N/A	    72.986	      13.6	       2.4	        N/A	       N/A	       N/A	       N/A	        N/A	       N/A	       N/A	       N/A	        N/A	       N/A	       N/A	       N/A	        N/A	       N/A	       N/A	       N/A	        N/A	       N/A	       N/A	       N/A	        N/A	
         R10	     84	    72.986	      13.6	       2.4	        N/A	   73.2857	      13.6	       2.4	        N/A	   73.5855	      13.6	       2.4	        N/A	       N/A	       N/A	       N/A	        N/A	       N/A	       N/A	       N/A	        N/A	       N/A	       N/A	       N/A	        N/A	       N/A	       N/A	       N/A	        N/A	       N/A	       N/A	       N/A	        N/A	
         R10	     85	   73.5855	      13.6	       2.4	        N/A	    73.817	      13.6	       2.4	        N/A	   74.0485	      13.6	       2.4	        N/A	       N/A	       N/A	       N/A	        N/A	       N/A	       N/A	       N/A	        N/A	       N/A	       N/A	       N/A	        N/A	       N/A	       N/A	       N/A	        N/A	       N/A	       N/A	       N/A	        N/A	
         R10	     86	   74.0485	      13.6	       2.4	        N/A	   74.2117	      13.6	       2.4	        N/A	    74.375	      13.6	       2.4	        N/A	       N/A	       N/A	       N/A	        N/A	       N/A	       N/A	       N/A	        N/A	       N/A	       N/A	       N/A	        N/A	       N/A	       N/A	       N/A	        N/A	       N/A	       N/A	       N/A	        N/A	
         R10	     87	     72.25	     14.45	       2.4	        N/A	   72.6286	     14.45	       2.4	        N/A	   73.0071	     14.45	       2.4	        N/A	       N/A	       N/A	       N/A	        N/A	       N/A	       N/A	       N/A	        N/A	       N/A	       N/A	       N/A	        N/A	       N/A	       N/A	       N/A	        N/A	       N/A	       N/A	       N/A	        N/A	
         R10	     88	   73.0071	     14.45	       2.4	        N/A	   73.3104	     14.45	       2.4	        N/A	   73.6137	     14.45	       2.4	        N/A	       N/A	       N/A	       N/A	        N/A	       N/A	       N/A	       N/A	        N/A	       N/A	       N/A	       N/A	        N/A	       N/A	       N/A	       N/A	        N/A	       N/A	       N/A	       N/A	        N/A	
         R10	     89	   73.6137	     14.45	       2.4	        N/A	   73.8416	     14.45	       2.4	        N/A	   74.0696	     14.45	       2.4	        N/A	       N/A	       N/A	       N/A	        N/A	       N/A	       N/A	       N/A	        N/A	       N/A	       N/A	       N/A	        N/A	       N/A	       N/A	       N/A	        N/A	       N/A	       N/A	       N/A	        N/A	
         R10	     90	   74.0696	     14.45	       2.4	        N/A	   74.2223	     14.45	       2.4	        N/A	    74.375	     14.45	       2.4	        N/A	       N/A	       N/A	       N/A	        N/A	       N/A	       N/A	       N/A	        N/A	       N/A	       N/A	       N/A	        N/A	       N/A	       N/A	       N/A	        N/A	       N/A	       N/A	       N/A	        N/A	
         R10	     91	     72.25	   15.9164	   2.99973	        N/A	   72.6286	   15.9164	   2.99973	        N/A	   73.0071	   15.9164	   2.99973	        N/A	       N/A	       N/A	       N/A	        N/A	       N/A	       N/A	       N/A	        N/A	       N/A	       N/A	       N/A	        N/A	       N/A	       N/A	       N/A	        N/A	       N/A	       N/A	       N/A	        N/A	
         R10	     92	   73.0071	   15.9164	   2.99973	        N/A	   73.3104	   15.9164	   2.99973	        N/A	   73.6137	   15.9164	   2.99973	        N/A	       N/A	       N/A	       N/A	        N/A	       N/A	       N/A	       N/A	        N/A	       N/A	       N/A	       N/A	        N/A	       N/A	       N/A	       N/A	        N/A	       N/A	       N/A	       N/A	        N/A	
         R10	     93	   73.6137	   15.9164	   2.99973	        N/A	   73.8416	   15.9164	   2.99973	        N/A	   74.0696	   15.9164	   2.99973	        N/A	       N/A	       N/A	       N/A	        N/A	       N/A	       N/A	       N/A	        N/A	       N/A	       N/A	       N/A	        N/A	       N/A	       N/A	       N/A	        N/A	       N/A	       N/A	       N/A	        N/A	
         R10	     94	   74.0696	   15.9164	   2.99973	        N/A	   74.2223	   15.9164	   2.99973	        N/A	    74.375	   15.9164	   2.99973	        N/A	       N/A	       N/A	       N/A	        N/A	       N/A	       N/A	       N/A	        N/A	       N/A	       N/A	       N/A	        N/A	       N/A	       N/A	       N/A	        N/A	       N/A	       N/A	       N/A	        N/A	
         R10	     95	     72.25	   16.5328	   3.59945	        N/A	    72.618	   16.5328	   3.59945	        N/A	    72.986	   16.5328	   3.59945	        N/A	       N/A	       N/A	       N/A	        N/A	       N/A	       N/A	       N/A	        N/A	       N/A	       N/A	       N/A	        N/A	       N/A	       N/A	       N/A	        N/A	       N/A	       N/A	       N/A	        N/A	
         R10	     96	    72.986	   16.5328	   3.59945	        N/A	   73.2857	   16.5328	   3.59945	        N/A	   73.5855	   16.5328	   3.59945	        N/A	       N/A	       N/A	       N/A	        N/A	       N/A	       N/A	       N/A	        N/A	       N/A	       N/A	       N/A	        N/A	       N/A	       N/A	       N/A	        N/A	       N/A	       N/A	       N/A	        N/A	
         R10	     97	   73.5855	   16.5328	   3.59945	        N/A	    73.817	   16.5328	   3.59945	        N/A	   74.0485	   16.5328	   3.59945	        N/A	       N/A	       N/A	       N/A	        N/A	       N/A	       N/A	       N/A	        N/A	       N/A	       N/A	       N/A	        N/A	       N/A	       N/A	       N/A	        N/A	       N/A	       N/A	       N/A	        N/A	
         R10	     98	   74.0485	   16.5328	   3.59945	        N/A	   74.2117	   16.5328	   3.59945	        N/A	    74.375	   16.5328	   3.59945	        N/A	       N/A	       N/A	       N/A	        N/A	       N/A	       N/A	       N/A	        N/A	       N/A	       N/A	       N/A	        N/A	       N/A	       N/A	       N/A	        N/A	       N/A	       N/A	       N/A	        N/A	
         R10	     99	     72.25	   17.1492	   4.19918	        N/A	   72.5969	   17.1492	   4.19918	        N/A	   72.9439	   17.1492	   4.19918	        N/A	       N/A	       N/A	       N/A	        N/A	       N/A	       N/A	       N/A	        N/A	       N/A	       N/A	       N/A	        N/A	       N/A	       N/A	       N/A	        N/A	       N/A	       N/A	       N/A	        N/A	
         R10	    100	   72.9439	   17.1492	   4.19918	        N/A	   73.2631	   17.1492	   4.19918	        N/A	   73.5823	   17.1492	   4.19918	        N/A	       N/A	       N/A	       N/A	        N/A	       N/A	       N/A	       N/A	        N/A	       N/A	       N/A	       N/A	        N/A	       N/A	       N/A	       N/A	        N/A	       N/A	       N/A	       N/A	        N/A	
         R10	    101	   73.5823	   17.1492	   4.19918	        N/A	   73.8738	   17.1492	   4.19918	        N/A	   74.1653	   17.1492	   4.19918	        N/A	       N/A	       N/A	       N/A	        N/A	       N/A	       N/A	       N/A	        N/A	       N/A	       N/A	       N/A	        N/A	       N/A	       N/A	       N/A	        N/A	       N/A	       N/A	       N/A	        N/A	
         R10	    102	   74.1653	   17.1492	   4.19918	        N/A	   74.4292	   17.1492	   4.19918	        N/A	    74.693	   17.1492	   4.19918	        N/A	       N/A	       N/A	       N/A	        N/A	       N/A	       N/A	       N/A	        N/A	       N/A	       N/A	       N/A	        N/A	       N/A	       N/A	       N/A	        N/A	       N/A	       N/A	       N/A	        N/A	
         R10	    103	    74.693	   17.1492	   4.19918	        N/A	   74.9291	   17.1492	   4.19918	        N/A	   75.1652	   17.1492	   4.19918	        N/A	       N/A	       N/A	       N/A	        N/A	       N/A	       N/A	       N/A	        N/A	       N/A	       N/A	       N/A	        N/A	       N/A	       N/A	       N/A	        N/A	       N/A	       N/A	       N/A	        N/A	
         R10	    104	   75.1652	   17.1492	   4.19918	        N/A	   75.3736	   17.1492	   4.19918	        N/A	    75.582	   17.1492	   4.19918	        N/A	       N/A	       N/A	       N/A	        N/A	       N/A	       N/A	       N/A	        N/A	       N/A	       N/A	       N/A	        N/A	       N/A	       N/A	       N/A	        N/A	       N/A	       N/A	       N/A	        N/A	
         R10	    105	    75.582	   17.1492	   4.19918	        N/A	   75.7627	   17.1492	   4.19918	        N/A	   75.9434	   17.1492	   4.19918	        N/A	       N/A	       N/A	       N/A	        N/A	       N/A	       N/A	       N/A	        N/A	       N/A	       N/A	       N/A	        N/A	       N/A	       N/A	       N/A	        N/A	       N/A	       N/A	       N/A	        N/A	
         R10	    106	   75.9434	   17.1492	   4.19918	        N/A	   76.0964	   17.1492	   4.19918	        N/A	   76.2494	   17.1492	   4.19918	        N/A	       N/A	       N/A	       N/A	        N/A	       N/A	       N/A	       N/A	        N/A	       N/A	       N/A	       N/A	        N/A	       N/A	       N/A	       N/A	        N/A	       N/A	       N/A	       N/A	        N/A	
         R10	    107	   76.2494	   17.1492	   4.19918	        N/A	   76.3747	   17.1492	   4.19918	        N/A	      76.5	   17.1492	   4.19918	        N/A	       N/A	       N/A	       N/A	        N/A	       N/A	       N/A	       N/A	        N/A	       N/A	       N/A	       N/A	        N/A	       N/A	       N/A	       N/A	        N/A	       N/A	       N/A	       N/A	        N/A	
         R10	    108	      76.5	   17.1492	   4.19918	        N/A	   76.6302	   17.1492	   4.19918	        N/A	   76.7605	   17.1492	   4.19918	        N/A	       N/A	       N/A	       N/A	        N/A	       N/A	       N/A	       N/A	        N/A	       N/A	       N/A	       N/A	        N/A	       N/A	       N/A	       N/A	        N/A	       N/A	       N/A	       N/A	        N/A	
         R10	    109	   76.7605	   17.1492	   4.19918	        N/A	   76.8979	   17.1492	   4.19918	        N/A	   77.0353	   17.1492	   4.19918	        N/A	       N/A	       N/A	       N/A	        N/A	       N/A	       N/A	       N/A	        N/A	       N/A	       N/A	       N/A	        N/A	       N/A	       N/A	       N/A	        N/A	       N/A	       N/A	       N/A	        N/A	
         R10	    110	   77.0353	   17.1492	   4.19918	        N/A	   77.1799	   17.1492	   4.19918	        N/A	   77.3245	   17.1492	   4.19918	        N/A	       N/A	       N/A	       N/A	        N/A	       N/A	       N/A	       N/A	        N/A	       N/A	       N/A	       N/A	        N/A	       N/A	       N/A	       N/A	        N/A	       N/A	       N/A	       N/A	        N/A	
         R10	    111	   77.3245	   17.1492	   4.19918	        N/A	   77.4763	   17.1492	   4.19918	        N/A	   77.6281	   17.1492	   4.19918	        N/A	       N/A	       N/A	       N/A	        N/A	       N/A	       N/A	       N/A	        N/A	       N/A	       N/A	       N/A	        N/A	       N/A	       N/A	       N/A	        N/A	       N/A	       N/A	       N/A	        N/A	
         R10	    112	   77.6281	   17.1492	   4.19918	        N/A	    77.787	   17.1492	   4.19918	        N/A	    77.946	   17.1492	   4.19918	        N/A	       N/A	       N/A	       N/A	        N/A	       N/A	       N/A	       N/A	        N/A	       N/A	       N/A	       N/A	        N/A	       N/A	       N/A	       N/A	        N/A	       N/A	       N/A	       N/A	        N/A	
         R10	    113	    77.946	   17.1492	   4.19918	        N/A	   78.1122	   17.1492	   4.19918	        N/A	   78.2783	   17.1492	   4.19918	        N/A	       N/A	       N/A	       N/A	        N/A	       N/A	       N/A	       N/A	        N/A	       N/A	       N/A	       N/A	        N/A	       N/A	       N/A	       N/A	        N/A	       N/A	       N/A	       N/A	        N/A	
         R10	    114	   78.2783	   17.1492	   4.19918	        N/A	   78.4517	   17.1492	   4.19918	        N/A	    78.625	   17.1492	   4.19918	        N/A	       N/A	       N/A	       N/A	        N/A	       N/A	       N/A	       N/A	        N/A	       N/A	       N/A	       N/A	        N/A	       N/A	       N/A	       N/A	        N/A	       N/A	       N/A	       N/A	        N/A	
         R10	    115	     72.25	   17.7655	    4.7989	        N/A	   72.6197	   17.7655	    4.7989	        N/A	   72.9894	   17.7655	    4.7989	        N/A	       N/A	       N/A	       N/A	        N/A	       N/A	       N/A	       N/A	        N/A	       N/A	       N/A	       N/A	        N/A	       N/A	       N/A	       N/A	        N/A	       N/A	       N/A	       N/A	        N/A	
         R10	    116	   72.9894	   17.7655	    4.7989	        N/A	   73.3293	   17.7655	    4.7989	        N/A	   73.6693	   17.7655	    4.7989	        N/A	       N/A	       N/A	       N/A	        N/A	       N/A	       N/A	       N/A	        N/A	       N/A	       N/A	       N/A	        N/A	       N/A	       N/A	       N/A	        N/A	       N/A	       N/A	       N/A	        N/A	
         R10	    117	   73.6693	   17.7655	    4.7989	        N/A	   73.9795	   17.7655	    4.7989	        N/A	   74.2898	   17.7655	    4.7989	        N/A	       N/A	       N/A	       N/A	        N/A	       N/A	       N/A	       N/A	        N/A	       N/A	       N/A	       N/A	        N/A	       N/A	       N/A	       N/A	        N/A	       N/A	       N/A	       N/A	        N/A	
         R10	    118	   74.2898	   17.7655	    4.7989	        N/A	   74.5703	   17.7655	    4.7989	        N/A	   74.8507	   17.7655	    4.7989	        N/A	       N/A	       N/A	       N/A	        N/A	       N/A	       N/A	       N/A	        N/A	       N/A	       N/A	       N/A	        N/A	       N/A	       N/A	       N/A	        N/A	       N/A	       N/A	       N/A	        N/A	
         R10	    119	   74.8507	   17.7655	    4.7989	        N/A	   75.1015	   17.7655	    4.7989	        N/A	   75.3523	   17.7655	    4.7989	        N/A	       N/A	       N/A	       N/A	        N/A	       N/A	       N/A	       N/A	        N/A	       N/A	       N/A	       N/A	        N/A	       N/A	       N/A	       N/A	        N/A	       N/A	       N/A	       N/A	        N/A	
         R10	    120	   75.3523	   17.7655	    4.7989	        N/A	   75.5733	   17.7655	    4.7989	        N/A	   75.7943	   17.7655	    4.7989	        N/A	       N/A	       N/A	       N/A	        N/A	       N/A	       N/A	       N/A	        N/A	       N/A	       N/A	       N/A	        N/A	       N/A	       N/A	       N/A	        N/A	       N/A	       N/A	       N/A	        N/A	
         R10	    121	   75.7943	   17.7655	    4.7989	        N/A	   75.9856	   17.7655	    4.7989	        N/A	   76.1769	   17.7655	    4.7989	        N/A	       N/A	       N/A	       N/A	        N/A	       N/A	       N/A	       N/A	        N/A	       N/A	       N/A	       N/A	        N/A	       N/A	       N/A	       N/A	        N/A	       N/A	       N/A	       N/A	        N/A	
         R10	    122	   76.1769	   17.7655	    4.7989	        N/A	   76.3384	   17.7655	    4.7989	        N/A	      76.5	   17.7655	    4.7989	        N/A	       N/A	       N/A	       N/A	        N/A	       N/A	       N/A	       N/A	        N/A	       N/A	       N/A	       N/A	        N/A	       N/A	       N/A	       N/A	        N/A	       N/A	       N/A	       N/A	        N/A	
         R10	    123	      76.5	   17.7655	    4.7989	        N/A	   76.6603	   17.7655	    4.7989	        N/A	   76.8205	   17.7655	    4.7989	        N/A	       N/A	       N/A	       N/A	        N/A	       N/A	       N/A	       N/A	        N/A	       N/A	       N/A	       N/A	        N/A	       N/A	       N/A	       N/A	        N/A	       N/A	       N/A	       N/A	        N/A	
         R10	    124	   76.8205	   17.7655	    4.7989	        N/A	   76.9875	   17.7655	    4.7989	        N/A	   77.1545	   17.7655	    4.7989	        N/A	       N/A	       N/A	       N/A	        N/A	       N/A	       N/A	       N/A	        N/A	       N/A	       N/A	       N/A	        N/A	       N/A	       N/A	       N/A	        N/A	       N/A	       N/A	       N/A	        N/A	
         R10	    125	   77.1545	   17.7655	    4.7989	        N/A	   77.3282	   17.7655	    4.7989	        N/A	   77.5019	   17.7655	    4.7989	        N/A	       N/A	       N/A	       N/A	        N/A	       N/A	       N/A	       N/A	        N/A	       N/A	       N/A	       N/A	        N/A	       N/A	       N/A	       N/A	        N/A	       N/A	       N/A	       N/A	        N/A	
         R10	    126	   77.5019	   17.7655	    4.7989	        N/A	   77.6824	   17.7655	    4.7989	        N/A	   77.8628	   17.7655	    4.7989	        N/A	       N/A	       N/A	       N/A	        N/A	       N/A	       N/A	       N/A	        N/A	       N/A	       N/A	       N/A	        N/A	       N/A	       N/A	       N/A	        N/A	       N/A	       N/A	       N/A	        N/A	
         R10	    127	   77.8628	   17.7655	    4.7989	        N/A	     78.05	   17.7655	    4.7989	        N/A	   78.2372	   17.7655	    4.7989	        N/A	       N/A	       N/A	       N/A	        N/A	       N/A	       N/A	       N/A	        N/A	       N/A	       N/A	       N/A	        N/A	       N/A	       N/A	       N/A	        N/A	       N/A	       N/A	       N/A	        N/A	
         R10	    128	   78.2372	   17.7655	    4.7989	        N/A	   78.4311	   17.7655	    4.7989	        N/A	    78.625	   17.7655	    4.7989	        N/A	       N/A	       N/A	       N/A	        N/A	       N/A	       N/A	       N/A	        N/A	       N/A	       N/A	       N/A	        N/A	       N/A	       N/A	       N/A	        N/A	       N/A	       N/A	       N/A	        N/A	
         R10	    129	     72.25	   18.3819	   5.39863	        N/A	     72.66	   18.3819	   5.39863	        N/A	   73.0701	   18.3819	   5.39863	        N/A	       N/A	       N/A	       N/A	        N/A	       N/A	       N/A	       N/A	        N/A	       N/A	       N/A	       N/A	        N/A	       N/A	       N/A	       N/A	        N/A	       N/A	       N/A	       N/A	        N/A	
         R10	    130	   73.0701	   18.3819	   5.39863	        N/A	   73.4446	   18.3819	   5.39863	        N/A	   73.8192	   18.3819	   5.39863	        N/A	       N/A	       N/A	       N/A	        N/A	       N/A	       N/A	       N/A	        N/A	       N/A	       N/A	       N/A	        N/A	       N/A	       N/A	       N/A	        N/A	       N/A	       N/A	       N/A	        N/A	
         R10	    131	   73.8192	   18.3819	   5.39863	        N/A	   74.1582	   18.3819	   5.39863	        N/A	   74.4973	   18.3819	   5.39863	        N/A	       N/A	       N/A	       N/A	        N/A	       N/A	       N/A	       N/A	        N/A	       N/A	       N/A	       N/A	        N/A	       N/A	       N/A	       N/A	        N/A	       N/A	       N/A	       N/A	        N/A	
         R10	    132	   74.4973	   18.3819	   5.39863	        N/A	   74.8009	   18.3819	   5.39863	        N/A	   75.1044	   18.3819	   5.39863	        N/A	       N/A	       N/A	       N/A	        N/A	       N/A	       N/A	       N/A	        N/A	       N/A	       N/A	       N/A	        N/A	       N/A	       N/A	       N/A	        N/A	       N/A	       N/A	       N/A	        N/A	
         R10	    133	   75.1044	   18.3819	   5.39863	        N/A	   75.3725	   18.3819	   5.39863	        N/A	   75.6406	   18.3819	   5.39863	        N/A	       N/A	       N/A	       N/A	        N/A	       N/A	       N/A	       N/A	        N/A	       N/A	       N/A	       N/A	        N/A	       N/A	       N/A	       N/A	        N/A	       N/A	       N/A	       N/A	        N/A	
         R10	    134	   75.6406	   18.3819	   5.39863	        N/A	   75.8732	   18.3819	   5.39863	        N/A	   76.1058	   18.3819	   5.39863	        N/A	       N/A	       N/A	       N/A	        N/A	       N/A	       N/A	       N/A	        N/A	       N/A	       N/A	       N/A	        N/A	       N/A	       N/A	       N/A	        N/A	       N/A	       N/A	       N/A	        N/A	
         R10	    135	   76.1058	   18.3819	   5.39863	        N/A	   76.3029	   18.3819	   5.39863	        N/A	      76.5	   18.3819	   5.39863	        N/A	       N/A	       N/A	       N/A	        N/A	       N/A	       N/A	       N/A	        N/A	       N/A	       N/A	       N/A	        N/A	       N/A	       N/A	       N/A	        N/A	       N/A	       N/A	       N/A	        N/A	
         R10	    136	      76.5	   18.3819	   5.39863	        N/A	   76.6923	   18.3819	   5.39863	        N/A	   76.8846	   18.3819	   5.39863	        N/A	       N/A	       N/A	       N/A	        N/A	       N/A	       N/A	       N/A	        N/A	       N/A	       N/A	       N/A	        N/A	       N/A	       N/A	       N/A	        N/A	       N/A	       N/A	       N/A	        N/A	
         R10	    137	   76.8846	   18.3819	   5.39863	        N/A	    77.087	   18.3819	   5.39863	        N/A	   77.2894	   18.3819	   5.39863	        N/A	       N/A	       N/A	       N/A	        N/A	       N/A	       N/A	       N/A	        N/A	       N/A	       N/A	       N/A	        N/A	       N/A	       N/A	       N/A	        N/A	       N/A	       N/A	       N/A	        N/A	
         R10	    138	   77.2894	   18.3819	   5.39863	        N/A	   77.5019	   18.3819	   5.39863	        N/A	   77.7144	   18.3819	   5.39863	        N/A	       N/A	       N/A	       N/A	        N/A	       N/A	       N/A	       N/A	        N/A	       N/A	       N/A	       N/A	        N/A	       N/A	       N/A	       N/A	        N/A	       N/A	       N/A	       N/A	        N/A	
         R10	    139	   77.7144	   18.3819	   5.39863	        N/A	    77.937	   18.3819	   5.39863	        N/A	   78.1596	   18.3819	   5.39863	        N/A	       N/A	       N/A	       N/A	        N/A	       N/A	       N/A	       N/A	        N/A	       N/A	       N/A	       N/A	        N/A	       N/A	       N/A	       N/A	        N/A	       N/A	       N/A	       N/A	        N/A	
         R10	    140	   78.1596	   18.3819	   5.39863	        N/A	   78.3923	   18.3819	   5.39863	        N/A	    78.625	   18.3819	   5.39863	        N/A	       N/A	       N/A	       N/A	        N/A	       N/A	       N/A	       N/A	        N/A	       N/A	       N/A	       N/A	        N/A	       N/A	       N/A	       N/A	        N/A	       N/A	       N/A	       N/A	        N/A	
         R10	    141	   73.0346	        19	       9.4	        N/A	   72.6423	        19	       9.4	        N/A	     72.25	        19	       9.4	        N/A	       N/A	       N/A	       N/A	        N/A	       N/A	       N/A	       N/A	        N/A	       N/A	       N/A	       N/A	        N/A	       N/A	       N/A	       N/A	        N/A	       N/A	       N/A	       N/A	        N/A	
         R10	    142	   73.7887	        19	       9.4	        N/A	   73.4117	        19	       9.4	        N/A	   73.0346	        19	       9.4	        N/A	       N/A	       N/A	       N/A	        N/A	       N/A	       N/A	       N/A	        N/A	       N/A	       N/A	       N/A	        N/A	       N/A	       N/A	       N/A	        N/A	       N/A	       N/A	       N/A	        N/A	
         R10	    143	   74.5123	        19	       9.4	        N/A	   74.1505	        19	       9.4	        N/A	   73.7887	        19	       9.4	        N/A	       N/A	       N/A	       N/A	        N/A	       N/A	       N/A	       N/A	        N/A	       N/A	       N/A	       N/A	        N/A	       N/A	       N/A	       N/A	        N/A	       N/A	       N/A	       N/A	        N/A	
         R10	    144	   75.2054	        19	       9.4	        N/A	   74.8588	        19	       9.4	        N/A	   74.5123	        19	       9.4	        N/A	       N/A	       N/A	       N/A	        N/A	       N/A	       N/A	       N/A	        N/A	       N/A	       N/A	       N/A	        N/A	       N/A	       N/A	       N/A	        N/A	       N/A	       N/A	       N/A	        N/A	
         R10	    145	   75.8679	        19	       9.4	        N/A	   75.5367	        19	       9.4	        N/A	   75.2054	        19	       9.4	        N/A	       N/A	       N/A	       N/A	        N/A	       N/A	       N/A	       N/A	        N/A	       N/A	       N/A	       N/A	        N/A	       N/A	       N/A	       N/A	        N/A	       N/A	       N/A	       N/A	        N/A	
         R10	    146	      76.5	        19	       9.4	        N/A	    76.184	        19	       9.4	        N/A	   75.8679	        19	       9.4	        N/A	       N/A	       N/A	       N/A	        N/A	       N/A	       N/A	       N/A	        N/A	       N/A	       N/A	       N/A	        N/A	       N/A	       N/A	       N/A	        N/A	       N/A	       N/A	       N/A	        N/A	
         R10	    147	   77.1671	        19	       9.4	        N/A	   76.8335	        19	       9.4	        N/A	      76.5	        19	       9.4	        N/A	       N/A	       N/A	       N/A	        N/A	       N/A	       N/A	       N/A	        N/A	       N/A	       N/A	       N/A	        N/A	       N/A	       N/A	       N/A	        N/A	       N/A	       N/A	       N/A	        N/A	
         R10	    148	   77.8754	        19	       9.4	        N/A	   77.5212	        19	       9.4	        N/A	   77.1671	        19	       9.4	        N/A	       N/A	       N/A	       N/A	        N/A	       N/A	       N/A	       N/A	        N/A	       N/A	       N/A	       N/A	        N/A	       N/A	       N/A	       N/A	        N/A	       N/A	       N/A	       N/A	        N/A	
         R10	    149	    78.625	        19	       9.4	        N/A	   78.2502	        19	       9.4	        N/A	   77.8754	        19	       9.4	        N/A	       N/A	       N/A	       N/A	        N/A	       N/A	       N/A	       N/A	        N/A	       N/A	       N/A	       N/A	        N/A	       N/A	       N/A	       N/A	        N/A	       N/A	       N/A	       N/A	        N/A	
         R10	    150	   73.1325	        19	      6.85	        N/A	   72.6913	        19	      6.85	        N/A	     72.25	        19	      6.85	        N/A	       N/A	       N/A	       N/A	        N/A	       N/A	       N/A	       N/A	        N/A	       N/A	       N/A	       N/A	        N/A	       N/A	       N/A	       N/A	        N/A	       N/A	       N/A	       N/A	        N/A	
         R10	    151	   73.9454	        19	      6.85	        N/A	    73.539	        19	      6.85	        N/A	   73.1325	        19	      6.85	        N/A	       N/A	       N/A	       N/A	        N/A	       N/A	       N/A	       N/A	        N/A	       N/A	       N/A	       N/A	        N/A	       N/A	       N/A	       N/A	        N/A	       N/A	       N/A	       N/A	        N/A	
         R10	    152	   74.6886	        19	      6.85	        N/A	    74.317	        19	      6.85	        N/A	   73.9454	        19	      6.85	        N/A	       N/A	       N/A	       N/A	        N/A	       N/A	       N/A	       N/A	        N/A	       N/A	       N/A	       N/A	        N/A	       N/A	       N/A	       N/A	        N/A	       N/A	       N/A	       N/A	        N/A	
         R10	    153	   75.3621	        19	      6.85	        N/A	   75.0253	        19	      6.85	        N/A	   74.6886	        19	      6.85	        N/A	       N/A	       N/A	       N/A	        N/A	       N/A	       N/A	       N/A	        N/A	       N/A	       N/A	       N/A	        N/A	       N/A	       N/A	       N/A	        N/A	       N/A	       N/A	       N/A	        N/A	
         R10	    154	   75.9659	        19	      6.85	        N/A	    75.664	        19	      6.85	        N/A	   75.3621	        19	      6.85	        N/A	       N/A	       N/A	       N/A	        N/A	       N/A	       N/A	       N/A	        N/A	       N/A	       N/A	       N/A	        N/A	       N/A	       N/A	       N/A	        N/A	       N/A	       N/A	       N/A	        N/A	
         R10	    155	      76.5	        19	      6.85	        N/A	   76.2329	        19	      6.85	        N/A	   75.9659	        19	      6.85	        N/A	       N/A	       N/A	       N/A	        N/A	       N/A	       N/A	       N/A	        N/A	       N/A	       N/A	       N/A	        N/A	       N/A	       N/A	       N/A	        N/A	       N/A	       N/A	       N/A	        N/A	
         R10	    156	   77.0003	        19	      6.85	        N/A	   76.7502	        19	      6.85	        N/A	      76.5	        19	      6.85	        N/A	       N/A	       N/A	       N/A	        N/A	       N/A	       N/A	       N/A	        N/A	       N/A	       N/A	       N/A	        N/A	       N/A	       N/A	       N/A	        N/A	       N/A	       N/A	       N/A	        N/A	
         R10	    157	   77.5212	        19	      6.85	        N/A	   77.2608	        19	      6.85	        N/A	   77.0003	        19	      6.85	        N/A	       N/A	       N/A	       N/A	        N/A	       N/A	       N/A	       N/A	        N/A	       N/A	       N/A	       N/A	        N/A	       N/A	       N/A	       N/A	        N/A	       N/A	       N/A	       N/A	        N/A	
         R10	    158	   78.0628	        19	      6.85	        N/A	    77.792	        19	      6.85	        N/A	   77.5212	        19	      6.85	        N/A	       N/A	       N/A	       N/A	        N/A	       N/A	       N/A	       N/A	        N/A	       N/A	       N/A	       N/A	        N/A	       N/A	       N/A	       N/A	        N/A	       N/A	       N/A	       N/A	        N/A	
         R10	    159	    78.625	        19	      6.85	        N/A	   78.3439	        19	      6.85	        N/A	   78.0628	        19	      6.85	        N/A	       N/A	       N/A	       N/A	        N/A	       N/A	       N/A	       N/A	        N/A	       N/A	       N/A	       N/A	        N/A	       N/A	       N/A	       N/A	        N/A	       N/A	       N/A	       N/A	        N/A	
         R10	    160	   73.1005	        19	       7.7	        N/A	   72.6752	        19	       7.7	        N/A	     72.25	        19	       7.7	        N/A	       N/A	       N/A	       N/A	        N/A	       N/A	       N/A	       N/A	        N/A	       N/A	       N/A	       N/A	        N/A	       N/A	       N/A	       N/A	        N/A	       N/A	       N/A	       N/A	        N/A	
         R10	    161	   73.8941	        19	       7.7	        N/A	   73.4973	        19	       7.7	        N/A	   73.1005	        19	       7.7	        N/A	       N/A	       N/A	       N/A	        N/A	       N/A	       N/A	       N/A	        N/A	       N/A	       N/A	       N/A	        N/A	       N/A	       N/A	       N/A	        N/A	       N/A	       N/A	       N/A	        N/A	
         R10	    162	   74.6308	        19	       7.7	        N/A	   74.2625	        19	       7.7	        N/A	   73.8941	        19	       7.7	        N/A	       N/A	       N/A	       N/A	        N/A	       N/A	       N/A	       N/A	        N/A	       N/A	       N/A	       N/A	        N/A	       N/A	       N/A	       N/A	        N/A	       N/A	       N/A	       N/A	        N/A	
         R10	    163	   75.3107	        19	       7.7	        N/A	   74.9708	        19	       7.7	        N/A	   74.6308	        19	       7.7	        N/A	       N/A	       N/A	       N/A	        N/A	       N/A	       N/A	       N/A	        N/A	       N/A	       N/A	       N/A	        N/A	       N/A	       N/A	       N/A	        N/A	       N/A	       N/A	       N/A	        N/A	
         R10	    164	   75.9338	        19	       7.7	        N/A	   75.6223	        19	       7.7	        N/A	   75.3107	        19	       7.7	        N/A	       N/A	       N/A	       N/A	        N/A	       N/A	       N/A	       N/A	        N/A	       N/A	       N/A	       N/A	        N/A	       N/A	       N/A	       N/A	        N/A	       N/A	       N/A	       N/A	        N/A	
         R10	    165	      76.5	        19	       7.7	        N/A	   76.2169	        19	       7.7	        N/A	   75.9338	        19	       7.7	        N/A	       N/A	       N/A	       N/A	        N/A	       N/A	       N/A	       N/A	        N/A	       N/A	       N/A	       N/A	        N/A	       N/A	       N/A	       N/A	        N/A	       N/A	       N/A	       N/A	        N/A	
         R10	    166	   77.0003	        19	       7.7	        N/A	   76.7502	        19	       7.7	        N/A	      76.5	        19	       7.7	        N/A	       N/A	       N/A	       N/A	        N/A	       N/A	       N/A	       N/A	        N/A	       N/A	       N/A	       N/A	        N/A	       N/A	       N/A	       N/A	        N/A	       N/A	       N/A	       N/A	        N/A	
         R10	    167	   77.5212	        19	       7.7	        N/A	   77.2608	        19	       7.7	        N/A	   77.0003	        19	       7.7	        N/A	       N/A	       N/A	       N/A	        N/A	       N/A	       N/A	       N/A	        N/A	       N/A	       N/A	       N/A	        N/A	       N/A	       N/A	       N/A	        N/A	       N/A	       N/A	       N/A	        N/A	
         R10	    168	   78.0628	        19	       7.7	        N/A	    77.792	        19	       7.7	        N/A	   77.5212	        19	       7.7	        N/A	       N/A	       N/A	       N/A	        N/A	       N/A	       N/A	       N/A	        N/A	       N/A	       N/A	       N/A	        N/A	       N/A	       N/A	       N/A	        N/A	       N/A	       N/A	       N/A	        N/A	
         R10	    169	    78.625	        19	       7.7	        N/A	   78.3439	        19	       7.7	        N/A	   78.0628	        19	       7.7	        N/A	       N/A	       N/A	       N/A	        N/A	       N/A	       N/A	       N/A	        N/A	       N/A	       N/A	       N/A	        N/A	       N/A	       N/A	       N/A	        N/A	       N/A	       N/A	       N/A	        N/A	
         R10	    170	   73.0678	        19	      8.55	        N/A	   72.6589	        19	      8.55	        N/A	     72.25	        19	      8.55	        N/A	       N/A	       N/A	       N/A	        N/A	       N/A	       N/A	       N/A	        N/A	       N/A	       N/A	       N/A	        N/A	       N/A	       N/A	       N/A	        N/A	       N/A	       N/A	       N/A	        N/A	
         R10	    171	   73.8418	        19	      8.55	        N/A	   73.4548	        19	      8.55	        N/A	   73.0678	        19	      8.55	        N/A	       N/A	       N/A	       N/A	        N/A	       N/A	       N/A	       N/A	        N/A	       N/A	       N/A	       N/A	        N/A	       N/A	       N/A	       N/A	        N/A	       N/A	       N/A	       N/A	        N/A	
         R10	    172	    74.572	        19	      8.55	        N/A	   74.2069	        19	      8.55	        N/A	   73.8418	        19	      8.55	        N/A	       N/A	       N/A	       N/A	        N/A	       N/A	       N/A	       N/A	        N/A	       N/A	       N/A	       N/A	        N/A	       N/A	       N/A	       N/A	        N/A	       N/A	       N/A	       N/A	        N/A	
         R10	    173	   75.2585	        19	      8.55	        N/A	   74.9152	        19	      8.55	        N/A	    74.572	        19	      8.55	        N/A	       N/A	       N/A	       N/A	        N/A	       N/A	       N/A	       N/A	        N/A	       N/A	       N/A	       N/A	        N/A	       N/A	       N/A	       N/A	        N/A	       N/A	       N/A	       N/A	        N/A	
         R10	    174	   75.9011	        19	      8.55	        N/A	   75.5798	        19	      8.55	        N/A	   75.2585	        19	      8.55	        N/A	       N/A	       N/A	       N/A	        N/A	       N/A	       N/A	       N/A	        N/A	       N/A	       N/A	       N/A	        N/A	       N/A	       N/A	       N/A	        N/A	       N/A	       N/A	       N/A	        N/A	
         R10	    175	      76.5	        19	      8.55	        N/A	   76.2006	        19	      8.55	        N/A	   75.9011	        19	      8.55	        N/A	       N/A	       N/A	       N/A	        N/A	       N/A	       N/A	       N/A	        N/A	       N/A	       N/A	       N/A	        N/A	       N/A	       N/A	       N/A	        N/A	       N/A	       N/A	       N/A	        N/A	
         R10	    176	   77.1671	        19	      8.55	        N/A	   76.8335	        19	      8.55	        N/A	      76.5	        19	      8.55	        N/A	       N/A	       N/A	       N/A	        N/A	       N/A	       N/A	       N/A	        N/A	       N/A	       N/A	       N/A	        N/A	       N/A	       N/A	       N/A	        N/A	       N/A	       N/A	       N/A	        N/A	
         R10	    177	   77.8754	        19	      8.55	        N/A	   77.5212	        19	      8.55	        N/A	   77.1671	        19	      8.55	        N/A	       N/A	       N/A	       N/A	        N/A	       N/A	       N/A	       N/A	        N/A	       N/A	       N/A	       N/A	        N/A	       N/A	       N/A	       N/A	        N/A	       N/A	       N/A	       N/A	        N/A	
         R10	    178	    78.625	        19	      8.55	        N/A	   78.2502	        19	      8.55	        N/A	   77.8754	        19	      8.55	        N/A	       N/A	       N/A	       N/A	        N/A	       N/A	       N/A	       N/A	        N/A	       N/A	       N/A	       N/A	        N/A	       N/A	       N/A	       N/A	        N/A	       N/A	       N/A	       N/A	        N/A	
         R10	    179	     72.25	      9.35	         0	        N/A	    72.675	      9.35	         0	        N/A	      73.1	      9.35	         0	        N/A	       N/A	       N/A	       N/A	        N/A	       N/A	       N/A	       N/A	        N/A	       N/A	       N/A	       N/A	        N/A	       N/A	       N/A	       N/A	        N/A	       N/A	       N/A	       N/A	        N/A	
         R10	    180	      73.1	      9.35	         0	        N/A	    73.525	      9.35	         0	        N/A	     73.95	      9.35	         0	        N/A	       N/A	       N/A	       N/A	        N/A	       N/A	       N/A	       N/A	        N/A	       N/A	       N/A	       N/A	        N/A	       N/A	       N/A	       N/A	        N/A	       N/A	       N/A	       N/A	        N/A	
         R10	    181	     73.95	      9.35	         0	        N/A	    74.375	      9.35	         0	        N/A	      74.8	      9.35	         0	        N/A	       N/A	       N/A	       N/A	        N/A	       N/A	       N/A	       N/A	        N/A	       N/A	       N/A	       N/A	        N/A	       N/A	       N/A	       N/A	        N/A	       N/A	       N/A	       N/A	        N/A	
         R10	    182	      74.8	      9.35	         0	        N/A	    75.225	      9.35	         0	        N/A	     75.65	      9.35	         0	        N/A	       N/A	       N/A	       N/A	        N/A	       N/A	       N/A	       N/A	        N/A	       N/A	       N/A	       N/A	        N/A	       N/A	       N/A	       N/A	        N/A	       N/A	       N/A	       N/A	        N/A	
         R10	    183	     75.65	      9.35	         0	        N/A	    76.075	      9.35	         0	        N/A	      76.5	      9.35	         0	        N/A	       N/A	       N/A	       N/A	        N/A	       N/A	       N/A	       N/A	        N/A	       N/A	       N/A	       N/A	        N/A	       N/A	       N/A	       N/A	        N/A	       N/A	       N/A	       N/A	        N/A	
         R10	    184	      76.5	      9.35	         0	        N/A	   77.0313	      9.35	         0	        N/A	   77.5625	      9.35	         0	        N/A	       N/A	       N/A	       N/A	        N/A	       N/A	       N/A	       N/A	        N/A	       N/A	       N/A	       N/A	        N/A	       N/A	       N/A	       N/A	        N/A	       N/A	       N/A	       N/A	        N/A	
         R10	    185	   77.5625	      9.35	         0	        N/A	   78.0938	      9.35	         0	        N/A	    78.625	      9.35	         0	        N/A	       N/A	       N/A	       N/A	        N/A	       N/A	       N/A	       N/A	        N/A	       N/A	       N/A	       N/A	        N/A	       N/A	       N/A	       N/A	        N/A	       N/A	       N/A	       N/A	        N/A	
         R10	    186	     80.75	      9.35	       2.4	        N/A	   80.2188	      9.35	       2.4	        N/A	   79.6875	      9.35	       2.4	        N/A	       N/A	       N/A	       N/A	        N/A	       N/A	       N/A	       N/A	        N/A	       N/A	       N/A	       N/A	        N/A	       N/A	       N/A	       N/A	        N/A	       N/A	       N/A	       N/A	        N/A	
         R10	    187	   79.6875	      9.35	       2.4	        N/A	   79.1563	      9.35	       2.4	        N/A	    78.625	      9.35	       2.4	        N/A	       N/A	       N/A	       N/A	        N/A	       N/A	       N/A	       N/A	        N/A	       N/A	       N/A	       N/A	        N/A	       N/A	       N/A	       N/A	        N/A	       N/A	       N/A	       N/A	        N/A	
         R10	    188	     72.25	      10.2	         0	        N/A	    72.675	      10.2	         0	        N/A	      73.1	      10.2	         0	        N/A	       N/A	       N/A	       N/A	        N/A	       N/A	       N/A	       N/A	        N/A	       N/A	       N/A	       N/A	        N/A	       N/A	       N/A	       N/A	        N/A	       N/A	       N/A	       N/A	        N/A	
         R10	    189	      73.1	      10.2	         0	        N/A	    73.525	      10.2	         0	        N/A	     73.95	      10.2	         0	        N/A	       N/A	       N/A	       N/A	        N/A	       N/A	       N/A	       N/A	        N/A	       N/A	       N/A	       N/A	        N/A	       N/A	       N/A	       N/A	        N/A	       N/A	       N/A	       N/A	        N/A	
         R10	    190	     73.95	      10.2	         0	        N/A	    74.375	      10.2	         0	        N/A	      74.8	      10.2	         0	        N/A	       N/A	       N/A	       N/A	        N/A	       N/A	       N/A	       N/A	        N/A	       N/A	       N/A	       N/A	        N/A	       N/A	       N/A	       N/A	        N/A	       N/A	       N/A	       N/A	        N/A	
         R10	    191	      74.8	      10.2	         0	        N/A	    75.225	      10.2	         0	        N/A	     75.65	      10.2	         0	        N/A	       N/A	       N/A	       N/A	        N/A	       N/A	       N/A	       N/A	        N/A	       N/A	       N/A	       N/A	        N/A	       N/A	       N/A	       N/A	        N/A	       N/A	       N/A	       N/A	        N/A	
         R10	    192	     75.65	      10.2	         0	        N/A	    76.075	      10.2	         0	        N/A	      76.5	      10.2	         0	        N/A	       N/A	       N/A	       N/A	        N/A	       N/A	       N/A	       N/A	        N/A	       N/A	       N/A	       N/A	        N/A	       N/A	       N/A	       N/A	        N/A	       N/A	       N/A	       N/A	        N/A	
         R10	    193	      76.5	      10.2	         0	        N/A	   77.0313	      10.2	         0	        N/A	   77.5625	      10.2	         0	        N/A	       N/A	       N/A	       N/A	        N/A	       N/A	       N/A	       N/A	        N/A	       N/A	       N/A	       N/A	        N/A	       N/A	       N/A	       N/A	        N/A	       N/A	       N/A	       N/A	        N/A	
         R10	    194	   77.5625	      10.2	         0	        N/A	   78.0938	      10.2	         0	        N/A	    78.625	      10.2	         0	        N/A	       N/A	       N/A	       N/A	        N/A	       N/A	       N/A	       N/A	        N/A	       N/A	       N/A	       N/A	        N/A	       N/A	       N/A	       N/A	        N/A	       N/A	       N/A	       N/A	        N/A	
         R10	    195	     72.25	      13.6	         0	        N/A	   72.6769	      13.6	         0	        N/A	   73.1038	      13.6	         0	        N/A	       N/A	       N/A	       N/A	        N/A	       N/A	       N/A	       N/A	        N/A	       N/A	       N/A	       N/A	        N/A	       N/A	       N/A	       N/A	        N/A	       N/A	       N/A	       N/A	        N/A	
         R10	    196	   73.1038	      13.6	         0	        N/A	   73.4895	      13.6	         0	        N/A	   73.8753	      13.6	         0	        N/A	       N/A	       N/A	       N/A	        N/A	       N/A	       N/A	       N/A	        N/A	       N/A	       N/A	       N/A	        N/A	       N/A	       N/A	       N/A	        N/A	       N/A	       N/A	       N/A	        N/A	
         R10	    197	   73.8753	      13.6	         0	        N/A	     74.22	      13.6	         0	        N/A	   74.5647	      13.6	         0	        N/A	       N/A	       N/A	       N/A	        N/A	       N/A	       N/A	       N/A	        N/A	       N/A	       N/A	       N/A	        N/A	       N/A	       N/A	       N/A	        N/A	       N/A	       N/A	       N/A	        N/A	
         R10	    198	   74.5647	      13.6	         0	        N/A	   74.8682	      13.6	         0	        N/A	   75.1718	      13.6	         0	        N/A	       N/A	       N/A	       N/A	        N/A	       N/A	       N/A	       N/A	        N/A	       N/A	       N/A	       N/A	        N/A	       N/A	       N/A	       N/A	        N/A	       N/A	       N/A	       N/A	        N/A	
         R10	    199	   75.1718	      13.6	         0	        N/A	   75.4343	      13.6	         0	        N/A	   75.6967	      13.6	         0	        N/A	       N/A	       N/A	       N/A	        N/A	       N/A	       N/A	       N/A	        N/A	       N/A	       N/A	       N/A	        N/A	       N/A	       N/A	       N/A	        N/A	       N/A	       N/A	       N/A	        N/A	
         R10	    200	   75.6967	      13.6	         0	        N/A	   75.9181	      13.6	         0	        N/A	   76.1395	      13.6	         0	        N/A	       N/A	       N/A	       N/A	        N/A	       N/A	       N/A	       N/A	        N/A	       N/A	       N/A	       N/A	        N/A	       N/A	       N/A	       N/A	        N/A	       N/A	       N/A	       N/A	        N/A	
         R10	    201	   76.1395	      13.6	         0	        N/A	   76.3197	      13.6	         0	        N/A	      76.5	      13.6	         0	        N/A	       N/A	       N/A	       N/A	        N/A	       N/A	       N/A	       N/A	        N/A	       N/A	       N/A	       N/A	        N/A	       N/A	       N/A	       N/A	        N/A	       N/A	       N/A	       N/A	        N/A	
         R10	    202	      76.5	      13.6	         0	        N/A	   76.6823	      13.6	         0	        N/A	   76.8646	      13.6	         0	        N/A	       N/A	       N/A	       N/A	        N/A	       N/A	       N/A	       N/A	        N/A	       N/A	       N/A	       N/A	        N/A	       N/A	       N/A	       N/A	        N/A	       N/A	       N/A	       N/A	        N/A	
         R10	    203	   76.8646	      13.6	         0	        N/A	   77.0621	      13.6	         0	        N/A	   77.2595	      13.6	         0	        N/A	       N/A	       N/A	       N/A	        N/A	       N/A	       N/A	       N/A	        N/A	       N/A	       N/A	       N/A	        N/A	       N/A	       N/A	       N/A	        N/A	       N/A	       N/A	       N/A	        N/A	
         R10	    204	   77.2595	      13.6	         0	        N/A	    77.472	      13.6	         0	        N/A	   77.6845	      13.6	         0	        N/A	       N/A	       N/A	       N/A	        N/A	       N/A	       N/A	       N/A	        N/A	       N/A	       N/A	       N/A	        N/A	       N/A	       N/A	       N/A	        N/A	       N/A	       N/A	       N/A	        N/A	
         R10	    205	   77.6845	      13.6	         0	        N/A	   77.9121	      13.6	         0	        N/A	   78.1396	      13.6	         0	        N/A	       N/A	       N/A	       N/A	        N/A	       N/A	       N/A	       N/A	        N/A	       N/A	       N/A	       N/A	        N/A	       N/A	       N/A	       N/A	        N/A	       N/A	       N/A	       N/A	        N/A	
         R10	    206	   78.1396	      13.6	         0	        N/A	   78.3823	      13.6	         0	        N/A	    78.625	      13.6	         0	        N/A	       N/A	       N/A	       N/A	        N/A	       N/A	       N/A	       N/A	        N/A	       N/A	       N/A	       N/A	        N/A	       N/A	       N/A	       N/A	        N/A	       N/A	       N/A	       N/A	        N/A	
         R10	    207	     72.25	     11.05	         0	        N/A	   72.6823	     11.05	         0	        N/A	   73.1146	     11.05	         0	        N/A	       N/A	       N/A	       N/A	        N/A	       N/A	       N/A	       N/A	        N/A	       N/A	       N/A	       N/A	        N/A	       N/A	       N/A	       N/A	        N/A	       N/A	       N/A	       N/A	        N/A	
         R10	    208	   73.1146	     11.05	         0	        N/A	   73.5432	     11.05	         0	        N/A	   73.9718	     11.05	         0	        N/A	       N/A	       N/A	       N/A	        N/A	       N/A	       N/A	       N/A	        N/A	       N/A	       N/A	       N/A	        N/A	       N/A	       N/A	       N/A	        N/A	       N/A	       N/A	       N/A	        N/A	
         R10	    209	   73.9718	     11.05	         0	        N/A	   74.3969	     11.05	         0	        N/A	   74.8218	     11.05	         0	        N/A	       N/A	       N/A	       N/A	        N/A	       N/A	       N/A	       N/A	        N/A	       N/A	       N/A	       N/A	        N/A	       N/A	       N/A	       N/A	        N/A	       N/A	       N/A	       N/A	        N/A	
         R10	    210	   74.8218	     11.05	         0	        N/A	   75.2432	     11.05	         0	        N/A	   75.6646	     11.05	         0	        N/A	       N/A	       N/A	       N/A	        N/A	       N/A	       N/A	       N/A	        N/A	       N/A	       N/A	       N/A	        N/A	       N/A	       N/A	       N/A	        N/A	       N/A	       N/A	       N/A	        N/A	
         R10	    211	   75.6646	     11.05	         0	        N/A	   76.0823	     11.05	         0	        N/A	      76.5	     11.05	         0	        N/A	       N/A	       N/A	       N/A	        N/A	       N/A	       N/A	       N/A	        N/A	       N/A	       N/A	       N/A	        N/A	       N/A	       N/A	       N/A	        N/A	       N/A	       N/A	       N/A	        N/A	
         R10	    212	      76.5	     11.05	         0	        N/A	   76.8631	     11.05	         0	        N/A	   77.2261	     11.05	         0	        N/A	       N/A	       N/A	       N/A	        N/A	       N/A	       N/A	       N/A	        N/A	       N/A	       N/A	       N/A	        N/A	       N/A	       N/A	       N/A	        N/A	       N/A	       N/A	       N/A	        N/A	
         R10	    213	   77.2261	     11.05	         0	        N/A	   77.5803	     11.05	         0	        N/A	   77.9344	     11.05	         0	        N/A	       N/A	       N/A	       N/A	        N/A	       N/A	       N/A	       N/A	        N/A	       N/A	       N/A	       N/A	        N/A	       N/A	       N/A	       N/A	        N/A	       N/A	       N/A	       N/A	        N/A	
         R10	    214	   77.9344	     11.05	         0	        N/A	   78.2797	     11.05	         0	        N/A	    78.625	     11.05	         0	        N/A	       N/A	       N/A	       N/A	        N/A	       N/A	       N/A	       N/A	        N/A	       N/A	       N/A	       N/A	        N/A	       N/A	       N/A	       N/A	        N/A	       N/A	       N/A	       N/A	        N/A	
         R10	    215	     72.25	      11.9	         0	        N/A	   72.6852	      11.9	         0	        N/A	   73.1204	      11.9	         0	        N/A	       N/A	       N/A	       N/A	        N/A	       N/A	       N/A	       N/A	        N/A	       N/A	       N/A	       N/A	        N/A	       N/A	       N/A	       N/A	        N/A	       N/A	       N/A	       N/A	        N/A	
         R10	    216	   73.1204	      11.9	         0	        N/A	   73.5231	      11.9	         0	        N/A	   73.9259	      11.9	         0	        N/A	       N/A	       N/A	       N/A	        N/A	       N/A	       N/A	       N/A	        N/A	       N/A	       N/A	       N/A	        N/A	       N/A	       N/A	       N/A	        N/A	       N/A	       N/A	       N/A	        N/A	
         R10	    217	   73.9259	      11.9	         0	        N/A	   74.2963	      11.9	         0	        N/A	   74.6666	      11.9	         0	        N/A	       N/A	       N/A	       N/A	        N/A	       N/A	       N/A	       N/A	        N/A	       N/A	       N/A	       N/A	        N/A	       N/A	       N/A	       N/A	        N/A	       N/A	       N/A	       N/A	        N/A	
         R10	    218	   74.6666	      11.9	         0	        N/A	   75.0046	      11.9	         0	        N/A	   75.3426	      11.9	         0	        N/A	       N/A	       N/A	       N/A	        N/A	       N/A	       N/A	       N/A	        N/A	       N/A	       N/A	       N/A	        N/A	       N/A	       N/A	       N/A	        N/A	       N/A	       N/A	       N/A	        N/A	
         R10	    219	   75.3426	      11.9	         0	        N/A	   75.6481	      11.9	         0	        N/A	   75.9537	      11.9	         0	        N/A	       N/A	       N/A	       N/A	        N/A	       N/A	       N/A	       N/A	        N/A	       N/A	       N/A	       N/A	        N/A	       N/A	       N/A	       N/A	        N/A	       N/A	       N/A	       N/A	        N/A	
         R10	    220	   75.9537	      11.9	         0	        N/A	   76.2268	      11.9	         0	        N/A	      76.5	      11.9	         0	        N/A	       N/A	       N/A	       N/A	        N/A	       N/A	       N/A	       N/A	        N/A	       N/A	       N/A	       N/A	        N/A	       N/A	       N/A	       N/A	        N/A	       N/A	       N/A	       N/A	        N/A	
         R10	    221	      76.5	      11.9	         0	        N/A	   76.8039	      11.9	         0	        N/A	   77.1077	      11.9	         0	        N/A	       N/A	       N/A	       N/A	        N/A	       N/A	       N/A	       N/A	        N/A	       N/A	       N/A	       N/A	        N/A	       N/A	       N/A	       N/A	        N/A	       N/A	       N/A	       N/A	        N/A	
         R10	    222	   77.1077	      11.9	         0	        N/A	   77.4619	      11.9	         0	        N/A	   77.8161	      11.9	         0	        N/A	       N/A	       N/A	       N/A	        N/A	       N/A	       N/A	       N/A	        N/A	       N/A	       N/A	       N/A	        N/A	       N/A	       N/A	       N/A	        N/A	       N/A	       N/A	       N/A	        N/A	
         R10	    223	   77.8161	      11.9	         0	        N/A	   78.2205	      11.9	         0	        N/A	    78.625	      11.9	         0	        N/A	       N/A	       N/A	       N/A	        N/A	       N/A	       N/A	       N/A	        N/A	       N/A	       N/A	       N/A	        N/A	       N/A	       N/A	       N/A	        N/A	       N/A	       N/A	       N/A	        N/A	
         R10	    224	     72.25	      16.1	         0	        N/A	   72.6055	      16.1	         0	        N/A	    72.961	      16.1	         0	        N/A	       N/A	       N/A	       N/A	        N/A	       N/A	       N/A	       N/A	        N/A	       N/A	       N/A	       N/A	        N/A	       N/A	       N/A	       N/A	        N/A	       N/A	       N/A	       N/A	        N/A	
         R10	    225	    72.961	      16.1	         0	        N/A	   73.2867	      16.1	         0	        N/A	   73.6123	      16.1	         0	        N/A	       N/A	       N/A	       N/A	        N/A	       N/A	       N/A	       N/A	        N/A	       N/A	       N/A	       N/A	        N/A	       N/A	       N/A	       N/A	        N/A	       N/A	       N/A	       N/A	        N/A	
         R10	    226	   73.6123	      16.1	         0	        N/A	   73.9081	      16.1	         0	        N/A	   74.2039	      16.1	         0	        N/A	       N/A	       N/A	       N/A	        N/A	       N/A	       N/A	       N/A	        N/A	       N/A	       N/A	       N/A	        N/A	       N/A	       N/A	       N/A	        N/A	       N/A	       N/A	       N/A	        N/A	
         R10	    227	   74.2039	      16.1	         0	        N/A	   74.4699	      16.1	         0	        N/A	   74.7358	      16.1	         0	        N/A	       N/A	       N/A	       N/A	        N/A	       N/A	       N/A	       N/A	        N/A	       N/A	       N/A	       N/A	        N/A	       N/A	       N/A	       N/A	        N/A	       N/A	       N/A	       N/A	        N/A	
         R10	    228	   74.7358	      16.1	         0	        N/A	    74.972	      16.1	         0	        N/A	   75.2081	      16.1	         0	        N/A	       N/A	       N/A	       N/A	        N/A	       N/A	       N/A	       N/A	        N/A	       N/A	       N/A	       N/A	        N/A	       N/A	       N/A	       N/A	        N/A	       N/A	       N/A	       N/A	        N/A	
         R10	    229	   75.2081	      16.1	         0	        N/A	   75.4143	      16.1	         0	        N/A	   75.6206	      16.1	         0	        N/A	       N/A	       N/A	       N/A	        N/A	       N/A	       N/A	       N/A	        N/A	       N/A	       N/A	       N/A	        N/A	       N/A	       N/A	       N/A	        N/A	       N/A	       N/A	       N/A	        N/A	
         R10	    230	   75.6206	      16.1	         0	        N/A	    75.797	      16.1	         0	        N/A	   75.9734	      16.1	         0	        N/A	       N/A	       N/A	       N/A	        N/A	       N/A	       N/A	       N/A	        N/A	       N/A	       N/A	       N/A	        N/A	       N/A	       N/A	       N/A	        N/A	       N/A	       N/A	       N/A	        N/A	
         R10	    231	   75.9734	      16.1	         0	        N/A	     76.12	      16.1	         0	        N/A	   76.2666	      16.1	         0	        N/A	       N/A	       N/A	       N/A	        N/A	       N/A	       N/A	       N/A	        N/A	       N/A	       N/A	       N/A	        N/A	       N/A	       N/A	       N/A	        N/A	       N/A	       N/A	       N/A	        N/A	
         R10	    232	   76.2666	      16.1	         0	        N/A	   76.3833	      16.1	         0	        N/A	      76.5	      16.1	         0	        N/A	       N/A	       N/A	       N/A	        N/A	       N/A	       N/A	       N/A	        N/A	       N/A	       N/A	       N/A	        N/A	       N/A	       N/A	       N/A	        N/A	       N/A	       N/A	       N/A	        N/A	
         R10	    233	      76.5	      16.1	         0	        N/A	   76.6232	      16.1	         0	        N/A	   76.7464	      16.1	         0	        N/A	       N/A	       N/A	       N/A	        N/A	       N/A	       N/A	       N/A	        N/A	       N/A	       N/A	       N/A	        N/A	       N/A	       N/A	       N/A	        N/A	       N/A	       N/A	       N/A	        N/A	
         R10	    234	   76.7464	      16.1	         0	        N/A	   76.8791	      16.1	         0	        N/A	   77.0118	      16.1	         0	        N/A	       N/A	       N/A	       N/A	        N/A	       N/A	       N/A	       N/A	        N/A	       N/A	       N/A	       N/A	        N/A	       N/A	       N/A	       N/A	        N/A	       N/A	       N/A	       N/A	        N/A	
         R10	    235	   77.0118	      16.1	         0	        N/A	   77.1541	      16.1	         0	        N/A	   77.2964	      16.1	         0	        N/A	       N/A	       N/A	       N/A	        N/A	       N/A	       N/A	       N/A	        N/A	       N/A	       N/A	       N/A	        N/A	       N/A	       N/A	       N/A	        N/A	       N/A	       N/A	       N/A	        N/A	
         R10	    236	   77.2964	      16.1	         0	        N/A	   77.4482	      16.1	         0	        N/A	   77.5999	      16.1	         0	        N/A	       N/A	       N/A	       N/A	        N/A	       N/A	       N/A	       N/A	        N/A	       N/A	       N/A	       N/A	        N/A	       N/A	       N/A	       N/A	        N/A	       N/A	       N/A	       N/A	        N/A	
         R10	    237	   77.5999	      16.1	         0	        N/A	   77.7612	      16.1	         0	        N/A	   77.9226	      16.1	         0	        N/A	       N/A	       N/A	       N/A	        N/A	       N/A	       N/A	       N/A	        N/A	       N/A	       N/A	       N/A	        N/A	       N/A	       N/A	       N/A	        N/A	       N/A	       N/A	       N/A	        N/A	
         R10	    238	   77.9226	      16.1	         0	        N/A	   78.0934	      16.1	         0	        N/A	   78.2643	      16.1	         0	        N/A	       N/A	       N/A	       N/A	        N/A	       N/A	       N/A	       N/A	        N/A	       N/A	       N/A	       N/A	        N/A	       N/A	       N/A	       N/A	        N/A	       N/A	       N/A	       N/A	        N/A	
         R10	    239	   78.2643	      16.1	         0	        N/A	   78.4446	      16.1	         0	        N/A	    78.625	      16.1	         0	        N/A	       N/A	       N/A	       N/A	        N/A	       N/A	       N/A	       N/A	        N/A	       N/A	       N/A	       N/A	        N/A	       N/A	       N/A	       N/A	        N/A	       N/A	       N/A	       N/A	        N/A	
         R10	    240	     72.25	     12.75	         0	        N/A	    72.701	     12.75	         0	        N/A	    73.152	     12.75	         0	        N/A	       N/A	       N/A	       N/A	        N/A	       N/A	       N/A	       N/A	        N/A	       N/A	       N/A	       N/A	        N/A	       N/A	       N/A	       N/A	        N/A	       N/A	       N/A	       N/A	        N/A	
         R10	    241	    73.152	     12.75	         0	        N/A	   73.5642	     12.75	         0	        N/A	   73.9765	     12.75	         0	        N/A	       N/A	       N/A	       N/A	        N/A	       N/A	       N/A	       N/A	        N/A	       N/A	       N/A	       N/A	        N/A	       N/A	       N/A	       N/A	        N/A	       N/A	       N/A	       N/A	        N/A	
         R10	    242	   73.9765	     12.75	         0	        N/A	     74.35	     12.75	         0	        N/A	   74.7236	     12.75	         0	        N/A	       N/A	       N/A	       N/A	        N/A	       N/A	       N/A	       N/A	        N/A	       N/A	       N/A	       N/A	        N/A	       N/A	       N/A	       N/A	        N/A	       N/A	       N/A	       N/A	        N/A	
         R10	    243	   74.7236	     12.75	         0	        N/A	   75.0584	     12.75	         0	        N/A	   75.3932	     12.75	         0	        N/A	       N/A	       N/A	       N/A	        N/A	       N/A	       N/A	       N/A	        N/A	       N/A	       N/A	       N/A	        N/A	       N/A	       N/A	       N/A	        N/A	       N/A	       N/A	       N/A	        N/A	
         R10	    244	   75.3932	     12.75	         0	        N/A	   75.6892	     12.75	         0	        N/A	   75.9853	     12.75	         0	        N/A	       N/A	       N/A	       N/A	        N/A	       N/A	       N/A	       N/A	        N/A	       N/A	       N/A	       N/A	        N/A	       N/A	       N/A	       N/A	        N/A	       N/A	       N/A	       N/A	        N/A	
         R10	    245	   75.9853	     12.75	         0	        N/A	   76.2427	     12.75	         0	        N/A	      76.5	     12.75	         0	        N/A	       N/A	       N/A	       N/A	        N/A	       N/A	       N/A	       N/A	        N/A	       N/A	       N/A	       N/A	        N/A	       N/A	       N/A	       N/A	        N/A	       N/A	       N/A	       N/A	        N/A	
         R10	    246	      76.5	     12.75	         0	        N/A	    76.755	     12.75	         0	        N/A	     77.01	     12.75	         0	        N/A	       N/A	       N/A	       N/A	        N/A	       N/A	       N/A	       N/A	        N/A	       N/A	       N/A	       N/A	        N/A	       N/A	       N/A	       N/A	        N/A	       N/A	       N/A	       N/A	        N/A	
         R10	    247	     77.01	     12.75	         0	        N/A	    77.272	     12.75	         0	        N/A	   77.5341	     12.75	         0	        N/A	       N/A	       N/A	       N/A	        N/A	       N/A	       N/A	       N/A	        N/A	       N/A	       N/A	       N/A	        N/A	       N/A	       N/A	       N/A	        N/A	       N/A	       N/A	       N/A	        N/A	
         R10	    248	   77.5341	     12.75	         0	        N/A	   77.8033	     12.75	         0	        N/A	   78.0725	     12.75	         0	        N/A	       N/A	       N/A	       N/A	        N/A	       N/A	       N/A	       N/A	        N/A	       N/A	       N/A	       N/A	        N/A	       N/A	       N/A	       N/A	        N/A	       N/A	       N/A	       N/A	        N/A	
         R10	    249	   78.0725	     12.75	         0	        N/A	   78.3487	     12.75	         0	        N/A	    78.625	     12.75	         0	        N/A	       N/A	       N/A	       N/A	        N/A	       N/A	       N/A	       N/A	        N/A	       N/A	       N/A	       N/A	        N/A	       N/A	       N/A	       N/A	        N/A	       N/A	       N/A	       N/A	        N/A	
         R10	    250	     72.25	      17.7	         0	        N/A	   72.6273	      17.7	         0	        N/A	   73.0047	      17.7	         0	        N/A	       N/A	       N/A	       N/A	        N/A	       N/A	       N/A	       N/A	        N/A	       N/A	       N/A	       N/A	        N/A	       N/A	       N/A	       N/A	        N/A	       N/A	       N/A	       N/A	        N/A	
         R10	    251	   73.0047	      17.7	         0	        N/A	   73.3501	      17.7	         0	        N/A	   73.6955	      17.7	         0	        N/A	       N/A	       N/A	       N/A	        N/A	       N/A	       N/A	       N/A	        N/A	       N/A	       N/A	       N/A	        N/A	       N/A	       N/A	       N/A	        N/A	       N/A	       N/A	       N/A	        N/A	
         R10	    252	   73.6955	      17.7	         0	        N/A	    74.009	      17.7	         0	        N/A	   74.3225	      17.7	         0	        N/A	       N/A	       N/A	       N/A	        N/A	       N/A	       N/A	       N/A	        N/A	       N/A	       N/A	       N/A	        N/A	       N/A	       N/A	       N/A	        N/A	       N/A	       N/A	       N/A	        N/A	
         R10	    253	   74.3225	      17.7	         0	        N/A	   74.6041	      17.7	         0	        N/A	   74.8857	      17.7	         0	        N/A	       N/A	       N/A	       N/A	        N/A	       N/A	       N/A	       N/A	        N/A	       N/A	       N/A	       N/A	        N/A	       N/A	       N/A	       N/A	        N/A	       N/A	       N/A	       N/A	        N/A	
         R10	    254	   74.8857	      17.7	         0	        N/A	   75.1354	      17.7	         0	        N/A	    75.385	      17.7	         0	        N/A	       N/A	       N/A	       N/A	        N/A	       N/A	       N/A	       N/A	        N/A	       N/A	       N/A	       N/A	        N/A	       N/A	       N/A	       N/A	        N/A	       N/A	       N/A	       N/A	        N/A	
         R10	    255	    75.385	      17.7	         0	        N/A	   75.6028	      17.7	         0	        N/A	   75.8205	      17.7	         0	        N/A	       N/A	       N/A	       N/A	        N/A	       N/A	       N/A	       N/A	        N/A	       N/A	       N/A	       N/A	        N/A	       N/A	       N/A	       N/A	        N/A	       N/A	       N/A	       N/A	        N/A	
         R10	    256	   75.8205	      17.7	         0	        N/A	   76.0064	      17.7	         0	        N/A	   76.1922	      17.7	         0	        N/A	       N/A	       N/A	       N/A	        N/A	       N/A	       N/A	       N/A	        N/A	       N/A	       N/A	       N/A	        N/A	       N/A	       N/A	       N/A	        N/A	       N/A	       N/A	       N/A	        N/A	
         R10	    257	   76.1922	      17.7	         0	        N/A	   76.3461	      17.7	         0	        N/A	      76.5	      17.7	         0	        N/A	       N/A	       N/A	       N/A	        N/A	       N/A	       N/A	       N/A	        N/A	       N/A	       N/A	       N/A	        N/A	       N/A	       N/A	       N/A	        N/A	       N/A	       N/A	       N/A	        N/A	
         R10	    258	      76.5	      17.7	         0	        N/A	   76.6725	      17.7	         0	        N/A	    76.845	      17.7	         0	        N/A	       N/A	       N/A	       N/A	        N/A	       N/A	       N/A	       N/A	        N/A	       N/A	       N/A	       N/A	        N/A	       N/A	       N/A	       N/A	        N/A	       N/A	       N/A	       N/A	        N/A	
         R10	    259	    76.845	      17.7	         0	        N/A	   77.0374	      17.7	         0	        N/A	   77.2299	      17.7	         0	        N/A	       N/A	       N/A	       N/A	        N/A	       N/A	       N/A	       N/A	        N/A	       N/A	       N/A	       N/A	        N/A	       N/A	       N/A	       N/A	        N/A	       N/A	       N/A	       N/A	        N/A	
         R10	    260	   77.2299	      17.7	         0	        N/A	   77.4424	      17.7	         0	        N/A	   77.6549	      17.7	         0	        N/A	       N/A	       N/A	       N/A	        N/A	       N/A	       N/A	       N/A	        N/A	       N/A	       N/A	       N/A	        N/A	       N/A	       N/A	       N/A	        N/A	       N/A	       N/A	       N/A	        N/A	
         R10	    261	   77.6549	      17.7	         0	        N/A	   77.8874	      17.7	         0	        N/A	     78.12	      17.7	         0	        N/A	       N/A	       N/A	       N/A	        N/A	       N/A	       N/A	       N/A	        N/A	       N/A	       N/A	       N/A	        N/A	       N/A	       N/A	       N/A	        N/A	       N/A	       N/A	       N/A	        N/A	
         R10	    262	     78.12	      17.7	         0	        N/A	   78.3725	      17.7	         0	        N/A	    78.625	      17.7	         0	        N/A	       N/A	       N/A	       N/A	        N/A	       N/A	       N/A	       N/A	        N/A	       N/A	       N/A	       N/A	        N/A	       N/A	       N/A	       N/A	        N/A	       N/A	       N/A	       N/A	        N/A	
         R10	    263	     72.25	     14.45	         0	        N/A	   72.7001	     14.45	         0	        N/A	   73.1501	     14.45	         0	        N/A	       N/A	       N/A	       N/A	        N/A	       N/A	       N/A	       N/A	        N/A	       N/A	       N/A	       N/A	        N/A	       N/A	       N/A	       N/A	        N/A	       N/A	       N/A	       N/A	        N/A	
         R10	    264	   73.1501	     14.45	         0	        N/A	   73.5514	     14.45	         0	        N/A	   73.9526	     14.45	         0	        N/A	       N/A	       N/A	       N/A	        N/A	       N/A	       N/A	       N/A	        N/A	       N/A	       N/A	       N/A	        N/A	       N/A	       N/A	       N/A	        N/A	       N/A	       N/A	       N/A	        N/A	
         R10	    265	   73.9526	     14.45	         0	        N/A	    74.305	     14.45	         0	        N/A	   74.6574	     14.45	         0	        N/A	       N/A	       N/A	       N/A	        N/A	       N/A	       N/A	       N/A	        N/A	       N/A	       N/A	       N/A	        N/A	       N/A	       N/A	       N/A	        N/A	       N/A	       N/A	       N/A	        N/A	
         R10	    266	   74.6574	     14.45	         0	        N/A	    74.961	     14.45	         0	        N/A	   75.2646	     14.45	         0	        N/A	       N/A	       N/A	       N/A	        N/A	       N/A	       N/A	       N/A	        N/A	       N/A	       N/A	       N/A	        N/A	       N/A	       N/A	       N/A	        N/A	       N/A	       N/A	       N/A	        N/A	
         R10	    267	   75.2646	     14.45	         0	        N/A	   75.5193	     14.45	         0	        N/A	   75.7741	     14.45	         0	        N/A	       N/A	       N/A	       N/A	        N/A	       N/A	       N/A	       N/A	        N/A	       N/A	       N/A	       N/A	        N/A	       N/A	       N/A	       N/A	        N/A	       N/A	       N/A	       N/A	        N/A	
         R10	    268	   75.7741	     14.45	         0	        N/A	     75.98	     14.45	         0	        N/A	   76.1859	     14.45	         0	        N/A	       N/A	       N/A	       N/A	        N/A	       N/A	       N/A	       N/A	        N/A	       N/A	       N/A	       N/A	        N/A	       N/A	       N/A	       N/A	        N/A	       N/A	       N/A	       N/A	        N/A	
         R10	    269	   76.1859	     14.45	         0	        N/A	   76.3429	     14.45	         0	        N/A	      76.5	     14.45	         0	        N/A	       N/A	       N/A	       N/A	        N/A	       N/A	       N/A	       N/A	        N/A	       N/A	       N/A	       N/A	        N/A	       N/A	       N/A	       N/A	        N/A	       N/A	       N/A	       N/A	        N/A	
         R10	    270	      76.5	     14.45	         0	        N/A	   76.6437	     14.45	         0	        N/A	   76.7875	     14.45	         0	        N/A	       N/A	       N/A	       N/A	        N/A	       N/A	       N/A	       N/A	        N/A	       N/A	       N/A	       N/A	        N/A	       N/A	       N/A	       N/A	        N/A	       N/A	       N/A	       N/A	        N/A	
         R10	    271	   76.7875	     14.45	         0	        N/A	   76.9445	     14.45	         0	        N/A	   77.1016	     14.45	         0	        N/A	       N/A	       N/A	       N/A	        N/A	       N/A	       N/A	       N/A	        N/A	       N/A	       N/A	       N/A	        N/A	       N/A	       N/A	       N/A	        N/A	       N/A	       N/A	       N/A	        N/A	
         R10	    272	   77.1016	     14.45	         0	        N/A	    77.272	     14.45	         0	        N/A	   77.4424	     14.45	         0	        N/A	       N/A	       N/A	       N/A	        N/A	       N/A	       N/A	       N/A	        N/A	       N/A	       N/A	       N/A	        N/A	       N/A	       N/A	       N/A	        N/A	       N/A	       N/A	       N/A	        N/A	
         R10	    273	   77.4424	     14.45	         0	        N/A	   77.6262	     14.45	         0	        N/A	   77.8099	     14.45	         0	        N/A	       N/A	       N/A	       N/A	        N/A	       N/A	       N/A	       N/A	        N/A	       N/A	       N/A	       N/A	        N/A	       N/A	       N/A	       N/A	        N/A	       N/A	       N/A	       N/A	        N/A	
         R10	    274	   77.8099	     14.45	         0	        N/A	    78.007	     14.45	         0	        N/A	   78.2041	     14.45	         0	        N/A	       N/A	       N/A	       N/A	        N/A	       N/A	       N/A	       N/A	        N/A	       N/A	       N/A	       N/A	        N/A	       N/A	       N/A	       N/A	        N/A	       N/A	       N/A	       N/A	        N/A	
         R10	    275	   78.2041	     14.45	         0	        N/A	   78.4146	     14.45	         0	        N/A	    78.625	     14.45	         0	        N/A	       N/A	       N/A	       N/A	        N/A	       N/A	       N/A	       N/A	        N/A	       N/A	       N/A	       N/A	        N/A	       N/A	       N/A	       N/A	        N/A	       N/A	       N/A	       N/A	        N/A	
         R10	    276	     72.25	      16.9	         0	        N/A	   72.6376	      16.9	         0	        N/A	   73.0251	      16.9	         0	        N/A	       N/A	       N/A	       N/A	        N/A	       N/A	       N/A	       N/A	        N/A	       N/A	       N/A	       N/A	        N/A	       N/A	       N/A	       N/A	        N/A	       N/A	       N/A	       N/A	        N/A	
         R10	    277	   73.0251	      16.9	         0	        N/A	   73.3778	      16.9	         0	        N/A	   73.7305	      16.9	         0	        N/A	       N/A	       N/A	       N/A	        N/A	       N/A	       N/A	       N/A	        N/A	       N/A	       N/A	       N/A	        N/A	       N/A	       N/A	       N/A	        N/A	       N/A	       N/A	       N/A	        N/A	
         R10	    278	   73.7305	      16.9	         0	        N/A	   74.0484	      16.9	         0	        N/A	   74.3663	      16.9	         0	        N/A	       N/A	       N/A	       N/A	        N/A	       N/A	       N/A	       N/A	        N/A	       N/A	       N/A	       N/A	        N/A	       N/A	       N/A	       N/A	        N/A	       N/A	       N/A	       N/A	        N/A	
         R10	    279	   74.3663	      16.9	         0	        N/A	   74.6493	      16.9	         0	        N/A	   74.9324	      16.9	         0	        N/A	       N/A	       N/A	       N/A	        N/A	       N/A	       N/A	       N/A	        N/A	       N/A	       N/A	       N/A	        N/A	       N/A	       N/A	       N/A	        N/A	       N/A	       N/A	       N/A	        N/A	
         R10	    280	   74.9324	      16.9	         0	        N/A	   75.1806	      16.9	         0	        N/A	   75.4288	      16.9	         0	        N/A	       N/A	       N/A	       N/A	        N/A	       N/A	       N/A	       N/A	        N/A	       N/A	       N/A	       N/A	        N/A	       N/A	       N/A	       N/A	        N/A	       N/A	       N/A	       N/A	        N/A	
         R10	    281	   75.4288	      16.9	         0	        N/A	   75.6422	      16.9	         0	        N/A	   75.8555	      16.9	         0	        N/A	       N/A	       N/A	       N/A	        N/A	       N/A	       N/A	       N/A	        N/A	       N/A	       N/A	       N/A	        N/A	       N/A	       N/A	       N/A	        N/A	       N/A	       N/A	       N/A	        N/A	
         R10	    282	   75.8555	      16.9	         0	        N/A	   76.0341	      16.9	         0	        N/A	   76.2126	      16.9	         0	        N/A	       N/A	       N/A	       N/A	        N/A	       N/A	       N/A	       N/A	        N/A	       N/A	       N/A	       N/A	        N/A	       N/A	       N/A	       N/A	        N/A	       N/A	       N/A	       N/A	        N/A	
         R10	    283	   76.2126	      16.9	         0	        N/A	   76.3563	      16.9	         0	        N/A	      76.5	      16.9	         0	        N/A	       N/A	       N/A	       N/A	        N/A	       N/A	       N/A	       N/A	        N/A	       N/A	       N/A	       N/A	        N/A	       N/A	       N/A	       N/A	        N/A	       N/A	       N/A	       N/A	        N/A	
         R10	    284	      76.5	      16.9	         0	        N/A	   76.6437	      16.9	         0	        N/A	   76.7875	      16.9	         0	        N/A	       N/A	       N/A	       N/A	        N/A	       N/A	       N/A	       N/A	        N/A	       N/A	       N/A	       N/A	        N/A	       N/A	       N/A	       N/A	        N/A	       N/A	       N/A	       N/A	        N/A	
         R10	    285	   76.7875	      16.9	         0	        N/A	   76.9445	      16.9	         0	        N/A	   77.1016	      16.9	         0	        N/A	       N/A	       N/A	       N/A	        N/A	       N/A	       N/A	       N/A	        N/A	       N/A	       N/A	       N/A	        N/A	       N/A	       N/A	       N/A	        N/A	       N/A	       N/A	       N/A	        N/A	
         R10	    286	   77.1016	      16.9	         0	        N/A	    77.272	      16.9	         0	        N/A	   77.4424	      16.9	         0	        N/A	       N/A	       N/A	       N/A	        N/A	       N/A	       N/A	       N/A	        N/A	       N/A	       N/A	       N/A	        N/A	       N/A	       N/A	       N/A	        N/A	       N/A	       N/A	       N/A	        N/A	
         R10	    287	   77.4424	      16.9	         0	        N/A	   77.6262	      16.9	         0	        N/A	   77.8099	      16.9	         0	        N/A	       N/A	       N/A	       N/A	        N/A	       N/A	       N/A	       N/A	        N/A	       N/A	       N/A	       N/A	        N/A	       N/A	       N/A	       N/A	        N/A	       N/A	       N/A	       N/A	        N/A	
         R10	    288	   77.8099	      16.9	         0	        N/A	    78.007	      16.9	         0	        N/A	   78.2041	      16.9	         0	        N/A	       N/A	       N/A	       N/A	        N/A	       N/A	       N/A	       N/A	        N/A	       N/A	       N/A	       N/A	        N/A	       N/A	       N/A	       N/A	        N/A	       N/A	       N/A	       N/A	        N/A	
         R10	    289	   78.2041	      16.9	         0	        N/A	   78.4146	      16.9	         0	        N/A	    78.625	      16.9	         0	        N/A	       N/A	       N/A	       N/A	        N/A	       N/A	       N/A	       N/A	        N/A	       N/A	       N/A	       N/A	        N/A	       N/A	       N/A	       N/A	        N/A	       N/A	       N/A	       N/A	        N/A	
         R10	    290	     72.25	      18.5	         0	        N/A	   72.4927	      18.5	         0	        N/A	   72.7354	      18.5	         0	        N/A	       N/A	       N/A	       N/A	        N/A	       N/A	       N/A	       N/A	        N/A	       N/A	       N/A	       N/A	        N/A	       N/A	       N/A	       N/A	        N/A	       N/A	       N/A	       N/A	        N/A	
         R10	    291	   72.7354	      18.5	         0	        N/A	   72.9714	      18.5	         0	        N/A	   73.2074	      18.5	         0	        N/A	       N/A	       N/A	       N/A	        N/A	       N/A	       N/A	       N/A	        N/A	       N/A	       N/A	       N/A	        N/A	       N/A	       N/A	       N/A	        N/A	       N/A	       N/A	       N/A	        N/A	
         R10	    292	   73.2074	      18.5	         0	        N/A	   73.4367	      18.5	         0	        N/A	   73.6659	      18.5	         0	        N/A	       N/A	       N/A	       N/A	        N/A	       N/A	       N/A	       N/A	        N/A	       N/A	       N/A	       N/A	        N/A	       N/A	       N/A	       N/A	        N/A	       N/A	       N/A	       N/A	        N/A	
         R10	    293	   73.6659	      18.5	         0	        N/A	   73.8885	      18.5	         0	        N/A	   74.1111	      18.5	         0	        N/A	       N/A	       N/A	       N/A	        N/A	       N/A	       N/A	       N/A	        N/A	       N/A	       N/A	       N/A	        N/A	       N/A	       N/A	       N/A	        N/A	       N/A	       N/A	       N/A	        N/A	
         R10	    294	   74.1111	      18.5	         0	        N/A	   74.3269	      18.5	         0	        N/A	   74.5428	      18.5	         0	        N/A	       N/A	       N/A	       N/A	        N/A	       N/A	       N/A	       N/A	        N/A	       N/A	       N/A	       N/A	        N/A	       N/A	       N/A	       N/A	        N/A	       N/A	       N/A	       N/A	        N/A	
         R10	    295	   74.5428	      18.5	         0	        N/A	   74.7519	      18.5	         0	        N/A	   74.9611	      18.5	         0	        N/A	       N/A	       N/A	       N/A	        N/A	       N/A	       N/A	       N/A	        N/A	       N/A	       N/A	       N/A	        N/A	       N/A	       N/A	       N/A	        N/A	       N/A	       N/A	       N/A	        N/A	
         R10	    296	   74.9611	      18.5	         0	        N/A	   75.1635	      18.5	         0	        N/A	   75.3659	      18.5	         0	        N/A	       N/A	       N/A	       N/A	        N/A	       N/A	       N/A	       N/A	        N/A	       N/A	       N/A	       N/A	        N/A	       N/A	       N/A	       N/A	        N/A	       N/A	       N/A	       N/A	        N/A	
         R10	    297	   75.3659	      18.5	         0	        N/A	   75.5617	      18.5	         0	        N/A	   75.7574	      18.5	         0	        N/A	       N/A	       N/A	       N/A	        N/A	       N/A	       N/A	       N/A	        N/A	       N/A	       N/A	       N/A	        N/A	       N/A	       N/A	       N/A	        N/A	       N/A	       N/A	       N/A	        N/A	
         R10	    298	   75.7574	      18.5	         0	        N/A	   75.9464	      18.5	         0	        N/A	   76.1354	      18.5	         0	        N/A	       N/A	       N/A	       N/A	        N/A	       N/A	       N/A	       N/A	        N/A	       N/A	       N/A	       N/A	        N/A	       N/A	       N/A	       N/A	        N/A	       N/A	       N/A	       N/A	        N/A	
         R10	    299	   76.1354	      18.5	         0	        N/A	   76.3177	      18.5	         0	        N/A	      76.5	      18.5	         0	        N/A	       N/A	       N/A	       N/A	        N/A	       N/A	       N/A	       N/A	        N/A	       N/A	       N/A	       N/A	        N/A	       N/A	       N/A	       N/A	        N/A	       N/A	       N/A	       N/A	        N/A	
         R10	    300	      76.5	      18.5	         0	        N/A	   76.6823	      18.5	         0	        N/A	   76.8646	      18.5	         0	        N/A	       N/A	       N/A	       N/A	        N/A	       N/A	       N/A	       N/A	        N/A	       N/A	       N/A	       N/A	        N/A	       N/A	       N/A	       N/A	        N/A	       N/A	       N/A	       N/A	        N/A	
         R10	    301	   76.8646	      18.5	         0	        N/A	    77.062	      18.5	         0	        N/A	   77.2594	      18.5	         0	        N/A	       N/A	       N/A	       N/A	        N/A	       N/A	       N/A	       N/A	        N/A	       N/A	       N/A	       N/A	        N/A	       N/A	       N/A	       N/A	        N/A	       N/A	       N/A	       N/A	        N/A	
         R10	    302	   77.2594	      18.5	         0	        N/A	   77.4719	      18.5	         0	        N/A	   77.6844	      18.5	         0	        N/A	       N/A	       N/A	       N/A	        N/A	       N/A	       N/A	       N/A	        N/A	       N/A	       N/A	       N/A	        N/A	       N/A	       N/A	       N/A	        N/A	       N/A	       N/A	       N/A	        N/A	
         R10	    303	   77.6844	      18.5	         0	        N/A	    77.912	      18.5	         0	        N/A	   78.1396	      18.5	         0	        N/A	       N/A	       N/A	       N/A	        N/A	       N/A	       N/A	       N/A	        N/A	       N/A	       N/A	       N/A	        N/A	       N/A	       N/A	       N/A	        N/A	       N/A	       N/A	       N/A	        N/A	
         R10	    304	   78.1396	      18.5	         0	        N/A	   78.3823	      18.5	         0	        N/A	    78.625	      18.5	         0	        N/A	       N/A	       N/A	       N/A	        N/A	       N/A	       N/A	       N/A	        N/A	       N/A	       N/A	       N/A	        N/A	       N/A	       N/A	       N/A	        N/A	       N/A	       N/A	       N/A	        N/A	
         R10	    305	     80.75	      10.2	       2.4	        N/A	   80.2188	      10.2	       2.4	        N/A	   79.6875	      10.2	       2.4	        N/A	       N/A	       N/A	       N/A	        N/A	       N/A	       N/A	       N/A	        N/A	       N/A	       N/A	       N/A	        N/A	       N/A	       N/A	       N/A	        N/A	       N/A	       N/A	       N/A	        N/A	
         R10	    306	   79.6875	      10.2	       2.4	        N/A	   79.1563	      10.2	       2.4	        N/A	    78.625	      10.2	       2.4	        N/A	       N/A	       N/A	       N/A	        N/A	       N/A	       N/A	       N/A	        N/A	       N/A	       N/A	       N/A	        N/A	       N/A	       N/A	       N/A	        N/A	       N/A	       N/A	       N/A	        N/A	
         R10	    307	     72.25	      19.3	         0	        N/A	   72.4625	      19.3	         0	        N/A	   72.6751	      19.3	         0	        N/A	       N/A	       N/A	       N/A	        N/A	       N/A	       N/A	       N/A	        N/A	       N/A	       N/A	       N/A	        N/A	       N/A	       N/A	       N/A	        N/A	       N/A	       N/A	       N/A	        N/A	
         R10	    308	   72.6751	      19.3	         0	        N/A	   72.8876	      19.3	         0	        N/A	   73.1001	      19.3	         0	        N/A	       N/A	       N/A	       N/A	        N/A	       N/A	       N/A	       N/A	        N/A	       N/A	       N/A	       N/A	        N/A	       N/A	       N/A	       N/A	        N/A	       N/A	       N/A	       N/A	        N/A	
         R10	    309	   73.1001	      19.3	         0	        N/A	   73.3126	      19.3	         0	        N/A	   73.5251	      19.3	         0	        N/A	       N/A	       N/A	       N/A	        N/A	       N/A	       N/A	       N/A	        N/A	       N/A	       N/A	       N/A	        N/A	       N/A	       N/A	       N/A	        N/A	       N/A	       N/A	       N/A	        N/A	
         R10	    310	   73.5251	      19.3	         0	        N/A	   73.7376	      19.3	         0	        N/A	   73.9501	      19.3	         0	        N/A	       N/A	       N/A	       N/A	        N/A	       N/A	       N/A	       N/A	        N/A	       N/A	       N/A	       N/A	        N/A	       N/A	       N/A	       N/A	        N/A	       N/A	       N/A	       N/A	        N/A	
         R10	    311	   73.9501	      19.3	         0	        N/A	   74.1627	      19.3	         0	        N/A	   74.3752	      19.3	         0	        N/A	       N/A	       N/A	       N/A	        N/A	       N/A	       N/A	       N/A	        N/A	       N/A	       N/A	       N/A	        N/A	       N/A	       N/A	       N/A	        N/A	       N/A	       N/A	       N/A	        N/A	
         R10	    312	   74.3752	      19.3	         0	        N/A	   74.5877	      19.3	         0	        N/A	   74.8001	      19.3	         0	        N/A	       N/A	       N/A	       N/A	        N/A	       N/A	       N/A	       N/A	        N/A	       N/A	       N/A	       N/A	        N/A	       N/A	       N/A	       N/A	        N/A	       N/A	       N/A	       N/A	        N/A	
         R10	    313	   74.8001	      19.3	         0	        N/A	   75.0126	      19.3	         0	        N/A	   75.2251	      19.3	         0	        N/A	       N/A	       N/A	       N/A	        N/A	       N/A	       N/A	       N/A	        N/A	       N/A	       N/A	       N/A	        N/A	       N/A	       N/A	       N/A	        N/A	       N/A	       N/A	       N/A	        N/A	
         R10	    314	   75.2251	      19.3	         0	        N/A	   75.4376	      19.3	         0	        N/A	   75.6501	      19.3	         0	        N/A	       N/A	       N/A	       N/A	        N/A	       N/A	       N/A	       N/A	        N/A	       N/A	       N/A	       N/A	        N/A	       N/A	       N/A	       N/A	        N/A	       N/A	       N/A	       N/A	        N/A	
         R10	    315	   75.6501	      19.3	         0	        N/A	   75.8626	      19.3	         0	        N/A	   76.0751	      19.3	         0	        N/A	       N/A	       N/A	       N/A	        N/A	       N/A	       N/A	       N/A	        N/A	       N/A	       N/A	       N/A	        N/A	       N/A	       N/A	       N/A	        N/A	       N/A	       N/A	       N/A	        N/A	
         R10	    316	   76.0751	      19.3	         0	        N/A	   76.2875	      19.3	         0	        N/A	      76.5	      19.3	         0	        N/A	       N/A	       N/A	       N/A	        N/A	       N/A	       N/A	       N/A	        N/A	       N/A	       N/A	       N/A	        N/A	       N/A	       N/A	       N/A	        N/A	       N/A	       N/A	       N/A	        N/A	
         R10	    317	      76.5	      19.3	         0	        N/A	   76.7125	      19.3	         0	        N/A	   76.9249	      19.3	         0	        N/A	       N/A	       N/A	       N/A	        N/A	       N/A	       N/A	       N/A	        N/A	       N/A	       N/A	       N/A	        N/A	       N/A	       N/A	       N/A	        N/A	       N/A	       N/A	       N/A	        N/A	
         R10	    318	   76.9249	      19.3	         0	        N/A	   77.1374	      19.3	         0	        N/A	   77.3499	      19.3	         0	        N/A	       N/A	       N/A	       N/A	        N/A	       N/A	       N/A	       N/A	        N/A	       N/A	       N/A	       N/A	        N/A	       N/A	       N/A	       N/A	        N/A	       N/A	       N/A	       N/A	        N/A	
         R10	    319	   77.3499	      19.3	         0	        N/A	   77.5624	      19.3	         0	        N/A	   77.7749	      19.3	         0	        N/A	       N/A	       N/A	       N/A	        N/A	       N/A	       N/A	       N/A	        N/A	       N/A	       N/A	       N/A	        N/A	       N/A	       N/A	       N/A	        N/A	       N/A	       N/A	       N/A	        N/A	
         R10	    320	   77.7749	      19.3	         0	        N/A	   77.9874	      19.3	         0	        N/A	   78.1999	      19.3	         0	        N/A	       N/A	       N/A	       N/A	        N/A	       N/A	       N/A	       N/A	        N/A	       N/A	       N/A	       N/A	        N/A	       N/A	       N/A	       N/A	        N/A	       N/A	       N/A	       N/A	        N/A	
         R10	    321	   78.1999	      19.3	         0	        N/A	   78.4125	      19.3	         0	        N/A	    78.625	      19.3	         0	        N/A	       N/A	       N/A	       N/A	        N/A	       N/A	       N/A	       N/A	        N/A	       N/A	       N/A	       N/A	        N/A	       N/A	       N/A	       N/A	        N/A	       N/A	       N/A	       N/A	        N/A	
         R10	    322	     72.25	      21.5	      2.25	        N/A	   72.4861	      21.5	      2.25	        N/A	   72.7222	      21.5	      2.25	        N/A	       N/A	       N/A	       N/A	        N/A	       N/A	       N/A	       N/A	        N/A	       N/A	       N/A	       N/A	        N/A	       N/A	       N/A	       N/A	        N/A	       N/A	       N/A	       N/A	        N/A	
         R10	    323	   72.7222	      21.5	      2.25	        N/A	   72.9583	      21.5	      2.25	        N/A	   73.1944	      21.5	      2.25	        N/A	       N/A	       N/A	       N/A	        N/A	       N/A	       N/A	       N/A	        N/A	       N/A	       N/A	       N/A	        N/A	       N/A	       N/A	       N/A	        N/A	       N/A	       N/A	       N/A	        N/A	
         R10	    324	   73.1944	      21.5	      2.25	        N/A	   73.4306	      21.5	      2.25	        N/A	   73.6667	      21.5	      2.25	        N/A	       N/A	       N/A	       N/A	        N/A	       N/A	       N/A	       N/A	        N/A	       N/A	       N/A	       N/A	        N/A	       N/A	       N/A	       N/A	        N/A	       N/A	       N/A	       N/A	        N/A	
         R10	    325	   73.6667	      21.5	      2.25	        N/A	   73.9028	      21.5	      2.25	        N/A	   74.1389	      21.5	      2.25	        N/A	       N/A	       N/A	       N/A	        N/A	       N/A	       N/A	       N/A	        N/A	       N/A	       N/A	       N/A	        N/A	       N/A	       N/A	       N/A	        N/A	       N/A	       N/A	       N/A	        N/A	
         R10	    326	   74.1389	      21.5	      2.25	        N/A	    74.375	      21.5	      2.25	        N/A	   74.6111	      21.5	      2.25	        N/A	       N/A	       N/A	       N/A	        N/A	       N/A	       N/A	       N/A	        N/A	       N/A	       N/A	       N/A	        N/A	       N/A	       N/A	       N/A	        N/A	       N/A	       N/A	       N/A	        N/A	
         R10	    327	   74.6111	      21.5	      2.25	        N/A	   74.8472	      21.5	      2.25	        N/A	   75.0833	      21.5	      2.25	        N/A	       N/A	       N/A	       N/A	        N/A	       N/A	       N/A	       N/A	        N/A	       N/A	       N/A	       N/A	        N/A	       N/A	       N/A	       N/A	        N/A	       N/A	       N/A	       N/A	        N/A	
         R10	    328	   75.0833	      21.5	      2.25	        N/A	   75.3194	      21.5	      2.25	        N/A	   75.5556	      21.5	      2.25	        N/A	       N/A	       N/A	       N/A	        N/A	       N/A	       N/A	       N/A	        N/A	       N/A	       N/A	       N/A	        N/A	       N/A	       N/A	       N/A	        N/A	       N/A	       N/A	       N/A	        N/A	
         R10	    329	   75.5556	      21.5	      2.25	        N/A	   75.7917	      21.5	      2.25	        N/A	   76.0278	      21.5	      2.25	        N/A	       N/A	       N/A	       N/A	        N/A	       N/A	       N/A	       N/A	        N/A	       N/A	       N/A	       N/A	        N/A	       N/A	       N/A	       N/A	        N/A	       N/A	       N/A	       N/A	        N/A	
         R10	    330	   76.0278	      21.5	      2.25	        N/A	   76.2639	      21.5	      2.25	        N/A	      76.5	      21.5	      2.25	        N/A	       N/A	       N/A	       N/A	        N/A	       N/A	       N/A	       N/A	        N/A	       N/A	       N/A	       N/A	        N/A	       N/A	       N/A	       N/A	        N/A	       N/A	       N/A	       N/A	        N/A	
         R10	    331	      76.5	      21.5	      2.25	        N/A	   76.7656	      21.5	      2.25	        N/A	   77.0313	      21.5	      2.25	        N/A	       N/A	       N/A	       N/A	        N/A	       N/A	       N/A	       N/A	        N/A	       N/A	       N/A	       N/A	        N/A	       N/A	       N/A	       N/A	        N/A	       N/A	       N/A	       N/A	        N/A	
         R10	    332	   77.0313	      21.5	      2.25	        N/A	   77.2969	      21.5	      2.25	        N/A	   77.5625	      21.5	      2.25	        N/A	       N/A	       N/A	       N/A	        N/A	       N/A	       N/A	       N/A	        N/A	       N/A	       N/A	       N/A	        N/A	       N/A	       N/A	       N/A	        N/A	       N/A	       N/A	       N/A	        N/A	
         R10	    333	   77.5625	      21.5	      2.25	        N/A	   77.8281	      21.5	      2.25	        N/A	   78.0938	      21.5	      2.25	        N/A	       N/A	       N/A	       N/A	        N/A	       N/A	       N/A	       N/A	        N/A	       N/A	       N/A	       N/A	        N/A	       N/A	       N/A	       N/A	        N/A	       N/A	       N/A	       N/A	        N/A	
         R10	    334	   78.0938	      21.5	      2.25	        N/A	   78.3594	      21.5	      2.25	        N/A	    78.625	      21.5	      2.25	        N/A	       N/A	       N/A	       N/A	        N/A	       N/A	       N/A	       N/A	        N/A	       N/A	       N/A	       N/A	        N/A	       N/A	       N/A	       N/A	        N/A	       N/A	       N/A	       N/A	        N/A	
         R10	    335	     72.25	      21.5	         3	        N/A	   72.5156	      21.5	         3	        N/A	   72.7813	      21.5	         3	        N/A	       N/A	       N/A	       N/A	        N/A	       N/A	       N/A	       N/A	        N/A	       N/A	       N/A	       N/A	        N/A	       N/A	       N/A	       N/A	        N/A	       N/A	       N/A	       N/A	        N/A	
         R10	    336	   72.7813	      21.5	         3	        N/A	   73.0469	      21.5	         3	        N/A	   73.3125	      21.5	         3	        N/A	       N/A	       N/A	       N/A	        N/A	       N/A	       N/A	       N/A	        N/A	       N/A	       N/A	       N/A	        N/A	       N/A	       N/A	       N/A	        N/A	       N/A	       N/A	       N/A	        N/A	
         R10	    337	   73.3125	      21.5	         3	        N/A	   73.5781	      21.5	         3	        N/A	   73.8438	      21.5	         3	        N/A	       N/A	       N/A	       N/A	        N/A	       N/A	       N/A	       N/A	        N/A	       N/A	       N/A	       N/A	        N/A	       N/A	       N/A	       N/A	        N/A	       N/A	       N/A	       N/A	        N/A	
         R10	    338	   73.8438	      21.5	         3	        N/A	   74.1094	      21.5	         3	        N/A	    74.375	      21.5	         3	        N/A	       N/A	       N/A	       N/A	        N/A	       N/A	       N/A	       N/A	        N/A	       N/A	       N/A	       N/A	        N/A	       N/A	       N/A	       N/A	        N/A	       N/A	       N/A	       N/A	        N/A	
         R10	    339	    74.375	      21.5	         3	        N/A	   74.6406	      21.5	         3	        N/A	   74.9063	      21.5	         3	        N/A	       N/A	       N/A	       N/A	        N/A	       N/A	       N/A	       N/A	        N/A	       N/A	       N/A	       N/A	        N/A	       N/A	       N/A	       N/A	        N/A	       N/A	       N/A	       N/A	        N/A	
         R10	    340	   74.9063	      21.5	         3	        N/A	   75.1719	      21.5	         3	        N/A	   75.4375	      21.5	         3	        N/A	       N/A	       N/A	       N/A	        N/A	       N/A	       N/A	       N/A	        N/A	       N/A	       N/A	       N/A	        N/A	       N/A	       N/A	       N/A	        N/A	       N/A	       N/A	       N/A	        N/A	
         R10	    341	   75.4375	      21.5	         3	        N/A	   75.7031	      21.5	         3	        N/A	   75.9688	      21.5	         3	        N/A	       N/A	       N/A	       N/A	        N/A	       N/A	       N/A	       N/A	        N/A	       N/A	       N/A	       N/A	        N/A	       N/A	       N/A	       N/A	        N/A	       N/A	       N/A	       N/A	        N/A	
         R10	    342	   75.9688	      21.5	         3	        N/A	   76.2344	      21.5	         3	        N/A	      76.5	      21.5	         3	        N/A	       N/A	       N/A	       N/A	        N/A	       N/A	       N/A	       N/A	        N/A	       N/A	       N/A	       N/A	        N/A	       N/A	       N/A	       N/A	        N/A	       N/A	       N/A	       N/A	        N/A	
         R10	    343	      76.5	      21.5	         3	        N/A	   76.7656	      21.5	         3	        N/A	   77.0313	      21.5	         3	        N/A	       N/A	       N/A	       N/A	        N/A	       N/A	       N/A	       N/A	        N/A	       N/A	       N/A	       N/A	        N/A	       N/A	       N/A	       N/A	        N/A	       N/A	       N/A	       N/A	        N/A	
         R10	    344	   77.0313	      21.5	         3	        N/A	   77.2969	      21.5	         3	        N/A	   77.5625	      21.5	         3	        N/A	       N/A	       N/A	       N/A	        N/A	       N/A	       N/A	       N/A	        N/A	       N/A	       N/A	       N/A	        N/A	       N/A	       N/A	       N/A	        N/A	       N/A	       N/A	       N/A	        N/A	
         R10	    345	   77.5625	      21.5	         3	        N/A	   77.8281	      21.5	         3	        N/A	   78.0938	      21.5	         3	        N/A	       N/A	       N/A	       N/A	        N/A	       N/A	       N/A	       N/A	        N/A	       N/A	       N/A	       N/A	        N/A	       N/A	       N/A	       N/A	        N/A	       N/A	       N/A	       N/A	        N/A	
         R10	    346	   78.0938	      21.5	         3	        N/A	   78.3594	      21.5	         3	        N/A	    78.625	      21.5	         3	        N/A	       N/A	       N/A	       N/A	        N/A	       N/A	       N/A	       N/A	        N/A	       N/A	       N/A	       N/A	        N/A	       N/A	       N/A	       N/A	        N/A	       N/A	       N/A	       N/A	        N/A	
         R10	    347	     72.25	      21.5	      3.75	        N/A	   72.5576	      21.5	      3.75	        N/A	   72.8652	      21.5	      3.75	        N/A	       N/A	       N/A	       N/A	        N/A	       N/A	       N/A	       N/A	        N/A	       N/A	       N/A	       N/A	        N/A	       N/A	       N/A	       N/A	        N/A	       N/A	       N/A	       N/A	        N/A	
         R10	    348	   72.8652	      21.5	      3.75	        N/A	   73.1714	      21.5	      3.75	        N/A	   73.4777	      21.5	      3.75	        N/A	       N/A	       N/A	       N/A	        N/A	       N/A	       N/A	       N/A	        N/A	       N/A	       N/A	       N/A	        N/A	       N/A	       N/A	       N/A	        N/A	       N/A	       N/A	       N/A	        N/A	
         R10	    349	   73.4777	      21.5	      3.75	        N/A	   73.7826	      21.5	      3.75	        N/A	   74.0875	      21.5	      3.75	        N/A	       N/A	       N/A	       N/A	        N/A	       N/A	       N/A	       N/A	        N/A	       N/A	       N/A	       N/A	        N/A	       N/A	       N/A	       N/A	        N/A	       N/A	       N/A	       N/A	        N/A	
         R10	    350	   74.0875	      21.5	      3.75	        N/A	   74.3911	      21.5	      3.75	        N/A	   74.6946	      21.5	      3.75	        N/A	       N/A	       N/A	       N/A	        N/A	       N/A	       N/A	       N/A	        N/A	       N/A	       N/A	       N/A	        N/A	       N/A	       N/A	       N/A	        N/A	       N/A	       N/A	       N/A	        N/A	
         R10	    351	   74.6946	      21.5	      3.75	        N/A	   74.9969	      21.5	      3.75	        N/A	   75.2991	      21.5	      3.75	        N/A	       N/A	       N/A	       N/A	        N/A	       N/A	       N/A	       N/A	        N/A	       N/A	       N/A	       N/A	        N/A	       N/A	       N/A	       N/A	        N/A	       N/A	       N/A	       N/A	        N/A	
         R10	    352	   75.2991	      21.5	      3.75	        N/A	      75.6	      21.5	      3.75	        N/A	   75.9009	      21.5	      3.75	        N/A	       N/A	       N/A	       N/A	        N/A	       N/A	       N/A	       N/A	        N/A	       N/A	       N/A	       N/A	        N/A	       N/A	       N/A	       N/A	        N/A	       N/A	       N/A	       N/A	        N/A	
         R10	    353	   75.9009	      21.5	      3.75	        N/A	   76.2004	      21.5	      3.75	        N/A	      76.5	      21.5	      3.75	        N/A	       N/A	       N/A	       N/A	        N/A	       N/A	       N/A	       N/A	        N/A	       N/A	       N/A	       N/A	        N/A	       N/A	       N/A	       N/A	        N/A	       N/A	       N/A	       N/A	        N/A	
         R10	    354	      76.5	      21.5	      3.75	        N/A	   76.7621	      21.5	      3.75	        N/A	   77.0242	      21.5	      3.75	        N/A	       N/A	       N/A	       N/A	        N/A	       N/A	       N/A	       N/A	        N/A	       N/A	       N/A	       N/A	        N/A	       N/A	       N/A	       N/A	        N/A	       N/A	       N/A	       N/A	        N/A	
         R10	    355	   77.0242	      21.5	      3.75	        N/A	   77.2887	      21.5	      3.75	        N/A	   77.5531	      21.5	      3.75	        N/A	       N/A	       N/A	       N/A	        N/A	       N/A	       N/A	       N/A	        N/A	       N/A	       N/A	       N/A	        N/A	       N/A	       N/A	       N/A	        N/A	       N/A	       N/A	       N/A	        N/A	
         R10	    356	   77.5531	      21.5	      3.75	        N/A	   77.8199	      21.5	      3.75	        N/A	   78.0867	      21.5	      3.75	        N/A	       N/A	       N/A	       N/A	        N/A	       N/A	       N/A	       N/A	        N/A	       N/A	       N/A	       N/A	        N/A	       N/A	       N/A	       N/A	        N/A	       N/A	       N/A	       N/A	        N/A	
         R10	    357	   78.0867	      21.5	      3.75	        N/A	   78.3559	      21.5	      3.75	        N/A	    78.625	      21.5	      3.75	        N/A	       N/A	       N/A	       N/A	        N/A	       N/A	       N/A	       N/A	        N/A	       N/A	       N/A	       N/A	        N/A	       N/A	       N/A	       N/A	        N/A	       N/A	       N/A	       N/A	        N/A	
         R10	    358	     72.25	      21.5	       4.5	        N/A	   72.5864	      21.5	       4.5	        N/A	   72.9228	      21.5	       4.5	        N/A	       N/A	       N/A	       N/A	        N/A	       N/A	       N/A	       N/A	        N/A	       N/A	       N/A	       N/A	        N/A	       N/A	       N/A	       N/A	        N/A	       N/A	       N/A	       N/A	        N/A	
         R10	    359	   72.9228	      21.5	       4.5	        N/A	   73.2482	      21.5	       4.5	        N/A	   73.5737	      21.5	       4.5	        N/A	       N/A	       N/A	       N/A	        N/A	       N/A	       N/A	       N/A	        N/A	       N/A	       N/A	       N/A	        N/A	       N/A	       N/A	       N/A	        N/A	       N/A	       N/A	       N/A	        N/A	
         R10	    360	   73.5737	      21.5	       4.5	        N/A	   73.8882	      21.5	       4.5	        N/A	   74.2027	      21.5	       4.5	        N/A	       N/A	       N/A	       N/A	        N/A	       N/A	       N/A	       N/A	        N/A	       N/A	       N/A	       N/A	        N/A	       N/A	       N/A	       N/A	        N/A	       N/A	       N/A	       N/A	        N/A	
         R10	    361	   74.2027	      21.5	       4.5	        N/A	   74.5063	      21.5	       4.5	        N/A	   74.8099	      21.5	       4.5	        N/A	       N/A	       N/A	       N/A	        N/A	       N/A	       N/A	       N/A	        N/A	       N/A	       N/A	       N/A	        N/A	       N/A	       N/A	       N/A	        N/A	       N/A	       N/A	       N/A	        N/A	
         R10	    362	   74.8099	      21.5	       4.5	        N/A	   75.1025	      21.5	       4.5	        N/A	   75.3951	      21.5	       4.5	        N/A	       N/A	       N/A	       N/A	        N/A	       N/A	       N/A	       N/A	        N/A	       N/A	       N/A	       N/A	        N/A	       N/A	       N/A	       N/A	        N/A	       N/A	       N/A	       N/A	        N/A	
         R10	    363	   75.3951	      21.5	       4.5	        N/A	   75.6768	      21.5	       4.5	        N/A	   75.9585	      21.5	       4.5	        N/A	       N/A	       N/A	       N/A	        N/A	       N/A	       N/A	       N/A	        N/A	       N/A	       N/A	       N/A	        N/A	       N/A	       N/A	       N/A	        N/A	       N/A	       N/A	       N/A	        N/A	
         R10	    364	   75.9585	      21.5	       4.5	        N/A	   76.2292	      21.5	       4.5	        N/A	      76.5	      21.5	       4.5	        N/A	       N/A	       N/A	       N/A	        N/A	       N/A	       N/A	       N/A	        N/A	       N/A	       N/A	       N/A	        N/A	       N/A	       N/A	       N/A	        N/A	       N/A	       N/A	       N/A	        N/A	
         R10	    365	      76.5	      21.5	       4.5	        N/A	   76.7369	      21.5	       4.5	        N/A	   76.9738	      21.5	       4.5	        N/A	       N/A	       N/A	       N/A	        N/A	       N/A	       N/A	       N/A	        N/A	       N/A	       N/A	       N/A	        N/A	       N/A	       N/A	       N/A	        N/A	       N/A	       N/A	       N/A	        N/A	
         R10	    366	   76.9738	      21.5	       4.5	        N/A	   77.2299	      21.5	       4.5	        N/A	   77.4859	      21.5	       4.5	        N/A	       N/A	       N/A	       N/A	        N/A	       N/A	       N/A	       N/A	        N/A	       N/A	       N/A	       N/A	        N/A	       N/A	       N/A	       N/A	        N/A	       N/A	       N/A	       N/A	        N/A	
         R10	    367	   77.4859	      21.5	       4.5	        N/A	   77.7611	      21.5	       4.5	        N/A	   78.0363	      21.5	       4.5	        N/A	       N/A	       N/A	       N/A	        N/A	       N/A	       N/A	       N/A	        N/A	       N/A	       N/A	       N/A	        N/A	       N/A	       N/A	       N/A	        N/A	       N/A	       N/A	       N/A	        N/A	
         R10	    368	   78.0363	      21.5	       4.5	        N/A	   78.3307	      21.5	       4.5	        N/A	    78.625	      21.5	       4.5	        N/A	       N/A	       N/A	       N/A	        N/A	       N/A	       N/A	       N/A	        N/A	       N/A	       N/A	       N/A	        N/A	       N/A	       N/A	       N/A	        N/A	       N/A	       N/A	       N/A	        N/A	
         R10	    369	      76.5	   19.5952	       7.7	        N/A	      76.5	   19.2976	       7.7	        N/A	      76.5	        19	       7.7	        N/A	       N/A	       N/A	       N/A	        N/A	       N/A	       N/A	       N/A	        N/A	       N/A	       N/A	       N/A	        N/A	       N/A	       N/A	       N/A	        N/A	       N/A	       N/A	       N/A	        N/A	
         R10	    370	      76.5	   20.2103	       7.7	        N/A	      76.5	   19.9028	       7.7	        N/A	      76.5	   19.5952	       7.7	        N/A	       N/A	       N/A	       N/A	        N/A	       N/A	       N/A	       N/A	        N/A	       N/A	       N/A	       N/A	        N/A	       N/A	       N/A	       N/A	        N/A	       N/A	       N/A	       N/A	        N/A	
         R10	    371	      76.5	   20.8452	       7.7	        N/A	      76.5	   20.5278	       7.7	        N/A	      76.5	   20.2103	       7.7	        N/A	       N/A	       N/A	       N/A	        N/A	       N/A	       N/A	       N/A	        N/A	       N/A	       N/A	       N/A	        N/A	       N/A	       N/A	       N/A	        N/A	       N/A	       N/A	       N/A	        N/A	
         R10	    372	      76.5	      21.5	       7.7	        N/A	      76.5	   21.1726	       7.7	        N/A	      76.5	   20.8452	       7.7	        N/A	       N/A	       N/A	       N/A	        N/A	       N/A	       N/A	       N/A	        N/A	       N/A	       N/A	       N/A	        N/A	       N/A	       N/A	       N/A	        N/A	       N/A	       N/A	       N/A	        N/A	
         R10	    373	      76.5	   19.4762	      6.85	        N/A	      76.5	   19.2381	      6.85	        N/A	      76.5	        19	      6.85	        N/A	       N/A	       N/A	       N/A	        N/A	       N/A	       N/A	       N/A	        N/A	       N/A	       N/A	       N/A	        N/A	       N/A	       N/A	       N/A	        N/A	       N/A	       N/A	       N/A	        N/A	
         R10	    374	      76.5	   19.9643	      6.85	        N/A	      76.5	   19.7202	      6.85	        N/A	      76.5	   19.4762	      6.85	        N/A	       N/A	       N/A	       N/A	        N/A	       N/A	       N/A	       N/A	        N/A	       N/A	       N/A	       N/A	        N/A	       N/A	       N/A	       N/A	        N/A	       N/A	       N/A	       N/A	        N/A	
         R10	    375	      76.5	   20.4643	      6.85	        N/A	      76.5	   20.2143	      6.85	        N/A	      76.5	   19.9643	      6.85	        N/A	       N/A	       N/A	       N/A	        N/A	       N/A	       N/A	       N/A	        N/A	       N/A	       N/A	       N/A	        N/A	       N/A	       N/A	       N/A	        N/A	       N/A	       N/A	       N/A	        N/A	
         R10	    376	      76.5	   20.9762	      6.85	        N/A	      76.5	   20.7202	      6.85	        N/A	      76.5	   20.4643	      6.85	        N/A	       N/A	       N/A	       N/A	        N/A	       N/A	       N/A	       N/A	        N/A	       N/A	       N/A	       N/A	        N/A	       N/A	       N/A	       N/A	        N/A	       N/A	       N/A	       N/A	        N/A	
         R10	    377	      76.5	      21.5	      6.85	        N/A	      76.5	   21.2381	      6.85	        N/A	      76.5	   20.9762	      6.85	        N/A	       N/A	       N/A	       N/A	        N/A	       N/A	       N/A	       N/A	        N/A	       N/A	       N/A	       N/A	        N/A	       N/A	       N/A	       N/A	        N/A	       N/A	       N/A	       N/A	        N/A	
         R10	    378	      76.5	   19.7937	       9.4	        N/A	      76.5	   19.3968	       9.4	        N/A	      76.5	        19	       9.4	        N/A	       N/A	       N/A	       N/A	        N/A	       N/A	       N/A	       N/A	        N/A	       N/A	       N/A	       N/A	        N/A	       N/A	       N/A	       N/A	        N/A	       N/A	       N/A	       N/A	        N/A	
         R10	    379	      76.5	    20.627	       9.4	        N/A	      76.5	   20.2103	       9.4	        N/A	      76.5	   19.7937	       9.4	        N/A	       N/A	       N/A	       N/A	        N/A	       N/A	       N/A	       N/A	        N/A	       N/A	       N/A	       N/A	        N/A	       N/A	       N/A	       N/A	        N/A	       N/A	       N/A	       N/A	        N/A	
         R10	    380	      76.5	      21.5	       9.4	        N/A	      76.5	   21.0635	       9.4	        N/A	      76.5	    20.627	       9.4	        N/A	       N/A	       N/A	       N/A	        N/A	       N/A	       N/A	       N/A	        N/A	       N/A	       N/A	       N/A	        N/A	       N/A	       N/A	       N/A	        N/A	       N/A	       N/A	       N/A	        N/A	
         R10	    381	      76.5	   19.5952	      8.55	        N/A	      76.5	   19.2976	      8.55	        N/A	      76.5	        19	      8.55	        N/A	       N/A	       N/A	       N/A	        N/A	       N/A	       N/A	       N/A	        N/A	       N/A	       N/A	       N/A	        N/A	       N/A	       N/A	       N/A	        N/A	       N/A	       N/A	       N/A	        N/A	
         R10	    382	      76.5	   20.2103	      8.55	        N/A	      76.5	   19.9028	      8.55	        N/A	      76.5	   19.5952	      8.55	        N/A	       N/A	       N/A	       N/A	        N/A	       N/A	       N/A	       N/A	        N/A	       N/A	       N/A	       N/A	        N/A	       N/A	       N/A	       N/A	        N/A	       N/A	       N/A	       N/A	        N/A	
         R10	    383	      76.5	   20.8452	      8.55	        N/A	      76.5	   20.5278	      8.55	        N/A	      76.5	   20.2103	      8.55	        N/A	       N/A	       N/A	       N/A	        N/A	       N/A	       N/A	       N/A	        N/A	       N/A	       N/A	       N/A	        N/A	       N/A	       N/A	       N/A	        N/A	       N/A	       N/A	       N/A	        N/A	
         R10	    384	      76.5	      21.5	      8.55	        N/A	      76.5	   21.1726	      8.55	        N/A	      76.5	   20.8452	      8.55	        N/A	       N/A	       N/A	       N/A	        N/A	       N/A	       N/A	       N/A	        N/A	       N/A	       N/A	       N/A	        N/A	       N/A	       N/A	       N/A	        N/A	       N/A	       N/A	       N/A	        N/A	
         R10	    385	     72.25	      21.5	      5.25	        N/A	   72.6006	      21.5	      5.25	        N/A	   72.9512	      21.5	      5.25	        N/A	       N/A	       N/A	       N/A	        N/A	       N/A	       N/A	       N/A	        N/A	       N/A	       N/A	       N/A	        N/A	       N/A	       N/A	       N/A	        N/A	       N/A	       N/A	       N/A	        N/A	
         R10	    386	   72.9512	      21.5	      5.25	        N/A	   73.2861	      21.5	      5.25	        N/A	   73.6211	      21.5	      5.25	        N/A	       N/A	       N/A	       N/A	        N/A	       N/A	       N/A	       N/A	        N/A	       N/A	       N/A	       N/A	        N/A	       N/A	       N/A	       N/A	        N/A	       N/A	       N/A	       N/A	        N/A	
         R10	    387	   73.6211	      21.5	      5.25	        N/A	   73.9403	      21.5	      5.25	        N/A	   74.2596	      21.5	      5.25	        N/A	       N/A	       N/A	       N/A	        N/A	       N/A	       N/A	       N/A	        N/A	       N/A	       N/A	       N/A	        N/A	       N/A	       N/A	       N/A	        N/A	       N/A	       N/A	       N/A	        N/A	
         R10	    388	   74.2596	      21.5	      5.25	        N/A	   74.5631	      21.5	      5.25	        N/A	   74.8667	      21.5	      5.25	        N/A	       N/A	       N/A	       N/A	        N/A	       N/A	       N/A	       N/A	        N/A	       N/A	       N/A	       N/A	        N/A	       N/A	       N/A	       N/A	        N/A	       N/A	       N/A	       N/A	        N/A	
         R10	    389	   74.8667	      21.5	      5.25	        N/A	   75.1546	      21.5	      5.25	        N/A	   75.4425	      21.5	      5.25	        N/A	       N/A	       N/A	       N/A	        N/A	       N/A	       N/A	       N/A	        N/A	       N/A	       N/A	       N/A	        N/A	       N/A	       N/A	       N/A	        N/A	       N/A	       N/A	       N/A	        N/A	
         R10	    390	   75.4425	      21.5	      5.25	        N/A	   75.7147	      21.5	      5.25	        N/A	   75.9869	      21.5	      5.25	        N/A	       N/A	       N/A	       N/A	        N/A	       N/A	       N/A	       N/A	        N/A	       N/A	       N/A	       N/A	        N/A	       N/A	       N/A	       N/A	        N/A	       N/A	       N/A	       N/A	        N/A	
         R10	    391	   75.9869	      21.5	      5.25	        N/A	   76.2435	      21.5	      5.25	        N/A	      76.5	      21.5	      5.25	        N/A	       N/A	       N/A	       N/A	        N/A	       N/A	       N/A	       N/A	        N/A	       N/A	       N/A	       N/A	        N/A	       N/A	       N/A	       N/A	        N/A	       N/A	       N/A	       N/A	        N/A	
         R10	    392	      76.5	      21.5	      5.25	        N/A	   76.7279	      21.5	      5.25	        N/A	   76.9558	      21.5	      5.25	        N/A	       N/A	       N/A	       N/A	        N/A	       N/A	       N/A	       N/A	        N/A	       N/A	       N/A	       N/A	        N/A	       N/A	       N/A	       N/A	        N/A	       N/A	       N/A	       N/A	        N/A	
         R10	    393	   76.9558	      21.5	      5.25	        N/A	   77.2089	      21.5	      5.25	        N/A	   77.4619	      21.5	      5.25	        N/A	       N/A	       N/A	       N/A	        N/A	       N/A	       N/A	       N/A	        N/A	       N/A	       N/A	       N/A	        N/A	       N/A	       N/A	       N/A	        N/A	       N/A	       N/A	       N/A	        N/A	
         R10	    394	   77.4619	      21.5	      5.25	        N/A	   77.7401	      21.5	      5.25	        N/A	   78.0183	      21.5	      5.25	        N/A	       N/A	       N/A	       N/A	        N/A	       N/A	       N/A	       N/A	        N/A	       N/A	       N/A	       N/A	        N/A	       N/A	       N/A	       N/A	        N/A	       N/A	       N/A	       N/A	        N/A	
         R10	    395	   78.0183	      21.5	      5.25	        N/A	   78.3217	      21.5	      5.25	        N/A	    78.625	      21.5	      5.25	        N/A	       N/A	       N/A	       N/A	        N/A	       N/A	       N/A	       N/A	        N/A	       N/A	       N/A	       N/A	        N/A	       N/A	       N/A	       N/A	        N/A	       N/A	       N/A	       N/A	        N/A	
         R10	    396	     72.25	      21.5	      6.85	        N/A	   72.6701	      21.5	      6.85	        N/A	   73.0903	      21.5	      6.85	        N/A	       N/A	       N/A	       N/A	        N/A	       N/A	       N/A	       N/A	        N/A	       N/A	       N/A	       N/A	        N/A	       N/A	       N/A	       N/A	        N/A	       N/A	       N/A	       N/A	        N/A	
         R10	    397	   73.0903	      21.5	      6.85	        N/A	    73.484	      21.5	      6.85	        N/A	   73.8778	      21.5	      6.85	        N/A	       N/A	       N/A	       N/A	        N/A	       N/A	       N/A	       N/A	        N/A	       N/A	       N/A	       N/A	        N/A	       N/A	       N/A	       N/A	        N/A	       N/A	       N/A	       N/A	        N/A	
         R10	    398	   73.8778	      21.5	      6.85	        N/A	   74.2452	      21.5	      6.85	        N/A	   74.6125	      21.5	      6.85	        N/A	       N/A	       N/A	       N/A	        N/A	       N/A	       N/A	       N/A	        N/A	       N/A	       N/A	       N/A	        N/A	       N/A	       N/A	       N/A	        N/A	       N/A	       N/A	       N/A	        N/A	
         R10	    399	   74.6125	      21.5	      6.85	        N/A	   74.9535	      21.5	      6.85	        N/A	   75.2945	      21.5	      6.85	        N/A	       N/A	       N/A	       N/A	        N/A	       N/A	       N/A	       N/A	        N/A	       N/A	       N/A	       N/A	        N/A	       N/A	       N/A	       N/A	        N/A	       N/A	       N/A	       N/A	        N/A	
         R10	    400	   75.2945	      21.5	      6.85	        N/A	    75.609	      21.5	      6.85	        N/A	   75.9236	      21.5	      6.85	        N/A	       N/A	       N/A	       N/A	        N/A	       N/A	       N/A	       N/A	        N/A	       N/A	       N/A	       N/A	        N/A	       N/A	       N/A	       N/A	        N/A	       N/A	       N/A	       N/A	        N/A	
         R10	    401	   75.9236	      21.5	      6.85	        N/A	   76.2118	      21.5	      6.85	        N/A	      76.5	      21.5	      6.85	        N/A	       N/A	       N/A	       N/A	        N/A	       N/A	       N/A	       N/A	        N/A	       N/A	       N/A	       N/A	        N/A	       N/A	       N/A	       N/A	        N/A	       N/A	       N/A	       N/A	        N/A	
         R10	    402	      76.5	      21.5	      6.85	        N/A	   76.8205	      21.5	      6.85	        N/A	    77.141	      21.5	      6.85	        N/A	       N/A	       N/A	       N/A	        N/A	       N/A	       N/A	       N/A	        N/A	       N/A	       N/A	       N/A	        N/A	       N/A	       N/A	       N/A	        N/A	       N/A	       N/A	       N/A	        N/A	
         R10	    403	    77.141	      21.5	      6.85	        N/A	   77.4952	      21.5	      6.85	        N/A	   77.8494	      21.5	      6.85	        N/A	       N/A	       N/A	       N/A	        N/A	       N/A	       N/A	       N/A	        N/A	       N/A	       N/A	       N/A	        N/A	       N/A	       N/A	       N/A	        N/A	       N/A	       N/A	       N/A	        N/A	
         R10	    404	   77.8494	      21.5	      6.85	        N/A	   78.2372	      21.5	      6.85	        N/A	    78.625	      21.5	      6.85	        N/A	       N/A	       N/A	       N/A	        N/A	       N/A	       N/A	       N/A	        N/A	       N/A	       N/A	       N/A	        N/A	       N/A	       N/A	       N/A	        N/A	       N/A	       N/A	       N/A	        N/A	
         R10	    405	     72.25	      21.5	       7.7	        N/A	   72.6589	      21.5	       7.7	        N/A	   73.0678	      21.5	       7.7	        N/A	       N/A	       N/A	       N/A	        N/A	       N/A	       N/A	       N/A	        N/A	       N/A	       N/A	       N/A	        N/A	       N/A	       N/A	       N/A	        N/A	       N/A	       N/A	       N/A	        N/A	
         R10	    406	   73.0678	      21.5	       7.7	        N/A	   73.4548	      21.5	       7.7	        N/A	   73.8418	      21.5	       7.7	        N/A	       N/A	       N/A	       N/A	        N/A	       N/A	       N/A	       N/A	        N/A	       N/A	       N/A	       N/A	        N/A	       N/A	       N/A	       N/A	        N/A	       N/A	       N/A	       N/A	        N/A	
         R10	    407	   73.8418	      21.5	       7.7	        N/A	   74.2069	      21.5	       7.7	        N/A	    74.572	      21.5	       7.7	        N/A	       N/A	       N/A	       N/A	        N/A	       N/A	       N/A	       N/A	        N/A	       N/A	       N/A	       N/A	        N/A	       N/A	       N/A	       N/A	        N/A	       N/A	       N/A	       N/A	        N/A	
         R10	    408	    74.572	      21.5	       7.7	        N/A	   74.9152	      21.5	       7.7	        N/A	   75.2585	      21.5	       7.7	        N/A	       N/A	       N/A	       N/A	        N/A	       N/A	       N/A	       N/A	        N/A	       N/A	       N/A	       N/A	        N/A	       N/A	       N/A	       N/A	        N/A	       N/A	       N/A	       N/A	        N/A	
         R10	    409	   75.2585	      21.5	       7.7	        N/A	   75.5798	      21.5	       7.7	        N/A	   75.9011	      21.5	       7.7	        N/A	       N/A	       N/A	       N/A	        N/A	       N/A	       N/A	       N/A	        N/A	       N/A	       N/A	       N/A	        N/A	       N/A	       N/A	       N/A	        N/A	       N/A	       N/A	       N/A	        N/A	
         R10	    410	   75.9011	      21.5	       7.7	        N/A	   76.2006	      21.5	       7.7	        N/A	      76.5	      21.5	       7.7	        N/A	       N/A	       N/A	       N/A	        N/A	       N/A	       N/A	       N/A	        N/A	       N/A	       N/A	       N/A	        N/A	       N/A	       N/A	       N/A	        N/A	       N/A	       N/A	       N/A	        N/A	
         R10	    411	      76.5	      21.5	       7.7	        N/A	   76.8205	      21.5	       7.7	        N/A	    77.141	      21.5	       7.7	        N/A	       N/A	       N/A	       N/A	        N/A	       N/A	       N/A	       N/A	        N/A	       N/A	       N/A	       N/A	        N/A	       N/A	       N/A	       N/A	        N/A	       N/A	       N/A	       N/A	        N/A	
         R10	    412	    77.141	      21.5	       7.7	        N/A	   77.4952	      21.5	       7.7	        N/A	   77.8494	      21.5	       7.7	        N/A	       N/A	       N/A	       N/A	        N/A	       N/A	       N/A	       N/A	        N/A	       N/A	       N/A	       N/A	        N/A	       N/A	       N/A	       N/A	        N/A	       N/A	       N/A	       N/A	        N/A	
         R10	    413	   77.8494	      21.5	       7.7	        N/A	   78.2372	      21.5	       7.7	        N/A	    78.625	      21.5	       7.7	        N/A	       N/A	       N/A	       N/A	        N/A	       N/A	       N/A	       N/A	        N/A	       N/A	       N/A	       N/A	        N/A	       N/A	       N/A	       N/A	        N/A	       N/A	       N/A	       N/A	        N/A	
         R10	    414	      76.5	      13.6	  0.316892	        N/A	      76.5	      13.6	  0.158446	        N/A	      76.5	      13.6	         0	        N/A	       N/A	       N/A	       N/A	        N/A	       N/A	       N/A	       N/A	        N/A	       N/A	       N/A	       N/A	        N/A	       N/A	       N/A	       N/A	        N/A	       N/A	       N/A	       N/A	        N/A	
         R10	    415	      76.5	      13.6	  0.583559	        N/A	      76.5	      13.6	  0.450225	        N/A	      76.5	      13.6	  0.316892	        N/A	       N/A	       N/A	       N/A	        N/A	       N/A	       N/A	       N/A	        N/A	       N/A	       N/A	       N/A	        N/A	       N/A	       N/A	       N/A	        N/A	       N/A	       N/A	       N/A	        N/A	
         R10	    416	      76.5	      13.6	       0.8	        N/A	      76.5	      13.6	  0.691779	        N/A	      76.5	      13.6	  0.583559	        N/A	       N/A	       N/A	       N/A	        N/A	       N/A	       N/A	       N/A	        N/A	       N/A	       N/A	       N/A	        N/A	       N/A	       N/A	       N/A	        N/A	       N/A	       N/A	       N/A	        N/A	
         R10	    417	      76.5	      13.6	   1.04677	        N/A	      76.5	      13.6	  0.923387	        N/A	      76.5	      13.6	       0.8	        N/A	       N/A	       N/A	       N/A	        N/A	       N/A	       N/A	       N/A	        N/A	       N/A	       N/A	       N/A	        N/A	       N/A	       N/A	       N/A	        N/A	       N/A	       N/A	       N/A	        N/A	
         R10	    418	      76.5	      13.6	   1.28018	        N/A	      76.5	      13.6	   1.16348	        N/A	      76.5	      13.6	   1.04677	        N/A	       N/A	       N/A	       N/A	        N/A	       N/A	       N/A	       N/A	        N/A	       N/A	       N/A	       N/A	        N/A	       N/A	       N/A	       N/A	        N/A	       N/A	       N/A	       N/A	        N/A	
         R10	    419	      76.5	      13.6	   1.50023	        N/A	      76.5	      13.6	   1.39021	        N/A	      76.5	      13.6	   1.28018	        N/A	       N/A	       N/A	       N/A	        N/A	       N/A	       N/A	       N/A	        N/A	       N/A	       N/A	       N/A	        N/A	       N/A	       N/A	       N/A	        N/A	       N/A	       N/A	       N/A	        N/A	
         R10	    420	      76.5	      13.6	   1.70691	        N/A	      76.5	      13.6	   1.60357	        N/A	      76.5	      13.6	   1.50023	        N/A	       N/A	       N/A	       N/A	        N/A	       N/A	       N/A	       N/A	        N/A	       N/A	       N/A	       N/A	        N/A	       N/A	       N/A	       N/A	        N/A	       N/A	       N/A	       N/A	        N/A	
         R10	    421	      76.5	      13.6	   1.90023	        N/A	      76.5	      13.6	   1.80357	        N/A	      76.5	      13.6	   1.70691	        N/A	       N/A	       N/A	       N/A	        N/A	       N/A	       N/A	       N/A	        N/A	       N/A	       N/A	       N/A	        N/A	       N/A	       N/A	       N/A	        N/A	       N/A	       N/A	       N/A	        N/A	
         R10	    422	      76.5	      13.6	   2.08018	        N/A	      76.5	      13.6	   1.99021	        N/A	      76.5	      13.6	   1.90023	        N/A	       N/A	       N/A	       N/A	        N/A	       N/A	       N/A	       N/A	        N/A	       N/A	       N/A	       N/A	        N/A	       N/A	       N/A	       N/A	        N/A	       N/A	       N/A	       N/A	        N/A	
         R10	    423	      76.5	      13.6	   2.24677	        N/A	      76.5	      13.6	   2.16348	        N/A	      76.5	      13.6	   2.08018	        N/A	       N/A	       N/A	       N/A	        N/A	       N/A	       N/A	       N/A	        N/A	       N/A	       N/A	       N/A	        N/A	       N/A	       N/A	       N/A	        N/A	       N/A	       N/A	       N/A	        N/A	
         R10	    424	      76.5	      13.6	       2.4	        N/A	      76.5	      13.6	   2.32339	        N/A	      76.5	      13.6	   2.24677	        N/A	       N/A	       N/A	       N/A	        N/A	       N/A	       N/A	       N/A	        N/A	       N/A	       N/A	       N/A	        N/A	       N/A	       N/A	       N/A	        N/A	       N/A	       N/A	       N/A	        N/A	
         R10	    425	     72.25	      21.5	      8.55	        N/A	   72.6423	      21.5	      8.55	        N/A	   73.0346	      21.5	      8.55	        N/A	       N/A	       N/A	       N/A	        N/A	       N/A	       N/A	       N/A	        N/A	       N/A	       N/A	       N/A	        N/A	       N/A	       N/A	       N/A	        N/A	       N/A	       N/A	       N/A	        N/A	
         R10	    426	   73.0346	      21.5	      8.55	        N/A	   73.4117	      21.5	      8.55	        N/A	   73.7887	      21.5	      8.55	        N/A	       N/A	       N/A	       N/A	        N/A	       N/A	       N/A	       N/A	        N/A	       N/A	       N/A	       N/A	        N/A	       N/A	       N/A	       N/A	        N/A	       N/A	       N/A	       N/A	        N/A	
         R10	    427	   73.7887	      21.5	      8.55	        N/A	   74.1505	      21.5	      8.55	        N/A	   74.5123	      21.5	      8.55	        N/A	       N/A	       N/A	       N/A	        N/A	       N/A	       N/A	       N/A	        N/A	       N/A	       N/A	       N/A	        N/A	       N/A	       N/A	       N/A	        N/A	       N/A	       N/A	       N/A	        N/A	
         R10	    428	   74.5123	      21.5	      8.55	        N/A	   74.8588	      21.5	      8.55	        N/A	   75.2054	      21.5	      8.55	        N/A	       N/A	       N/A	       N/A	        N/A	       N/A	       N/A	       N/A	        N/A	       N/A	       N/A	       N/A	        N/A	       N/A	       N/A	       N/A	        N/A	       N/A	       N/A	       N/A	        N/A	
         R10	    429	   75.2054	      21.5	      8.55	        N/A	   75.5367	      21.5	      8.55	        N/A	   75.8679	      21.5	      8.55	        N/A	       N/A	       N/A	       N/A	        N/A	       N/A	       N/A	       N/A	        N/A	       N/A	       N/A	       N/A	        N/A	       N/A	       N/A	       N/A	        N/A	       N/A	       N/A	       N/A	        N/A	
         R10	    430	   75.8679	      21.5	      8.55	        N/A	    76.184	      21.5	      8.55	        N/A	      76.5	      21.5	      8.55	        N/A	       N/A	       N/A	       N/A	        N/A	       N/A	       N/A	       N/A	        N/A	       N/A	       N/A	       N/A	        N/A	       N/A	       N/A	       N/A	        N/A	       N/A	       N/A	       N/A	        N/A	
         R10	    431	      76.5	      21.5	      8.55	        N/A	   76.8205	      21.5	      8.55	        N/A	    77.141	      21.5	      8.55	        N/A	       N/A	       N/A	       N/A	        N/A	       N/A	       N/A	       N/A	        N/A	       N/A	       N/A	       N/A	        N/A	       N/A	       N/A	       N/A	        N/A	       N/A	       N/A	       N/A	        N/A	
         R10	    432	    77.141	      21.5	      8.55	        N/A	   77.4952	      21.5	      8.55	        N/A	   77.8494	      21.5	      8.55	        N/A	       N/A	       N/A	       N/A	        N/A	       N/A	       N/A	       N/A	        N/A	       N/A	       N/A	       N/A	        N/A	       N/A	       N/A	       N/A	        N/A	       N/A	       N/A	       N/A	        N/A	
         R10	    433	   77.8494	      21.5	      8.55	        N/A	   78.2372	      21.5	      8.55	        N/A	    78.625	      21.5	      8.55	        N/A	       N/A	       N/A	       N/A	        N/A	       N/A	       N/A	       N/A	        N/A	       N/A	       N/A	       N/A	        N/A	       N/A	       N/A	       N/A	        N/A	       N/A	       N/A	       N/A	        N/A	
         R10	    434	      76.5	     14.45	  0.329031	        N/A	      76.5	     14.45	  0.164515	        N/A	      76.5	     14.45	         0	        N/A	       N/A	       N/A	       N/A	        N/A	       N/A	       N/A	       N/A	        N/A	       N/A	       N/A	       N/A	        N/A	       N/A	       N/A	       N/A	        N/A	       N/A	       N/A	       N/A	        N/A	
         R10	    435	      76.5	     14.45	  0.595698	        N/A	      76.5	     14.45	  0.462364	        N/A	      76.5	     14.45	  0.329031	        N/A	       N/A	       N/A	       N/A	        N/A	       N/A	       N/A	       N/A	        N/A	       N/A	       N/A	       N/A	        N/A	       N/A	       N/A	       N/A	        N/A	       N/A	       N/A	       N/A	        N/A	
         R10	    436	      76.5	     14.45	       0.8	        N/A	      76.5	     14.45	  0.697849	        N/A	      76.5	     14.45	  0.595698	        N/A	       N/A	       N/A	       N/A	        N/A	       N/A	       N/A	       N/A	        N/A	       N/A	       N/A	       N/A	        N/A	       N/A	       N/A	       N/A	        N/A	       N/A	       N/A	       N/A	        N/A	
         R10	    437	      76.5	     14.45	  0.970451	        N/A	      76.5	     14.45	  0.885226	        N/A	      76.5	     14.45	       0.8	        N/A	       N/A	       N/A	       N/A	        N/A	       N/A	       N/A	       N/A	        N/A	       N/A	       N/A	       N/A	        N/A	       N/A	       N/A	       N/A	        N/A	       N/A	       N/A	       N/A	        N/A	
         R10	    438	      76.5	     14.45	   1.12606	        N/A	      76.5	     14.45	   1.04825	        N/A	      76.5	     14.45	  0.970451	        N/A	       N/A	       N/A	       N/A	        N/A	       N/A	       N/A	       N/A	        N/A	       N/A	       N/A	       N/A	        N/A	       N/A	       N/A	       N/A	        N/A	       N/A	       N/A	       N/A	        N/A	
         R10	    439	      76.5	     14.45	   1.26681	        N/A	      76.5	     14.45	   1.19643	        N/A	      76.5	     14.45	   1.12606	        N/A	       N/A	       N/A	       N/A	        N/A	       N/A	       N/A	       N/A	        N/A	       N/A	       N/A	       N/A	        N/A	       N/A	       N/A	       N/A	        N/A	       N/A	       N/A	       N/A	        N/A	
         R10	    440	      76.5	     14.45	   1.39272	        N/A	      76.5	     14.45	   1.32977	        N/A	      76.5	     14.45	   1.26681	        N/A	       N/A	       N/A	       N/A	        N/A	       N/A	       N/A	       N/A	        N/A	       N/A	       N/A	       N/A	        N/A	       N/A	       N/A	       N/A	        N/A	       N/A	       N/A	       N/A	        N/A	
         R10	    441	      76.5	     14.45	   1.50378	        N/A	      76.5	     14.45	   1.44825	        N/A	      76.5	     14.45	   1.39272	        N/A	       N/A	       N/A	       N/A	        N/A	       N/A	       N/A	       N/A	        N/A	       N/A	       N/A	       N/A	        N/A	       N/A	       N/A	       N/A	        N/A	       N/A	       N/A	       N/A	        N/A	
         R10	    442	      76.5	     14.45	       1.6	        N/A	      76.5	     14.45	   1.55189	        N/A	      76.5	     14.45	   1.50378	        N/A	       N/A	       N/A	       N/A	        N/A	       N/A	       N/A	       N/A	        N/A	       N/A	       N/A	       N/A	        N/A	       N/A	       N/A	       N/A	        N/A	       N/A	       N/A	       N/A	        N/A	
         R10	    443	      76.5	     12.75	  0.469829	        N/A	      76.5	     12.75	  0.234915	        N/A	      76.5	     12.75	         0	        N/A	       N/A	       N/A	       N/A	        N/A	       N/A	       N/A	       N/A	        N/A	       N/A	       N/A	       N/A	        N/A	       N/A	       N/A	       N/A	        N/A	       N/A	       N/A	       N/A	        N/A	
         R10	    444	      76.5	     12.75	  0.897334	        N/A	      76.5	     12.75	  0.683582	        N/A	      76.5	     12.75	  0.469829	        N/A	       N/A	       N/A	       N/A	        N/A	       N/A	       N/A	       N/A	        N/A	       N/A	       N/A	       N/A	        N/A	       N/A	       N/A	       N/A	        N/A	       N/A	       N/A	       N/A	        N/A	
         R10	    445	      76.5	     12.75	   1.28252	        N/A	      76.5	     12.75	   1.08992	        N/A	      76.5	     12.75	  0.897334	        N/A	       N/A	       N/A	       N/A	        N/A	       N/A	       N/A	       N/A	        N/A	       N/A	       N/A	       N/A	        N/A	       N/A	       N/A	       N/A	        N/A	       N/A	       N/A	       N/A	        N/A	
         R10	    446	      76.5	     12.75	   1.62537	        N/A	      76.5	     12.75	   1.45394	        N/A	      76.5	     12.75	   1.28252	        N/A	       N/A	       N/A	       N/A	        N/A	       N/A	       N/A	       N/A	        N/A	       N/A	       N/A	       N/A	        N/A	       N/A	       N/A	       N/A	        N/A	       N/A	       N/A	       N/A	        N/A	
         R10	    447	      76.5	     12.75	   1.92591	        N/A	      76.5	     12.75	   1.77564	        N/A	      76.5	     12.75	   1.62537	        N/A	       N/A	       N/A	       N/A	        N/A	       N/A	       N/A	       N/A	        N/A	       N/A	       N/A	       N/A	        N/A	       N/A	       N/A	       N/A	        N/A	       N/A	       N/A	       N/A	        N/A	
         R10	    448	      76.5	     12.75	   2.18411	        N/A	      76.5	     12.75	   2.05501	        N/A	      76.5	     12.75	   1.92591	        N/A	       N/A	       N/A	       N/A	        N/A	       N/A	       N/A	       N/A	        N/A	       N/A	       N/A	       N/A	        N/A	       N/A	       N/A	       N/A	        N/A	       N/A	       N/A	       N/A	        N/A	
         R10	    449	      76.5	     12.75	       2.4	        N/A	      76.5	     12.75	   2.29206	        N/A	      76.5	     12.75	   2.18411	        N/A	       N/A	       N/A	       N/A	        N/A	       N/A	       N/A	       N/A	        N/A	       N/A	       N/A	       N/A	        N/A	       N/A	       N/A	       N/A	        N/A	       N/A	       N/A	       N/A	        N/A	
         R10	    450	      76.5	     11.05	  0.876018	        N/A	      76.5	     11.05	  0.438009	        N/A	      76.5	     11.05	         0	        N/A	       N/A	       N/A	       N/A	        N/A	       N/A	       N/A	       N/A	        N/A	       N/A	       N/A	       N/A	        N/A	       N/A	       N/A	       N/A	        N/A	       N/A	       N/A	       N/A	        N/A	
         R10	    451	      76.5	     11.05	   1.67602	        N/A	      76.5	     11.05	   1.27602	        N/A	      76.5	     11.05	  0.876018	        N/A	       N/A	       N/A	       N/A	        N/A	       N/A	       N/A	       N/A	        N/A	       N/A	       N/A	       N/A	        N/A	       N/A	       N/A	       N/A	        N/A	       N/A	       N/A	       N/A	        N/A	
         R10	    452	      76.5	     11.05	       2.4	        N/A	      76.5	     11.05	   2.03801	        N/A	      76.5	     11.05	   1.67602	        N/A	       N/A	       N/A	       N/A	        N/A	       N/A	       N/A	       N/A	        N/A	       N/A	       N/A	       N/A	        N/A	       N/A	       N/A	       N/A	        N/A	       N/A	       N/A	       N/A	        N/A	
         R10	    453	      76.5	      10.2	       0.8	        N/A	      76.5	      10.2	       0.4	        N/A	      76.5	      10.2	         0	        N/A	       N/A	       N/A	       N/A	        N/A	       N/A	       N/A	       N/A	        N/A	       N/A	       N/A	       N/A	        N/A	       N/A	       N/A	       N/A	        N/A	       N/A	       N/A	       N/A	        N/A	
         R10	    454	      76.5	      10.2	       1.6	        N/A	      76.5	      10.2	       1.2	        N/A	      76.5	      10.2	       0.8	        N/A	       N/A	       N/A	       N/A	        N/A	       N/A	       N/A	       N/A	        N/A	       N/A	       N/A	       N/A	        N/A	       N/A	       N/A	       N/A	        N/A	       N/A	       N/A	       N/A	        N/A	
         R10	    455	      76.5	      10.2	       2.4	        N/A	      76.5	      10.2	         2	        N/A	      76.5	      10.2	       1.6	        N/A	       N/A	       N/A	       N/A	        N/A	       N/A	       N/A	       N/A	        N/A	       N/A	       N/A	       N/A	        N/A	       N/A	       N/A	       N/A	        N/A	       N/A	       N/A	       N/A	        N/A	
         R10	    456	      76.5	      9.35	       0.8	        N/A	      76.5	      9.35	       0.4	        N/A	      76.5	      9.35	         0	        N/A	       N/A	       N/A	       N/A	        N/A	       N/A	       N/A	       N/A	        N/A	       N/A	       N/A	       N/A	        N/A	       N/A	       N/A	       N/A	        N/A	       N/A	       N/A	       N/A	        N/A	
         R10	    457	      76.5	      9.35	       1.6	        N/A	      76.5	      9.35	       1.2	        N/A	      76.5	      9.35	       0.8	        N/A	       N/A	       N/A	       N/A	        N/A	       N/A	       N/A	       N/A	        N/A	       N/A	       N/A	       N/A	        N/A	       N/A	       N/A	       N/A	        N/A	       N/A	       N/A	       N/A	        N/A	
         R10	    458	      76.5	      9.35	       2.4	        N/A	      76.5	      9.35	         2	        N/A	      76.5	      9.35	       1.6	        N/A	       N/A	       N/A	       N/A	        N/A	       N/A	       N/A	       N/A	        N/A	       N/A	       N/A	       N/A	        N/A	       N/A	       N/A	       N/A	        N/A	       N/A	       N/A	       N/A	        N/A	
         R10	    459	     72.25	      21.5	       9.4	        N/A	   72.7007	      21.5	       9.4	        N/A	   73.1513	      21.5	       9.4	        N/A	       N/A	       N/A	       N/A	        N/A	       N/A	       N/A	       N/A	        N/A	       N/A	       N/A	       N/A	        N/A	       N/A	       N/A	       N/A	        N/A	       N/A	       N/A	       N/A	        N/A	
         R10	    460	   73.1513	      21.5	       9.4	        N/A	   73.5891	      21.5	       9.4	        N/A	    74.027	      21.5	       9.4	        N/A	       N/A	       N/A	       N/A	        N/A	       N/A	       N/A	       N/A	        N/A	       N/A	       N/A	       N/A	        N/A	       N/A	       N/A	       N/A	        N/A	       N/A	       N/A	       N/A	        N/A	
         R10	    461	    74.027	      21.5	       9.4	        N/A	    74.452	      21.5	       9.4	        N/A	    74.877	      21.5	       9.4	        N/A	       N/A	       N/A	       N/A	        N/A	       N/A	       N/A	       N/A	        N/A	       N/A	       N/A	       N/A	        N/A	       N/A	       N/A	       N/A	        N/A	       N/A	       N/A	       N/A	        N/A	
         R10	    462	    74.877	      21.5	       9.4	        N/A	   75.2892	      21.5	       9.4	        N/A	   75.7013	      21.5	       9.4	        N/A	       N/A	       N/A	       N/A	        N/A	       N/A	       N/A	       N/A	        N/A	       N/A	       N/A	       N/A	        N/A	       N/A	       N/A	       N/A	        N/A	       N/A	       N/A	       N/A	        N/A	
         R10	    463	   75.7013	      21.5	       9.4	        N/A	   76.1007	      21.5	       9.4	        N/A	      76.5	      21.5	       9.4	        N/A	       N/A	       N/A	       N/A	        N/A	       N/A	       N/A	       N/A	        N/A	       N/A	       N/A	       N/A	        N/A	       N/A	       N/A	       N/A	        N/A	       N/A	       N/A	       N/A	        N/A	
         R10	    464	      76.5	      21.5	       9.4	        N/A	   76.8328	      21.5	       9.4	        N/A	   77.1656	      21.5	       9.4	        N/A	       N/A	       N/A	       N/A	        N/A	       N/A	       N/A	       N/A	        N/A	       N/A	       N/A	       N/A	        N/A	       N/A	       N/A	       N/A	        N/A	       N/A	       N/A	       N/A	        N/A	
         R10	    465	   77.1656	      21.5	       9.4	        N/A	   77.5197	      21.5	       9.4	        N/A	   77.8739	      21.5	       9.4	        N/A	       N/A	       N/A	       N/A	        N/A	       N/A	       N/A	       N/A	        N/A	       N/A	       N/A	       N/A	        N/A	       N/A	       N/A	       N/A	        N/A	       N/A	       N/A	       N/A	        N/A	
         R10	    466	   77.8739	      21.5	       9.4	        N/A	   78.2495	      21.5	       9.4	        N/A	    78.625	      21.5	       9.4	        N/A	       N/A	       N/A	       N/A	        N/A	       N/A	       N/A	       N/A	        N/A	       N/A	       N/A	       N/A	        N/A	       N/A	       N/A	       N/A	        N/A	       N/A	       N/A	       N/A	        N/A	
         R10	    467	      76.5	      11.9	   0.54816	        N/A	      76.5	      11.9	   0.27408	        N/A	      76.5	      11.9	         0	        N/A	       N/A	       N/A	       N/A	        N/A	       N/A	       N/A	       N/A	        N/A	       N/A	       N/A	       N/A	        N/A	       N/A	       N/A	       N/A	        N/A	       N/A	       N/A	       N/A	        N/A	
         R10	    468	      76.5	      11.9	   1.06224	        N/A	      76.5	      11.9	    0.8052	        N/A	      76.5	      11.9	   0.54816	        N/A	       N/A	       N/A	       N/A	        N/A	       N/A	       N/A	       N/A	        N/A	       N/A	       N/A	       N/A	        N/A	       N/A	       N/A	       N/A	        N/A	       N/A	       N/A	       N/A	        N/A	
         R10	    469	      76.5	      11.9	   1.54224	        N/A	      76.5	      11.9	   1.30224	        N/A	      76.5	      11.9	   1.06224	        N/A	       N/A	       N/A	       N/A	        N/A	       N/A	       N/A	       N/A	        N/A	       N/A	       N/A	       N/A	        N/A	       N/A	       N/A	       N/A	        N/A	       N/A	       N/A	       N/A	        N/A	
         R10	    470	      76.5	      11.9	   1.98816	        N/A	      76.5	      11.9	    1.7652	        N/A	      76.5	      11.9	   1.54224	        N/A	       N/A	       N/A	       N/A	        N/A	       N/A	       N/A	       N/A	        N/A	       N/A	       N/A	       N/A	        N/A	       N/A	       N/A	       N/A	        N/A	       N/A	       N/A	       N/A	        N/A	
         R10	    471	      76.5	      11.9	       2.4	        N/A	      76.5	      11.9	   2.19408	        N/A	      76.5	      11.9	   1.98816	        N/A	       N/A	       N/A	       N/A	        N/A	       N/A	       N/A	       N/A	        N/A	       N/A	       N/A	       N/A	        N/A	       N/A	       N/A	       N/A	        N/A	       N/A	       N/A	       N/A	        N/A	
         R10	    472	     80.75	     11.05	       2.4	        N/A	   80.3622	     11.05	       2.4	        N/A	   79.9744	     11.05	       2.4	        N/A	       N/A	       N/A	       N/A	        N/A	       N/A	       N/A	       N/A	        N/A	       N/A	       N/A	       N/A	        N/A	       N/A	       N/A	       N/A	        N/A	       N/A	       N/A	       N/A	        N/A	
         R10	    473	   79.9744	     11.05	       2.4	        N/A	   79.6202	     11.05	       2.4	        N/A	    79.266	     11.05	       2.4	        N/A	       N/A	       N/A	       N/A	        N/A	       N/A	       N/A	       N/A	        N/A	       N/A	       N/A	       N/A	        N/A	       N/A	       N/A	       N/A	        N/A	       N/A	       N/A	       N/A	        N/A	
         R10	    474	    79.266	     11.05	       2.4	        N/A	   78.9455	     11.05	       2.4	        N/A	    78.625	     11.05	       2.4	        N/A	       N/A	       N/A	       N/A	        N/A	       N/A	       N/A	       N/A	        N/A	       N/A	       N/A	       N/A	        N/A	       N/A	       N/A	       N/A	        N/A	       N/A	       N/A	       N/A	        N/A	
         R10	    475	     75.65	      15.3	       1.6	        N/A	   75.7039	      15.3	       1.6	        N/A	   75.7579	      15.3	       1.6	        N/A	       N/A	       N/A	       N/A	        N/A	       N/A	       N/A	       N/A	        N/A	       N/A	       N/A	       N/A	        N/A	       N/A	       N/A	       N/A	        N/A	       N/A	       N/A	       N/A	        N/A	
         R10	    476	   75.7579	      15.3	       1.6	        N/A	   75.8101	      15.3	       1.6	        N/A	   75.8624	      15.3	       1.6	        N/A	       N/A	       N/A	       N/A	        N/A	       N/A	       N/A	       N/A	        N/A	       N/A	       N/A	       N/A	        N/A	       N/A	       N/A	       N/A	        N/A	       N/A	       N/A	       N/A	        N/A	
         R10	    477	   75.8624	      15.3	       1.6	        N/A	   75.9129	      15.3	       1.6	        N/A	   75.9635	      15.3	       1.6	        N/A	       N/A	       N/A	       N/A	        N/A	       N/A	       N/A	       N/A	        N/A	       N/A	       N/A	       N/A	        N/A	       N/A	       N/A	       N/A	        N/A	       N/A	       N/A	       N/A	        N/A	
         R10	    478	   75.9635	      15.3	       1.6	        N/A	   76.0124	      15.3	       1.6	        N/A	   76.0613	      15.3	       1.6	        N/A	       N/A	       N/A	       N/A	        N/A	       N/A	       N/A	       N/A	        N/A	       N/A	       N/A	       N/A	        N/A	       N/A	       N/A	       N/A	        N/A	       N/A	       N/A	       N/A	        N/A	
         R10	    479	   76.0613	      15.3	       1.6	        N/A	   76.1085	      15.3	       1.6	        N/A	   76.1557	      15.3	       1.6	        N/A	       N/A	       N/A	       N/A	        N/A	       N/A	       N/A	       N/A	        N/A	       N/A	       N/A	       N/A	        N/A	       N/A	       N/A	       N/A	        N/A	       N/A	       N/A	       N/A	        N/A	
         R10	    480	   76.1557	      15.3	       1.6	        N/A	   76.2013	      15.3	       1.6	        N/A	   76.2468	      15.3	       1.6	        N/A	       N/A	       N/A	       N/A	        N/A	       N/A	       N/A	       N/A	        N/A	       N/A	       N/A	       N/A	        N/A	       N/A	       N/A	       N/A	        N/A	       N/A	       N/A	       N/A	        N/A	
         R10	    481	   76.2468	      15.3	       1.6	        N/A	   76.2907	      15.3	       1.6	        N/A	   76.3346	      15.3	       1.6	        N/A	       N/A	       N/A	       N/A	        N/A	       N/A	       N/A	       N/A	        N/A	       N/A	       N/A	       N/A	        N/A	       N/A	       N/A	       N/A	        N/A	       N/A	       N/A	       N/A	        N/A	
         R10	    482	   76.3346	      15.3	       1.6	        N/A	   76.3768	      15.3	       1.6	        N/A	    76.419	      15.3	       1.6	        N/A	       N/A	       N/A	       N/A	        N/A	       N/A	       N/A	       N/A	        N/A	       N/A	       N/A	       N/A	        N/A	       N/A	       N/A	       N/A	        N/A	       N/A	       N/A	       N/A	        N/A	
         R10	    483	    76.419	      15.3	       1.6	        N/A	   76.4595	      15.3	       1.6	        N/A	      76.5	      15.3	       1.6	        N/A	       N/A	       N/A	       N/A	        N/A	       N/A	       N/A	       N/A	        N/A	       N/A	       N/A	       N/A	        N/A	       N/A	       N/A	       N/A	        N/A	       N/A	       N/A	       N/A	        N/A	
         R10	    484	      76.5	      15.3	       1.6	        N/A	   76.5405	      15.3	       1.6	        N/A	    76.581	      15.3	       1.6	        N/A	       N/A	       N/A	       N/A	        N/A	       N/A	       N/A	       N/A	        N/A	       N/A	       N/A	       N/A	        N/A	       N/A	       N/A	       N/A	        N/A	       N/A	       N/A	       N/A	        N/A	
         R10	    485	    76.581	      15.3	       1.6	        N/A	   76.6232	      15.3	       1.6	        N/A	   76.6654	      15.3	       1.6	        N/A	       N/A	       N/A	       N/A	        N/A	       N/A	       N/A	       N/A	        N/A	       N/A	       N/A	       N/A	        N/A	       N/A	       N/A	       N/A	        N/A	       N/A	       N/A	       N/A	        N/A	
         R10	    486	   76.6654	      15.3	       1.6	        N/A	   76.7093	      15.3	       1.6	        N/A	   76.7532	      15.3	       1.6	        N/A	       N/A	       N/A	       N/A	        N/A	       N/A	       N/A	       N/A	        N/A	       N/A	       N/A	       N/A	        N/A	       N/A	       N/A	       N/A	        N/A	       N/A	       N/A	       N/A	        N/A	
         R10	    487	   76.7532	      15.3	       1.6	        N/A	   76.7987	      15.3	       1.6	        N/A	   76.8443	      15.3	       1.6	        N/A	       N/A	       N/A	       N/A	        N/A	       N/A	       N/A	       N/A	        N/A	       N/A	       N/A	       N/A	        N/A	       N/A	       N/A	       N/A	        N/A	       N/A	       N/A	       N/A	        N/A	
         R10	    488	   76.8443	      15.3	       1.6	        N/A	   76.8915	      15.3	       1.6	        N/A	   76.9387	      15.3	       1.6	        N/A	       N/A	       N/A	       N/A	        N/A	       N/A	       N/A	       N/A	        N/A	       N/A	       N/A	       N/A	        N/A	       N/A	       N/A	       N/A	        N/A	       N/A	       N/A	       N/A	        N/A	
         R10	    489	   76.9387	      15.3	       1.6	        N/A	   76.9876	      15.3	       1.6	        N/A	   77.0365	      15.3	       1.6	        N/A	       N/A	       N/A	       N/A	        N/A	       N/A	       N/A	       N/A	        N/A	       N/A	       N/A	       N/A	        N/A	       N/A	       N/A	       N/A	        N/A	       N/A	       N/A	       N/A	        N/A	
         R10	    490	   77.0365	      15.3	       1.6	        N/A	   77.0871	      15.3	       1.6	        N/A	   77.1376	      15.3	       1.6	        N/A	       N/A	       N/A	       N/A	        N/A	       N/A	       N/A	       N/A	        N/A	       N/A	       N/A	       N/A	        N/A	       N/A	       N/A	       N/A	        N/A	       N/A	       N/A	       N/A	        N/A	
         R10	    491	   77.1376	      15.3	       1.6	        N/A	   77.1899	      15.3	       1.6	        N/A	   77.2421	      15.3	       1.6	        N/A	       N/A	       N/A	       N/A	        N/A	       N/A	       N/A	       N/A	        N/A	       N/A	       N/A	       N/A	        N/A	       N/A	       N/A	       N/A	        N/A	       N/A	       N/A	       N/A	        N/A	
         R10	    492	   77.2421	      15.3	       1.6	        N/A	   77.2961	      15.3	       1.6	        N/A	     77.35	      15.3	       1.6	        N/A	       N/A	       N/A	       N/A	        N/A	       N/A	       N/A	       N/A	        N/A	       N/A	       N/A	       N/A	        N/A	       N/A	       N/A	       N/A	        N/A	       N/A	       N/A	       N/A	        N/A	
         R10	    493	     75.65	     14.45	       2.4	        N/A	   75.7039	     14.45	       2.4	        N/A	   75.7579	     14.45	       2.4	        N/A	       N/A	       N/A	       N/A	        N/A	       N/A	       N/A	       N/A	        N/A	       N/A	       N/A	       N/A	        N/A	       N/A	       N/A	       N/A	        N/A	       N/A	       N/A	       N/A	        N/A	
         R10	    494	   75.7579	     14.45	       2.4	        N/A	   75.8101	     14.45	       2.4	        N/A	   75.8624	     14.45	       2.4	        N/A	       N/A	       N/A	       N/A	        N/A	       N/A	       N/A	       N/A	        N/A	       N/A	       N/A	       N/A	        N/A	       N/A	       N/A	       N/A	        N/A	       N/A	       N/A	       N/A	        N/A	
         R10	    495	   75.8624	     14.45	       2.4	        N/A	   75.9129	     14.45	       2.4	        N/A	   75.9635	     14.45	       2.4	        N/A	       N/A	       N/A	       N/A	        N/A	       N/A	       N/A	       N/A	        N/A	       N/A	       N/A	       N/A	        N/A	       N/A	       N/A	       N/A	        N/A	       N/A	       N/A	       N/A	        N/A	
         R10	    496	   75.9635	     14.45	       2.4	        N/A	   76.0124	     14.45	       2.4	        N/A	   76.0613	     14.45	       2.4	        N/A	       N/A	       N/A	       N/A	        N/A	       N/A	       N/A	       N/A	        N/A	       N/A	       N/A	       N/A	        N/A	       N/A	       N/A	       N/A	        N/A	       N/A	       N/A	       N/A	        N/A	
         R10	    497	   76.0613	     14.45	       2.4	        N/A	   76.1085	     14.45	       2.4	        N/A	   76.1557	     14.45	       2.4	        N/A	       N/A	       N/A	       N/A	        N/A	       N/A	       N/A	       N/A	        N/A	       N/A	       N/A	       N/A	        N/A	       N/A	       N/A	       N/A	        N/A	       N/A	       N/A	       N/A	        N/A	
         R10	    498	   76.1557	     14.45	       2.4	        N/A	   76.2013	     14.45	       2.4	        N/A	   76.2468	     14.45	       2.4	        N/A	       N/A	       N/A	       N/A	        N/A	       N/A	       N/A	       N/A	        N/A	       N/A	       N/A	       N/A	        N/A	       N/A	       N/A	       N/A	        N/A	       N/A	       N/A	       N/A	        N/A	
         R10	    499	   76.2468	     14.45	       2.4	        N/A	   76.2907	     14.45	       2.4	        N/A	   76.3346	     14.45	       2.4	        N/A	       N/A	       N/A	       N/A	        N/A	       N/A	       N/A	       N/A	        N/A	       N/A	       N/A	       N/A	        N/A	       N/A	       N/A	       N/A	        N/A	       N/A	       N/A	       N/A	        N/A	
         R10	    500	   76.3346	     14.45	       2.4	        N/A	   76.3768	     14.45	       2.4	        N/A	    76.419	     14.45	       2.4	        N/A	       N/A	       N/A	       N/A	        N/A	       N/A	       N/A	       N/A	        N/A	       N/A	       N/A	       N/A	        N/A	       N/A	       N/A	       N/A	        N/A	       N/A	       N/A	       N/A	        N/A	
         R10	    501	    76.419	     14.45	       2.4	        N/A	   76.4595	     14.45	       2.4	        N/A	      76.5	     14.45	       2.4	        N/A	       N/A	       N/A	       N/A	        N/A	       N/A	       N/A	       N/A	        N/A	       N/A	       N/A	       N/A	        N/A	       N/A	       N/A	       N/A	        N/A	       N/A	       N/A	       N/A	        N/A	
         R10	    502	      76.5	     14.45	       2.4	        N/A	   76.5405	     14.45	       2.4	        N/A	    76.581	     14.45	       2.4	        N/A	       N/A	       N/A	       N/A	        N/A	       N/A	       N/A	       N/A	        N/A	       N/A	       N/A	       N/A	        N/A	       N/A	       N/A	       N/A	        N/A	       N/A	       N/A	       N/A	        N/A	
         R10	    503	    76.581	     14.45	       2.4	        N/A	   76.6232	     14.45	       2.4	        N/A	   76.6654	     14.45	       2.4	        N/A	       N/A	       N/A	       N/A	        N/A	       N/A	       N/A	       N/A	        N/A	       N/A	       N/A	       N/A	        N/A	       N/A	       N/A	       N/A	        N/A	       N/A	       N/A	       N/A	        N/A	
         R10	    504	   76.6654	     14.45	       2.4	        N/A	   76.7093	     14.45	       2.4	        N/A	   76.7532	     14.45	       2.4	        N/A	       N/A	       N/A	       N/A	        N/A	       N/A	       N/A	       N/A	        N/A	       N/A	       N/A	       N/A	        N/A	       N/A	       N/A	       N/A	        N/A	       N/A	       N/A	       N/A	        N/A	
         R10	    505	   76.7532	     14.45	       2.4	        N/A	   76.7987	     14.45	       2.4	        N/A	   76.8443	     14.45	       2.4	        N/A	       N/A	       N/A	       N/A	        N/A	       N/A	       N/A	       N/A	        N/A	       N/A	       N/A	       N/A	        N/A	       N/A	       N/A	       N/A	        N/A	       N/A	       N/A	       N/A	        N/A	
         R10	    506	   76.8443	     14.45	       2.4	        N/A	   76.8915	     14.45	       2.4	        N/A	   76.9387	     14.45	       2.4	        N/A	       N/A	       N/A	       N/A	        N/A	       N/A	       N/A	       N/A	        N/A	       N/A	       N/A	       N/A	        N/A	       N/A	       N/A	       N/A	        N/A	       N/A	       N/A	       N/A	        N/A	
         R10	    507	   76.9387	     14.45	       2.4	        N/A	   76.9876	     14.45	       2.4	        N/A	   77.0365	     14.45	       2.4	        N/A	       N/A	       N/A	       N/A	        N/A	       N/A	       N/A	       N/A	        N/A	       N/A	       N/A	       N/A	        N/A	       N/A	       N/A	       N/A	        N/A	       N/A	       N/A	       N/A	        N/A	
         R10	    508	   77.0365	     14.45	       2.4	        N/A	   77.0871	     14.45	       2.4	        N/A	   77.1376	     14.45	       2.4	        N/A	       N/A	       N/A	       N/A	        N/A	       N/A	       N/A	       N/A	        N/A	       N/A	       N/A	       N/A	        N/A	       N/A	       N/A	       N/A	        N/A	       N/A	       N/A	       N/A	        N/A	
         R10	    509	   77.1376	     14.45	       2.4	        N/A	   77.1899	     14.45	       2.4	        N/A	   77.2421	     14.45	       2.4	        N/A	       N/A	       N/A	       N/A	        N/A	       N/A	       N/A	       N/A	        N/A	       N/A	       N/A	       N/A	        N/A	       N/A	       N/A	       N/A	        N/A	       N/A	       N/A	       N/A	        N/A	
         R10	    510	   77.2421	     14.45	       2.4	        N/A	   77.2961	     14.45	       2.4	        N/A	     77.35	     14.45	       2.4	        N/A	       N/A	       N/A	       N/A	        N/A	       N/A	       N/A	       N/A	        N/A	       N/A	       N/A	       N/A	        N/A	       N/A	       N/A	       N/A	        N/A	       N/A	       N/A	       N/A	        N/A	
         R10	    511	     75.65	   15.9164	   2.99973	        N/A	   75.7017	   15.9164	   2.99973	        N/A	   75.7534	   15.9164	   2.99973	        N/A	       N/A	       N/A	       N/A	        N/A	       N/A	       N/A	       N/A	        N/A	       N/A	       N/A	       N/A	        N/A	       N/A	       N/A	       N/A	        N/A	       N/A	       N/A	       N/A	        N/A	
         R10	    512	   75.7534	   15.9164	   2.99973	        N/A	    75.804	   15.9164	   2.99973	        N/A	   75.8546	   15.9164	   2.99973	        N/A	       N/A	       N/A	       N/A	        N/A	       N/A	       N/A	       N/A	        N/A	       N/A	       N/A	       N/A	        N/A	       N/A	       N/A	       N/A	        N/A	       N/A	       N/A	       N/A	        N/A	
         R10	    513	   75.8546	   15.9164	   2.99973	        N/A	   75.9041	   15.9164	   2.99973	        N/A	   75.9535	   15.9164	   2.99973	        N/A	       N/A	       N/A	       N/A	        N/A	       N/A	       N/A	       N/A	        N/A	       N/A	       N/A	       N/A	        N/A	       N/A	       N/A	       N/A	        N/A	       N/A	       N/A	       N/A	        N/A	
         R10	    514	   75.9535	   15.9164	   2.99973	        N/A	   76.0019	   15.9164	   2.99973	        N/A	   76.0502	   15.9164	   2.99973	        N/A	       N/A	       N/A	       N/A	        N/A	       N/A	       N/A	       N/A	        N/A	       N/A	       N/A	       N/A	        N/A	       N/A	       N/A	       N/A	        N/A	       N/A	       N/A	       N/A	        N/A	
         R10	    515	   76.0502	   15.9164	   2.99973	        N/A	   76.0974	   15.9164	   2.99973	        N/A	   76.1447	   15.9164	   2.99973	        N/A	       N/A	       N/A	       N/A	        N/A	       N/A	       N/A	       N/A	        N/A	       N/A	       N/A	       N/A	        N/A	       N/A	       N/A	       N/A	        N/A	       N/A	       N/A	       N/A	        N/A	
         R10	    516	   76.1447	   15.9164	   2.99973	        N/A	   76.1908	   15.9164	   2.99973	        N/A	   76.2369	   15.9164	   2.99973	        N/A	       N/A	       N/A	       N/A	        N/A	       N/A	       N/A	       N/A	        N/A	       N/A	       N/A	       N/A	        N/A	       N/A	       N/A	       N/A	        N/A	       N/A	       N/A	       N/A	        N/A	
         R10	    517	   76.2369	   15.9164	   2.99973	        N/A	   76.2818	   15.9164	   2.99973	        N/A	   76.3268	   15.9164	   2.99973	        N/A	       N/A	       N/A	       N/A	        N/A	       N/A	       N/A	       N/A	        N/A	       N/A	       N/A	       N/A	        N/A	       N/A	       N/A	       N/A	        N/A	       N/A	       N/A	       N/A	        N/A	
         R10	    518	   76.3268	   15.9164	   2.99973	        N/A	   76.3707	   15.9164	   2.99973	        N/A	   76.4145	   15.9164	   2.99973	        N/A	       N/A	       N/A	       N/A	        N/A	       N/A	       N/A	       N/A	        N/A	       N/A	       N/A	       N/A	        N/A	       N/A	       N/A	       N/A	        N/A	       N/A	       N/A	       N/A	        N/A	
         R10	    519	   76.4145	   15.9164	   2.99973	        N/A	   76.4573	   15.9164	   2.99973	        N/A	      76.5	   15.9164	   2.99973	        N/A	       N/A	       N/A	       N/A	        N/A	       N/A	       N/A	       N/A	        N/A	       N/A	       N/A	       N/A	        N/A	       N/A	       N/A	       N/A	        N/A	       N/A	       N/A	       N/A	        N/A	
         R10	    520	      76.5	   15.9164	   2.99973	        N/A	   76.5427	   15.9164	   2.99973	        N/A	   76.5855	   15.9164	   2.99973	        N/A	       N/A	       N/A	       N/A	        N/A	       N/A	       N/A	       N/A	        N/A	       N/A	       N/A	       N/A	        N/A	       N/A	       N/A	       N/A	        N/A	       N/A	       N/A	       N/A	        N/A	
         R10	    521	   76.5855	   15.9164	   2.99973	        N/A	   76.6293	   15.9164	   2.99973	        N/A	   76.6732	   15.9164	   2.99973	        N/A	       N/A	       N/A	       N/A	        N/A	       N/A	       N/A	       N/A	        N/A	       N/A	       N/A	       N/A	        N/A	       N/A	       N/A	       N/A	        N/A	       N/A	       N/A	       N/A	        N/A	
         R10	    522	   76.6732	   15.9164	   2.99973	        N/A	   76.7182	   15.9164	   2.99973	        N/A	   76.7631	   15.9164	   2.99973	        N/A	       N/A	       N/A	       N/A	        N/A	       N/A	       N/A	       N/A	        N/A	       N/A	       N/A	       N/A	        N/A	       N/A	       N/A	       N/A	        N/A	       N/A	       N/A	       N/A	        N/A	
         R10	    523	   76.7631	   15.9164	   2.99973	        N/A	   76.8092	   15.9164	   2.99973	        N/A	   76.8553	   15.9164	   2.99973	        N/A	       N/A	       N/A	       N/A	        N/A	       N/A	       N/A	       N/A	        N/A	       N/A	       N/A	       N/A	        N/A	       N/A	       N/A	       N/A	        N/A	       N/A	       N/A	       N/A	        N/A	
         R10	    524	   76.8553	   15.9164	   2.99973	        N/A	   76.9026	   15.9164	   2.99973	        N/A	   76.9498	   15.9164	   2.99973	        N/A	       N/A	       N/A	       N/A	        N/A	       N/A	       N/A	       N/A	        N/A	       N/A	       N/A	       N/A	        N/A	       N/A	       N/A	       N/A	        N/A	       N/A	       N/A	       N/A	        N/A	
         R10	    525	   76.9498	   15.9164	   2.99973	        N/A	   76.9981	   15.9164	   2.99973	        N/A	   77.0465	   15.9164	   2.99973	        N/A	       N/A	       N/A	       N/A	        N/A	       N/A	       N/A	       N/A	        N/A	       N/A	       N/A	       N/A	        N/A	       N/A	       N/A	       N/A	        N/A	       N/A	       N/A	       N/A	        N/A	
         R10	    526	   77.0465	   15.9164	   2.99973	        N/A	   77.0959	   15.9164	   2.99973	        N/A	   77.1454	   15.9164	   2.99973	        N/A	       N/A	       N/A	       N/A	        N/A	       N/A	       N/A	       N/A	        N/A	       N/A	       N/A	       N/A	        N/A	       N/A	       N/A	       N/A	        N/A	       N/A	       N/A	       N/A	        N/A	
         R10	    527	   77.1454	   15.9164	   2.99973	        N/A	    77.196	   15.9164	   2.99973	        N/A	   77.2466	   15.9164	   2.99973	        N/A	       N/A	       N/A	       N/A	        N/A	       N/A	       N/A	       N/A	        N/A	       N/A	       N/A	       N/A	        N/A	       N/A	       N/A	       N/A	        N/A	       N/A	       N/A	       N/A	        N/A	
         R10	    528	   77.2466	   15.9164	   2.99973	        N/A	   77.2983	   15.9164	   2.99973	        N/A	     77.35	   15.9164	   2.99973	        N/A	       N/A	       N/A	       N/A	        N/A	       N/A	       N/A	       N/A	        N/A	       N/A	       N/A	       N/A	        N/A	       N/A	       N/A	       N/A	        N/A	       N/A	       N/A	       N/A	        N/A	
         R10	    529	      76.5	   20.4991	    1.5164	        N/A	      76.5	   20.4495	    1.7582	        N/A	      76.5	      20.4	         2	        N/A	       N/A	       N/A	       N/A	        N/A	       N/A	       N/A	       N/A	        N/A	       N/A	       N/A	       N/A	        N/A	       N/A	       N/A	       N/A	        N/A	       N/A	       N/A	       N/A	        N/A	
         R10	    530	      76.5	   20.6085	  0.981953	        N/A	      76.5	   20.5538	   1.24918	        N/A	      76.5	   20.4991	    1.5164	        N/A	       N/A	       N/A	       N/A	        N/A	       N/A	       N/A	       N/A	        N/A	       N/A	       N/A	       N/A	        N/A	       N/A	       N/A	       N/A	        N/A	       N/A	       N/A	       N/A	        N/A	
         R10	    531	      76.5	   20.7284	  0.396646	        N/A	      76.5	   20.6685	  0.689299	        N/A	      76.5	   20.6085	  0.981953	        N/A	       N/A	       N/A	       N/A	        N/A	       N/A	       N/A	       N/A	        N/A	       N/A	       N/A	       N/A	        N/A	       N/A	       N/A	       N/A	        N/A	       N/A	       N/A	       N/A	        N/A	
         R10	    532	      76.5	   20.9224	   2.11872	        N/A	      76.5	   21.2112	   2.18436	        N/A	      76.5	      21.5	      2.25	        N/A	       N/A	       N/A	       N/A	        N/A	       N/A	       N/A	       N/A	        N/A	       N/A	       N/A	       N/A	        N/A	       N/A	       N/A	       N/A	        N/A	       N/A	       N/A	       N/A	        N/A	
         R10	    533	      76.5	      20.4	         2	        N/A	      76.5	   20.6612	   2.05936	        N/A	      76.5	   20.9224	   2.11872	        N/A	       N/A	       N/A	       N/A	        N/A	       N/A	       N/A	       N/A	        N/A	       N/A	       N/A	       N/A	        N/A	       N/A	       N/A	       N/A	        N/A	       N/A	       N/A	       N/A	        N/A	
         R10	    534	      76.5	   15.9593	   2.92175	        N/A	      76.5	   15.9378	   2.96074	        N/A	      76.5	   15.9164	   2.99973	        N/A	       N/A	       N/A	       N/A	        N/A	       N/A	       N/A	       N/A	        N/A	       N/A	       N/A	       N/A	        N/A	       N/A	       N/A	       N/A	        N/A	       N/A	       N/A	       N/A	        N/A	
         R10	    535	      76.5	   16.0036	   2.84119	        N/A	      76.5	   15.9814	   2.88147	        N/A	      76.5	   15.9593	   2.92175	        N/A	       N/A	       N/A	       N/A	        N/A	       N/A	       N/A	       N/A	        N/A	       N/A	       N/A	       N/A	        N/A	       N/A	       N/A	       N/A	        N/A	       N/A	       N/A	       N/A	        N/A	
         R10	    536	      76.5	   16.0493	   2.75805	        N/A	      76.5	   16.0265	   2.79962	        N/A	      76.5	   16.0036	   2.84119	        N/A	       N/A	       N/A	       N/A	        N/A	       N/A	       N/A	       N/A	        N/A	       N/A	       N/A	       N/A	        N/A	       N/A	       N/A	       N/A	        N/A	       N/A	       N/A	       N/A	        N/A	
         R10	    537	      76.5	   16.0965	   2.67232	        N/A	      76.5	   16.0729	   2.71519	        N/A	      76.5	   16.0493	   2.75805	        N/A	       N/A	       N/A	       N/A	        N/A	       N/A	       N/A	       N/A	        N/A	       N/A	       N/A	       N/A	        N/A	       N/A	       N/A	       N/A	        N/A	       N/A	       N/A	       N/A	        N/A	
         R10	    538	      76.5	    16.145	   2.58402	        N/A	      76.5	   16.1208	   2.62817	        N/A	      76.5	   16.0965	   2.67232	        N/A	       N/A	       N/A	       N/A	        N/A	       N/A	       N/A	       N/A	        N/A	       N/A	       N/A	       N/A	        N/A	       N/A	       N/A	       N/A	        N/A	       N/A	       N/A	       N/A	        N/A	
         R10	    539	      76.5	    16.195	   2.49314	        N/A	      76.5	     16.17	   2.53858	        N/A	      76.5	    16.145	   2.58402	        N/A	       N/A	       N/A	       N/A	        N/A	       N/A	       N/A	       N/A	        N/A	       N/A	       N/A	       N/A	        N/A	       N/A	       N/A	       N/A	        N/A	       N/A	       N/A	       N/A	        N/A	
         R10	    540	      76.5	   16.2464	   2.39967	        N/A	      76.5	   16.2207	    2.4464	        N/A	      76.5	    16.195	   2.49314	        N/A	       N/A	       N/A	       N/A	        N/A	       N/A	       N/A	       N/A	        N/A	       N/A	       N/A	       N/A	        N/A	       N/A	       N/A	       N/A	        N/A	       N/A	       N/A	       N/A	        N/A	
         R10	    541	      76.5	   16.2993	   2.30363	        N/A	      76.5	   16.2729	   2.35165	        N/A	      76.5	   16.2464	   2.39967	        N/A	       N/A	       N/A	       N/A	        N/A	       N/A	       N/A	       N/A	        N/A	       N/A	       N/A	       N/A	        N/A	       N/A	       N/A	       N/A	        N/A	       N/A	       N/A	       N/A	        N/A	
         R10	    542	      76.5	   16.3535	     2.205	        N/A	      76.5	   16.3264	   2.25431	        N/A	      76.5	   16.2993	   2.30363	        N/A	       N/A	       N/A	       N/A	        N/A	       N/A	       N/A	       N/A	        N/A	       N/A	       N/A	       N/A	        N/A	       N/A	       N/A	       N/A	        N/A	       N/A	       N/A	       N/A	        N/A	
         R10	    543	      76.5	   16.4092	   2.10379	        N/A	      76.5	   16.3814	   2.15439	        N/A	      76.5	   16.3535	     2.205	        N/A	       N/A	       N/A	       N/A	        N/A	       N/A	       N/A	       N/A	        N/A	       N/A	       N/A	       N/A	        N/A	       N/A	       N/A	       N/A	        N/A	       N/A	       N/A	       N/A	        N/A	
         R10	    544	      76.5	   16.4663	         2	        N/A	      76.5	   16.4377	   2.05189	        N/A	      76.5	   16.4092	   2.10379	        N/A	       N/A	       N/A	       N/A	        N/A	       N/A	       N/A	       N/A	        N/A	       N/A	       N/A	       N/A	        N/A	       N/A	       N/A	       N/A	        N/A	       N/A	       N/A	       N/A	        N/A	
         R10	    545	      76.5	   16.3597	   1.96344	        N/A	      76.5	    16.413	   1.98172	        N/A	      76.5	   16.4663	         2	        N/A	       N/A	       N/A	       N/A	        N/A	       N/A	       N/A	       N/A	        N/A	       N/A	       N/A	       N/A	        N/A	       N/A	       N/A	       N/A	        N/A	       N/A	       N/A	       N/A	        N/A	
         R10	    546	      76.5	   16.2559	   1.92784	        N/A	      76.5	   16.3078	   1.94564	        N/A	      76.5	   16.3597	   1.96344	        N/A	       N/A	       N/A	       N/A	        N/A	       N/A	       N/A	       N/A	        N/A	       N/A	       N/A	       N/A	        N/A	       N/A	       N/A	       N/A	        N/A	       N/A	       N/A	       N/A	        N/A	
         R10	    547	      76.5	   16.1549	    1.8932	        N/A	      76.5	   16.2054	   1.91052	        N/A	      76.5	   16.2559	   1.92784	        N/A	       N/A	       N/A	       N/A	        N/A	       N/A	       N/A	       N/A	        N/A	       N/A	       N/A	       N/A	        N/A	       N/A	       N/A	       N/A	        N/A	       N/A	       N/A	       N/A	        N/A	
         R10	    548	      76.5	   16.0567	   1.85954	        N/A	      76.5	   16.1058	   1.87637	        N/A	      76.5	   16.1549	    1.8932	        N/A	       N/A	       N/A	       N/A	        N/A	       N/A	       N/A	       N/A	        N/A	       N/A	       N/A	       N/A	        N/A	       N/A	       N/A	       N/A	        N/A	       N/A	       N/A	       N/A	        N/A	
         R10	    549	      76.5	   15.9614	   1.82684	        N/A	      76.5	   16.0091	   1.84319	        N/A	      76.5	   16.0567	   1.85954	        N/A	       N/A	       N/A	       N/A	        N/A	       N/A	       N/A	       N/A	        N/A	       N/A	       N/A	       N/A	        N/A	       N/A	       N/A	       N/A	        N/A	       N/A	       N/A	       N/A	        N/A	
         R10	    550	      76.5	   15.8689	    1.7951	        N/A	      76.5	   15.9151	   1.81097	        N/A	      76.5	   15.9614	   1.82684	        N/A	       N/A	       N/A	       N/A	        N/A	       N/A	       N/A	       N/A	        N/A	       N/A	       N/A	       N/A	        N/A	       N/A	       N/A	       N/A	        N/A	       N/A	       N/A	       N/A	        N/A	
         R10	    551	      76.5	   15.7791	   1.76433	        N/A	      76.5	    15.824	   1.77972	        N/A	      76.5	   15.8689	    1.7951	        N/A	       N/A	       N/A	       N/A	        N/A	       N/A	       N/A	       N/A	        N/A	       N/A	       N/A	       N/A	        N/A	       N/A	       N/A	       N/A	        N/A	       N/A	       N/A	       N/A	        N/A	
         R10	    552	      76.5	   15.6922	   1.73453	        N/A	      76.5	   15.7357	   1.74943	        N/A	      76.5	   15.7791	   1.76433	        N/A	       N/A	       N/A	       N/A	        N/A	       N/A	       N/A	       N/A	        N/A	       N/A	       N/A	       N/A	        N/A	       N/A	       N/A	       N/A	        N/A	       N/A	       N/A	       N/A	        N/A	
         R10	    553	      76.5	   15.6082	   1.70569	        N/A	      76.5	   15.6502	   1.72011	        N/A	      76.5	   15.6922	   1.73453	        N/A	       N/A	       N/A	       N/A	        N/A	       N/A	       N/A	       N/A	        N/A	       N/A	       N/A	       N/A	        N/A	       N/A	       N/A	       N/A	        N/A	       N/A	       N/A	       N/A	        N/A	
         R10	    554	      76.5	   15.5269	   1.67782	        N/A	      76.5	   15.5675	   1.69176	        N/A	      76.5	   15.6082	   1.70569	        N/A	       N/A	       N/A	       N/A	        N/A	       N/A	       N/A	       N/A	        N/A	       N/A	       N/A	       N/A	        N/A	       N/A	       N/A	       N/A	        N/A	       N/A	       N/A	       N/A	        N/A	
         R10	    555	      76.5	   15.4484	   1.65091	        N/A	      76.5	   15.4877	   1.66437	        N/A	      76.5	   15.5269	   1.67782	        N/A	       N/A	       N/A	       N/A	        N/A	       N/A	       N/A	       N/A	        N/A	       N/A	       N/A	       N/A	        N/A	       N/A	       N/A	       N/A	        N/A	       N/A	       N/A	       N/A	        N/A	
         R10	    556	      76.5	   15.3728	   1.62497	        N/A	      76.5	   15.4106	   1.63794	        N/A	      76.5	   15.4484	   1.65091	        N/A	       N/A	       N/A	       N/A	        N/A	       N/A	       N/A	       N/A	        N/A	       N/A	       N/A	       N/A	        N/A	       N/A	       N/A	       N/A	        N/A	       N/A	       N/A	       N/A	        N/A	
         R10	    557	      76.5	      15.3	       1.6	        N/A	      76.5	   15.3364	   1.61249	        N/A	      76.5	   15.3728	   1.62497	        N/A	       N/A	       N/A	       N/A	        N/A	       N/A	       N/A	       N/A	        N/A	       N/A	       N/A	       N/A	        N/A	       N/A	       N/A	       N/A	        N/A	       N/A	       N/A	       N/A	        N/A	
         R10	    558	     77.35	      15.3	       1.6	        N/A	   77.4007	      15.3	       1.6	        N/A	   77.4514	      15.3	       1.6	        N/A	       N/A	       N/A	       N/A	        N/A	       N/A	       N/A	       N/A	        N/A	       N/A	       N/A	       N/A	        N/A	       N/A	       N/A	       N/A	        N/A	       N/A	       N/A	       N/A	        N/A	
         R10	    559	   77.4514	      15.3	       1.6	        N/A	   77.5104	      15.3	       1.6	        N/A	   77.5694	      15.3	       1.6	        N/A	       N/A	       N/A	       N/A	        N/A	       N/A	       N/A	       N/A	        N/A	       N/A	       N/A	       N/A	        N/A	       N/A	       N/A	       N/A	        N/A	       N/A	       N/A	       N/A	        N/A	
         R10	    560	   77.5694	      15.3	       1.6	        N/A	   77.6366	      15.3	       1.6	        N/A	   77.7039	      15.3	       1.6	        N/A	       N/A	       N/A	       N/A	        N/A	       N/A	       N/A	       N/A	        N/A	       N/A	       N/A	       N/A	        N/A	       N/A	       N/A	       N/A	        N/A	       N/A	       N/A	       N/A	        N/A	
         R10	    561	   77.7039	      15.3	       1.6	        N/A	   77.7794	      15.3	       1.6	        N/A	    77.855	      15.3	       1.6	        N/A	       N/A	       N/A	       N/A	        N/A	       N/A	       N/A	       N/A	        N/A	       N/A	       N/A	       N/A	        N/A	       N/A	       N/A	       N/A	        N/A	       N/A	       N/A	       N/A	        N/A	
         R10	    562	    77.855	      15.3	       1.6	        N/A	   77.9388	      15.3	       1.6	        N/A	   78.0226	      15.3	       1.6	        N/A	       N/A	       N/A	       N/A	        N/A	       N/A	       N/A	       N/A	        N/A	       N/A	       N/A	       N/A	        N/A	       N/A	       N/A	       N/A	        N/A	       N/A	       N/A	       N/A	        N/A	
         R10	    563	   78.0226	      15.3	       1.6	        N/A	   78.1147	      15.3	       1.6	        N/A	   78.2069	      15.3	       1.6	        N/A	       N/A	       N/A	       N/A	        N/A	       N/A	       N/A	       N/A	        N/A	       N/A	       N/A	       N/A	        N/A	       N/A	       N/A	       N/A	        N/A	       N/A	       N/A	       N/A	        N/A	
         R10	    564	   78.2069	      15.3	       1.6	        N/A	   78.3073	      15.3	       1.6	        N/A	   78.4076	      15.3	       1.6	        N/A	       N/A	       N/A	       N/A	        N/A	       N/A	       N/A	       N/A	        N/A	       N/A	       N/A	       N/A	        N/A	       N/A	       N/A	       N/A	        N/A	       N/A	       N/A	       N/A	        N/A	
         R10	    565	   78.4076	      15.3	       1.6	        N/A	   78.5163	      15.3	       1.6	        N/A	    78.625	      15.3	       1.6	        N/A	       N/A	       N/A	       N/A	        N/A	       N/A	       N/A	       N/A	        N/A	       N/A	       N/A	       N/A	        N/A	       N/A	       N/A	       N/A	        N/A	       N/A	       N/A	       N/A	        N/A	
         R10	    566	      76.5	    16.834	  0.304533	        N/A	      76.5	    16.867	  0.152267	        N/A	      76.5	      16.9	         0	        N/A	       N/A	       N/A	       N/A	        N/A	       N/A	       N/A	       N/A	        N/A	       N/A	       N/A	       N/A	        N/A	       N/A	       N/A	       N/A	        N/A	       N/A	       N/A	       N/A	        N/A	
         R10	    567	      76.5	   16.7761	    0.5712	        N/A	      76.5	    16.805	  0.437866	        N/A	      76.5	    16.834	  0.304533	        N/A	       N/A	       N/A	       N/A	        N/A	       N/A	       N/A	       N/A	        N/A	       N/A	       N/A	       N/A	        N/A	       N/A	       N/A	       N/A	        N/A	       N/A	       N/A	       N/A	        N/A	
         R10	    568	      76.5	   16.7265	       0.8	        N/A	      76.5	   16.7513	    0.6856	        N/A	      76.5	   16.7761	    0.5712	        N/A	       N/A	       N/A	       N/A	        N/A	       N/A	       N/A	       N/A	        N/A	       N/A	       N/A	       N/A	        N/A	       N/A	       N/A	       N/A	        N/A	       N/A	       N/A	       N/A	        N/A	
         R10	    569	      76.5	   18.4883	  0.365008	        N/A	      76.5	   18.4941	  0.182504	        N/A	      76.5	      18.5	         0	        N/A	       N/A	       N/A	       N/A	        N/A	       N/A	       N/A	       N/A	        N/A	       N/A	       N/A	       N/A	        N/A	       N/A	       N/A	       N/A	        N/A	       N/A	       N/A	       N/A	        N/A	
         R10	    570	      76.5	   18.4769	  0.717345	        N/A	      76.5	   18.4826	  0.541176	        N/A	      76.5	   18.4883	  0.365008	        N/A	       N/A	       N/A	       N/A	        N/A	       N/A	       N/A	       N/A	        N/A	       N/A	       N/A	       N/A	        N/A	       N/A	       N/A	       N/A	        N/A	       N/A	       N/A	       N/A	        N/A	
         R10	    571	      76.5	    18.466	   1.05701	        N/A	      76.5	   18.4715	  0.887179	        N/A	      76.5	   18.4769	  0.717345	        N/A	       N/A	       N/A	       N/A	        N/A	       N/A	       N/A	       N/A	        N/A	       N/A	       N/A	       N/A	        N/A	       N/A	       N/A	       N/A	        N/A	       N/A	       N/A	       N/A	        N/A	
         R10	    572	      76.5	   18.4555	   1.38401	        N/A	      76.5	   18.4608	   1.22051	        N/A	      76.5	    18.466	   1.05701	        N/A	       N/A	       N/A	       N/A	        N/A	       N/A	       N/A	       N/A	        N/A	       N/A	       N/A	       N/A	        N/A	       N/A	       N/A	       N/A	        N/A	       N/A	       N/A	       N/A	        N/A	
         R10	    573	      76.5	   18.4454	   1.69834	        N/A	      76.5	   18.4504	   1.54118	        N/A	      76.5	   18.4555	   1.38401	        N/A	       N/A	       N/A	       N/A	        N/A	       N/A	       N/A	       N/A	        N/A	       N/A	       N/A	       N/A	        N/A	       N/A	       N/A	       N/A	        N/A	       N/A	       N/A	       N/A	        N/A	
         R10	    574	      76.5	   18.4357	         2	        N/A	      76.5	   18.4405	   1.84917	        N/A	      76.5	   18.4454	   1.69834	        N/A	       N/A	       N/A	       N/A	        N/A	       N/A	       N/A	       N/A	        N/A	       N/A	       N/A	       N/A	        N/A	       N/A	       N/A	       N/A	        N/A	       N/A	       N/A	       N/A	        N/A	
         R10	    575	      76.5	   19.3629	  0.419048	        N/A	      76.5	   19.3314	  0.209524	        N/A	      76.5	      19.3	         0	        N/A	       N/A	       N/A	       N/A	        N/A	       N/A	       N/A	       N/A	        N/A	       N/A	       N/A	       N/A	        N/A	       N/A	       N/A	       N/A	        N/A	       N/A	       N/A	       N/A	        N/A	
         R10	    576	      76.5	   19.4243	  0.828571	        N/A	      76.5	   19.3936	   0.62381	        N/A	      76.5	   19.3629	  0.419048	        N/A	       N/A	       N/A	       N/A	        N/A	       N/A	       N/A	       N/A	        N/A	       N/A	       N/A	       N/A	        N/A	       N/A	       N/A	       N/A	        N/A	       N/A	       N/A	       N/A	        N/A	
         R10	    577	      76.5	   19.4843	   1.22857	        N/A	      76.5	   19.4543	   1.02857	        N/A	      76.5	   19.4243	  0.828571	        N/A	       N/A	       N/A	       N/A	        N/A	       N/A	       N/A	       N/A	        N/A	       N/A	       N/A	       N/A	        N/A	       N/A	       N/A	       N/A	        N/A	       N/A	       N/A	       N/A	        N/A	
         R10	    578	      76.5	   19.5429	   1.61905	        N/A	      76.5	   19.5136	   1.42381	        N/A	      76.5	   19.4843	   1.22857	        N/A	       N/A	       N/A	       N/A	        N/A	       N/A	       N/A	       N/A	        N/A	       N/A	       N/A	       N/A	        N/A	       N/A	       N/A	       N/A	        N/A	       N/A	       N/A	       N/A	        N/A	
         R10	    579	      76.5	      19.6	         2	        N/A	      76.5	   19.5714	   1.80952	        N/A	      76.5	   19.5429	   1.61905	        N/A	       N/A	       N/A	       N/A	        N/A	       N/A	       N/A	       N/A	        N/A	       N/A	       N/A	       N/A	        N/A	       N/A	       N/A	       N/A	        N/A	       N/A	       N/A	       N/A	        N/A	
         R10	    580	      76.5	   20.9238	   4.32697	        N/A	      76.5	   21.2119	   4.41348	        N/A	      76.5	      21.5	       4.5	        N/A	       N/A	       N/A	       N/A	        N/A	       N/A	       N/A	       N/A	        N/A	       N/A	       N/A	       N/A	        N/A	       N/A	       N/A	       N/A	        N/A	       N/A	       N/A	       N/A	        N/A	
         R10	    581	      76.5	      20.4	   4.16966	        N/A	      76.5	   20.6619	   4.24831	        N/A	      76.5	   20.9238	   4.32697	        N/A	       N/A	       N/A	       N/A	        N/A	       N/A	       N/A	       N/A	        N/A	       N/A	       N/A	       N/A	        N/A	       N/A	       N/A	       N/A	        N/A	       N/A	       N/A	       N/A	        N/A	
         R10	    582	      76.5	   20.9224	   2.89498	        N/A	      76.5	   21.2112	   2.94749	        N/A	      76.5	      21.5	         3	        N/A	       N/A	       N/A	       N/A	        N/A	       N/A	       N/A	       N/A	        N/A	       N/A	       N/A	       N/A	        N/A	       N/A	       N/A	       N/A	        N/A	       N/A	       N/A	       N/A	        N/A	
         R10	    583	      76.5	      20.4	       2.8	        N/A	      76.5	   20.6612	   2.84749	        N/A	      76.5	   20.9224	   2.89498	        N/A	       N/A	       N/A	       N/A	        N/A	       N/A	       N/A	       N/A	        N/A	       N/A	       N/A	       N/A	        N/A	       N/A	       N/A	       N/A	        N/A	       N/A	       N/A	       N/A	        N/A	
         R10	    584	      76.5	    18.925	   4.92276	        N/A	      76.5	   19.0684	   4.79706	        N/A	      76.5	   19.2119	   4.67137	        N/A	       N/A	       N/A	       N/A	        N/A	       N/A	       N/A	       N/A	        N/A	       N/A	       N/A	       N/A	        N/A	       N/A	       N/A	       N/A	        N/A	       N/A	       N/A	       N/A	        N/A	
         R10	    585	      76.5	   18.6483	   5.16518	        N/A	      76.5	   18.7867	   5.04397	        N/A	      76.5	    18.925	   4.92276	        N/A	       N/A	       N/A	       N/A	        N/A	       N/A	       N/A	       N/A	        N/A	       N/A	       N/A	       N/A	        N/A	       N/A	       N/A	       N/A	        N/A	       N/A	       N/A	       N/A	        N/A	
         R10	    586	      76.5	   18.3819	   5.39863	        N/A	      76.5	   18.5151	    5.2819	        N/A	      76.5	   18.6483	   5.16518	        N/A	       N/A	       N/A	       N/A	        N/A	       N/A	       N/A	       N/A	        N/A	       N/A	       N/A	       N/A	        N/A	       N/A	       N/A	       N/A	        N/A	       N/A	       N/A	       N/A	        N/A	
         R10	    587	      76.5	   19.1479	   5.36211	        N/A	      76.5	   19.3364	   5.35313	        N/A	      76.5	   19.5249	   5.34415	        N/A	       N/A	       N/A	       N/A	        N/A	       N/A	       N/A	       N/A	        N/A	       N/A	       N/A	       N/A	        N/A	       N/A	       N/A	       N/A	        N/A	       N/A	       N/A	       N/A	        N/A	
         R10	    588	      76.5	    18.767	   5.38027	        N/A	      76.5	   18.9574	   5.37119	        N/A	      76.5	   19.1479	   5.36211	        N/A	       N/A	       N/A	       N/A	        N/A	       N/A	       N/A	       N/A	        N/A	       N/A	       N/A	       N/A	        N/A	       N/A	       N/A	       N/A	        N/A	       N/A	       N/A	       N/A	        N/A	
         R10	    589	      76.5	   18.3819	   5.39863	        N/A	      76.5	   18.5744	   5.38945	        N/A	      76.5	    18.767	   5.38027	        N/A	       N/A	       N/A	       N/A	        N/A	       N/A	       N/A	       N/A	        N/A	       N/A	       N/A	       N/A	        N/A	       N/A	       N/A	       N/A	        N/A	       N/A	       N/A	       N/A	        N/A	
         R10	    590	      76.5	   19.5249	   5.34415	        N/A	      76.5	   19.7179	   5.33495	        N/A	      76.5	   19.9109	   5.32574	        N/A	       N/A	       N/A	       N/A	        N/A	       N/A	       N/A	       N/A	        N/A	       N/A	       N/A	       N/A	        N/A	       N/A	       N/A	       N/A	        N/A	       N/A	       N/A	       N/A	        N/A	
         R10	    591	      76.5	   20.2199	   5.31102	        N/A	      76.5	   20.3899	   5.30292	        N/A	      76.5	   20.5598	   5.29481	        N/A	       N/A	       N/A	       N/A	        N/A	       N/A	       N/A	       N/A	        N/A	       N/A	       N/A	       N/A	        N/A	       N/A	       N/A	       N/A	        N/A	       N/A	       N/A	       N/A	        N/A	
         R10	    592	      76.5	   19.9109	   5.32574	        N/A	      76.5	   20.0654	   5.31838	        N/A	      76.5	   20.2199	   5.31102	        N/A	       N/A	       N/A	       N/A	        N/A	       N/A	       N/A	       N/A	        N/A	       N/A	       N/A	       N/A	        N/A	       N/A	       N/A	       N/A	        N/A	       N/A	       N/A	       N/A	        N/A	
         R10	    593	      76.5	   20.9852	   5.27454	        N/A	      76.5	   21.2426	   5.26227	        N/A	      76.5	      21.5	      5.25	        N/A	       N/A	       N/A	       N/A	        N/A	       N/A	       N/A	       N/A	        N/A	       N/A	       N/A	       N/A	        N/A	       N/A	       N/A	       N/A	        N/A	       N/A	       N/A	       N/A	        N/A	
         R10	    594	      76.5	   20.5598	   5.29481	        N/A	      76.5	   20.7725	   5.28468	        N/A	      76.5	   20.9852	   5.27454	        N/A	       N/A	       N/A	       N/A	        N/A	       N/A	       N/A	       N/A	        N/A	       N/A	       N/A	       N/A	        N/A	       N/A	       N/A	       N/A	        N/A	       N/A	       N/A	       N/A	        N/A	
         R10	    595	      76.5	      20.4	   2.38095	        N/A	      76.5	      20.4	   2.59048	        N/A	      76.5	      20.4	       2.8	        N/A	       N/A	       N/A	       N/A	        N/A	       N/A	       N/A	       N/A	        N/A	       N/A	       N/A	       N/A	        N/A	       N/A	       N/A	       N/A	        N/A	       N/A	       N/A	       N/A	        N/A	
         R10	    596	      76.5	      20.4	         2	        N/A	      76.5	      20.4	   2.19048	        N/A	      76.5	      20.4	   2.38095	        N/A	       N/A	       N/A	       N/A	        N/A	       N/A	       N/A	       N/A	        N/A	       N/A	       N/A	       N/A	        N/A	       N/A	       N/A	       N/A	        N/A	       N/A	       N/A	       N/A	        N/A	
         R10	    597	      76.5	      20.4	       2.8	        N/A	      76.5	      20.4	   3.14242	        N/A	      76.5	      20.4	   3.48483	        N/A	       N/A	       N/A	       N/A	        N/A	       N/A	       N/A	       N/A	        N/A	       N/A	       N/A	       N/A	        N/A	       N/A	       N/A	       N/A	        N/A	       N/A	       N/A	       N/A	        N/A	
         R10	    598	      76.5	      20.4	   3.48483	        N/A	      76.5	      20.4	   3.82725	        N/A	      76.5	      20.4	   4.16966	        N/A	       N/A	       N/A	       N/A	        N/A	       N/A	       N/A	       N/A	        N/A	       N/A	       N/A	       N/A	        N/A	       N/A	       N/A	       N/A	        N/A	       N/A	       N/A	       N/A	        N/A	
         R10	    599	      76.5	   17.6783	   3.59945	        N/A	      76.5	   17.7781	   3.48641	        N/A	      76.5	   17.8778	   3.37338	        N/A	       N/A	       N/A	       N/A	        N/A	       N/A	       N/A	       N/A	        N/A	       N/A	       N/A	       N/A	        N/A	       N/A	       N/A	       N/A	        N/A	       N/A	       N/A	       N/A	        N/A	
         R10	    600	      76.5	   17.4904	   3.81243	        N/A	      76.5	   17.5844	   3.70594	        N/A	      76.5	   17.6783	   3.59945	        N/A	       N/A	       N/A	       N/A	        N/A	       N/A	       N/A	       N/A	        N/A	       N/A	       N/A	       N/A	        N/A	       N/A	       N/A	       N/A	        N/A	       N/A	       N/A	       N/A	        N/A	
         R10	    601	      76.5	    17.314	   4.01234	        N/A	      76.5	   17.4022	   3.91239	        N/A	      76.5	   17.4904	   3.81243	        N/A	       N/A	       N/A	       N/A	        N/A	       N/A	       N/A	       N/A	        N/A	       N/A	       N/A	       N/A	        N/A	       N/A	       N/A	       N/A	        N/A	       N/A	       N/A	       N/A	        N/A	
         R10	    602	      76.5	   17.1492	   4.19918	        N/A	      76.5	   17.2316	   4.10576	        N/A	      76.5	    17.314	   4.01234	        N/A	       N/A	       N/A	       N/A	        N/A	       N/A	       N/A	       N/A	        N/A	       N/A	       N/A	       N/A	        N/A	       N/A	       N/A	       N/A	        N/A	       N/A	       N/A	       N/A	        N/A	
         R10	    603	      76.5	   20.4558	   4.56257	        N/A	      76.5	   20.4279	   4.36612	        N/A	      76.5	      20.4	   4.16966	        N/A	       N/A	       N/A	       N/A	        N/A	       N/A	       N/A	       N/A	        N/A	       N/A	       N/A	       N/A	        N/A	       N/A	       N/A	       N/A	        N/A	       N/A	       N/A	       N/A	        N/A	
         R10	    604	      76.5	   20.5091	   4.93762	        N/A	      76.5	   20.4825	    4.7501	        N/A	      76.5	   20.4558	   4.56257	        N/A	       N/A	       N/A	       N/A	        N/A	       N/A	       N/A	       N/A	        N/A	       N/A	       N/A	       N/A	        N/A	       N/A	       N/A	       N/A	        N/A	       N/A	       N/A	       N/A	        N/A	
         R10	    605	      76.5	   20.5598	   5.29481	        N/A	      76.5	   20.5345	   5.11622	        N/A	      76.5	   20.5091	   4.93762	        N/A	       N/A	       N/A	       N/A	        N/A	       N/A	       N/A	       N/A	        N/A	       N/A	       N/A	       N/A	        N/A	       N/A	       N/A	       N/A	        N/A	       N/A	       N/A	       N/A	        N/A	
         R10	    606	      76.5	   20.6075	   5.63062	        N/A	      76.5	   20.5837	   5.46272	        N/A	      76.5	   20.5598	   5.29481	        N/A	       N/A	       N/A	       N/A	        N/A	       N/A	       N/A	       N/A	        N/A	       N/A	       N/A	       N/A	        N/A	       N/A	       N/A	       N/A	        N/A	       N/A	       N/A	       N/A	        N/A	
         R10	    607	      76.5	     20.66	         6	        N/A	      76.5	   20.6338	   5.81531	        N/A	      76.5	   20.6075	   5.63062	        N/A	       N/A	       N/A	       N/A	        N/A	       N/A	       N/A	       N/A	        N/A	       N/A	       N/A	       N/A	        N/A	       N/A	       N/A	       N/A	        N/A	       N/A	       N/A	       N/A	        N/A	
         R10	    608	      76.5	   17.5663	   1.07408	        N/A	      76.5	   17.5833	   0.93704	        N/A	      76.5	   17.6004	       0.8	        N/A	       N/A	       N/A	       N/A	        N/A	       N/A	       N/A	       N/A	        N/A	       N/A	       N/A	       N/A	        N/A	       N/A	       N/A	       N/A	        N/A	       N/A	       N/A	       N/A	        N/A	
         R10	    609	      76.5	   17.5343	   1.33112	        N/A	      76.5	   17.5503	    1.2026	        N/A	      76.5	   17.5663	   1.07408	        N/A	       N/A	       N/A	       N/A	        N/A	       N/A	       N/A	       N/A	        N/A	       N/A	       N/A	       N/A	        N/A	       N/A	       N/A	       N/A	        N/A	       N/A	       N/A	       N/A	        N/A	
         R10	    610	      76.5	   17.5044	   1.57112	        N/A	      76.5	   17.5193	   1.45112	        N/A	      76.5	   17.5343	   1.33112	        N/A	       N/A	       N/A	       N/A	        N/A	       N/A	       N/A	       N/A	        N/A	       N/A	       N/A	       N/A	        N/A	       N/A	       N/A	       N/A	        N/A	       N/A	       N/A	       N/A	        N/A	
         R10	    611	      76.5	   17.4766	   1.79408	        N/A	      76.5	   17.4905	    1.6826	        N/A	      76.5	   17.5044	   1.57112	        N/A	       N/A	       N/A	       N/A	        N/A	       N/A	       N/A	       N/A	        N/A	       N/A	       N/A	       N/A	        N/A	       N/A	       N/A	       N/A	        N/A	       N/A	       N/A	       N/A	        N/A	
         R10	    612	      76.5	    17.451	         2	        N/A	      76.5	   17.4638	   1.89704	        N/A	      76.5	   17.4766	   1.79408	        N/A	       N/A	       N/A	       N/A	        N/A	       N/A	       N/A	       N/A	        N/A	       N/A	       N/A	       N/A	        N/A	       N/A	       N/A	       N/A	        N/A	       N/A	       N/A	       N/A	        N/A	
         R10	    613	      76.5	   17.6636	  0.292006	        N/A	      76.5	   17.6818	  0.146003	        N/A	      76.5	      17.7	         0	        N/A	       N/A	       N/A	       N/A	        N/A	       N/A	       N/A	       N/A	        N/A	       N/A	       N/A	       N/A	        N/A	       N/A	       N/A	       N/A	        N/A	       N/A	       N/A	       N/A	        N/A	
         R10	    614	      76.5	   17.6304	  0.558673	        N/A	      76.5	    17.647	  0.425339	        N/A	      76.5	   17.6636	  0.292006	        N/A	       N/A	       N/A	       N/A	        N/A	       N/A	       N/A	       N/A	        N/A	       N/A	       N/A	       N/A	        N/A	       N/A	       N/A	       N/A	        N/A	       N/A	       N/A	       N/A	        N/A	
         R10	    615	      76.5	   17.6004	       0.8	        N/A	      76.5	   17.6154	  0.679336	        N/A	      76.5	   17.6304	  0.558673	        N/A	       N/A	       N/A	       N/A	        N/A	       N/A	       N/A	       N/A	        N/A	       N/A	       N/A	       N/A	        N/A	       N/A	       N/A	       N/A	        N/A	       N/A	       N/A	       N/A	        N/A	
         R10	    616	      76.5	   18.1431	         2	        N/A	      76.5	   18.2894	         2	        N/A	      76.5	   18.4357	         2	        N/A	       N/A	       N/A	       N/A	        N/A	       N/A	       N/A	       N/A	        N/A	       N/A	       N/A	       N/A	        N/A	       N/A	       N/A	       N/A	        N/A	       N/A	       N/A	       N/A	        N/A	
         R10	    617	      76.5	   17.8815	         2	        N/A	      76.5	   18.0123	         2	        N/A	      76.5	   18.1431	         2	        N/A	       N/A	       N/A	       N/A	        N/A	       N/A	       N/A	       N/A	        N/A	       N/A	       N/A	       N/A	        N/A	       N/A	       N/A	       N/A	        N/A	       N/A	       N/A	       N/A	        N/A	
         R10	    618	      76.5	   17.6508	         2	        N/A	      76.5	   17.7662	         2	        N/A	      76.5	   17.8815	         2	        N/A	       N/A	       N/A	       N/A	        N/A	       N/A	       N/A	       N/A	        N/A	       N/A	       N/A	       N/A	        N/A	       N/A	       N/A	       N/A	        N/A	       N/A	       N/A	       N/A	        N/A	
         R10	    619	      76.5	    17.451	         2	        N/A	      76.5	   17.5509	         2	        N/A	      76.5	   17.6508	         2	        N/A	       N/A	       N/A	       N/A	        N/A	       N/A	       N/A	       N/A	        N/A	       N/A	       N/A	       N/A	        N/A	       N/A	       N/A	       N/A	        N/A	       N/A	       N/A	       N/A	        N/A	
         R10	    620	      76.5	   19.1568	         2	        N/A	      76.5	   19.3784	         2	        N/A	      76.5	      19.6	         2	        N/A	       N/A	       N/A	       N/A	        N/A	       N/A	       N/A	       N/A	        N/A	       N/A	       N/A	       N/A	        N/A	       N/A	       N/A	       N/A	        N/A	       N/A	       N/A	       N/A	        N/A	
         R10	    621	      76.5	   18.7687	         2	        N/A	      76.5	   18.9627	         2	        N/A	      76.5	   19.1568	         2	        N/A	       N/A	       N/A	       N/A	        N/A	       N/A	       N/A	       N/A	        N/A	       N/A	       N/A	       N/A	        N/A	       N/A	       N/A	       N/A	        N/A	       N/A	       N/A	       N/A	        N/A	
         R10	    622	      76.5	   18.4357	         2	        N/A	      76.5	   18.6022	         2	        N/A	      76.5	   18.7687	         2	        N/A	       N/A	       N/A	       N/A	        N/A	       N/A	       N/A	       N/A	        N/A	       N/A	       N/A	       N/A	        N/A	       N/A	       N/A	       N/A	        N/A	       N/A	       N/A	       N/A	        N/A	
         R10	    623	      76.5	    19.981	         2	        N/A	      76.5	   20.1905	         2	        N/A	      76.5	      20.4	         2	        N/A	       N/A	       N/A	       N/A	        N/A	       N/A	       N/A	       N/A	        N/A	       N/A	       N/A	       N/A	        N/A	       N/A	       N/A	       N/A	        N/A	       N/A	       N/A	       N/A	        N/A	
         R10	    624	      76.5	      19.6	         2	        N/A	      76.5	   19.7905	         2	        N/A	      76.5	    19.981	         2	        N/A	       N/A	       N/A	       N/A	        N/A	       N/A	       N/A	       N/A	        N/A	       N/A	       N/A	       N/A	        N/A	       N/A	       N/A	       N/A	        N/A	       N/A	       N/A	       N/A	        N/A	
         R10	    625	      76.5	   17.6578	   3.15932	        N/A	      76.5	   17.7678	   3.26635	        N/A	      76.5	   17.8778	   3.37338	        N/A	       N/A	       N/A	       N/A	        N/A	       N/A	       N/A	       N/A	        N/A	       N/A	       N/A	       N/A	        N/A	       N/A	       N/A	       N/A	        N/A	       N/A	       N/A	       N/A	        N/A	
         R10	    626	      76.5	   17.4652	   2.97188	        N/A	      76.5	   17.5615	    3.0656	        N/A	      76.5	   17.6578	   3.15932	        N/A	       N/A	       N/A	       N/A	        N/A	       N/A	       N/A	       N/A	        N/A	       N/A	       N/A	       N/A	        N/A	       N/A	       N/A	       N/A	        N/A	       N/A	       N/A	       N/A	        N/A	
         R10	    627	      76.5	   17.2999	   2.81105	        N/A	      76.5	   17.3825	   2.89147	        N/A	      76.5	   17.4652	   2.97188	        N/A	       N/A	       N/A	       N/A	        N/A	       N/A	       N/A	       N/A	        N/A	       N/A	       N/A	       N/A	        N/A	       N/A	       N/A	       N/A	        N/A	       N/A	       N/A	       N/A	        N/A	
         R10	    628	      76.5	   18.2936	   3.77795	        N/A	      76.5	   18.4131	   3.89423	        N/A	      76.5	   18.5326	    4.0105	        N/A	       N/A	       N/A	       N/A	        N/A	       N/A	       N/A	       N/A	        N/A	       N/A	       N/A	       N/A	        N/A	       N/A	       N/A	       N/A	        N/A	       N/A	       N/A	       N/A	        N/A	
         R10	    629	      76.5	   18.0753	   3.56557	        N/A	      76.5	   18.1845	   3.67176	        N/A	      76.5	   18.2936	   3.77795	        N/A	       N/A	       N/A	       N/A	        N/A	       N/A	       N/A	       N/A	        N/A	       N/A	       N/A	       N/A	        N/A	       N/A	       N/A	       N/A	        N/A	       N/A	       N/A	       N/A	        N/A	
         R10	    630	      76.5	   17.8778	   3.37338	        N/A	      76.5	   17.9766	   3.46948	        N/A	      76.5	   18.0753	   3.56557	        N/A	       N/A	       N/A	       N/A	        N/A	       N/A	       N/A	       N/A	        N/A	       N/A	       N/A	       N/A	        N/A	       N/A	       N/A	       N/A	        N/A	       N/A	       N/A	       N/A	        N/A	
         R10	    631	      76.5	   18.8436	   4.31303	        N/A	      76.5	   19.0277	    4.4922	        N/A	      76.5	   19.2119	   4.67137	        N/A	       N/A	       N/A	       N/A	        N/A	       N/A	       N/A	       N/A	        N/A	       N/A	       N/A	       N/A	        N/A	       N/A	       N/A	       N/A	        N/A	       N/A	       N/A	       N/A	        N/A	
         R10	    632	      76.5	   18.5326	    4.0105	        N/A	      76.5	   18.6881	   4.16176	        N/A	      76.5	   18.8436	   4.31303	        N/A	       N/A	       N/A	       N/A	        N/A	       N/A	       N/A	       N/A	        N/A	       N/A	       N/A	       N/A	        N/A	       N/A	       N/A	       N/A	        N/A	       N/A	       N/A	       N/A	        N/A	
         R10	    633	     77.35	   15.9164	   2.99973	        N/A	   77.4007	   15.9164	   2.99973	        N/A	   77.4514	   15.9164	   2.99973	        N/A	       N/A	       N/A	       N/A	        N/A	       N/A	       N/A	       N/A	        N/A	       N/A	       N/A	       N/A	        N/A	       N/A	       N/A	       N/A	        N/A	       N/A	       N/A	       N/A	        N/A	
         R10	    634	   77.4514	   15.9164	   2.99973	        N/A	   77.5104	   15.9164	   2.99973	        N/A	   77.5694	   15.9164	   2.99973	        N/A	       N/A	       N/A	       N/A	        N/A	       N/A	       N/A	       N/A	        N/A	       N/A	       N/A	       N/A	        N/A	       N/A	       N/A	       N/A	        N/A	       N/A	       N/A	       N/A	        N/A	
         R10	    635	   77.5694	   15.9164	   2.99973	        N/A	   77.6366	   15.9164	   2.99973	        N/A	   77.7039	   15.9164	   2.99973	        N/A	       N/A	       N/A	       N/A	        N/A	       N/A	       N/A	       N/A	        N/A	       N/A	       N/A	       N/A	        N/A	       N/A	       N/A	       N/A	        N/A	       N/A	       N/A	       N/A	        N/A	
         R10	    636	   77.7039	   15.9164	   2.99973	        N/A	   77.7794	   15.9164	   2.99973	        N/A	    77.855	   15.9164	   2.99973	        N/A	       N/A	       N/A	       N/A	        N/A	       N/A	       N/A	       N/A	        N/A	       N/A	       N/A	       N/A	        N/A	       N/A	       N/A	       N/A	        N/A	       N/A	       N/A	       N/A	        N/A	
         R10	    637	    77.855	   15.9164	   2.99973	        N/A	   77.9388	   15.9164	   2.99973	        N/A	   78.0226	   15.9164	   2.99973	        N/A	       N/A	       N/A	       N/A	        N/A	       N/A	       N/A	       N/A	        N/A	       N/A	       N/A	       N/A	        N/A	       N/A	       N/A	       N/A	        N/A	       N/A	       N/A	       N/A	        N/A	
         R10	    638	   78.0226	   15.9164	   2.99973	        N/A	   78.1147	   15.9164	   2.99973	        N/A	   78.2069	   15.9164	   2.99973	        N/A	       N/A	       N/A	       N/A	        N/A	       N/A	       N/A	       N/A	        N/A	       N/A	       N/A	       N/A	        N/A	       N/A	       N/A	       N/A	        N/A	       N/A	       N/A	       N/A	        N/A	
         R10	    639	   78.2069	   15.9164	   2.99973	        N/A	   78.3073	   15.9164	   2.99973	        N/A	   78.4076	   15.9164	   2.99973	        N/A	       N/A	       N/A	       N/A	        N/A	       N/A	       N/A	       N/A	        N/A	       N/A	       N/A	       N/A	        N/A	       N/A	       N/A	       N/A	        N/A	       N/A	       N/A	       N/A	        N/A	
         R10	    640	   78.4076	   15.9164	   2.99973	        N/A	   78.5163	   15.9164	   2.99973	        N/A	    78.625	   15.9164	   2.99973	        N/A	       N/A	       N/A	       N/A	        N/A	       N/A	       N/A	       N/A	        N/A	       N/A	       N/A	       N/A	        N/A	       N/A	       N/A	       N/A	        N/A	       N/A	       N/A	       N/A	        N/A	
         R10	    641	      76.5	   16.6425	   3.48671	        N/A	      76.5	   16.5876	   3.54308	        N/A	      76.5	   16.5328	   3.59945	        N/A	       N/A	       N/A	       N/A	        N/A	       N/A	       N/A	       N/A	        N/A	       N/A	       N/A	       N/A	        N/A	       N/A	       N/A	       N/A	        N/A	       N/A	       N/A	       N/A	        N/A	
         R10	    642	      76.5	   16.7594	    3.3665	        N/A	      76.5	   16.7009	   3.42661	        N/A	      76.5	   16.6425	   3.48671	        N/A	       N/A	       N/A	       N/A	        N/A	       N/A	       N/A	       N/A	        N/A	       N/A	       N/A	       N/A	        N/A	       N/A	       N/A	       N/A	        N/A	       N/A	       N/A	       N/A	        N/A	
         R10	    643	      76.5	   16.8836	   3.23884	        N/A	      76.5	   16.8215	   3.30267	        N/A	      76.5	   16.7594	    3.3665	        N/A	       N/A	       N/A	       N/A	        N/A	       N/A	       N/A	       N/A	        N/A	       N/A	       N/A	       N/A	        N/A	       N/A	       N/A	       N/A	        N/A	       N/A	       N/A	       N/A	        N/A	
         R10	    644	      76.5	   17.0151	   3.10371	        N/A	      76.5	   16.9494	   3.17127	        N/A	      76.5	   16.8836	   3.23884	        N/A	       N/A	       N/A	       N/A	        N/A	       N/A	       N/A	       N/A	        N/A	       N/A	       N/A	       N/A	        N/A	       N/A	       N/A	       N/A	        N/A	       N/A	       N/A	       N/A	        N/A	
         R10	    645	      76.5	   17.1539	   2.96111	        N/A	      76.5	   17.0845	   3.03241	        N/A	      76.5	   17.0151	   3.10371	        N/A	       N/A	       N/A	       N/A	        N/A	       N/A	       N/A	       N/A	        N/A	       N/A	       N/A	       N/A	        N/A	       N/A	       N/A	       N/A	        N/A	       N/A	       N/A	       N/A	        N/A	
         R10	    646	      76.5	   17.2999	   2.81105	        N/A	      76.5	   17.2269	   2.88608	        N/A	      76.5	   17.1539	   2.96111	        N/A	       N/A	       N/A	       N/A	        N/A	       N/A	       N/A	       N/A	        N/A	       N/A	       N/A	       N/A	        N/A	       N/A	       N/A	       N/A	        N/A	       N/A	       N/A	       N/A	        N/A	
         R10	    647	      76.5	   18.0091	   4.54862	        N/A	      76.5	   17.8873	   4.67376	        N/A	      76.5	   17.7655	    4.7989	        N/A	       N/A	       N/A	       N/A	        N/A	       N/A	       N/A	       N/A	        N/A	       N/A	       N/A	       N/A	        N/A	       N/A	       N/A	       N/A	        N/A	       N/A	       N/A	       N/A	        N/A	
         R10	    648	      76.5	   18.2648	   4.28582	        N/A	      76.5	   18.1369	   4.41722	        N/A	      76.5	   18.0091	   4.54862	        N/A	       N/A	       N/A	       N/A	        N/A	       N/A	       N/A	       N/A	        N/A	       N/A	       N/A	       N/A	        N/A	       N/A	       N/A	       N/A	        N/A	       N/A	       N/A	       N/A	        N/A	
         R10	    649	      76.5	   18.5326	    4.0105	        N/A	      76.5	   18.3987	   4.14816	        N/A	      76.5	   18.2648	   4.28582	        N/A	       N/A	       N/A	       N/A	        N/A	       N/A	       N/A	       N/A	        N/A	       N/A	       N/A	       N/A	        N/A	       N/A	       N/A	       N/A	        N/A	       N/A	       N/A	       N/A	        N/A	
         R10	    650	      76.5	   20.9238	    3.6111	        N/A	      76.5	   21.2119	   3.68055	        N/A	      76.5	      21.5	      3.75	        N/A	       N/A	       N/A	       N/A	        N/A	       N/A	       N/A	       N/A	        N/A	       N/A	       N/A	       N/A	        N/A	       N/A	       N/A	       N/A	        N/A	       N/A	       N/A	       N/A	        N/A	
         R10	    651	      76.5	      20.4	   3.48483	        N/A	      76.5	   20.6619	   3.54797	        N/A	      76.5	   20.9238	    3.6111	        N/A	       N/A	       N/A	       N/A	        N/A	       N/A	       N/A	       N/A	        N/A	       N/A	       N/A	       N/A	        N/A	       N/A	       N/A	       N/A	        N/A	       N/A	       N/A	       N/A	        N/A	
         R10	    652	      76.5	   18.1279	    2.0616	        N/A	      76.5	   18.2787	   2.01555	        N/A	      76.5	   18.4357	         2	        N/A	       N/A	       N/A	       N/A	        N/A	       N/A	       N/A	       N/A	        N/A	       N/A	       N/A	       N/A	        N/A	       N/A	       N/A	       N/A	        N/A	       N/A	       N/A	       N/A	        N/A	
         R10	    653	      76.5	   17.8674	    2.2369	        N/A	      76.5	    17.989	   2.13635	        N/A	      76.5	   18.1279	    2.0616	        N/A	       N/A	       N/A	       N/A	        N/A	       N/A	       N/A	       N/A	        N/A	       N/A	       N/A	       N/A	        N/A	       N/A	       N/A	       N/A	        N/A	       N/A	       N/A	       N/A	        N/A	
         R10	    654	      76.5	   17.6945	   2.49892	        N/A	      76.5	    17.768	   2.35935	        N/A	      76.5	   17.8674	    2.2369	        N/A	       N/A	       N/A	       N/A	        N/A	       N/A	       N/A	       N/A	        N/A	       N/A	       N/A	       N/A	        N/A	       N/A	       N/A	       N/A	        N/A	       N/A	       N/A	       N/A	        N/A	
         R10	    655	      76.5	   17.6357	   2.80731	        N/A	      76.5	   17.6498	    2.6502	        N/A	      76.5	   17.6945	   2.49892	        N/A	       N/A	       N/A	       N/A	        N/A	       N/A	       N/A	       N/A	        N/A	       N/A	       N/A	       N/A	        N/A	       N/A	       N/A	       N/A	        N/A	       N/A	       N/A	       N/A	        N/A	
         R10	    656	      76.5	   17.7001	   3.11456	        N/A	      76.5	   17.6527	   2.96412	        N/A	      76.5	   17.6357	   2.80731	        N/A	       N/A	       N/A	       N/A	        N/A	       N/A	       N/A	       N/A	        N/A	       N/A	       N/A	       N/A	        N/A	       N/A	       N/A	       N/A	        N/A	       N/A	       N/A	       N/A	        N/A	
         R10	    657	      76.5	   17.8778	   3.37338	        N/A	      76.5	   17.7761	   3.25277	        N/A	      76.5	   17.7001	   3.11456	        N/A	       N/A	       N/A	       N/A	        N/A	       N/A	       N/A	       N/A	        N/A	       N/A	       N/A	       N/A	        N/A	       N/A	       N/A	       N/A	        N/A	       N/A	       N/A	       N/A	        N/A	
         R10	    658	      76.5	   19.5705	   4.85758	        N/A	      76.5	   19.7746	   4.86568	        N/A	      76.5	   19.9723	   4.81453	        N/A	       N/A	       N/A	       N/A	        N/A	       N/A	       N/A	       N/A	        N/A	       N/A	       N/A	       N/A	        N/A	       N/A	       N/A	       N/A	        N/A	       N/A	       N/A	       N/A	        N/A	
         R10	    659	      76.5	   19.2119	   4.67137	        N/A	      76.5	   19.3774	   4.79092	        N/A	      76.5	   19.5705	   4.85758	        N/A	       N/A	       N/A	       N/A	        N/A	       N/A	       N/A	       N/A	        N/A	       N/A	       N/A	       N/A	        N/A	       N/A	       N/A	       N/A	        N/A	       N/A	       N/A	       N/A	        N/A	
         R10	    660	      76.5	   20.2723	   4.57268	        N/A	      76.5	   20.3673	   4.38104	        N/A	      76.5	      20.4	   4.16966	        N/A	       N/A	       N/A	       N/A	        N/A	       N/A	       N/A	       N/A	        N/A	       N/A	       N/A	       N/A	        N/A	       N/A	       N/A	       N/A	        N/A	       N/A	       N/A	       N/A	        N/A	
         R10	    661	      76.5	   19.9723	   4.81453	        N/A	      76.5	   20.1393	   4.71466	        N/A	      76.5	   20.2723	   4.57268	        N/A	       N/A	       N/A	       N/A	        N/A	       N/A	       N/A	       N/A	        N/A	       N/A	       N/A	       N/A	        N/A	       N/A	       N/A	       N/A	        N/A	       N/A	       N/A	       N/A	        N/A	
         R10	    662	      76.5	    19.965	   2.08814	        N/A	      76.5	   19.7878	   2.02235	        N/A	      76.5	      19.6	         2	        N/A	       N/A	       N/A	       N/A	        N/A	       N/A	       N/A	       N/A	        N/A	       N/A	       N/A	       N/A	        N/A	       N/A	       N/A	       N/A	        N/A	       N/A	       N/A	       N/A	        N/A	
         R10	    663	      76.5	   20.2721	   2.36604	        N/A	      76.5	   20.1369	   2.20688	        N/A	      76.5	    19.965	   2.08814	        N/A	       N/A	       N/A	       N/A	        N/A	       N/A	       N/A	       N/A	        N/A	       N/A	       N/A	       N/A	        N/A	       N/A	       N/A	       N/A	        N/A	       N/A	       N/A	       N/A	        N/A	
         R10	    664	      76.5	      20.4	       2.8	        N/A	      76.5	   20.3674	   2.57379	        N/A	      76.5	   20.2721	   2.36604	        N/A	       N/A	       N/A	       N/A	        N/A	       N/A	       N/A	       N/A	        N/A	       N/A	       N/A	       N/A	        N/A	       N/A	       N/A	       N/A	        N/A	       N/A	       N/A	       N/A	        N/A	
         R10	    665	     77.35	     14.45	       2.4	        N/A	   77.4007	     14.45	       2.4	        N/A	   77.4514	     14.45	       2.4	        N/A	       N/A	       N/A	       N/A	        N/A	       N/A	       N/A	       N/A	        N/A	       N/A	       N/A	       N/A	        N/A	       N/A	       N/A	       N/A	        N/A	       N/A	       N/A	       N/A	        N/A	
         R10	    666	   77.4514	     14.45	       2.4	        N/A	   77.5104	     14.45	       2.4	        N/A	   77.5694	     14.45	       2.4	        N/A	       N/A	       N/A	       N/A	        N/A	       N/A	       N/A	       N/A	        N/A	       N/A	       N/A	       N/A	        N/A	       N/A	       N/A	       N/A	        N/A	       N/A	       N/A	       N/A	        N/A	
         R10	    667	   77.5694	     14.45	       2.4	        N/A	   77.6366	     14.45	       2.4	        N/A	   77.7039	     14.45	       2.4	        N/A	       N/A	       N/A	       N/A	        N/A	       N/A	       N/A	       N/A	        N/A	       N/A	       N/A	       N/A	        N/A	       N/A	       N/A	       N/A	        N/A	       N/A	       N/A	       N/A	        N/A	
         R10	    668	   77.7039	     14.45	       2.4	        N/A	   77.7794	     14.45	       2.4	        N/A	    77.855	     14.45	       2.4	        N/A	       N/A	       N/A	       N/A	        N/A	       N/A	       N/A	       N/A	        N/A	       N/A	       N/A	       N/A	        N/A	       N/A	       N/A	       N/A	        N/A	       N/A	       N/A	       N/A	        N/A	
         R10	    669	    77.855	     14.45	       2.4	        N/A	   77.9388	     14.45	       2.4	        N/A	   78.0226	     14.45	       2.4	        N/A	       N/A	       N/A	       N/A	        N/A	       N/A	       N/A	       N/A	        N/A	       N/A	       N/A	       N/A	        N/A	       N/A	       N/A	       N/A	        N/A	       N/A	       N/A	       N/A	        N/A	
         R10	    670	   78.0226	     14.45	       2.4	        N/A	   78.1147	     14.45	       2.4	        N/A	   78.2069	     14.45	       2.4	        N/A	       N/A	       N/A	       N/A	        N/A	       N/A	       N/A	       N/A	        N/A	       N/A	       N/A	       N/A	        N/A	       N/A	       N/A	       N/A	        N/A	       N/A	       N/A	       N/A	        N/A	
         R10	    671	   78.2069	     14.45	       2.4	        N/A	   78.3073	     14.45	       2.4	        N/A	   78.4076	     14.45	       2.4	        N/A	       N/A	       N/A	       N/A	        N/A	       N/A	       N/A	       N/A	        N/A	       N/A	       N/A	       N/A	        N/A	       N/A	       N/A	       N/A	        N/A	       N/A	       N/A	       N/A	        N/A	
         R10	    672	   78.4076	     14.45	       2.4	        N/A	   78.5163	     14.45	       2.4	        N/A	    78.625	     14.45	       2.4	        N/A	       N/A	       N/A	       N/A	        N/A	       N/A	       N/A	       N/A	        N/A	       N/A	       N/A	       N/A	        N/A	       N/A	       N/A	       N/A	        N/A	       N/A	       N/A	       N/A	        N/A	
         R10	    673	      76.5	   19.3758	   5.02378	        N/A	      76.5	   19.2938	   4.84757	        N/A	      76.5	   19.2119	   4.67137	        N/A	       N/A	       N/A	       N/A	        N/A	       N/A	       N/A	       N/A	        N/A	       N/A	       N/A	       N/A	        N/A	       N/A	       N/A	       N/A	        N/A	       N/A	       N/A	       N/A	        N/A	
         R10	    674	      76.5	   19.5249	   5.34415	        N/A	      76.5	   19.4503	   5.18396	        N/A	      76.5	   19.3758	   5.02378	        N/A	       N/A	       N/A	       N/A	        N/A	       N/A	       N/A	       N/A	        N/A	       N/A	       N/A	       N/A	        N/A	       N/A	       N/A	       N/A	        N/A	       N/A	       N/A	       N/A	        N/A	
         R10	    675	      76.5	   19.6702	   5.65646	        N/A	      76.5	   19.5975	    5.5003	        N/A	      76.5	   19.5249	   5.34415	        N/A	       N/A	       N/A	       N/A	        N/A	       N/A	       N/A	       N/A	        N/A	       N/A	       N/A	       N/A	        N/A	       N/A	       N/A	       N/A	        N/A	       N/A	       N/A	       N/A	        N/A	
         R10	    676	      76.5	     19.83	         6	        N/A	      76.5	   19.7501	   5.82823	        N/A	      76.5	   19.6702	   5.65646	        N/A	       N/A	       N/A	       N/A	        N/A	       N/A	       N/A	       N/A	        N/A	       N/A	       N/A	       N/A	        N/A	       N/A	       N/A	       N/A	        N/A	       N/A	       N/A	       N/A	        N/A	
         R10	    677	      76.5	     14.45	   1.70151	        N/A	      76.5	     14.45	   1.65076	        N/A	      76.5	     14.45	       1.6	        N/A	       N/A	       N/A	       N/A	        N/A	       N/A	       N/A	       N/A	        N/A	       N/A	       N/A	       N/A	        N/A	       N/A	       N/A	       N/A	        N/A	       N/A	       N/A	       N/A	        N/A	
         R10	    678	      76.5	     14.45	   1.79987	        N/A	      76.5	     14.45	   1.75069	        N/A	      76.5	     14.45	   1.70151	        N/A	       N/A	       N/A	       N/A	        N/A	       N/A	       N/A	       N/A	        N/A	       N/A	       N/A	       N/A	        N/A	       N/A	       N/A	       N/A	        N/A	       N/A	       N/A	       N/A	        N/A	
         R10	    679	      76.5	     14.45	   1.89507	        N/A	      76.5	     14.45	   1.84747	        N/A	      76.5	     14.45	   1.79987	        N/A	       N/A	       N/A	       N/A	        N/A	       N/A	       N/A	       N/A	        N/A	       N/A	       N/A	       N/A	        N/A	       N/A	       N/A	       N/A	        N/A	       N/A	       N/A	       N/A	        N/A	
         R10	    680	      76.5	     14.45	   1.98711	        N/A	      76.5	     14.45	   1.94109	        N/A	      76.5	     14.45	   1.89507	        N/A	       N/A	       N/A	       N/A	        N/A	       N/A	       N/A	       N/A	        N/A	       N/A	       N/A	       N/A	        N/A	       N/A	       N/A	       N/A	        N/A	       N/A	       N/A	       N/A	        N/A	
         R10	    681	      76.5	     14.45	     2.076	        N/A	      76.5	     14.45	   2.03156	        N/A	      76.5	     14.45	   1.98711	        N/A	       N/A	       N/A	       N/A	        N/A	       N/A	       N/A	       N/A	        N/A	       N/A	       N/A	       N/A	        N/A	       N/A	       N/A	       N/A	        N/A	       N/A	       N/A	       N/A	        N/A	
         R10	    682	      76.5	     14.45	   2.16173	        N/A	      76.5	     14.45	   2.11887	        N/A	      76.5	     14.45	     2.076	        N/A	       N/A	       N/A	       N/A	        N/A	       N/A	       N/A	       N/A	        N/A	       N/A	       N/A	       N/A	        N/A	       N/A	       N/A	       N/A	        N/A	       N/A	       N/A	       N/A	        N/A	
         R10	    683	      76.5	     14.45	   2.24431	        N/A	      76.5	     14.45	   2.20302	        N/A	      76.5	     14.45	   2.16173	        N/A	       N/A	       N/A	       N/A	        N/A	       N/A	       N/A	       N/A	        N/A	       N/A	       N/A	       N/A	        N/A	       N/A	       N/A	       N/A	        N/A	       N/A	       N/A	       N/A	        N/A	
         R10	    684	      76.5	     14.45	   2.32373	        N/A	      76.5	     14.45	   2.28402	        N/A	      76.5	     14.45	   2.24431	        N/A	       N/A	       N/A	       N/A	        N/A	       N/A	       N/A	       N/A	        N/A	       N/A	       N/A	       N/A	        N/A	       N/A	       N/A	       N/A	        N/A	       N/A	       N/A	       N/A	        N/A	
         R10	    685	      76.5	     14.45	       2.4	        N/A	      76.5	     14.45	   2.36187	        N/A	      76.5	     14.45	   2.32373	        N/A	       N/A	       N/A	       N/A	        N/A	       N/A	       N/A	       N/A	        N/A	       N/A	       N/A	       N/A	        N/A	       N/A	       N/A	       N/A	        N/A	       N/A	       N/A	       N/A	        N/A	
         R10	    686	    74.375	      13.6	       2.4	        N/A	   74.5146	      13.6	       2.4	        N/A	   74.6542	      13.6	       2.4	        N/A	       N/A	       N/A	       N/A	        N/A	       N/A	       N/A	       N/A	        N/A	       N/A	       N/A	       N/A	        N/A	       N/A	       N/A	       N/A	        N/A	       N/A	       N/A	       N/A	        N/A	
         R10	    687	   74.6542	      13.6	       2.4	        N/A	   74.7878	      13.6	       2.4	        N/A	   74.9213	      13.6	       2.4	        N/A	       N/A	       N/A	       N/A	        N/A	       N/A	       N/A	       N/A	        N/A	       N/A	       N/A	       N/A	        N/A	       N/A	       N/A	       N/A	        N/A	       N/A	       N/A	       N/A	        N/A	
         R10	    688	   74.9213	      13.6	       2.4	        N/A	   75.0488	      13.6	       2.4	        N/A	   75.1763	      13.6	       2.4	        N/A	       N/A	       N/A	       N/A	        N/A	       N/A	       N/A	       N/A	        N/A	       N/A	       N/A	       N/A	        N/A	       N/A	       N/A	       N/A	        N/A	       N/A	       N/A	       N/A	        N/A	
         R10	    689	   75.1763	      13.6	       2.4	        N/A	   75.2978	      13.6	       2.4	        N/A	   75.4192	      13.6	       2.4	        N/A	       N/A	       N/A	       N/A	        N/A	       N/A	       N/A	       N/A	        N/A	       N/A	       N/A	       N/A	        N/A	       N/A	       N/A	       N/A	        N/A	       N/A	       N/A	       N/A	        N/A	
         R10	    690	   75.4192	      13.6	       2.4	        N/A	   75.5346	      13.6	       2.4	        N/A	     75.65	      13.6	       2.4	        N/A	       N/A	       N/A	       N/A	        N/A	       N/A	       N/A	       N/A	        N/A	       N/A	       N/A	       N/A	        N/A	       N/A	       N/A	       N/A	        N/A	       N/A	       N/A	       N/A	        N/A	
         R10	    691	     75.65	      13.6	       2.4	        N/A	   75.7819	      13.6	       2.4	        N/A	   75.9137	      13.6	       2.4	        N/A	       N/A	       N/A	       N/A	        N/A	       N/A	       N/A	       N/A	        N/A	       N/A	       N/A	       N/A	        N/A	       N/A	       N/A	       N/A	        N/A	       N/A	       N/A	       N/A	        N/A	
         R10	    692	   75.9137	      13.6	       2.4	        N/A	   76.0285	      13.6	       2.4	        N/A	   76.1433	      13.6	       2.4	        N/A	       N/A	       N/A	       N/A	        N/A	       N/A	       N/A	       N/A	        N/A	       N/A	       N/A	       N/A	        N/A	       N/A	       N/A	       N/A	        N/A	       N/A	       N/A	       N/A	        N/A	
         R10	    693	   76.1433	      13.6	       2.4	        N/A	    76.241	      13.6	       2.4	        N/A	   76.3387	      13.6	       2.4	        N/A	       N/A	       N/A	       N/A	        N/A	       N/A	       N/A	       N/A	        N/A	       N/A	       N/A	       N/A	        N/A	       N/A	       N/A	       N/A	        N/A	       N/A	       N/A	       N/A	        N/A	
         R10	    694	   76.3387	      13.6	       2.4	        N/A	   76.4194	      13.6	       2.4	        N/A	      76.5	      13.6	       2.4	        N/A	       N/A	       N/A	       N/A	        N/A	       N/A	       N/A	       N/A	        N/A	       N/A	       N/A	       N/A	        N/A	       N/A	       N/A	       N/A	        N/A	       N/A	       N/A	       N/A	        N/A	
         R10	    695	      76.5	      13.6	       2.4	        N/A	   76.5769	      13.6	       2.4	        N/A	   76.6538	      13.6	       2.4	        N/A	       N/A	       N/A	       N/A	        N/A	       N/A	       N/A	       N/A	        N/A	       N/A	       N/A	       N/A	        N/A	       N/A	       N/A	       N/A	        N/A	       N/A	       N/A	       N/A	        N/A	
         R10	    696	   76.6538	      13.6	       2.4	        N/A	   76.7348	      13.6	       2.4	        N/A	   76.8158	      13.6	       2.4	        N/A	       N/A	       N/A	       N/A	        N/A	       N/A	       N/A	       N/A	        N/A	       N/A	       N/A	       N/A	        N/A	       N/A	       N/A	       N/A	        N/A	       N/A	       N/A	       N/A	        N/A	
         R10	    697	   76.8158	      13.6	       2.4	        N/A	   76.9008	      13.6	       2.4	        N/A	   76.9858	      13.6	       2.4	        N/A	       N/A	       N/A	       N/A	        N/A	       N/A	       N/A	       N/A	        N/A	       N/A	       N/A	       N/A	        N/A	       N/A	       N/A	       N/A	        N/A	       N/A	       N/A	       N/A	        N/A	
         R10	    698	   76.9858	      13.6	       2.4	        N/A	   77.0748	      13.6	       2.4	        N/A	   77.1638	      13.6	       2.4	        N/A	       N/A	       N/A	       N/A	        N/A	       N/A	       N/A	       N/A	        N/A	       N/A	       N/A	       N/A	        N/A	       N/A	       N/A	       N/A	        N/A	       N/A	       N/A	       N/A	        N/A	
         R10	    699	   77.1638	      13.6	       2.4	        N/A	   77.2569	      13.6	       2.4	        N/A	     77.35	      13.6	       2.4	        N/A	       N/A	       N/A	       N/A	        N/A	       N/A	       N/A	       N/A	        N/A	       N/A	       N/A	       N/A	        N/A	       N/A	       N/A	       N/A	        N/A	       N/A	       N/A	       N/A	        N/A	
         R10	    700	     77.35	      13.6	       2.4	        N/A	   77.4412	      13.6	       2.4	        N/A	   77.5323	      13.6	       2.4	        N/A	       N/A	       N/A	       N/A	        N/A	       N/A	       N/A	       N/A	        N/A	       N/A	       N/A	       N/A	        N/A	       N/A	       N/A	       N/A	        N/A	       N/A	       N/A	       N/A	        N/A	
         R10	    701	   77.5323	      13.6	       2.4	        N/A	   77.6295	      13.6	       2.4	        N/A	   77.7267	      13.6	       2.4	        N/A	       N/A	       N/A	       N/A	        N/A	       N/A	       N/A	       N/A	        N/A	       N/A	       N/A	       N/A	        N/A	       N/A	       N/A	       N/A	        N/A	       N/A	       N/A	       N/A	        N/A	
         R10	    702	   77.7267	      13.6	       2.4	        N/A	     77.83	      13.6	       2.4	        N/A	   77.9332	      13.6	       2.4	        N/A	       N/A	       N/A	       N/A	        N/A	       N/A	       N/A	       N/A	        N/A	       N/A	       N/A	       N/A	        N/A	       N/A	       N/A	       N/A	        N/A	       N/A	       N/A	       N/A	        N/A	
         R10	    703	   77.9332	      13.6	       2.4	        N/A	   78.0424	      13.6	       2.4	        N/A	   78.1517	      13.6	       2.4	        N/A	       N/A	       N/A	       N/A	        N/A	       N/A	       N/A	       N/A	        N/A	       N/A	       N/A	       N/A	        N/A	       N/A	       N/A	       N/A	        N/A	       N/A	       N/A	       N/A	        N/A	
         R10	    704	   78.1517	      13.6	       2.4	        N/A	    78.267	      13.6	       2.4	        N/A	   78.3823	      13.6	       2.4	        N/A	       N/A	       N/A	       N/A	        N/A	       N/A	       N/A	       N/A	        N/A	       N/A	       N/A	       N/A	        N/A	       N/A	       N/A	       N/A	        N/A	       N/A	       N/A	       N/A	        N/A	
         R10	    705	   78.3823	      13.6	       2.4	        N/A	   78.5037	      13.6	       2.4	        N/A	    78.625	      13.6	       2.4	        N/A	       N/A	       N/A	       N/A	        N/A	       N/A	       N/A	       N/A	        N/A	       N/A	       N/A	       N/A	        N/A	       N/A	       N/A	       N/A	        N/A	       N/A	       N/A	       N/A	        N/A	
         R10	    706	    74.375	     14.45	       2.4	        N/A	    74.507	     14.45	       2.4	        N/A	    74.639	     14.45	       2.4	        N/A	       N/A	       N/A	       N/A	        N/A	       N/A	       N/A	       N/A	        N/A	       N/A	       N/A	       N/A	        N/A	       N/A	       N/A	       N/A	        N/A	       N/A	       N/A	       N/A	        N/A	
         R10	    707	    74.639	     14.45	       2.4	        N/A	   74.7574	     14.45	       2.4	        N/A	   74.8758	     14.45	       2.4	        N/A	       N/A	       N/A	       N/A	        N/A	       N/A	       N/A	       N/A	        N/A	       N/A	       N/A	       N/A	        N/A	       N/A	       N/A	       N/A	        N/A	       N/A	       N/A	       N/A	        N/A	
         R10	    708	   74.8758	     14.45	       2.4	        N/A	   74.9805	     14.45	       2.4	        N/A	   75.0852	     14.45	       2.4	        N/A	       N/A	       N/A	       N/A	        N/A	       N/A	       N/A	       N/A	        N/A	       N/A	       N/A	       N/A	        N/A	       N/A	       N/A	       N/A	        N/A	       N/A	       N/A	       N/A	        N/A	
         R10	    709	   75.0852	     14.45	       2.4	        N/A	   75.1763	     14.45	       2.4	        N/A	   75.2673	     14.45	       2.4	        N/A	       N/A	       N/A	       N/A	        N/A	       N/A	       N/A	       N/A	        N/A	       N/A	       N/A	       N/A	        N/A	       N/A	       N/A	       N/A	        N/A	       N/A	       N/A	       N/A	        N/A	
         R10	    710	   75.2673	     14.45	       2.4	        N/A	   75.3448	     14.45	       2.4	        N/A	   75.4222	     14.45	       2.4	        N/A	       N/A	       N/A	       N/A	        N/A	       N/A	       N/A	       N/A	        N/A	       N/A	       N/A	       N/A	        N/A	       N/A	       N/A	       N/A	        N/A	       N/A	       N/A	       N/A	        N/A	
         R10	    711	   75.4222	     14.45	       2.4	        N/A	    75.486	     14.45	       2.4	        N/A	   75.5497	     14.45	       2.4	        N/A	       N/A	       N/A	       N/A	        N/A	       N/A	       N/A	       N/A	        N/A	       N/A	       N/A	       N/A	        N/A	       N/A	       N/A	       N/A	        N/A	       N/A	       N/A	       N/A	        N/A	
         R10	    712	   75.5497	     14.45	       2.4	        N/A	   75.5999	     14.45	       2.4	        N/A	     75.65	     14.45	       2.4	        N/A	       N/A	       N/A	       N/A	        N/A	       N/A	       N/A	       N/A	        N/A	       N/A	       N/A	       N/A	        N/A	       N/A	       N/A	       N/A	        N/A	       N/A	       N/A	       N/A	        N/A	
         R10	    713	    74.375	   15.9164	   2.99973	        N/A	    74.507	   15.9164	   2.99973	        N/A	    74.639	   15.9164	   2.99973	        N/A	       N/A	       N/A	       N/A	        N/A	       N/A	       N/A	       N/A	        N/A	       N/A	       N/A	       N/A	        N/A	       N/A	       N/A	       N/A	        N/A	       N/A	       N/A	       N/A	        N/A	
         R10	    714	    74.639	   15.9164	   2.99973	        N/A	   74.7574	   15.9164	   2.99973	        N/A	   74.8758	   15.9164	   2.99973	        N/A	       N/A	       N/A	       N/A	        N/A	       N/A	       N/A	       N/A	        N/A	       N/A	       N/A	       N/A	        N/A	       N/A	       N/A	       N/A	        N/A	       N/A	       N/A	       N/A	        N/A	
         R10	    715	   74.8758	   15.9164	   2.99973	        N/A	   74.9805	   15.9164	   2.99973	        N/A	   75.0852	   15.9164	   2.99973	        N/A	       N/A	       N/A	       N/A	        N/A	       N/A	       N/A	       N/A	        N/A	       N/A	       N/A	       N/A	        N/A	       N/A	       N/A	       N/A	        N/A	       N/A	       N/A	       N/A	        N/A	
         R10	    716	   75.0852	   15.9164	   2.99973	        N/A	   75.1763	   15.9164	   2.99973	        N/A	   75.2673	   15.9164	   2.99973	        N/A	       N/A	       N/A	       N/A	        N/A	       N/A	       N/A	       N/A	        N/A	       N/A	       N/A	       N/A	        N/A	       N/A	       N/A	       N/A	        N/A	       N/A	       N/A	       N/A	        N/A	
         R10	    717	   75.2673	   15.9164	   2.99973	        N/A	   75.3448	   15.9164	   2.99973	        N/A	   75.4222	   15.9164	   2.99973	        N/A	       N/A	       N/A	       N/A	        N/A	       N/A	       N/A	       N/A	        N/A	       N/A	       N/A	       N/A	        N/A	       N/A	       N/A	       N/A	        N/A	       N/A	       N/A	       N/A	        N/A	
         R10	    718	   75.4222	   15.9164	   2.99973	        N/A	    75.486	   15.9164	   2.99973	        N/A	   75.5497	   15.9164	   2.99973	        N/A	       N/A	       N/A	       N/A	        N/A	       N/A	       N/A	       N/A	        N/A	       N/A	       N/A	       N/A	        N/A	       N/A	       N/A	       N/A	        N/A	       N/A	       N/A	       N/A	        N/A	
         R10	    719	   75.5497	   15.9164	   2.99973	        N/A	   75.5999	   15.9164	   2.99973	        N/A	     75.65	   15.9164	   2.99973	        N/A	       N/A	       N/A	       N/A	        N/A	       N/A	       N/A	       N/A	        N/A	       N/A	       N/A	       N/A	        N/A	       N/A	       N/A	       N/A	        N/A	       N/A	       N/A	       N/A	        N/A	
         R10	    720	     80.75	      11.9	       2.4	        N/A	   80.5073	      11.9	       2.4	        N/A	   80.2646	      11.9	       2.4	        N/A	       N/A	       N/A	       N/A	        N/A	       N/A	       N/A	       N/A	        N/A	       N/A	       N/A	       N/A	        N/A	       N/A	       N/A	       N/A	        N/A	       N/A	       N/A	       N/A	        N/A	
         R10	    721	   80.2646	      11.9	       2.4	        N/A	   80.0371	      11.9	       2.4	        N/A	   79.8095	      11.9	       2.4	        N/A	       N/A	       N/A	       N/A	        N/A	       N/A	       N/A	       N/A	        N/A	       N/A	       N/A	       N/A	        N/A	       N/A	       N/A	       N/A	        N/A	       N/A	       N/A	       N/A	        N/A	
         R10	    722	   79.8095	      11.9	       2.4	        N/A	    79.597	      11.9	       2.4	        N/A	   79.3845	      11.9	       2.4	        N/A	       N/A	       N/A	       N/A	        N/A	       N/A	       N/A	       N/A	        N/A	       N/A	       N/A	       N/A	        N/A	       N/A	       N/A	       N/A	        N/A	       N/A	       N/A	       N/A	        N/A	
         R10	    723	   79.3845	      11.9	       2.4	        N/A	   79.1871	      11.9	       2.4	        N/A	   78.9896	      11.9	       2.4	        N/A	       N/A	       N/A	       N/A	        N/A	       N/A	       N/A	       N/A	        N/A	       N/A	       N/A	       N/A	        N/A	       N/A	       N/A	       N/A	        N/A	       N/A	       N/A	       N/A	        N/A	
         R10	    724	   78.9896	      11.9	       2.4	        N/A	   78.8073	      11.9	       2.4	        N/A	    78.625	      11.9	       2.4	        N/A	       N/A	       N/A	       N/A	        N/A	       N/A	       N/A	       N/A	        N/A	       N/A	       N/A	       N/A	        N/A	       N/A	       N/A	       N/A	        N/A	       N/A	       N/A	       N/A	        N/A	
         R10	    725	    74.375	   16.5328	   3.59945	        N/A	   74.5267	   16.5328	   3.59945	        N/A	   74.6785	   16.5328	   3.59945	        N/A	       N/A	       N/A	       N/A	        N/A	       N/A	       N/A	       N/A	        N/A	       N/A	       N/A	       N/A	        N/A	       N/A	       N/A	       N/A	        N/A	       N/A	       N/A	       N/A	        N/A	
         R10	    726	   74.6785	   16.5328	   3.59945	        N/A	   74.8218	   16.5328	   3.59945	        N/A	   74.9651	   16.5328	   3.59945	        N/A	       N/A	       N/A	       N/A	        N/A	       N/A	       N/A	       N/A	        N/A	       N/A	       N/A	       N/A	        N/A	       N/A	       N/A	       N/A	        N/A	       N/A	       N/A	       N/A	        N/A	
         R10	    727	   74.9651	   16.5328	   3.59945	        N/A	      75.1	   16.5328	   3.59945	        N/A	   75.2349	   16.5328	   3.59945	        N/A	       N/A	       N/A	       N/A	        N/A	       N/A	       N/A	       N/A	        N/A	       N/A	       N/A	       N/A	        N/A	       N/A	       N/A	       N/A	        N/A	       N/A	       N/A	       N/A	        N/A	
         R10	    728	   75.2349	   16.5328	   3.59945	        N/A	   75.3614	   16.5328	   3.59945	        N/A	   75.4879	   16.5328	   3.59945	        N/A	       N/A	       N/A	       N/A	        N/A	       N/A	       N/A	       N/A	        N/A	       N/A	       N/A	       N/A	        N/A	       N/A	       N/A	       N/A	        N/A	       N/A	       N/A	       N/A	        N/A	
         R10	    729	   75.4879	   16.5328	   3.59945	        N/A	   75.6059	   16.5328	   3.59945	        N/A	    75.724	   16.5328	   3.59945	        N/A	       N/A	       N/A	       N/A	        N/A	       N/A	       N/A	       N/A	        N/A	       N/A	       N/A	       N/A	        N/A	       N/A	       N/A	       N/A	        N/A	       N/A	       N/A	       N/A	        N/A	
         R10	    730	    75.724	   16.5328	   3.59945	        N/A	   75.8336	   16.5328	   3.59945	        N/A	   75.9433	   16.5328	   3.59945	        N/A	       N/A	       N/A	       N/A	        N/A	       N/A	       N/A	       N/A	        N/A	       N/A	       N/A	       N/A	        N/A	       N/A	       N/A	       N/A	        N/A	       N/A	       N/A	       N/A	        N/A	
         R10	    731	   75.9433	   16.5328	   3.59945	        N/A	   76.0445	   16.5328	   3.59945	        N/A	   76.1457	   16.5328	   3.59945	        N/A	       N/A	       N/A	       N/A	        N/A	       N/A	       N/A	       N/A	        N/A	       N/A	       N/A	       N/A	        N/A	       N/A	       N/A	       N/A	        N/A	       N/A	       N/A	       N/A	        N/A	
         R10	    732	   76.1457	   16.5328	   3.59945	        N/A	   76.2385	   16.5328	   3.59945	        N/A	   76.3313	   16.5328	   3.59945	        N/A	       N/A	       N/A	       N/A	        N/A	       N/A	       N/A	       N/A	        N/A	       N/A	       N/A	       N/A	        N/A	       N/A	       N/A	       N/A	        N/A	       N/A	       N/A	       N/A	        N/A	
         R10	    733	   76.3313	   16.5328	   3.59945	        N/A	   76.4156	   16.5328	   3.59945	        N/A	      76.5	   16.5328	   3.59945	        N/A	       N/A	       N/A	       N/A	        N/A	       N/A	       N/A	       N/A	        N/A	       N/A	       N/A	       N/A	        N/A	       N/A	       N/A	       N/A	        N/A	       N/A	       N/A	       N/A	        N/A	
         R10	    734	      76.5	   16.5328	   3.59945	        N/A	   76.5862	   16.5328	   3.59945	        N/A	   76.6725	   16.5328	   3.59945	        N/A	       N/A	       N/A	       N/A	        N/A	       N/A	       N/A	       N/A	        N/A	       N/A	       N/A	       N/A	        N/A	       N/A	       N/A	       N/A	        N/A	       N/A	       N/A	       N/A	        N/A	
         R10	    735	   76.6725	   16.5328	   3.59945	        N/A	   76.7632	   16.5328	   3.59945	        N/A	   76.8539	   16.5328	   3.59945	        N/A	       N/A	       N/A	       N/A	        N/A	       N/A	       N/A	       N/A	        N/A	       N/A	       N/A	       N/A	        N/A	       N/A	       N/A	       N/A	        N/A	       N/A	       N/A	       N/A	        N/A	
         R10	    736	   76.8539	   16.5328	   3.59945	        N/A	    76.949	   16.5328	   3.59945	        N/A	   77.0441	   16.5328	   3.59945	        N/A	       N/A	       N/A	       N/A	        N/A	       N/A	       N/A	       N/A	        N/A	       N/A	       N/A	       N/A	        N/A	       N/A	       N/A	       N/A	        N/A	       N/A	       N/A	       N/A	        N/A	
         R10	    737	   77.0441	   16.5328	   3.59945	        N/A	   77.1437	   16.5328	   3.59945	        N/A	   77.2433	   16.5328	   3.59945	        N/A	       N/A	       N/A	       N/A	        N/A	       N/A	       N/A	       N/A	        N/A	       N/A	       N/A	       N/A	        N/A	       N/A	       N/A	       N/A	        N/A	       N/A	       N/A	       N/A	        N/A	
         R10	    738	   77.2433	   16.5328	   3.59945	        N/A	   77.3473	   16.5328	   3.59945	        N/A	   77.4513	   16.5328	   3.59945	        N/A	       N/A	       N/A	       N/A	        N/A	       N/A	       N/A	       N/A	        N/A	       N/A	       N/A	       N/A	        N/A	       N/A	       N/A	       N/A	        N/A	       N/A	       N/A	       N/A	        N/A	
         R10	    739	   77.4513	   16.5328	   3.59945	        N/A	   77.5598	   16.5328	   3.59945	        N/A	   77.6683	   16.5328	   3.59945	        N/A	       N/A	       N/A	       N/A	        N/A	       N/A	       N/A	       N/A	        N/A	       N/A	       N/A	       N/A	        N/A	       N/A	       N/A	       N/A	        N/A	       N/A	       N/A	       N/A	        N/A	
         R10	    740	   77.6683	   16.5328	   3.59945	        N/A	   77.7812	   16.5328	   3.59945	        N/A	   77.8941	   16.5328	   3.59945	        N/A	       N/A	       N/A	       N/A	        N/A	       N/A	       N/A	       N/A	        N/A	       N/A	       N/A	       N/A	        N/A	       N/A	       N/A	       N/A	        N/A	       N/A	       N/A	       N/A	        N/A	
         R10	    741	   77.8941	   16.5328	   3.59945	        N/A	   78.0115	   16.5328	   3.59945	        N/A	   78.1288	   16.5328	   3.59945	        N/A	       N/A	       N/A	       N/A	        N/A	       N/A	       N/A	       N/A	        N/A	       N/A	       N/A	       N/A	        N/A	       N/A	       N/A	       N/A	        N/A	       N/A	       N/A	       N/A	        N/A	
         R10	    742	   78.1288	   16.5328	   3.59945	        N/A	   78.2507	   16.5328	   3.59945	        N/A	   78.3725	   16.5328	   3.59945	        N/A	       N/A	       N/A	       N/A	        N/A	       N/A	       N/A	       N/A	        N/A	       N/A	       N/A	       N/A	        N/A	       N/A	       N/A	       N/A	        N/A	       N/A	       N/A	       N/A	        N/A	
         R10	    743	   78.3725	   16.5328	   3.59945	        N/A	   78.4987	   16.5328	   3.59945	        N/A	    78.625	   16.5328	   3.59945	        N/A	       N/A	       N/A	       N/A	        N/A	       N/A	       N/A	       N/A	        N/A	       N/A	       N/A	       N/A	        N/A	       N/A	       N/A	       N/A	        N/A	       N/A	       N/A	       N/A	        N/A	
         R10	    744	      76.5	   17.1425	   2.65791	        N/A	      76.5	   17.2212	   2.73448	        N/A	      76.5	   17.2999	   2.81105	        N/A	       N/A	       N/A	       N/A	        N/A	       N/A	       N/A	       N/A	        N/A	       N/A	       N/A	       N/A	        N/A	       N/A	       N/A	       N/A	        N/A	       N/A	       N/A	       N/A	        N/A	
         R10	    745	      76.5	   16.9978	   2.51719	        N/A	      76.5	   17.0702	   2.58755	        N/A	      76.5	   17.1425	   2.65791	        N/A	       N/A	       N/A	       N/A	        N/A	       N/A	       N/A	       N/A	        N/A	       N/A	       N/A	       N/A	        N/A	       N/A	       N/A	       N/A	        N/A	       N/A	       N/A	       N/A	        N/A	
         R10	    746	      76.5	    16.866	    2.3889	        N/A	      76.5	   16.9319	   2.45305	        N/A	      76.5	   16.9978	   2.51719	        N/A	       N/A	       N/A	       N/A	        N/A	       N/A	       N/A	       N/A	        N/A	       N/A	       N/A	       N/A	        N/A	       N/A	       N/A	       N/A	        N/A	       N/A	       N/A	       N/A	        N/A	
         R10	    747	      76.5	   16.7469	   2.27304	        N/A	      76.5	   16.8064	   2.33097	        N/A	      76.5	    16.866	    2.3889	        N/A	       N/A	       N/A	       N/A	        N/A	       N/A	       N/A	       N/A	        N/A	       N/A	       N/A	       N/A	        N/A	       N/A	       N/A	       N/A	        N/A	       N/A	       N/A	       N/A	        N/A	
         R10	    748	      76.5	   16.6406	    2.1696	        N/A	      76.5	   16.6937	   2.22132	        N/A	      76.5	   16.7469	   2.27304	        N/A	       N/A	       N/A	       N/A	        N/A	       N/A	       N/A	       N/A	        N/A	       N/A	       N/A	       N/A	        N/A	       N/A	       N/A	       N/A	        N/A	       N/A	       N/A	       N/A	        N/A	
         R10	    749	      76.5	    16.547	   2.07859	        N/A	      76.5	   16.5938	   2.12409	        N/A	      76.5	   16.6406	    2.1696	        N/A	       N/A	       N/A	       N/A	        N/A	       N/A	       N/A	       N/A	        N/A	       N/A	       N/A	       N/A	        N/A	       N/A	       N/A	       N/A	        N/A	       N/A	       N/A	       N/A	        N/A	
         R10	    750	      76.5	   16.4663	         2	        N/A	      76.5	   16.5067	   2.03929	        N/A	      76.5	    16.547	   2.07859	        N/A	       N/A	       N/A	       N/A	        N/A	       N/A	       N/A	       N/A	        N/A	       N/A	       N/A	       N/A	        N/A	       N/A	       N/A	       N/A	        N/A	       N/A	       N/A	       N/A	        N/A	
         R10	    751	      76.5	   17.2412	         2	        N/A	      76.5	   17.3461	         2	        N/A	      76.5	    17.451	         2	        N/A	       N/A	       N/A	       N/A	        N/A	       N/A	       N/A	       N/A	        N/A	       N/A	       N/A	       N/A	        N/A	       N/A	       N/A	       N/A	        N/A	       N/A	       N/A	       N/A	        N/A	
         R10	    752	      76.5	   17.0496	         2	        N/A	      76.5	   17.1454	         2	        N/A	      76.5	   17.2412	         2	        N/A	       N/A	       N/A	       N/A	        N/A	       N/A	       N/A	       N/A	        N/A	       N/A	       N/A	       N/A	        N/A	       N/A	       N/A	       N/A	        N/A	       N/A	       N/A	       N/A	        N/A	
         R10	    753	      76.5	   16.8764	         2	        N/A	      76.5	    16.963	         2	        N/A	      76.5	   17.0496	         2	        N/A	       N/A	       N/A	       N/A	        N/A	       N/A	       N/A	       N/A	        N/A	       N/A	       N/A	       N/A	        N/A	       N/A	       N/A	       N/A	        N/A	       N/A	       N/A	       N/A	        N/A	
         R10	    754	      76.5	   16.7214	         2	        N/A	      76.5	   16.7989	         2	        N/A	      76.5	   16.8764	         2	        N/A	       N/A	       N/A	       N/A	        N/A	       N/A	       N/A	       N/A	        N/A	       N/A	       N/A	       N/A	        N/A	       N/A	       N/A	       N/A	        N/A	       N/A	       N/A	       N/A	        N/A	
         R10	    755	      76.5	   16.5847	         2	        N/A	      76.5	   16.6531	         2	        N/A	      76.5	   16.7214	         2	        N/A	       N/A	       N/A	       N/A	        N/A	       N/A	       N/A	       N/A	        N/A	       N/A	       N/A	       N/A	        N/A	       N/A	       N/A	       N/A	        N/A	       N/A	       N/A	       N/A	        N/A	
         R10	    756	      76.5	   16.4663	         2	        N/A	      76.5	   16.5255	         2	        N/A	      76.5	   16.5847	         2	        N/A	       N/A	       N/A	       N/A	        N/A	       N/A	       N/A	       N/A	        N/A	       N/A	       N/A	       N/A	        N/A	       N/A	       N/A	       N/A	        N/A	       N/A	       N/A	       N/A	        N/A	
         R10	    757	      76.5	   16.6774	   1.02658	        N/A	      76.5	   16.7019	  0.913292	        N/A	      76.5	   16.7265	       0.8	        N/A	       N/A	       N/A	       N/A	        N/A	       N/A	       N/A	       N/A	        N/A	       N/A	       N/A	       N/A	        N/A	       N/A	       N/A	       N/A	        N/A	       N/A	       N/A	       N/A	        N/A	
         R10	    758	      76.5	   16.6322	   1.23478	        N/A	      76.5	   16.6548	   1.13068	        N/A	      76.5	   16.6774	   1.02658	        N/A	       N/A	       N/A	       N/A	        N/A	       N/A	       N/A	       N/A	        N/A	       N/A	       N/A	       N/A	        N/A	       N/A	       N/A	       N/A	        N/A	       N/A	       N/A	       N/A	        N/A	
         R10	    759	      76.5	   16.5911	    1.4246	        N/A	      76.5	   16.6116	   1.32969	        N/A	      76.5	   16.6322	   1.23478	        N/A	       N/A	       N/A	       N/A	        N/A	       N/A	       N/A	       N/A	        N/A	       N/A	       N/A	       N/A	        N/A	       N/A	       N/A	       N/A	        N/A	       N/A	       N/A	       N/A	        N/A	
         R10	    760	      76.5	   16.5539	   1.59602	        N/A	      76.5	   16.5725	   1.51031	        N/A	      76.5	   16.5911	    1.4246	        N/A	       N/A	       N/A	       N/A	        N/A	       N/A	       N/A	       N/A	        N/A	       N/A	       N/A	       N/A	        N/A	       N/A	       N/A	       N/A	        N/A	       N/A	       N/A	       N/A	        N/A	
         R10	    761	      76.5	   16.5207	   1.74907	        N/A	      76.5	   16.5373	   1.67255	        N/A	      76.5	   16.5539	   1.59602	        N/A	       N/A	       N/A	       N/A	        N/A	       N/A	       N/A	       N/A	        N/A	       N/A	       N/A	       N/A	        N/A	       N/A	       N/A	       N/A	        N/A	       N/A	       N/A	       N/A	        N/A	
         R10	    762	      76.5	   16.4915	   1.88373	        N/A	      76.5	   16.5061	    1.8164	        N/A	      76.5	   16.5207	   1.74907	        N/A	       N/A	       N/A	       N/A	        N/A	       N/A	       N/A	       N/A	        N/A	       N/A	       N/A	       N/A	        N/A	       N/A	       N/A	       N/A	        N/A	       N/A	       N/A	       N/A	        N/A	
         R10	    763	      76.5	   16.4663	         2	        N/A	      76.5	   16.4789	   1.94186	        N/A	      76.5	   16.4915	   1.88373	        N/A	       N/A	       N/A	       N/A	        N/A	       N/A	       N/A	       N/A	        N/A	       N/A	       N/A	       N/A	        N/A	       N/A	       N/A	       N/A	        N/A	       N/A	       N/A	       N/A	        N/A	
         R10	    764	    74.375	      15.3	       0.8	        N/A	   74.5318	      15.3	       0.8	        N/A	   74.6887	      15.3	       0.8	        N/A	       N/A	       N/A	       N/A	        N/A	       N/A	       N/A	       N/A	        N/A	       N/A	       N/A	       N/A	        N/A	       N/A	       N/A	       N/A	        N/A	       N/A	       N/A	       N/A	        N/A	
         R10	    765	   74.6887	      15.3	       0.8	        N/A	   74.8358	      15.3	       0.8	        N/A	    74.983	      15.3	       0.8	        N/A	       N/A	       N/A	       N/A	        N/A	       N/A	       N/A	       N/A	        N/A	       N/A	       N/A	       N/A	        N/A	       N/A	       N/A	       N/A	        N/A	       N/A	       N/A	       N/A	        N/A	
         R10	    766	    74.983	      15.3	       0.8	        N/A	   75.1204	      15.3	       0.8	        N/A	   75.2579	      15.3	       0.8	        N/A	       N/A	       N/A	       N/A	        N/A	       N/A	       N/A	       N/A	        N/A	       N/A	       N/A	       N/A	        N/A	       N/A	       N/A	       N/A	        N/A	       N/A	       N/A	       N/A	        N/A	
         R10	    767	   75.2579	      15.3	       0.8	        N/A	   75.3856	      15.3	       0.8	        N/A	   75.5134	      15.3	       0.8	        N/A	       N/A	       N/A	       N/A	        N/A	       N/A	       N/A	       N/A	        N/A	       N/A	       N/A	       N/A	        N/A	       N/A	       N/A	       N/A	        N/A	       N/A	       N/A	       N/A	        N/A	
         R10	    768	   75.5134	      15.3	       0.8	        N/A	   75.6314	      15.3	       0.8	        N/A	   75.7495	      15.3	       0.8	        N/A	       N/A	       N/A	       N/A	        N/A	       N/A	       N/A	       N/A	        N/A	       N/A	       N/A	       N/A	        N/A	       N/A	       N/A	       N/A	        N/A	       N/A	       N/A	       N/A	        N/A	
         R10	    769	   75.7495	      15.3	       0.8	        N/A	   75.8578	      15.3	       0.8	        N/A	   75.9662	      15.3	       0.8	        N/A	       N/A	       N/A	       N/A	        N/A	       N/A	       N/A	       N/A	        N/A	       N/A	       N/A	       N/A	        N/A	       N/A	       N/A	       N/A	        N/A	       N/A	       N/A	       N/A	        N/A	
         R10	    770	   75.9662	      15.3	       0.8	        N/A	   76.0648	      15.3	       0.8	        N/A	   76.1635	      15.3	       0.8	        N/A	       N/A	       N/A	       N/A	        N/A	       N/A	       N/A	       N/A	        N/A	       N/A	       N/A	       N/A	        N/A	       N/A	       N/A	       N/A	        N/A	       N/A	       N/A	       N/A	        N/A	
         R10	    771	   76.1635	      15.3	       0.8	        N/A	   76.2525	      15.3	       0.8	        N/A	   76.3415	      15.3	       0.8	        N/A	       N/A	       N/A	       N/A	        N/A	       N/A	       N/A	       N/A	        N/A	       N/A	       N/A	       N/A	        N/A	       N/A	       N/A	       N/A	        N/A	       N/A	       N/A	       N/A	        N/A	
         R10	    772	   76.3415	      15.3	       0.8	        N/A	   76.4207	      15.3	       0.8	        N/A	      76.5	      15.3	       0.8	        N/A	       N/A	       N/A	       N/A	        N/A	       N/A	       N/A	       N/A	        N/A	       N/A	       N/A	       N/A	        N/A	       N/A	       N/A	       N/A	        N/A	       N/A	       N/A	       N/A	        N/A	
         R10	    773	      76.5	      15.3	       0.8	        N/A	    76.574	      15.3	       0.8	        N/A	    76.648	      15.3	       0.8	        N/A	       N/A	       N/A	       N/A	        N/A	       N/A	       N/A	       N/A	        N/A	       N/A	       N/A	       N/A	        N/A	       N/A	       N/A	       N/A	        N/A	       N/A	       N/A	       N/A	        N/A	
         R10	    774	    76.648	      15.3	       0.8	        N/A	   76.7265	      15.3	       0.8	        N/A	    76.805	      15.3	       0.8	        N/A	       N/A	       N/A	       N/A	        N/A	       N/A	       N/A	       N/A	        N/A	       N/A	       N/A	       N/A	        N/A	       N/A	       N/A	       N/A	        N/A	       N/A	       N/A	       N/A	        N/A	
         R10	    775	    76.805	      15.3	       0.8	        N/A	   76.8881	      15.3	       0.8	        N/A	   76.9711	      15.3	       0.8	        N/A	       N/A	       N/A	       N/A	        N/A	       N/A	       N/A	       N/A	        N/A	       N/A	       N/A	       N/A	        N/A	       N/A	       N/A	       N/A	        N/A	       N/A	       N/A	       N/A	        N/A	
         R10	    776	   76.9711	      15.3	       0.8	        N/A	   77.0587	      15.3	       0.8	        N/A	   77.1462	      15.3	       0.8	        N/A	       N/A	       N/A	       N/A	        N/A	       N/A	       N/A	       N/A	        N/A	       N/A	       N/A	       N/A	        N/A	       N/A	       N/A	       N/A	        N/A	       N/A	       N/A	       N/A	        N/A	
         R10	    777	   77.1462	      15.3	       0.8	        N/A	   77.2383	      15.3	       0.8	        N/A	   77.3304	      15.3	       0.8	        N/A	       N/A	       N/A	       N/A	        N/A	       N/A	       N/A	       N/A	        N/A	       N/A	       N/A	       N/A	        N/A	       N/A	       N/A	       N/A	        N/A	       N/A	       N/A	       N/A	        N/A	
         R10	    778	   77.3304	      15.3	       0.8	        N/A	    77.427	      15.3	       0.8	        N/A	   77.5236	      15.3	       0.8	        N/A	       N/A	       N/A	       N/A	        N/A	       N/A	       N/A	       N/A	        N/A	       N/A	       N/A	       N/A	        N/A	       N/A	       N/A	       N/A	        N/A	       N/A	       N/A	       N/A	        N/A	
         R10	    779	   77.5236	      15.3	       0.8	        N/A	   77.6247	      15.3	       0.8	        N/A	   77.7258	      15.3	       0.8	        N/A	       N/A	       N/A	       N/A	        N/A	       N/A	       N/A	       N/A	        N/A	       N/A	       N/A	       N/A	        N/A	       N/A	       N/A	       N/A	        N/A	       N/A	       N/A	       N/A	        N/A	
         R10	    780	   77.7258	      15.3	       0.8	        N/A	   77.8314	      15.3	       0.8	        N/A	    77.937	      15.3	       0.8	        N/A	       N/A	       N/A	       N/A	        N/A	       N/A	       N/A	       N/A	        N/A	       N/A	       N/A	       N/A	        N/A	       N/A	       N/A	       N/A	        N/A	       N/A	       N/A	       N/A	        N/A	
         R10	    781	    77.937	      15.3	       0.8	        N/A	   78.0472	      15.3	       0.8	        N/A	   78.1573	      15.3	       0.8	        N/A	       N/A	       N/A	       N/A	        N/A	       N/A	       N/A	       N/A	        N/A	       N/A	       N/A	       N/A	        N/A	       N/A	       N/A	       N/A	        N/A	       N/A	       N/A	       N/A	        N/A	
         R10	    782	   78.1573	      15.3	       0.8	        N/A	    78.272	      15.3	       0.8	        N/A	   78.3866	      15.3	       0.8	        N/A	       N/A	       N/A	       N/A	        N/A	       N/A	       N/A	       N/A	        N/A	       N/A	       N/A	       N/A	        N/A	       N/A	       N/A	       N/A	        N/A	       N/A	       N/A	       N/A	        N/A	
         R10	    783	   78.3866	      15.3	       0.8	        N/A	   78.5058	      15.3	       0.8	        N/A	    78.625	      15.3	       0.8	        N/A	       N/A	       N/A	       N/A	        N/A	       N/A	       N/A	       N/A	        N/A	       N/A	       N/A	       N/A	        N/A	       N/A	       N/A	       N/A	        N/A	       N/A	       N/A	       N/A	        N/A	
         R10	    784	    74.375	      15.3	       1.6	        N/A	    74.507	      15.3	       1.6	        N/A	    74.639	      15.3	       1.6	        N/A	       N/A	       N/A	       N/A	        N/A	       N/A	       N/A	       N/A	        N/A	       N/A	       N/A	       N/A	        N/A	       N/A	       N/A	       N/A	        N/A	       N/A	       N/A	       N/A	        N/A	
         R10	    785	    74.639	      15.3	       1.6	        N/A	   74.7574	      15.3	       1.6	        N/A	   74.8758	      15.3	       1.6	        N/A	       N/A	       N/A	       N/A	        N/A	       N/A	       N/A	       N/A	        N/A	       N/A	       N/A	       N/A	        N/A	       N/A	       N/A	       N/A	        N/A	       N/A	       N/A	       N/A	        N/A	
         R10	    786	   74.8758	      15.3	       1.6	        N/A	   74.9805	      15.3	       1.6	        N/A	   75.0852	      15.3	       1.6	        N/A	       N/A	       N/A	       N/A	        N/A	       N/A	       N/A	       N/A	        N/A	       N/A	       N/A	       N/A	        N/A	       N/A	       N/A	       N/A	        N/A	       N/A	       N/A	       N/A	        N/A	
         R10	    787	   75.0852	      15.3	       1.6	        N/A	   75.1763	      15.3	       1.6	        N/A	   75.2673	      15.3	       1.6	        N/A	       N/A	       N/A	       N/A	        N/A	       N/A	       N/A	       N/A	        N/A	       N/A	       N/A	       N/A	        N/A	       N/A	       N/A	       N/A	        N/A	       N/A	       N/A	       N/A	        N/A	
         R10	    788	   75.2673	      15.3	       1.6	        N/A	   75.3448	      15.3	       1.6	        N/A	   75.4222	      15.3	       1.6	        N/A	       N/A	       N/A	       N/A	        N/A	       N/A	       N/A	       N/A	        N/A	       N/A	       N/A	       N/A	        N/A	       N/A	       N/A	       N/A	        N/A	       N/A	       N/A	       N/A	        N/A	
         R10	    789	   75.4222	      15.3	       1.6	        N/A	    75.486	      15.3	       1.6	        N/A	   75.5497	      15.3	       1.6	        N/A	       N/A	       N/A	       N/A	        N/A	       N/A	       N/A	       N/A	        N/A	       N/A	       N/A	       N/A	        N/A	       N/A	       N/A	       N/A	        N/A	       N/A	       N/A	       N/A	        N/A	
         R10	    790	   75.5497	      15.3	       1.6	        N/A	   75.5999	      15.3	       1.6	        N/A	     75.65	      15.3	       1.6	        N/A	       N/A	       N/A	       N/A	        N/A	       N/A	       N/A	       N/A	        N/A	       N/A	       N/A	       N/A	        N/A	       N/A	       N/A	       N/A	        N/A	       N/A	       N/A	       N/A	        N/A	
         R10	    791	     80.75	     20.66	         6	        N/A	   80.3752	     20.66	         6	        N/A	   80.0004	     20.66	         6	        N/A	       N/A	       N/A	       N/A	        N/A	       N/A	       N/A	       N/A	        N/A	       N/A	       N/A	       N/A	        N/A	       N/A	       N/A	       N/A	        N/A	       N/A	       N/A	       N/A	        N/A	
         R10	    792	   80.0004	     20.66	         6	        N/A	   79.6462	     20.66	         6	        N/A	   79.2921	     20.66	         6	        N/A	       N/A	       N/A	       N/A	        N/A	       N/A	       N/A	       N/A	        N/A	       N/A	       N/A	       N/A	        N/A	       N/A	       N/A	       N/A	        N/A	       N/A	       N/A	       N/A	        N/A	
         R10	    793	   79.2921	     20.66	         6	        N/A	   78.9585	     20.66	         6	        N/A	    78.625	     20.66	         6	        N/A	       N/A	       N/A	       N/A	        N/A	       N/A	       N/A	       N/A	        N/A	       N/A	       N/A	       N/A	        N/A	       N/A	       N/A	       N/A	        N/A	       N/A	       N/A	       N/A	        N/A	
         R10	    794	     80.75	     19.83	         6	        N/A	   80.4717	     19.83	         6	        N/A	   80.1935	     19.83	         6	        N/A	       N/A	       N/A	       N/A	        N/A	       N/A	       N/A	       N/A	        N/A	       N/A	       N/A	       N/A	        N/A	       N/A	       N/A	       N/A	        N/A	       N/A	       N/A	       N/A	        N/A	
         R10	    795	   80.1935	     19.83	         6	        N/A	   79.9236	     19.83	         6	        N/A	   79.6538	     19.83	         6	        N/A	       N/A	       N/A	       N/A	        N/A	       N/A	       N/A	       N/A	        N/A	       N/A	       N/A	       N/A	        N/A	       N/A	       N/A	       N/A	        N/A	       N/A	       N/A	       N/A	        N/A	
         R10	    796	   79.6538	     19.83	         6	        N/A	   79.3924	     19.83	         6	        N/A	    79.131	     19.83	         6	        N/A	       N/A	       N/A	       N/A	        N/A	       N/A	       N/A	       N/A	        N/A	       N/A	       N/A	       N/A	        N/A	       N/A	       N/A	       N/A	        N/A	       N/A	       N/A	       N/A	        N/A	
         R10	    797	    79.131	     19.83	         6	        N/A	    78.878	     19.83	         6	        N/A	    78.625	     19.83	         6	        N/A	       N/A	       N/A	       N/A	        N/A	       N/A	       N/A	       N/A	        N/A	       N/A	       N/A	       N/A	        N/A	       N/A	       N/A	       N/A	        N/A	       N/A	       N/A	       N/A	        N/A	
         R10	    798	     80.75	     12.75	       2.4	        N/A	   80.5478	     12.75	       2.4	        N/A	   80.3455	     12.75	       2.4	        N/A	       N/A	       N/A	       N/A	        N/A	       N/A	       N/A	       N/A	        N/A	       N/A	       N/A	       N/A	        N/A	       N/A	       N/A	       N/A	        N/A	       N/A	       N/A	       N/A	        N/A	
         R10	    799	   80.3455	     12.75	       2.4	        N/A	   80.1534	     12.75	       2.4	        N/A	   79.9612	     12.75	       2.4	        N/A	       N/A	       N/A	       N/A	        N/A	       N/A	       N/A	       N/A	        N/A	       N/A	       N/A	       N/A	        N/A	       N/A	       N/A	       N/A	        N/A	       N/A	       N/A	       N/A	        N/A	
         R10	    800	   79.9612	     12.75	       2.4	        N/A	   79.7791	     12.75	       2.4	        N/A	    79.597	     12.75	       2.4	        N/A	       N/A	       N/A	       N/A	        N/A	       N/A	       N/A	       N/A	        N/A	       N/A	       N/A	       N/A	        N/A	       N/A	       N/A	       N/A	        N/A	       N/A	       N/A	       N/A	        N/A	
         R10	    801	    79.597	     12.75	       2.4	        N/A	   79.4249	     12.75	       2.4	        N/A	   79.2529	     12.75	       2.4	        N/A	       N/A	       N/A	       N/A	        N/A	       N/A	       N/A	       N/A	        N/A	       N/A	       N/A	       N/A	        N/A	       N/A	       N/A	       N/A	        N/A	       N/A	       N/A	       N/A	        N/A	
         R10	    802	   79.2529	     12.75	       2.4	        N/A	   79.0909	     12.75	       2.4	        N/A	   78.9289	     12.75	       2.4	        N/A	       N/A	       N/A	       N/A	        N/A	       N/A	       N/A	       N/A	        N/A	       N/A	       N/A	       N/A	        N/A	       N/A	       N/A	       N/A	        N/A	       N/A	       N/A	       N/A	        N/A	
         R10	    803	   78.9289	     12.75	       2.4	        N/A	   78.7769	     12.75	       2.4	        N/A	    78.625	     12.75	       2.4	        N/A	       N/A	       N/A	       N/A	        N/A	       N/A	       N/A	       N/A	        N/A	       N/A	       N/A	       N/A	        N/A	       N/A	       N/A	       N/A	        N/A	       N/A	       N/A	       N/A	        N/A	
         R10	    804	     80.75	      13.6	       2.4	        N/A	   80.5236	      13.6	       2.4	        N/A	   80.2972	      13.6	       2.4	        N/A	       N/A	       N/A	       N/A	        N/A	       N/A	       N/A	       N/A	        N/A	       N/A	       N/A	       N/A	        N/A	       N/A	       N/A	       N/A	        N/A	       N/A	       N/A	       N/A	        N/A	
         R10	    805	   80.2972	      13.6	       2.4	        N/A	   80.0906	      13.6	       2.4	        N/A	   79.8839	      13.6	       2.4	        N/A	       N/A	       N/A	       N/A	        N/A	       N/A	       N/A	       N/A	        N/A	       N/A	       N/A	       N/A	        N/A	       N/A	       N/A	       N/A	        N/A	       N/A	       N/A	       N/A	        N/A	
         R10	    806	   79.8839	      13.6	       2.4	        N/A	    79.697	      13.6	       2.4	        N/A	     79.51	      13.6	       2.4	        N/A	       N/A	       N/A	       N/A	        N/A	       N/A	       N/A	       N/A	        N/A	       N/A	       N/A	       N/A	        N/A	       N/A	       N/A	       N/A	        N/A	       N/A	       N/A	       N/A	        N/A	
         R10	    807	     79.51	      13.6	       2.4	        N/A	   79.3428	      13.6	       2.4	        N/A	   79.1756	      13.6	       2.4	        N/A	       N/A	       N/A	       N/A	        N/A	       N/A	       N/A	       N/A	        N/A	       N/A	       N/A	       N/A	        N/A	       N/A	       N/A	       N/A	        N/A	       N/A	       N/A	       N/A	        N/A	
         R10	    808	   79.1756	      13.6	       2.4	        N/A	   79.0281	      13.6	       2.4	        N/A	   78.8806	      13.6	       2.4	        N/A	       N/A	       N/A	       N/A	        N/A	       N/A	       N/A	       N/A	        N/A	       N/A	       N/A	       N/A	        N/A	       N/A	       N/A	       N/A	        N/A	       N/A	       N/A	       N/A	        N/A	
         R10	    809	   78.8806	      13.6	       2.4	        N/A	   78.7528	      13.6	       2.4	        N/A	    78.625	      13.6	       2.4	        N/A	       N/A	       N/A	       N/A	        N/A	       N/A	       N/A	       N/A	        N/A	       N/A	       N/A	       N/A	        N/A	       N/A	       N/A	       N/A	        N/A	       N/A	       N/A	       N/A	        N/A	
         R10	    810	     80.75	     14.45	       2.4	        N/A	    80.556	     14.45	       2.4	        N/A	   80.3619	     14.45	       2.4	        N/A	       N/A	       N/A	       N/A	        N/A	       N/A	       N/A	       N/A	        N/A	       N/A	       N/A	       N/A	        N/A	       N/A	       N/A	       N/A	        N/A	       N/A	       N/A	       N/A	        N/A	
         R10	    811	   80.3619	     14.45	       2.4	        N/A	    80.182	     14.45	       2.4	        N/A	    80.002	     14.45	       2.4	        N/A	       N/A	       N/A	       N/A	        N/A	       N/A	       N/A	       N/A	        N/A	       N/A	       N/A	       N/A	        N/A	       N/A	       N/A	       N/A	        N/A	       N/A	       N/A	       N/A	        N/A	
         R10	    812	    80.002	     14.45	       2.4	        N/A	   79.8361	     14.45	       2.4	        N/A	   79.6703	     14.45	       2.4	        N/A	       N/A	       N/A	       N/A	        N/A	       N/A	       N/A	       N/A	        N/A	       N/A	       N/A	       N/A	        N/A	       N/A	       N/A	       N/A	        N/A	       N/A	       N/A	       N/A	        N/A	
         R10	    813	   79.6703	     14.45	       2.4	        N/A	   79.5185	     14.45	       2.4	        N/A	   79.3667	     14.45	       2.4	        N/A	       N/A	       N/A	       N/A	        N/A	       N/A	       N/A	       N/A	        N/A	       N/A	       N/A	       N/A	        N/A	       N/A	       N/A	       N/A	        N/A	       N/A	       N/A	       N/A	        N/A	
         R10	    814	   79.3667	     14.45	       2.4	        N/A	    79.229	     14.45	       2.4	        N/A	   79.0913	     14.45	       2.4	        N/A	       N/A	       N/A	       N/A	        N/A	       N/A	       N/A	       N/A	        N/A	       N/A	       N/A	       N/A	        N/A	       N/A	       N/A	       N/A	        N/A	       N/A	       N/A	       N/A	        N/A	
         R10	    815	   79.0913	     14.45	       2.4	        N/A	   78.9677	     14.45	       2.4	        N/A	   78.8441	     14.45	       2.4	        N/A	       N/A	       N/A	       N/A	        N/A	       N/A	       N/A	       N/A	        N/A	       N/A	       N/A	       N/A	        N/A	       N/A	       N/A	       N/A	        N/A	       N/A	       N/A	       N/A	        N/A	
         R10	    816	   78.8441	     14.45	       2.4	        N/A	   78.7345	     14.45	       2.4	        N/A	    78.625	     14.45	       2.4	        N/A	       N/A	       N/A	       N/A	        N/A	       N/A	       N/A	       N/A	        N/A	       N/A	       N/A	       N/A	        N/A	       N/A	       N/A	       N/A	        N/A	       N/A	       N/A	       N/A	        N/A	
         R10	    817	   80.2972	      15.3	       0.8	        N/A	   80.5236	      15.3	       0.8	        N/A	     80.75	      15.3	       0.8	        N/A	       N/A	       N/A	       N/A	        N/A	       N/A	       N/A	       N/A	        N/A	       N/A	       N/A	       N/A	        N/A	       N/A	       N/A	       N/A	        N/A	       N/A	       N/A	       N/A	        N/A	
         R10	    818	   79.8839	      15.3	       0.8	        N/A	   80.0906	      15.3	       0.8	        N/A	   80.2972	      15.3	       0.8	        N/A	       N/A	       N/A	       N/A	        N/A	       N/A	       N/A	       N/A	        N/A	       N/A	       N/A	       N/A	        N/A	       N/A	       N/A	       N/A	        N/A	       N/A	       N/A	       N/A	        N/A	
         R10	    819	     79.51	      15.3	       0.8	        N/A	    79.697	      15.3	       0.8	        N/A	   79.8839	      15.3	       0.8	        N/A	       N/A	       N/A	       N/A	        N/A	       N/A	       N/A	       N/A	        N/A	       N/A	       N/A	       N/A	        N/A	       N/A	       N/A	       N/A	        N/A	       N/A	       N/A	       N/A	        N/A	
         R10	    820	   79.1756	      15.3	       0.8	        N/A	   79.3428	      15.3	       0.8	        N/A	     79.51	      15.3	       0.8	        N/A	       N/A	       N/A	       N/A	        N/A	       N/A	       N/A	       N/A	        N/A	       N/A	       N/A	       N/A	        N/A	       N/A	       N/A	       N/A	        N/A	       N/A	       N/A	       N/A	        N/A	
         R10	    821	   78.8806	      15.3	       0.8	        N/A	   79.0281	      15.3	       0.8	        N/A	   79.1756	      15.3	       0.8	        N/A	       N/A	       N/A	       N/A	        N/A	       N/A	       N/A	       N/A	        N/A	       N/A	       N/A	       N/A	        N/A	       N/A	       N/A	       N/A	        N/A	       N/A	       N/A	       N/A	        N/A	
         R10	    822	    78.625	      15.3	       0.8	        N/A	   78.7528	      15.3	       0.8	        N/A	   78.8806	      15.3	       0.8	        N/A	       N/A	       N/A	       N/A	        N/A	       N/A	       N/A	       N/A	        N/A	       N/A	       N/A	       N/A	        N/A	       N/A	       N/A	       N/A	        N/A	       N/A	       N/A	       N/A	        N/A	
         R10	    823	     80.75	   15.9164	   2.99973	        N/A	    80.556	   15.9164	   2.99973	        N/A	   80.3619	   15.9164	   2.99973	        N/A	       N/A	       N/A	       N/A	        N/A	       N/A	       N/A	       N/A	        N/A	       N/A	       N/A	       N/A	        N/A	       N/A	       N/A	       N/A	        N/A	       N/A	       N/A	       N/A	        N/A	
         R10	    824	   80.3619	   15.9164	   2.99973	        N/A	    80.182	   15.9164	   2.99973	        N/A	    80.002	   15.9164	   2.99973	        N/A	       N/A	       N/A	       N/A	        N/A	       N/A	       N/A	       N/A	        N/A	       N/A	       N/A	       N/A	        N/A	       N/A	       N/A	       N/A	        N/A	       N/A	       N/A	       N/A	        N/A	
         R10	    825	    80.002	   15.9164	   2.99973	        N/A	   79.8361	   15.9164	   2.99973	        N/A	   79.6703	   15.9164	   2.99973	        N/A	       N/A	       N/A	       N/A	        N/A	       N/A	       N/A	       N/A	        N/A	       N/A	       N/A	       N/A	        N/A	       N/A	       N/A	       N/A	        N/A	       N/A	       N/A	       N/A	        N/A	
         R10	    826	   79.6703	   15.9164	   2.99973	        N/A	   79.5185	   15.9164	   2.99973	        N/A	   79.3667	   15.9164	   2.99973	        N/A	       N/A	       N/A	       N/A	        N/A	       N/A	       N/A	       N/A	        N/A	       N/A	       N/A	       N/A	        N/A	       N/A	       N/A	       N/A	        N/A	       N/A	       N/A	       N/A	        N/A	
         R10	    827	   79.3667	   15.9164	   2.99973	        N/A	    79.229	   15.9164	   2.99973	        N/A	   79.0913	   15.9164	   2.99973	        N/A	       N/A	       N/A	       N/A	        N/A	       N/A	       N/A	       N/A	        N/A	       N/A	       N/A	       N/A	        N/A	       N/A	       N/A	       N/A	        N/A	       N/A	       N/A	       N/A	        N/A	
         R10	    828	   79.0913	   15.9164	   2.99973	        N/A	   78.9677	   15.9164	   2.99973	        N/A	   78.8441	   15.9164	   2.99973	        N/A	       N/A	       N/A	       N/A	        N/A	       N/A	       N/A	       N/A	        N/A	       N/A	       N/A	       N/A	        N/A	       N/A	       N/A	       N/A	        N/A	       N/A	       N/A	       N/A	        N/A	
         R10	    829	   78.8441	   15.9164	   2.99973	        N/A	   78.7345	   15.9164	   2.99973	        N/A	    78.625	   15.9164	   2.99973	        N/A	       N/A	       N/A	       N/A	        N/A	       N/A	       N/A	       N/A	        N/A	       N/A	       N/A	       N/A	        N/A	       N/A	       N/A	       N/A	        N/A	       N/A	       N/A	       N/A	        N/A	
         R10	    830	     80.75	   16.5328	   3.59945	        N/A	   80.5236	   16.5328	   3.59945	        N/A	   80.2972	   16.5328	   3.59945	        N/A	       N/A	       N/A	       N/A	        N/A	       N/A	       N/A	       N/A	        N/A	       N/A	       N/A	       N/A	        N/A	       N/A	       N/A	       N/A	        N/A	       N/A	       N/A	       N/A	        N/A	
         R10	    831	   80.2972	   16.5328	   3.59945	        N/A	   80.0906	   16.5328	   3.59945	        N/A	   79.8839	   16.5328	   3.59945	        N/A	       N/A	       N/A	       N/A	        N/A	       N/A	       N/A	       N/A	        N/A	       N/A	       N/A	       N/A	        N/A	       N/A	       N/A	       N/A	        N/A	       N/A	       N/A	       N/A	        N/A	
         R10	    832	   79.8839	   16.5328	   3.59945	        N/A	    79.697	   16.5328	   3.59945	        N/A	     79.51	   16.5328	   3.59945	        N/A	       N/A	       N/A	       N/A	        N/A	       N/A	       N/A	       N/A	        N/A	       N/A	       N/A	       N/A	        N/A	       N/A	       N/A	       N/A	        N/A	       N/A	       N/A	       N/A	        N/A	
         R10	    833	     79.51	   16.5328	   3.59945	        N/A	   79.3428	   16.5328	   3.59945	        N/A	   79.1756	   16.5328	   3.59945	        N/A	       N/A	       N/A	       N/A	        N/A	       N/A	       N/A	       N/A	        N/A	       N/A	       N/A	       N/A	        N/A	       N/A	       N/A	       N/A	        N/A	       N/A	       N/A	       N/A	        N/A	
         R10	    834	   79.1756	   16.5328	   3.59945	        N/A	   79.0281	   16.5328	   3.59945	        N/A	   78.8806	   16.5328	   3.59945	        N/A	       N/A	       N/A	       N/A	        N/A	       N/A	       N/A	       N/A	        N/A	       N/A	       N/A	       N/A	        N/A	       N/A	       N/A	       N/A	        N/A	       N/A	       N/A	       N/A	        N/A	
         R10	    835	   78.8806	   16.5328	   3.59945	        N/A	   78.7528	   16.5328	   3.59945	        N/A	    78.625	   16.5328	   3.59945	        N/A	       N/A	       N/A	       N/A	        N/A	       N/A	       N/A	       N/A	        N/A	       N/A	       N/A	       N/A	        N/A	       N/A	       N/A	       N/A	        N/A	       N/A	       N/A	       N/A	        N/A	
         R10	    836	     80.75	   17.1492	   4.19918	        N/A	   80.5478	   17.1492	   4.19918	        N/A	   80.3455	   17.1492	   4.19918	        N/A	       N/A	       N/A	       N/A	        N/A	       N/A	       N/A	       N/A	        N/A	       N/A	       N/A	       N/A	        N/A	       N/A	       N/A	       N/A	        N/A	       N/A	       N/A	       N/A	        N/A	
         R10	    837	   80.3455	   17.1492	   4.19918	        N/A	   80.1534	   17.1492	   4.19918	        N/A	   79.9612	   17.1492	   4.19918	        N/A	       N/A	       N/A	       N/A	        N/A	       N/A	       N/A	       N/A	        N/A	       N/A	       N/A	       N/A	        N/A	       N/A	       N/A	       N/A	        N/A	       N/A	       N/A	       N/A	        N/A	
         R10	    838	   79.9612	   17.1492	   4.19918	        N/A	   79.7791	   17.1492	   4.19918	        N/A	    79.597	   17.1492	   4.19918	        N/A	       N/A	       N/A	       N/A	        N/A	       N/A	       N/A	       N/A	        N/A	       N/A	       N/A	       N/A	        N/A	       N/A	       N/A	       N/A	        N/A	       N/A	       N/A	       N/A	        N/A	
         R10	    839	    79.597	   17.1492	   4.19918	        N/A	   79.4249	   17.1492	   4.19918	        N/A	   79.2529	   17.1492	   4.19918	        N/A	       N/A	       N/A	       N/A	        N/A	       N/A	       N/A	       N/A	        N/A	       N/A	       N/A	       N/A	        N/A	       N/A	       N/A	       N/A	        N/A	       N/A	       N/A	       N/A	        N/A	
         R10	    840	   79.2529	   17.1492	   4.19918	        N/A	   79.0909	   17.1492	   4.19918	        N/A	   78.9289	   17.1492	   4.19918	        N/A	       N/A	       N/A	       N/A	        N/A	       N/A	       N/A	       N/A	        N/A	       N/A	       N/A	       N/A	        N/A	       N/A	       N/A	       N/A	        N/A	       N/A	       N/A	       N/A	        N/A	
         R10	    841	   78.9289	   17.1492	   4.19918	        N/A	   78.7769	   17.1492	   4.19918	        N/A	    78.625	   17.1492	   4.19918	        N/A	       N/A	       N/A	       N/A	        N/A	       N/A	       N/A	       N/A	        N/A	       N/A	       N/A	       N/A	        N/A	       N/A	       N/A	       N/A	        N/A	       N/A	       N/A	       N/A	        N/A	
         R10	    842	     80.75	   17.7655	    4.7989	        N/A	   80.5173	   17.7655	    4.7989	        N/A	   80.2846	   17.7655	    4.7989	        N/A	       N/A	       N/A	       N/A	        N/A	       N/A	       N/A	       N/A	        N/A	       N/A	       N/A	       N/A	        N/A	       N/A	       N/A	       N/A	        N/A	       N/A	       N/A	       N/A	        N/A	
         R10	    843	   80.2846	   17.7655	    4.7989	        N/A	    80.062	   17.7655	    4.7989	        N/A	   79.8394	   17.7655	    4.7989	        N/A	       N/A	       N/A	       N/A	        N/A	       N/A	       N/A	       N/A	        N/A	       N/A	       N/A	       N/A	        N/A	       N/A	       N/A	       N/A	        N/A	       N/A	       N/A	       N/A	        N/A	
         R10	    844	   79.8394	   17.7655	    4.7989	        N/A	   79.6269	   17.7655	    4.7989	        N/A	   79.4144	   17.7655	    4.7989	        N/A	       N/A	       N/A	       N/A	        N/A	       N/A	       N/A	       N/A	        N/A	       N/A	       N/A	       N/A	        N/A	       N/A	       N/A	       N/A	        N/A	       N/A	       N/A	       N/A	        N/A	
         R10	    845	   79.4144	   17.7655	    4.7989	        N/A	    79.212	   17.7655	    4.7989	        N/A	   79.0096	   17.7655	    4.7989	        N/A	       N/A	       N/A	       N/A	        N/A	       N/A	       N/A	       N/A	        N/A	       N/A	       N/A	       N/A	        N/A	       N/A	       N/A	       N/A	        N/A	       N/A	       N/A	       N/A	        N/A	
         R10	    846	   79.0096	   17.7655	    4.7989	        N/A	   78.8173	   17.7655	    4.7989	        N/A	    78.625	   17.7655	    4.7989	        N/A	       N/A	       N/A	       N/A	        N/A	       N/A	       N/A	       N/A	        N/A	       N/A	       N/A	       N/A	        N/A	       N/A	       N/A	       N/A	        N/A	       N/A	       N/A	       N/A	        N/A	
         R10	    847	     80.75	   18.3819	   5.39863	        N/A	   80.4717	   18.3819	   5.39863	        N/A	   80.1935	   18.3819	   5.39863	        N/A	       N/A	       N/A	       N/A	        N/A	       N/A	       N/A	       N/A	        N/A	       N/A	       N/A	       N/A	        N/A	       N/A	       N/A	       N/A	        N/A	       N/A	       N/A	       N/A	        N/A	
         R10	    848	   80.1935	   18.3819	   5.39863	        N/A	   79.9236	   18.3819	   5.39863	        N/A	   79.6538	   18.3819	   5.39863	        N/A	       N/A	       N/A	       N/A	        N/A	       N/A	       N/A	       N/A	        N/A	       N/A	       N/A	       N/A	        N/A	       N/A	       N/A	       N/A	        N/A	       N/A	       N/A	       N/A	        N/A	
         R10	    849	   79.6538	   18.3819	   5.39863	        N/A	   79.3924	   18.3819	   5.39863	        N/A	    79.131	   18.3819	   5.39863	        N/A	       N/A	       N/A	       N/A	        N/A	       N/A	       N/A	       N/A	        N/A	       N/A	       N/A	       N/A	        N/A	       N/A	       N/A	       N/A	        N/A	       N/A	       N/A	       N/A	        N/A	
         R10	    850	    79.131	   18.3819	   5.39863	        N/A	    78.878	   18.3819	   5.39863	        N/A	    78.625	   18.3819	   5.39863	        N/A	       N/A	       N/A	       N/A	        N/A	       N/A	       N/A	       N/A	        N/A	       N/A	       N/A	       N/A	        N/A	       N/A	       N/A	       N/A	        N/A	       N/A	       N/A	       N/A	        N/A	
         R10	    851	   80.1935	        19	      6.85	        N/A	   80.4717	        19	      6.85	        N/A	     80.75	        19	      6.85	        N/A	       N/A	       N/A	       N/A	        N/A	       N/A	       N/A	       N/A	        N/A	       N/A	       N/A	       N/A	        N/A	       N/A	       N/A	       N/A	        N/A	       N/A	       N/A	       N/A	        N/A	
         R10	    852	   79.6538	        19	      6.85	        N/A	   79.9236	        19	      6.85	        N/A	   80.1935	        19	      6.85	        N/A	       N/A	       N/A	       N/A	        N/A	       N/A	       N/A	       N/A	        N/A	       N/A	       N/A	       N/A	        N/A	       N/A	       N/A	       N/A	        N/A	       N/A	       N/A	       N/A	        N/A	
         R10	    853	    79.131	        19	      6.85	        N/A	   79.3924	        19	      6.85	        N/A	   79.6538	        19	      6.85	        N/A	       N/A	       N/A	       N/A	        N/A	       N/A	       N/A	       N/A	        N/A	       N/A	       N/A	       N/A	        N/A	       N/A	       N/A	       N/A	        N/A	       N/A	       N/A	       N/A	        N/A	
         R10	    854	    78.625	        19	      6.85	        N/A	    78.878	        19	      6.85	        N/A	    79.131	        19	      6.85	        N/A	       N/A	       N/A	       N/A	        N/A	       N/A	       N/A	       N/A	        N/A	       N/A	       N/A	       N/A	        N/A	       N/A	       N/A	       N/A	        N/A	       N/A	       N/A	       N/A	        N/A	
         R10	    855	   80.0079	        19	       7.7	        N/A	    80.379	        19	       7.7	        N/A	     80.75	        19	       7.7	        N/A	       N/A	       N/A	       N/A	        N/A	       N/A	       N/A	       N/A	        N/A	       N/A	       N/A	       N/A	        N/A	       N/A	       N/A	       N/A	        N/A	       N/A	       N/A	       N/A	        N/A	
         R10	    856	   79.2996	        19	       7.7	        N/A	   79.6538	        19	       7.7	        N/A	   80.0079	        19	       7.7	        N/A	       N/A	       N/A	       N/A	        N/A	       N/A	       N/A	       N/A	        N/A	       N/A	       N/A	       N/A	        N/A	       N/A	       N/A	       N/A	        N/A	       N/A	       N/A	       N/A	        N/A	
         R10	    857	    78.625	        19	       7.7	        N/A	   78.9623	        19	       7.7	        N/A	   79.2996	        19	       7.7	        N/A	       N/A	       N/A	       N/A	        N/A	       N/A	       N/A	       N/A	        N/A	       N/A	       N/A	       N/A	        N/A	       N/A	       N/A	       N/A	        N/A	       N/A	       N/A	       N/A	        N/A	
         R10	    858	   80.0079	        19	      8.55	        N/A	    80.379	        19	      8.55	        N/A	     80.75	        19	      8.55	        N/A	       N/A	       N/A	       N/A	        N/A	       N/A	       N/A	       N/A	        N/A	       N/A	       N/A	       N/A	        N/A	       N/A	       N/A	       N/A	        N/A	       N/A	       N/A	       N/A	        N/A	
         R10	    859	   79.2996	        19	      8.55	        N/A	   79.6538	        19	      8.55	        N/A	   80.0079	        19	      8.55	        N/A	       N/A	       N/A	       N/A	        N/A	       N/A	       N/A	       N/A	        N/A	       N/A	       N/A	       N/A	        N/A	       N/A	       N/A	       N/A	        N/A	       N/A	       N/A	       N/A	        N/A	
         R10	    860	    78.625	        19	      8.55	        N/A	   78.9623	        19	      8.55	        N/A	   79.2996	        19	      8.55	        N/A	       N/A	       N/A	       N/A	        N/A	       N/A	       N/A	       N/A	        N/A	       N/A	       N/A	       N/A	        N/A	       N/A	       N/A	       N/A	        N/A	       N/A	       N/A	       N/A	        N/A	
         R10	    861	   80.0079	        19	       9.4	        N/A	    80.379	        19	       9.4	        N/A	     80.75	        19	       9.4	        N/A	       N/A	       N/A	       N/A	        N/A	       N/A	       N/A	       N/A	        N/A	       N/A	       N/A	       N/A	        N/A	       N/A	       N/A	       N/A	        N/A	       N/A	       N/A	       N/A	        N/A	
         R10	    862	   79.2996	        19	       9.4	        N/A	   79.6538	        19	       9.4	        N/A	   80.0079	        19	       9.4	        N/A	       N/A	       N/A	       N/A	        N/A	       N/A	       N/A	       N/A	        N/A	       N/A	       N/A	       N/A	        N/A	       N/A	       N/A	       N/A	        N/A	       N/A	       N/A	       N/A	        N/A	
         R10	    863	    78.625	        19	       9.4	        N/A	   78.9623	        19	       9.4	        N/A	   79.2996	        19	       9.4	        N/A	       N/A	       N/A	       N/A	        N/A	       N/A	       N/A	       N/A	        N/A	       N/A	       N/A	       N/A	        N/A	       N/A	       N/A	       N/A	        N/A	       N/A	       N/A	       N/A	        N/A	
         R10	    864	   80.3619	      15.3	       1.6	        N/A	    80.556	      15.3	       1.6	        N/A	     80.75	      15.3	       1.6	        N/A	       N/A	       N/A	       N/A	        N/A	       N/A	       N/A	       N/A	        N/A	       N/A	       N/A	       N/A	        N/A	       N/A	       N/A	       N/A	        N/A	       N/A	       N/A	       N/A	        N/A	
         R10	    865	    80.002	      15.3	       1.6	        N/A	    80.182	      15.3	       1.6	        N/A	   80.3619	      15.3	       1.6	        N/A	       N/A	       N/A	       N/A	        N/A	       N/A	       N/A	       N/A	        N/A	       N/A	       N/A	       N/A	        N/A	       N/A	       N/A	       N/A	        N/A	       N/A	       N/A	       N/A	        N/A	
         R10	    866	   79.6703	      15.3	       1.6	        N/A	   79.8361	      15.3	       1.6	        N/A	    80.002	      15.3	       1.6	        N/A	       N/A	       N/A	       N/A	        N/A	       N/A	       N/A	       N/A	        N/A	       N/A	       N/A	       N/A	        N/A	       N/A	       N/A	       N/A	        N/A	       N/A	       N/A	       N/A	        N/A	
         R10	    867	   79.3667	      15.3	       1.6	        N/A	   79.5185	      15.3	       1.6	        N/A	   79.6703	      15.3	       1.6	        N/A	       N/A	       N/A	       N/A	        N/A	       N/A	       N/A	       N/A	        N/A	       N/A	       N/A	       N/A	        N/A	       N/A	       N/A	       N/A	        N/A	       N/A	       N/A	       N/A	        N/A	
         R10	    868	   79.0913	      15.3	       1.6	        N/A	    79.229	      15.3	       1.6	        N/A	   79.3667	      15.3	       1.6	        N/A	       N/A	       N/A	       N/A	        N/A	       N/A	       N/A	       N/A	        N/A	       N/A	       N/A	       N/A	        N/A	       N/A	       N/A	       N/A	        N/A	       N/A	       N/A	       N/A	        N/A	
         R10	    869	   78.8441	      15.3	       1.6	        N/A	   78.9677	      15.3	       1.6	        N/A	   79.0913	      15.3	       1.6	        N/A	       N/A	       N/A	       N/A	        N/A	       N/A	       N/A	       N/A	        N/A	       N/A	       N/A	       N/A	        N/A	       N/A	       N/A	       N/A	        N/A	       N/A	       N/A	       N/A	        N/A	
         R10	    870	    78.625	      15.3	       1.6	        N/A	   78.7345	      15.3	       1.6	        N/A	   78.8441	      15.3	       1.6	        N/A	       N/A	       N/A	       N/A	        N/A	       N/A	       N/A	       N/A	        N/A	       N/A	       N/A	       N/A	        N/A	       N/A	       N/A	       N/A	        N/A	       N/A	       N/A	       N/A	        N/A	
         R10	    871	     80.75	      9.35	         0	        N/A	   80.2188	      9.35	         0	        N/A	   79.6875	      9.35	         0	        N/A	       N/A	       N/A	       N/A	        N/A	       N/A	       N/A	       N/A	        N/A	       N/A	       N/A	       N/A	        N/A	       N/A	       N/A	       N/A	        N/A	       N/A	       N/A	       N/A	        N/A	
         R10	    872	   79.6875	      9.35	         0	        N/A	   79.1563	      9.35	         0	        N/A	    78.625	      9.35	         0	        N/A	       N/A	       N/A	       N/A	        N/A	       N/A	       N/A	       N/A	        N/A	       N/A	       N/A	       N/A	        N/A	       N/A	       N/A	       N/A	        N/A	       N/A	       N/A	       N/A	        N/A	
         R10	    873	     80.75	      10.2	         0	        N/A	   80.2188	      10.2	         0	        N/A	   79.6875	      10.2	         0	        N/A	       N/A	       N/A	       N/A	        N/A	       N/A	       N/A	       N/A	        N/A	       N/A	       N/A	       N/A	        N/A	       N/A	       N/A	       N/A	        N/A	       N/A	       N/A	       N/A	        N/A	
         R10	    874	   79.6875	      10.2	         0	        N/A	   79.1563	      10.2	         0	        N/A	    78.625	      10.2	         0	        N/A	       N/A	       N/A	       N/A	        N/A	       N/A	       N/A	       N/A	        N/A	       N/A	       N/A	       N/A	        N/A	       N/A	       N/A	       N/A	        N/A	       N/A	       N/A	       N/A	        N/A	
         R10	    875	     80.75	      13.6	         0	        N/A	   80.4467	      13.6	         0	        N/A	   80.1433	      13.6	         0	        N/A	       N/A	       N/A	       N/A	        N/A	       N/A	       N/A	       N/A	        N/A	       N/A	       N/A	       N/A	        N/A	       N/A	       N/A	       N/A	        N/A	       N/A	       N/A	       N/A	        N/A	
         R10	    876	   80.1433	      13.6	         0	        N/A	   79.8651	      13.6	         0	        N/A	   79.5869	      13.6	         0	        N/A	       N/A	       N/A	       N/A	        N/A	       N/A	       N/A	       N/A	        N/A	       N/A	       N/A	       N/A	        N/A	       N/A	       N/A	       N/A	        N/A	       N/A	       N/A	       N/A	        N/A	
         R10	    877	   79.5869	      13.6	         0	        N/A	   79.3339	      13.6	         0	        N/A	   79.0808	      13.6	         0	        N/A	       N/A	       N/A	       N/A	        N/A	       N/A	       N/A	       N/A	        N/A	       N/A	       N/A	       N/A	        N/A	       N/A	       N/A	       N/A	        N/A	       N/A	       N/A	       N/A	        N/A	
         R10	    878	   79.0808	      13.6	         0	        N/A	   78.8529	      13.6	         0	        N/A	    78.625	      13.6	         0	        N/A	       N/A	       N/A	       N/A	        N/A	       N/A	       N/A	       N/A	        N/A	       N/A	       N/A	       N/A	        N/A	       N/A	       N/A	       N/A	        N/A	       N/A	       N/A	       N/A	        N/A	
         R10	    879	     80.75	     11.05	         0	        N/A	   80.3809	     11.05	         0	        N/A	   80.0118	     11.05	         0	        N/A	       N/A	       N/A	       N/A	        N/A	       N/A	       N/A	       N/A	        N/A	       N/A	       N/A	       N/A	        N/A	       N/A	       N/A	       N/A	        N/A	       N/A	       N/A	       N/A	        N/A	
         R10	    880	   80.0118	     11.05	         0	        N/A	   79.6576	     11.05	         0	        N/A	   79.3034	     11.05	         0	        N/A	       N/A	       N/A	       N/A	        N/A	       N/A	       N/A	       N/A	        N/A	       N/A	       N/A	       N/A	        N/A	       N/A	       N/A	       N/A	        N/A	       N/A	       N/A	       N/A	        N/A	
         R10	    881	   79.3034	     11.05	         0	        N/A	   78.9642	     11.05	         0	        N/A	    78.625	     11.05	         0	        N/A	       N/A	       N/A	       N/A	        N/A	       N/A	       N/A	       N/A	        N/A	       N/A	       N/A	       N/A	        N/A	       N/A	       N/A	       N/A	        N/A	       N/A	       N/A	       N/A	        N/A	
         R10	    882	     80.75	      11.9	         0	        N/A	   80.3641	      11.9	         0	        N/A	   79.9782	      11.9	         0	        N/A	       N/A	       N/A	       N/A	        N/A	       N/A	       N/A	       N/A	        N/A	       N/A	       N/A	       N/A	        N/A	       N/A	       N/A	       N/A	        N/A	       N/A	       N/A	       N/A	        N/A	
         R10	    883	   79.9782	      11.9	         0	        N/A	    79.624	      11.9	         0	        N/A	   79.2698	      11.9	         0	        N/A	       N/A	       N/A	       N/A	        N/A	       N/A	       N/A	       N/A	        N/A	       N/A	       N/A	       N/A	        N/A	       N/A	       N/A	       N/A	        N/A	       N/A	       N/A	       N/A	        N/A	
         R10	    884	   79.2698	      11.9	         0	        N/A	   78.9474	      11.9	         0	        N/A	    78.625	      11.9	         0	        N/A	       N/A	       N/A	       N/A	        N/A	       N/A	       N/A	       N/A	        N/A	       N/A	       N/A	       N/A	        N/A	       N/A	       N/A	       N/A	        N/A	       N/A	       N/A	       N/A	        N/A	
         R10	    885	     80.75	      16.1	         0	        N/A	   80.5073	      16.1	         0	        N/A	   80.2646	      16.1	         0	        N/A	       N/A	       N/A	       N/A	        N/A	       N/A	       N/A	       N/A	        N/A	       N/A	       N/A	       N/A	        N/A	       N/A	       N/A	       N/A	        N/A	       N/A	       N/A	       N/A	        N/A	
         R10	    886	   80.2646	      16.1	         0	        N/A	   80.0371	      16.1	         0	        N/A	   79.8095	      16.1	         0	        N/A	       N/A	       N/A	       N/A	        N/A	       N/A	       N/A	       N/A	        N/A	       N/A	       N/A	       N/A	        N/A	       N/A	       N/A	       N/A	        N/A	       N/A	       N/A	       N/A	        N/A	
         R10	    887	   79.8095	      16.1	         0	        N/A	    79.597	      16.1	         0	        N/A	   79.3845	      16.1	         0	        N/A	       N/A	       N/A	       N/A	        N/A	       N/A	       N/A	       N/A	        N/A	       N/A	       N/A	       N/A	        N/A	       N/A	       N/A	       N/A	        N/A	       N/A	       N/A	       N/A	        N/A	
         R10	    888	   79.3845	      16.1	         0	        N/A	   79.1871	      16.1	         0	        N/A	   78.9896	      16.1	         0	        N/A	       N/A	       N/A	       N/A	        N/A	       N/A	       N/A	       N/A	        N/A	       N/A	       N/A	       N/A	        N/A	       N/A	       N/A	       N/A	        N/A	       N/A	       N/A	       N/A	        N/A	
         R10	    889	   78.9896	      16.1	         0	        N/A	   78.8073	      16.1	         0	        N/A	    78.625	      16.1	         0	        N/A	       N/A	       N/A	       N/A	        N/A	       N/A	       N/A	       N/A	        N/A	       N/A	       N/A	       N/A	        N/A	       N/A	       N/A	       N/A	        N/A	       N/A	       N/A	       N/A	        N/A	
         R10	    890	     80.75	     12.75	         0	        N/A	   80.3455	     12.75	         0	        N/A	   79.9411	     12.75	         0	        N/A	       N/A	       N/A	       N/A	        N/A	       N/A	       N/A	       N/A	        N/A	       N/A	       N/A	       N/A	        N/A	       N/A	       N/A	       N/A	        N/A	       N/A	       N/A	       N/A	        N/A	
         R10	    891	   79.9411	     12.75	         0	        N/A	   79.5869	     12.75	         0	        N/A	   79.2327	     12.75	         0	        N/A	       N/A	       N/A	       N/A	        N/A	       N/A	       N/A	       N/A	        N/A	       N/A	       N/A	       N/A	        N/A	       N/A	       N/A	       N/A	        N/A	       N/A	       N/A	       N/A	        N/A	
         R10	    892	   79.2327	     12.75	         0	        N/A	   78.9289	     12.75	         0	        N/A	    78.625	     12.75	         0	        N/A	       N/A	       N/A	       N/A	        N/A	       N/A	       N/A	       N/A	        N/A	       N/A	       N/A	       N/A	        N/A	       N/A	       N/A	       N/A	        N/A	       N/A	       N/A	       N/A	        N/A	
         R10	    893	     80.75	      17.7	         0	        N/A	   80.4591	      17.7	         0	        N/A	   80.1683	      17.7	         0	        N/A	       N/A	       N/A	       N/A	        N/A	       N/A	       N/A	       N/A	        N/A	       N/A	       N/A	       N/A	        N/A	       N/A	       N/A	       N/A	        N/A	       N/A	       N/A	       N/A	        N/A	
         R10	    894	   80.1683	      17.7	         0	        N/A	   79.8942	      17.7	         0	        N/A	   79.6202	      17.7	         0	        N/A	       N/A	       N/A	       N/A	        N/A	       N/A	       N/A	       N/A	        N/A	       N/A	       N/A	       N/A	        N/A	       N/A	       N/A	       N/A	        N/A	       N/A	       N/A	       N/A	        N/A	
         R10	    895	   79.6202	      17.7	         0	        N/A	    79.363	      17.7	         0	        N/A	   79.1058	      17.7	         0	        N/A	       N/A	       N/A	       N/A	        N/A	       N/A	       N/A	       N/A	        N/A	       N/A	       N/A	       N/A	        N/A	       N/A	       N/A	       N/A	        N/A	       N/A	       N/A	       N/A	        N/A	
         R10	    896	   79.1058	      17.7	         0	        N/A	   78.8654	      17.7	         0	        N/A	    78.625	      17.7	         0	        N/A	       N/A	       N/A	       N/A	        N/A	       N/A	       N/A	       N/A	        N/A	       N/A	       N/A	       N/A	        N/A	       N/A	       N/A	       N/A	        N/A	       N/A	       N/A	       N/A	        N/A	
         R10	    897	     80.75	     14.45	         0	        N/A	   80.4467	     14.45	         0	        N/A	   80.1433	     14.45	         0	        N/A	       N/A	       N/A	       N/A	        N/A	       N/A	       N/A	       N/A	        N/A	       N/A	       N/A	       N/A	        N/A	       N/A	       N/A	       N/A	        N/A	       N/A	       N/A	       N/A	        N/A	
         R10	    898	   80.1433	     14.45	         0	        N/A	   79.8651	     14.45	         0	        N/A	   79.5869	     14.45	         0	        N/A	       N/A	       N/A	       N/A	        N/A	       N/A	       N/A	       N/A	        N/A	       N/A	       N/A	       N/A	        N/A	       N/A	       N/A	       N/A	        N/A	       N/A	       N/A	       N/A	        N/A	
         R10	    899	   79.5869	     14.45	         0	        N/A	   79.3339	     14.45	         0	        N/A	   79.0808	     14.45	         0	        N/A	       N/A	       N/A	       N/A	        N/A	       N/A	       N/A	       N/A	        N/A	       N/A	       N/A	       N/A	        N/A	       N/A	       N/A	       N/A	        N/A	       N/A	       N/A	       N/A	        N/A	
         R10	    900	   79.0808	     14.45	         0	        N/A	   78.8529	     14.45	         0	        N/A	    78.625	     14.45	         0	        N/A	       N/A	       N/A	       N/A	        N/A	       N/A	       N/A	       N/A	        N/A	       N/A	       N/A	       N/A	        N/A	       N/A	       N/A	       N/A	        N/A	       N/A	       N/A	       N/A	        N/A	
         R10	    901	     80.75	      16.9	         0	        N/A	   80.4591	      16.9	         0	        N/A	   80.1683	      16.9	         0	        N/A	       N/A	       N/A	       N/A	        N/A	       N/A	       N/A	       N/A	        N/A	       N/A	       N/A	       N/A	        N/A	       N/A	       N/A	       N/A	        N/A	       N/A	       N/A	       N/A	        N/A	
         R10	    902	   80.1683	      16.9	         0	        N/A	   79.8942	      16.9	         0	        N/A	   79.6202	      16.9	         0	        N/A	       N/A	       N/A	       N/A	        N/A	       N/A	       N/A	       N/A	        N/A	       N/A	       N/A	       N/A	        N/A	       N/A	       N/A	       N/A	        N/A	       N/A	       N/A	       N/A	        N/A	
         R10	    903	   79.6202	      16.9	         0	        N/A	    79.363	      16.9	         0	        N/A	   79.1058	      16.9	         0	        N/A	       N/A	       N/A	       N/A	        N/A	       N/A	       N/A	       N/A	        N/A	       N/A	       N/A	       N/A	        N/A	       N/A	       N/A	       N/A	        N/A	       N/A	       N/A	       N/A	        N/A	
         R10	    904	   79.1058	      16.9	         0	        N/A	   78.8654	      16.9	         0	        N/A	    78.625	      16.9	         0	        N/A	       N/A	       N/A	       N/A	        N/A	       N/A	       N/A	       N/A	        N/A	       N/A	       N/A	       N/A	        N/A	       N/A	       N/A	       N/A	        N/A	       N/A	       N/A	       N/A	        N/A	
         R10	    905	     80.75	      18.5	         0	        N/A	   80.4844	      18.5	         0	        N/A	   80.2188	      18.5	         0	        N/A	       N/A	       N/A	       N/A	        N/A	       N/A	       N/A	       N/A	        N/A	       N/A	       N/A	       N/A	        N/A	       N/A	       N/A	       N/A	        N/A	       N/A	       N/A	       N/A	        N/A	
         R10	    906	   80.2188	      18.5	         0	        N/A	   79.9531	      18.5	         0	        N/A	   79.6875	      18.5	         0	        N/A	       N/A	       N/A	       N/A	        N/A	       N/A	       N/A	       N/A	        N/A	       N/A	       N/A	       N/A	        N/A	       N/A	       N/A	       N/A	        N/A	       N/A	       N/A	       N/A	        N/A	
         R10	    907	   79.6875	      18.5	         0	        N/A	   79.4219	      18.5	         0	        N/A	   79.1563	      18.5	         0	        N/A	       N/A	       N/A	       N/A	        N/A	       N/A	       N/A	       N/A	        N/A	       N/A	       N/A	       N/A	        N/A	       N/A	       N/A	       N/A	        N/A	       N/A	       N/A	       N/A	        N/A	
         R10	    908	   79.1563	      18.5	         0	        N/A	   78.8906	      18.5	         0	        N/A	    78.625	      18.5	         0	        N/A	       N/A	       N/A	       N/A	        N/A	       N/A	       N/A	       N/A	        N/A	       N/A	       N/A	       N/A	        N/A	       N/A	       N/A	       N/A	        N/A	       N/A	       N/A	       N/A	        N/A	
         R10	    909	     80.75	      19.3	         0	        N/A	   80.5375	      19.3	         0	        N/A	    80.325	      19.3	         0	        N/A	       N/A	       N/A	       N/A	        N/A	       N/A	       N/A	       N/A	        N/A	       N/A	       N/A	       N/A	        N/A	       N/A	       N/A	       N/A	        N/A	       N/A	       N/A	       N/A	        N/A	
         R10	    910	    80.325	      19.3	         0	        N/A	   80.1125	      19.3	         0	        N/A	      79.9	      19.3	         0	        N/A	       N/A	       N/A	       N/A	        N/A	       N/A	       N/A	       N/A	        N/A	       N/A	       N/A	       N/A	        N/A	       N/A	       N/A	       N/A	        N/A	       N/A	       N/A	       N/A	        N/A	
         R10	    911	      79.9	      19.3	         0	        N/A	   79.6875	      19.3	         0	        N/A	    79.475	      19.3	         0	        N/A	       N/A	       N/A	       N/A	        N/A	       N/A	       N/A	       N/A	        N/A	       N/A	       N/A	       N/A	        N/A	       N/A	       N/A	       N/A	        N/A	       N/A	       N/A	       N/A	        N/A	
         R10	    912	    79.475	      19.3	         0	        N/A	   79.2625	      19.3	         0	        N/A	     79.05	      19.3	         0	        N/A	       N/A	       N/A	       N/A	        N/A	       N/A	       N/A	       N/A	        N/A	       N/A	       N/A	       N/A	        N/A	       N/A	       N/A	       N/A	        N/A	       N/A	       N/A	       N/A	        N/A	
         R10	    913	     79.05	      19.3	         0	        N/A	   78.8375	      19.3	         0	        N/A	    78.625	      19.3	         0	        N/A	       N/A	       N/A	       N/A	        N/A	       N/A	       N/A	       N/A	        N/A	       N/A	       N/A	       N/A	        N/A	       N/A	       N/A	       N/A	        N/A	       N/A	       N/A	       N/A	        N/A	
         R10	    914	     80.75	      21.5	      2.25	        N/A	   80.4844	      21.5	      2.25	        N/A	   80.2188	      21.5	      2.25	        N/A	       N/A	       N/A	       N/A	        N/A	       N/A	       N/A	       N/A	        N/A	       N/A	       N/A	       N/A	        N/A	       N/A	       N/A	       N/A	        N/A	       N/A	       N/A	       N/A	        N/A	
         R10	    915	   80.2188	      21.5	      2.25	        N/A	   79.9531	      21.5	      2.25	        N/A	   79.6875	      21.5	      2.25	        N/A	       N/A	       N/A	       N/A	        N/A	       N/A	       N/A	       N/A	        N/A	       N/A	       N/A	       N/A	        N/A	       N/A	       N/A	       N/A	        N/A	       N/A	       N/A	       N/A	        N/A	
         R10	    916	   79.6875	      21.5	      2.25	        N/A	   79.4219	      21.5	      2.25	        N/A	   79.1563	      21.5	      2.25	        N/A	       N/A	       N/A	       N/A	        N/A	       N/A	       N/A	       N/A	        N/A	       N/A	       N/A	       N/A	        N/A	       N/A	       N/A	       N/A	        N/A	       N/A	       N/A	       N/A	        N/A	
         R10	    917	   79.1563	      21.5	      2.25	        N/A	   78.8906	      21.5	      2.25	        N/A	    78.625	      21.5	      2.25	        N/A	       N/A	       N/A	       N/A	        N/A	       N/A	       N/A	       N/A	        N/A	       N/A	       N/A	       N/A	        N/A	       N/A	       N/A	       N/A	        N/A	       N/A	       N/A	       N/A	        N/A	
         R10	    918	     80.75	      21.5	         3	        N/A	   80.4844	      21.5	         3	        N/A	   80.2188	      21.5	         3	        N/A	       N/A	       N/A	       N/A	        N/A	       N/A	       N/A	       N/A	        N/A	       N/A	       N/A	       N/A	        N/A	       N/A	       N/A	       N/A	        N/A	       N/A	       N/A	       N/A	        N/A	
         R10	    919	   80.2188	      21.5	         3	        N/A	   79.9531	      21.5	         3	        N/A	   79.6875	      21.5	         3	        N/A	       N/A	       N/A	       N/A	        N/A	       N/A	       N/A	       N/A	        N/A	       N/A	       N/A	       N/A	        N/A	       N/A	       N/A	       N/A	        N/A	       N/A	       N/A	       N/A	        N/A	
         R10	    920	   79.6875	      21.5	         3	        N/A	   79.4219	      21.5	         3	        N/A	   79.1563	      21.5	         3	        N/A	       N/A	       N/A	       N/A	        N/A	       N/A	       N/A	       N/A	        N/A	       N/A	       N/A	       N/A	        N/A	       N/A	       N/A	       N/A	        N/A	       N/A	       N/A	       N/A	        N/A	
         R10	    921	   79.1563	      21.5	         3	        N/A	   78.8906	      21.5	         3	        N/A	    78.625	      21.5	         3	        N/A	       N/A	       N/A	       N/A	        N/A	       N/A	       N/A	       N/A	        N/A	       N/A	       N/A	       N/A	        N/A	       N/A	       N/A	       N/A	        N/A	       N/A	       N/A	       N/A	        N/A	
         R10	    922	     80.75	      21.5	      3.75	        N/A	   80.4844	      21.5	      3.75	        N/A	   80.2188	      21.5	      3.75	        N/A	       N/A	       N/A	       N/A	        N/A	       N/A	       N/A	       N/A	        N/A	       N/A	       N/A	       N/A	        N/A	       N/A	       N/A	       N/A	        N/A	       N/A	       N/A	       N/A	        N/A	
         R10	    923	   80.2188	      21.5	      3.75	        N/A	   79.9531	      21.5	      3.75	        N/A	   79.6875	      21.5	      3.75	        N/A	       N/A	       N/A	       N/A	        N/A	       N/A	       N/A	       N/A	        N/A	       N/A	       N/A	       N/A	        N/A	       N/A	       N/A	       N/A	        N/A	       N/A	       N/A	       N/A	        N/A	
         R10	    924	   79.6875	      21.5	      3.75	        N/A	   79.4219	      21.5	      3.75	        N/A	   79.1563	      21.5	      3.75	        N/A	       N/A	       N/A	       N/A	        N/A	       N/A	       N/A	       N/A	        N/A	       N/A	       N/A	       N/A	        N/A	       N/A	       N/A	       N/A	        N/A	       N/A	       N/A	       N/A	        N/A	
         R10	    925	   79.1563	      21.5	      3.75	        N/A	   78.8906	      21.5	      3.75	        N/A	    78.625	      21.5	      3.75	        N/A	       N/A	       N/A	       N/A	        N/A	       N/A	       N/A	       N/A	        N/A	       N/A	       N/A	       N/A	        N/A	       N/A	       N/A	       N/A	        N/A	       N/A	       N/A	       N/A	        N/A	
         R10	    926	     80.75	      21.5	       4.5	        N/A	   80.3958	      21.5	       4.5	        N/A	   80.0417	      21.5	       4.5	        N/A	       N/A	       N/A	       N/A	        N/A	       N/A	       N/A	       N/A	        N/A	       N/A	       N/A	       N/A	        N/A	       N/A	       N/A	       N/A	        N/A	       N/A	       N/A	       N/A	        N/A	
         R10	    927	   80.0417	      21.5	       4.5	        N/A	   79.6875	      21.5	       4.5	        N/A	   79.3333	      21.5	       4.5	        N/A	       N/A	       N/A	       N/A	        N/A	       N/A	       N/A	       N/A	        N/A	       N/A	       N/A	       N/A	        N/A	       N/A	       N/A	       N/A	        N/A	       N/A	       N/A	       N/A	        N/A	
         R10	    928	   79.3333	      21.5	       4.5	        N/A	   78.9792	      21.5	       4.5	        N/A	    78.625	      21.5	       4.5	        N/A	       N/A	       N/A	       N/A	        N/A	       N/A	       N/A	       N/A	        N/A	       N/A	       N/A	       N/A	        N/A	       N/A	       N/A	       N/A	        N/A	       N/A	       N/A	       N/A	        N/A	
         R10	    929	     80.75	      21.5	      5.25	        N/A	   80.3911	      21.5	      5.25	        N/A	   80.0323	      21.5	      5.25	        N/A	       N/A	       N/A	       N/A	        N/A	       N/A	       N/A	       N/A	        N/A	       N/A	       N/A	       N/A	        N/A	       N/A	       N/A	       N/A	        N/A	       N/A	       N/A	       N/A	        N/A	
         R10	    930	   80.0323	      21.5	      5.25	        N/A	   79.6781	      21.5	      5.25	        N/A	    79.324	      21.5	      5.25	        N/A	       N/A	       N/A	       N/A	        N/A	       N/A	       N/A	       N/A	        N/A	       N/A	       N/A	       N/A	        N/A	       N/A	       N/A	       N/A	        N/A	       N/A	       N/A	       N/A	        N/A	
         R10	    931	    79.324	      21.5	      5.25	        N/A	   78.9745	      21.5	      5.25	        N/A	    78.625	      21.5	      5.25	        N/A	       N/A	       N/A	       N/A	        N/A	       N/A	       N/A	       N/A	        N/A	       N/A	       N/A	       N/A	        N/A	       N/A	       N/A	       N/A	        N/A	       N/A	       N/A	       N/A	        N/A	
         R10	    932	     80.75	      21.5	      6.85	        N/A	   80.3629	      21.5	      6.85	        N/A	   79.9759	      21.5	      6.85	        N/A	       N/A	       N/A	       N/A	        N/A	       N/A	       N/A	       N/A	        N/A	       N/A	       N/A	       N/A	        N/A	       N/A	       N/A	       N/A	        N/A	       N/A	       N/A	       N/A	        N/A	
         R10	    933	   79.9759	      21.5	      6.85	        N/A	   79.6217	      21.5	      6.85	        N/A	   79.2675	      21.5	      6.85	        N/A	       N/A	       N/A	       N/A	        N/A	       N/A	       N/A	       N/A	        N/A	       N/A	       N/A	       N/A	        N/A	       N/A	       N/A	       N/A	        N/A	       N/A	       N/A	       N/A	        N/A	
         R10	    934	   79.2675	      21.5	      6.85	        N/A	   78.9463	      21.5	      6.85	        N/A	    78.625	      21.5	      6.85	        N/A	       N/A	       N/A	       N/A	        N/A	       N/A	       N/A	       N/A	        N/A	       N/A	       N/A	       N/A	        N/A	       N/A	       N/A	       N/A	        N/A	       N/A	       N/A	       N/A	        N/A	
         R10	    935	     80.75	      21.5	       7.7	        N/A	   80.3745	      21.5	       7.7	        N/A	   79.9989	      21.5	       7.7	        N/A	       N/A	       N/A	       N/A	        N/A	       N/A	       N/A	       N/A	        N/A	       N/A	       N/A	       N/A	        N/A	       N/A	       N/A	       N/A	        N/A	       N/A	       N/A	       N/A	        N/A	
         R10	    936	   79.9989	      21.5	       7.7	        N/A	   79.6447	      21.5	       7.7	        N/A	   79.2906	      21.5	       7.7	        N/A	       N/A	       N/A	       N/A	        N/A	       N/A	       N/A	       N/A	        N/A	       N/A	       N/A	       N/A	        N/A	       N/A	       N/A	       N/A	        N/A	       N/A	       N/A	       N/A	        N/A	
         R10	    937	   79.2906	      21.5	       7.7	        N/A	   78.9578	      21.5	       7.7	        N/A	    78.625	      21.5	       7.7	        N/A	       N/A	       N/A	       N/A	        N/A	       N/A	       N/A	       N/A	        N/A	       N/A	       N/A	       N/A	        N/A	       N/A	       N/A	       N/A	        N/A	       N/A	       N/A	       N/A	        N/A	
         R10	    938	     80.75	      21.5	      8.55	        N/A	   80.3913	      21.5	      8.55	        N/A	   80.0326	      21.5	      8.55	        N/A	       N/A	       N/A	       N/A	        N/A	       N/A	       N/A	       N/A	        N/A	       N/A	       N/A	       N/A	        N/A	       N/A	       N/A	       N/A	        N/A	       N/A	       N/A	       N/A	        N/A	
         R10	    939	   80.0326	      21.5	      8.55	        N/A	   79.6784	      21.5	      8.55	        N/A	   79.3243	      21.5	      8.55	        N/A	       N/A	       N/A	       N/A	        N/A	       N/A	       N/A	       N/A	        N/A	       N/A	       N/A	       N/A	        N/A	       N/A	       N/A	       N/A	        N/A	       N/A	       N/A	       N/A	        N/A	
         R10	    940	   79.3243	      21.5	      8.55	        N/A	   78.9746	      21.5	      8.55	        N/A	    78.625	      21.5	      8.55	        N/A	       N/A	       N/A	       N/A	        N/A	       N/A	       N/A	       N/A	        N/A	       N/A	       N/A	       N/A	        N/A	       N/A	       N/A	       N/A	        N/A	       N/A	       N/A	       N/A	        N/A	
         R10	    941	     80.75	      21.5	       9.4	        N/A	   80.2188	      21.5	       9.4	        N/A	   79.6875	      21.5	       9.4	        N/A	       N/A	       N/A	       N/A	        N/A	       N/A	       N/A	       N/A	        N/A	       N/A	       N/A	       N/A	        N/A	       N/A	       N/A	       N/A	        N/A	       N/A	       N/A	       N/A	        N/A	
         R10	    942	   79.6875	      21.5	       9.4	        N/A	   79.1563	      21.5	       9.4	        N/A	    78.625	      21.5	       9.4	        N/A	       N/A	       N/A	       N/A	        N/A	       N/A	       N/A	       N/A	        N/A	       N/A	       N/A	       N/A	        N/A	       N/A	       N/A	       N/A	        N/A	       N/A	       N/A	       N/A	        N/A	
         R10	    943	   75.7579	      15.3	       1.6	2.31674e+07	     75.65	      15.3	       1.6	2.29394e+07	     75.65	      15.3	   1.70151	2.26733e+07	   75.7547	      15.3	    1.6984	2.25061e+07	   75.7039	      15.3	       1.6	2.30204e+07	     75.65	      15.3	   1.65076	2.28061e+07	   75.7024	      15.3	   1.69995	2.25668e+07	   75.7563	      15.3	    1.6492	2.28308e+07	
         R10	    944	   75.7547	      15.3	    1.6984	2.24369e+07	     75.65	      15.3	   1.70151	2.25787e+07	     75.65	      15.3	   1.79987	2.19424e+07	   75.7513	      15.3	   1.79466	2.22231e+07	   75.7024	      15.3	   1.69995	 2.2482e+07	     75.65	      15.3	   1.75069	  2.225e+07	   75.7006	      15.3	   1.79726	2.20411e+07	    75.753	      15.3	   1.74653	2.23294e+07	
         R10	    945	   75.7513	      15.3	   1.79466	2.21677e+07	     75.65	      15.3	   1.79987	  2.195e+07	     75.65	      15.3	   1.89507	2.20578e+07	   75.7421	      15.3	   1.88895	2.16108e+07	   75.7006	      15.3	   1.79726	2.20218e+07	     75.65	      15.3	   1.84747	2.20037e+07	   75.6961	      15.3	   1.89201	2.18182e+07	   75.7467	      15.3	    1.8418	2.18759e+07	
         R10	    946	   75.7421	      15.3	   1.88895	 2.1658e+07	     75.65	      15.3	   1.89507	2.20976e+07	     75.65	      15.3	   1.98711	2.16378e+07	   75.7343	      15.3	   1.98324	2.15434e+07	   75.6961	      15.3	   1.89201	2.18589e+07	     75.65	      15.3	   1.94109	2.18566e+07	   75.6922	      15.3	   1.98518	2.15668e+07	   75.7382	      15.3	   1.93609	2.15998e+07	
         R10	    947	   75.7343	      15.3	   1.98324	2.15276e+07	     75.65	      15.3	   1.98711	2.16172e+07	     75.65	      15.3	     2.076	2.17704e+07	   75.7313	      15.3	   2.07237	2.15978e+07	   75.6922	      15.3	   1.98518	2.15501e+07	     75.65	      15.3	   2.03156	2.16828e+07	   75.6907	      15.3	   2.07418	2.16587e+07	   75.7328	      15.3	    2.0278	2.15623e+07	
         R10	    948	   75.7313	      15.3	   2.07237	2.15173e+07	     75.65	      15.3	     2.076	 2.1679e+07	     75.65	      15.3	   2.16173	 2.1854e+07	   75.7289	      15.3	   2.15793	2.17538e+07	   75.6907	      15.3	   2.07418	2.15756e+07	     75.65	      15.3	   2.11887	2.17658e+07	   75.6895	      15.3	   2.15983	2.17854e+07	   75.7301	      15.3	   2.11515	2.16312e+07	
         R10	    949	   75.7289	      15.3	   2.15793	2.17576e+07	     75.65	      15.3	   2.16173	2.18934e+07	     75.65	      15.3	   2.24431	2.22429e+07	   75.7271	      15.3	   2.24092	 2.1583e+07	   75.6895	      15.3	   2.15983	2.18095e+07	     75.65	      15.3	   2.20302	 2.2068e+07	   75.6885	      15.3	   2.24262	 2.1896e+07	    75.728	      15.3	   2.19942	2.16701e+07	
         R10	    950	   75.7271	      15.3	   2.24092	2.19494e+07	     75.65	      15.3	   2.24431	2.23757e+07	     75.65	      15.3	   2.32373	2.14463e+07	   75.7265	      15.3	   2.32138	2.18993e+07	   75.6885	      15.3	   2.24262	  2.212e+07	     75.65	      15.3	   2.28402	2.18751e+07	   75.6882	      15.3	   2.32255	 2.1645e+07	   75.7268	      15.3	   2.28115	2.19131e+07	
         R10	    951	   75.7265	      15.3	   2.32138	2.20488e+07	     75.65	      15.3	   2.32373	2.12876e+07	     75.65	      15.3	       2.4	2.19818e+07	   75.7298	      15.3	       2.4	 2.2769e+07	   75.6882	      15.3	   2.32255	2.16075e+07	     75.65	      15.3	   2.36187	2.15485e+07	   75.6899	      15.3	       2.4	2.23016e+07	   75.7281	      15.3	   2.36069	2.24087e+07	
         R10	    952	      75.8	      15.3	   2.32138	2.22251e+07	   75.7265	      15.3	   2.32138	2.22818e+07	   75.7298	      15.3	       2.4	2.24586e+07	   75.8048	      15.3	       2.4	2.24605e+07	   75.7632	      15.3	   2.32138	2.22263e+07	   75.7281	      15.3	   2.36069	2.23663e+07	   75.7673	      15.3	       2.4	2.24498e+07	   75.8024	      15.3	   2.36069	2.23405e+07	
         R10	    953	      75.8	      15.3	   2.32138	2.22624e+07	   75.8048	      15.3	       2.4	 2.2431e+07	   75.8749	      15.3	       2.4	2.25916e+07	   75.8686	      15.3	   2.32625	2.23641e+07	   75.8024	      15.3	   2.36069	2.23448e+07	   75.8399	      15.3	       2.4	2.24914e+07	   75.8718	      15.3	   2.36313	2.24746e+07	   75.8343	      15.3	   2.32381	2.22977e+07	
         R10	    954	   75.8686	      15.3	   2.32625	2.23772e+07	   75.8749	      15.3	       2.4	2.26631e+07	   75.9403	      15.3	       2.4	2.27905e+07	   75.9333	      15.3	    2.3367	2.26275e+07	   75.8718	      15.3	   2.36313	2.25191e+07	   75.9076	      15.3	       2.4	2.27088e+07	   75.9368	      15.3	   2.36835	2.27086e+07	    75.901	      15.3	   2.33148	 2.2484e+07	
         R10	    955	   75.9333	      15.3	    2.3367	2.25581e+07	   75.9403	      15.3	       2.4	2.29647e+07	   76.0009	      15.3	       2.4	2.33324e+07	   75.9963	      15.3	   2.34425	2.30256e+07	   75.9368	      15.3	   2.36835	2.27614e+07	   75.9706	      15.3	       2.4	2.31282e+07	   75.9986	      15.3	   2.37213	2.31777e+07	   75.9648	      15.3	   2.34048	2.27689e+07	
         R10	    956	   75.9963	      15.3	   2.34425	 2.2982e+07	   76.0009	      15.3	       2.4	2.34447e+07	   76.0567	      15.3	       2.4	2.38788e+07	   76.0517	      15.3	   2.34693	2.35331e+07	   75.9986	      15.3	   2.37213	2.32133e+07	   76.0288	      15.3	       2.4	2.36438e+07	   76.0542	      15.3	   2.37346	2.37045e+07	    76.024	      15.3	   2.34559	2.32347e+07	
         R10	    957	   76.0517	      15.3	   2.34693	2.34743e+07	   76.0567	      15.3	       2.4	2.40547e+07	   76.1076	      15.3	       2.4	2.45636e+07	   76.1022	      15.3	   2.35097	2.42029e+07	   76.0542	      15.3	   2.37346	2.37643e+07	   76.0821	      15.3	       2.4	2.42911e+07	   76.1049	      15.3	   2.37548	2.43813e+07	   76.0769	      15.3	   2.34895	2.38155e+07	
         R10	    958	   76.1022	      15.3	   2.35097	 2.4115e+07	   76.1076	      15.3	       2.4	2.48404e+07	   76.1538	      15.3	       2.4	  2.539e+07	    76.148	      15.3	   2.35576	2.50326e+07	   76.1049	      15.3	   2.37548	2.44773e+07	   76.1307	      15.3	       2.4	 2.5098e+07	   76.1509	      15.3	   2.37788	2.52086e+07	   76.1251	      15.3	   2.35336	2.45518e+07	
         R10	    959	    76.148	      15.3	   2.35576	2.48694e+07	   76.1538	      15.3	       2.4	2.59271e+07	   76.1952	      15.3	       2.4	2.61918e+07	   76.1889	      15.3	   2.36104	2.59878e+07	   76.1509	      15.3	   2.37788	2.53976e+07	   76.1745	      15.3	       2.4	2.60408e+07	    76.192	      15.3	   2.38052	 2.6089e+07	   76.1684	      15.3	    2.3584	2.54094e+07	
         R10	    960	   76.1889	      15.3	   2.36104	2.56823e+07	   76.1952	      15.3	       2.4	2.71206e+07	   76.2317	      15.3	       2.4	2.71305e+07	   76.2256	      15.3	   2.36616	2.69756e+07	    76.192	      15.3	   2.38052	2.63976e+07	   76.2135	      15.3	       2.4	2.71106e+07	   76.2287	      15.3	   2.38308	2.70501e+07	   76.2073	      15.3	    2.3636	2.63094e+07	
         R10	    961	   76.2256	      15.3	   2.36616	2.68113e+07	   76.2317	      15.3	       2.4	2.78695e+07	   76.2635	      15.3	       2.4	2.83614e+07	   76.2571	      15.3	   2.37103	2.79538e+07	   76.2287	      15.3	   2.38308	2.73388e+07	   76.2476	      15.3	       2.4	2.81082e+07	   76.2603	      15.3	   2.38551	2.81554e+07	   76.2414	      15.3	   2.36859	2.73662e+07	
         R10	    962	   76.2571	      15.3	   2.37103	 2.7762e+07	   76.2635	      15.3	       2.4	2.89549e+07	   76.2905	      15.3	       2.4	2.93111e+07	   76.2851	      15.3	   2.37563	2.89374e+07	   76.2603	      15.3	   2.38551	 2.8356e+07	    76.277	      15.3	       2.4	2.91262e+07	   76.2878	      15.3	   2.38782	2.91225e+07	   76.2711	      15.3	   2.37333	 2.8334e+07	
         R10	    963	   76.2851	      15.3	   2.37563	2.87185e+07	   76.2905	      15.3	       2.4	2.99806e+07	   76.3126	      15.3	       2.4	3.01076e+07	   76.3094	      15.3	   2.37632	2.98127e+07	   76.2878	      15.3	   2.38782	2.93441e+07	   76.3016	      15.3	       2.4	3.00413e+07	    76.311	      15.3	   2.38816	2.99543e+07	   76.2972	      15.3	   2.37597	2.92465e+07	
         R10	    964	   76.3094	      15.3	   2.37632	2.97087e+07	   76.3126	      15.3	       2.4	3.07254e+07	     76.33	      15.3	       2.4	3.09683e+07	     76.33	      15.3	     2.383	3.05684e+07	    76.311	      15.3	   2.38816	3.02099e+07	   76.3213	      15.3	       2.4	3.08408e+07	     76.33	      15.3	    2.3915	3.07648e+07	   76.3197	      15.3	   2.37966	3.01286e+07	
         R10	    965	    76.309	      15.3	   2.35459	2.97404e+07	     76.33	      15.3	     2.349	3.10328e+07	     76.33	      15.3	     2.332	3.17547e+07	   76.3096	      15.3	    2.3341	3.02061e+07	   76.3195	      15.3	   2.35179	3.03627e+07	     76.33	      15.3	    2.3405	3.13892e+07	   76.3198	      15.3	   2.33305	3.09598e+07	   76.3093	      15.3	   2.34435	2.99674e+07	
         R10	    966	   76.3096	      15.3	    2.3341	3.02186e+07	     76.33	      15.3	     2.332	3.17789e+07	     76.33	      15.3	     2.315	3.25349e+07	   76.3096	      15.3	   2.31668	3.07451e+07	   76.3198	      15.3	   2.33305	3.09788e+07	     76.33	      15.3	    2.3235	3.21522e+07	   76.3198	      15.3	   2.31584	3.16209e+07	   76.3096	      15.3	   2.32539	3.04779e+07	
         R10	    967	   76.3096	      15.3	   2.31668	3.07584e+07	     76.33	      15.3	     2.315	3.25416e+07	     76.33	      15.3	     2.298	3.32346e+07	    76.312	      15.3	   2.29994	3.14782e+07	   76.3198	      15.3	   2.31584	3.16308e+07	     76.33	      15.3	    2.3065	3.28827e+07	    76.321	      15.3	   2.29897	3.23426e+07	   76.3108	      15.3	   2.30831	3.11122e+07	
         R10	    968	    76.312	      15.3	   2.29994	3.14862e+07	     76.33	      15.3	     2.298	3.32362e+07	     76.33	      15.3	     2.281	3.38005e+07	   76.3051	      15.3	   2.28063	3.14215e+07	    76.321	      15.3	   2.29897	3.23474e+07	     76.33	      15.3	    2.2895	3.35125e+07	   76.3176	      15.3	   2.28082	3.25897e+07	   76.3086	      15.3	   2.29028	3.14504e+07	
         R10	    969	   76.3051	      15.3	   2.28063	3.14341e+07	     76.33	      15.3	     2.281	3.37779e+07	     76.33	      15.3	     2.264	3.42087e+07	   76.3113	      15.3	   2.26421	3.23566e+07	   76.3176	      15.3	   2.28082	3.25843e+07	     76.33	      15.3	    2.2725	3.39871e+07	   76.3207	      15.3	   2.26411	 3.3272e+07	   76.3082	      15.3	   2.27242	3.18862e+07	
         R10	    970	   76.3113	      15.3	   2.26421	3.23699e+07	     76.33	      15.3	     2.264	3.41965e+07	     76.33	      15.3	     2.247	3.44585e+07	   76.3101	      15.3	   2.24502	3.25704e+07	   76.3207	      15.3	   2.26411	 3.3273e+07	     76.33	      15.3	    2.2555	3.43212e+07	   76.3201	      15.3	   2.24601	3.35043e+07	   76.3107	      15.3	   2.25462	3.24644e+07	
         R10	    971	   76.3101	      15.3	   2.24502	3.25516e+07	     76.33	      15.3	     2.247	3.44663e+07	     76.33	      15.3	      2.23	3.45822e+07	   76.3076	      15.3	    2.2286	3.25326e+07	   76.3201	      15.3	   2.24601	3.34988e+07	     76.33	      15.3	    2.2385	3.45185e+07	   76.3188	      15.3	    2.2293	3.35465e+07	   76.3089	      15.3	   2.23681	3.25381e+07	
         R10	    972	   76.3298	      15.3	   2.20952	3.46217e+07	     76.33	      15.3	      2.23	3.45903e+07	    76.347	      15.3	      2.23	3.63225e+07	   76.3442	      15.3	    2.2096	3.59276e+07	   76.3299	      15.3	   2.21976	3.45983e+07	   76.3385	      15.3	      2.23	3.54491e+07	   76.3456	      15.3	    2.2198	3.61183e+07	    76.337	      15.3	   2.20956	3.52707e+07	
         R10	    973	   76.3442	      15.3	    2.2096	3.59739e+07	    76.347	      15.3	      2.23	3.63326e+07	    76.364	      15.3	      2.23	3.82144e+07	   76.3622	      15.3	   2.20348	 3.7628e+07	   76.3456	      15.3	    2.2198	3.61461e+07	   76.3555	      15.3	      2.23	3.72654e+07	   76.3631	      15.3	   2.21674	3.79084e+07	   76.3532	      15.3	   2.20654	3.67904e+07	
         R10	    974	   76.3622	      15.3	   2.20348	3.76214e+07	    76.364	      15.3	      2.23	3.82082e+07	    76.381	      15.3	      2.23	4.01565e+07	   76.3815	      15.3	   2.21183	3.97198e+07	   76.3631	      15.3	   2.21674	3.79021e+07	   76.3725	      15.3	      2.23	3.91739e+07	   76.3813	      15.3	   2.22091	3.99306e+07	   76.3719	      15.3	   2.20766	3.86655e+07	
         R10	    975	   76.3815	      15.3	   2.21183	3.97557e+07	    76.381	      15.3	      2.23	4.01606e+07	    76.398	      15.3	      2.23	4.21113e+07	   76.3969	      15.3	    2.2093	4.12021e+07	   76.3813	      15.3	   2.22091	3.99508e+07	   76.3895	      15.3	      2.23	4.11258e+07	   76.3974	      15.3	   2.21965	4.16494e+07	   76.3892	      15.3	   2.21057	4.04704e+07	
         R10	    976	   76.3969	      15.3	    2.2093	4.12068e+07	    76.398	      15.3	      2.23	4.21271e+07	    76.415	      15.3	      2.23	4.40049e+07	   76.4152	      15.3	   2.20851	4.28978e+07	   76.3974	      15.3	   2.21965	4.16597e+07	   76.4065	      15.3	      2.23	4.30537e+07	   76.4151	      15.3	   2.21925	4.34438e+07	    76.406	      15.3	    2.2089	4.20407e+07	
         R10	    977	   76.4152	      15.3	   2.20851	4.28885e+07	    76.415	      15.3	      2.23	4.40204e+07	    76.432	      15.3	      2.23	4.57066e+07	   76.4324	      15.3	   2.20804	4.42877e+07	   76.4151	      15.3	   2.21925	 4.3447e+07	   76.4235	      15.3	      2.23	4.48492e+07	   76.4322	      15.3	   2.21902	4.49913e+07	   76.4238	      15.3	   2.20827	4.35767e+07	
         R10	    978	   76.4324	      15.3	   2.20804	4.42898e+07	    76.432	      15.3	      2.23	4.57173e+07	    76.449	      15.3	      2.23	4.71062e+07	   76.4492	      15.3	   2.20937	4.54897e+07	   76.4322	      15.3	   2.21902	4.49978e+07	   76.4405	      15.3	      2.23	4.63956e+07	   76.4491	      15.3	   2.21968	4.62951e+07	   76.4408	      15.3	    2.2087	4.48794e+07	
         R10	    979	   76.4492	      15.3	   2.20937	4.54982e+07	    76.449	      15.3	      2.23	4.71113e+07	    76.466	      15.3	      2.23	4.80716e+07	    76.466	      15.3	   2.21083	4.63997e+07	   76.4491	      15.3	   2.21968	4.63019e+07	   76.4575	      15.3	      2.23	4.75748e+07	    76.466	      15.3	   2.22042	4.72348e+07	   76.4576	      15.3	    2.2101	4.59383e+07	
         R10	    980	    76.466	      15.3	   2.21083	4.64302e+07	    76.466	      15.3	      2.23	4.80686e+07	    76.483	      15.3	      2.23	4.85093e+07	   76.4832	      15.3	   2.20993	4.67814e+07	    76.466	      15.3	   2.22042	4.72484e+07	   76.4745	      15.3	      2.23	4.82733e+07	   76.4831	      15.3	   2.21997	 4.7645e+07	   76.4746	      15.3	   2.21038	4.65949e+07	
         R10	    981	   76.4832	      15.3	   2.20993	4.67873e+07	    76.483	      15.3	      2.23	4.85064e+07	      76.5	      15.3	      2.23	4.84632e+07	      76.5	      15.3	   2.21268	4.70685e+07	   76.4831	      15.3	   2.21997	4.76465e+07	   76.4915	      15.3	      2.23	4.84729e+07	      76.5	      15.3	   2.22134	4.77652e+07	   76.4916	      15.3	    2.2113	4.69194e+07	
         R10	    982	   76.4832	      15.3	   2.20993	4.67982e+07	      76.5	      15.3	   2.21268	4.70522e+07	      76.5	      15.3	   2.19016	4.55035e+07	   76.4805	      15.3	   2.18652	4.50546e+07	   76.4916	      15.3	    2.2113	4.69167e+07	      76.5	      15.3	   2.20142	4.62773e+07	   76.4903	      15.3	   2.18834	4.52712e+07	   76.4819	      15.3	   2.19823	4.59262e+07	
         R10	    983	   76.4805	      15.3	   2.18652	4.50658e+07	      76.5	      15.3	   2.19016	4.54868e+07	      76.5	      15.3	   2.16246	 4.3969e+07	   76.4668	      15.3	   2.15823	4.30058e+07	   76.4903	      15.3	   2.18834	 4.5268e+07	      76.5	      15.3	   2.17631	4.47272e+07	   76.4834	      15.3	   2.16035	4.34694e+07	   76.4737	      15.3	   2.17238	4.40348e+07	
         R10	    984	   76.4668	      15.3	   2.15823	4.30015e+07	      76.5	      15.3	   2.16246	4.39137e+07	      76.5	      15.3	   2.12957	  4.232e+07	   76.4633	      15.3	   2.12376	4.11641e+07	   76.4834	      15.3	   2.16035	4.34405e+07	      76.5	      15.3	   2.14601	 4.3116e+07	   76.4817	      15.3	   2.12667	4.17279e+07	   76.4651	      15.3	     2.141	4.20816e+07	
         R10	    985	   76.4633	      15.3	   2.12376	4.11671e+07	      76.5	      15.3	   2.12957	 4.2299e+07	      76.5	      15.3	   2.09149	4.07627e+07	    76.458	      15.3	   2.08527	3.94354e+07	   76.4817	      15.3	   2.12667	4.17188e+07	      76.5	      15.3	   2.11053	4.15294e+07	    76.479	      15.3	   2.08838	4.00859e+07	   76.4606	      15.3	   2.10452	4.02997e+07	
         R10	    986	    76.458	      15.3	   2.08527	3.94422e+07	      76.5	      15.3	   2.09149	4.07434e+07	      76.5	      15.3	   2.04821	3.92799e+07	   76.4531	      15.3	   2.04261	3.78773e+07	    76.479	      15.3	   2.08838	4.00797e+07	      76.5	      15.3	   2.06985	4.00097e+07	   76.4765	      15.3	   2.04541	3.85666e+07	   76.4555	      15.3	   2.06394	3.86572e+07	
         R10	    987	   76.4531	      15.3	   2.04261	3.78911e+07	      76.5	      15.3	   2.04821	 3.9264e+07	      76.5	      15.3	   1.99975	3.78839e+07	   76.4488	      15.3	   1.99397	3.64386e+07	   76.4765	      15.3	   2.04541	3.85656e+07	      76.5	      15.3	   2.02398	3.85711e+07	   76.4744	      15.3	   1.99686	3.71505e+07	    76.451	      15.3	   2.01829	 3.7161e+07	
         R10	    988	   76.4488	      15.3	   1.99397	3.64755e+07	      76.5	      15.3	   1.99975	3.78703e+07	      76.5	      15.3	    1.9461	3.65593e+07	   76.4447	      15.3	   1.94026	3.51333e+07	   76.4744	      15.3	   1.99686	3.71624e+07	      76.5	      15.3	   1.97293	3.72111e+07	   76.4723	      15.3	   1.94318	3.58365e+07	   76.4467	      15.3	   1.96711	3.57996e+07	
         R10	    989	   76.4447	      15.3	   1.94026	3.52182e+07	      76.5	      15.3	    1.9461	3.65617e+07	      76.5	      15.3	   1.88726	3.53081e+07	   76.4389	      15.3	   1.87999	3.38512e+07	   76.4723	      15.3	   1.94318	3.58803e+07	      76.5	      15.3	   1.91668	3.59305e+07	   76.4694	      15.3	   1.88363	3.45687e+07	   76.4418	      15.3	   1.91013	3.45287e+07	
         R10	    990	   76.4389	      15.3	   1.87999	 3.4055e+07	      76.5	      15.3	   1.88726	3.53396e+07	      76.5	      15.3	   1.82323	3.39703e+07	   76.4316	      15.3	   1.81558	3.27461e+07	   76.4694	      15.3	   1.88363	3.46876e+07	      76.5	      15.3	   1.85525	3.46497e+07	   76.4658	      15.3	   1.81941	3.33446e+07	   76.4352	      15.3	   1.84779	3.33947e+07	
         R10	    991	   76.4316	      15.3	   1.81558	3.32599e+07	      76.5	      15.3	   1.82323	3.41789e+07	      76.5	      15.3	   1.75401	3.26276e+07	   76.4243	      15.3	   1.74668	 3.1345e+07	   76.4658	      15.3	   1.81941	3.37045e+07	      76.5	      15.3	   1.78862	3.33976e+07	   76.4622	      15.3	   1.75034	3.19798e+07	   76.4279	      15.3	   1.78113	3.22948e+07	
         R10	    992	   76.4243	      15.3	   1.74668	3.25811e+07	      76.5	      15.3	   1.75401	3.23594e+07	      76.5	      15.3	    1.6796	3.12138e+07	   76.4196	      15.3	   1.67445	3.20784e+07	   76.4622	      15.3	   1.75034	 3.2454e+07	      76.5	      15.3	    1.7168	3.16837e+07	   76.4598	      15.3	   1.67702	3.10733e+07	    76.422	      15.3	   1.71056	3.21383e+07	
         R10	    993	   76.4196	      15.3	   1.67445	3.34867e+07	      76.5	      15.3	    1.6796	 2.6673e+07	      76.5	      15.3	       1.6	3.73502e+07	    76.419	      15.3	       1.6	2.96315e+07	   76.4598	      15.3	   1.67702	2.96798e+07	      76.5	      15.3	    1.6398	3.17265e+07	   76.4595	      15.3	       1.6	3.31766e+07	   76.4193	      15.3	   1.63722	3.14003e+07	
         R10	    994	   76.3351	      15.3	   1.67584	3.05276e+07	   76.4196	      15.3	   1.67445	3.30699e+07	    76.419	      15.3	       1.6	3.04613e+07	   76.3346	      15.3	       1.6	2.89587e+07	   76.3774	      15.3	   1.67514	3.16452e+07	   76.4193	      15.3	   1.63722	3.14332e+07	   76.3768	      15.3	       1.6	2.97098e+07	   76.3348	      15.3	   1.63792	2.97078e+07	
         R10	    995	   76.3351	      15.3	   1.67584	3.05418e+07	   76.3346	      15.3	       1.6	2.89561e+07	   76.2468	      15.3	       1.6	2.77932e+07	   76.2462	      15.3	   1.68107	2.86523e+07	   76.3348	      15.3	   1.63792	2.97196e+07	   76.2907	      15.3	       1.6	2.83632e+07	   76.2465	      15.3	   1.64053	2.82019e+07	   76.2907	      15.3	   1.67845	2.95812e+07	
         R10	    996	   76.2462	      15.3	   1.68107	2.86522e+07	   76.2468	      15.3	       1.6	2.77888e+07	   76.1557	      15.3	       1.6	2.66414e+07	   76.1556	      15.3	   1.68481	2.70556e+07	   76.2465	      15.3	   1.64053	2.82001e+07	   76.2013	      15.3	       1.6	2.72057e+07	   76.1557	      15.3	    1.6424	2.68386e+07	   76.2009	      15.3	   1.68294	2.78337e+07	
         R10	    997	   76.1556	      15.3	   1.68481	2.70012e+07	   76.1557	      15.3	       1.6	2.66384e+07	   76.0613	      15.3	       1.6	2.55471e+07	   76.0584	      15.3	    1.6859	2.54633e+07	   76.1557	      15.3	    1.6424	2.68116e+07	   76.1085	      15.3	       1.6	2.60795e+07	   76.0599	      15.3	   1.64295	2.55022e+07	    76.107	      15.3	   1.68536	2.62095e+07	
         R10	    998	   76.0584	      15.3	    1.6859	2.53835e+07	   76.0613	      15.3	       1.6	2.55473e+07	   75.9635	      15.3	       1.6	 2.4554e+07	   75.9588	      15.3	   1.69008	2.41702e+07	   76.0599	      15.3	   1.64295	2.54633e+07	   76.0124	      15.3	       1.6	 2.5032e+07	   75.9611	      15.3	   1.64504	2.43617e+07	   76.0086	      15.3	   1.68799	2.47503e+07	
         R10	    999	   75.9588	      15.3	   1.69008	2.40498e+07	   75.9635	      15.3	       1.6	 2.4543e+07	   75.8624	      15.3	       1.6	2.37433e+07	    75.856	      15.3	   1.69633	2.32335e+07	   75.9611	      15.3	   1.64504	2.42961e+07	   75.9129	      15.3	       1.6	2.41182e+07	   75.8592	      15.3	   1.64817	2.34877e+07	   75.9074	      15.3	   1.69321	2.36122e+07	
         R10	   1000	    75.856	      15.3	   1.69633	2.30831e+07	   75.8624	      15.3	       1.6	2.37213e+07	   75.7579	      15.3	       1.6	2.31912e+07	   75.7547	      15.3	    1.6984	2.27969e+07	   75.8592	      15.3	   1.64817	2.33995e+07	   75.8101	      15.3	       1.6	2.34257e+07	   75.7563	      15.3	    1.6492	 2.2993e+07	   75.8054	      15.3	   1.69736	2.29141e+07	
         R10	   1001	   75.8564	      15.3	   1.79802	2.25441e+07	    75.856	      15.3	   1.69633	2.29415e+07	   75.7547	      15.3	    1.6984	2.26746e+07	   75.7513	      15.3	   1.79466	2.20833e+07	   75.8562	      15.3	   1.74718	2.27408e+07	   75.8054	      15.3	   1.69736	2.27818e+07	    75.753	      15.3	   1.74653	2.23709e+07	   75.8038	      15.3	   1.79634	2.22659e+07	
         R10	   1002	   75.8564	      15.3	   1.79802	2.24215e+07	   75.7513	      15.3	   1.79466	2.20173e+07	   75.7421	      15.3	   1.88895	2.18589e+07	   75.8231	      15.3	   1.89834	 2.1769e+07	   75.8038	      15.3	   1.79634	 2.2173e+07	   75.7467	      15.3	    1.8418	2.19374e+07	   75.7826	      15.3	   1.89365	 2.1794e+07	   75.8398	      15.3	   1.84818	2.20736e+07	
         R10	   1003	   75.8231	      15.3	   1.89834	2.17203e+07	   75.7421	      15.3	   1.88895	2.18101e+07	   75.7343	      15.3	   1.98324	2.16878e+07	   75.8157	      15.3	   1.98842	2.15412e+07	   75.7826	      15.3	   1.89365	2.17463e+07	   75.7382	      15.3	   1.93609	2.17421e+07	    75.775	      15.3	   1.98583	2.15891e+07	   75.8194	      15.3	   1.94338	2.16272e+07	
         R10	   1004	   75.8157	      15.3	   1.98842	 2.1534e+07	   75.7343	      15.3	   1.98324	2.16485e+07	   75.7313	      15.3	   2.07237	2.15418e+07	   75.8101	      15.3	   2.07463	2.15354e+07	    75.775	      15.3	   1.98583	2.15649e+07	   75.7328	      15.3	    2.0278	2.15916e+07	   75.7707	      15.3	    2.0735	2.15122e+07	   75.8129	      15.3	   2.03152	2.15312e+07	
         R10	   1005	   75.8101	      15.3	   2.07463	2.15588e+07	   75.7313	      15.3	   2.07237	2.15414e+07	   75.7289	      15.3	   2.15793	2.16595e+07	   75.8054	      15.3	   2.15919	2.15874e+07	   75.7707	      15.3	    2.0735	2.15221e+07	   75.7301	      15.3	   2.11515	2.15997e+07	   75.7672	      15.3	   2.15856	2.16045e+07	   75.8077	      15.3	   2.11691	2.15681e+07	
         R10	   1006	   75.8054	      15.3	   2.15919	2.15899e+07	   75.7289	      15.3	   2.15793	 2.1605e+07	   75.7271	      15.3	   2.24092	2.18324e+07	    75.802	      15.3	   2.24171	 2.1951e+07	   75.7672	      15.3	   2.15856	2.15751e+07	    75.728	      15.3	   2.19942	2.17182e+07	   75.7645	      15.3	   2.24132	2.18745e+07	   75.8037	      15.3	   2.20045	2.17667e+07	
         R10	   1007	    75.802	      15.3	   2.24171	2.18558e+07	   75.7271	      15.3	   2.24092	2.18119e+07	   75.7265	      15.3	   2.32138	2.23362e+07	      75.8	      15.3	   2.32138	2.21499e+07	   75.7645	      15.3	   2.24132	  2.182e+07	   75.7268	      15.3	   2.28115	2.20635e+07	   75.7632	      15.3	   2.32138	2.22186e+07	    75.801	      15.3	   2.28154	2.20006e+07	
         R10	   1008	   75.8759	      15.3	   2.24453	2.19727e+07	    75.802	      15.3	   2.24171	2.18537e+07	      75.8	      15.3	   2.32138	2.21467e+07	   75.8686	      15.3	   2.32625	  2.228e+07	   75.8389	      15.3	   2.24312	2.18901e+07	    75.801	      15.3	   2.28154	2.19979e+07	   75.8343	      15.3	   2.32381	2.21962e+07	   75.8723	      15.3	   2.28539	2.21225e+07	
         R10	   1009	   75.8759	      15.3	   2.24453	2.19836e+07	   75.8686	      15.3	   2.32625	2.22212e+07	   75.9333	      15.3	    2.3367	2.25638e+07	    75.943	      15.3	   2.28502	 2.2352e+07	   75.8723	      15.3	   2.28539	2.20989e+07	    75.901	      15.3	   2.33148	2.23729e+07	   75.9381	      15.3	   2.31086	2.24558e+07	   75.9095	      15.3	   2.26478	2.21501e+07	
         R10	   1010	    75.943	      15.3	   2.28502	2.23394e+07	   75.9333	      15.3	    2.3367	2.25594e+07	   75.9963	      15.3	   2.34425	2.29793e+07	   76.0002	      15.3	   2.28705	  2.266e+07	   75.9381	      15.3	   2.31086	2.24471e+07	   75.9648	      15.3	   2.34048	2.27479e+07	   75.9983	      15.3	   2.31565	2.28172e+07	   75.9716	      15.3	   2.28604	2.24782e+07	
         R10	   1011	   76.0002	      15.3	   2.28705	2.26748e+07	   75.9963	      15.3	   2.34425	2.29629e+07	   76.0517	      15.3	   2.34693	2.34969e+07	   76.0546	      15.3	   2.29374	2.31562e+07	   75.9983	      15.3	   2.31565	2.28157e+07	    76.024	      15.3	   2.34559	2.32074e+07	   76.0531	      15.3	   2.32033	2.33238e+07	   76.0274	      15.3	   2.29039	2.28937e+07	
         R10	   1012	   76.0546	      15.3	   2.29374	2.31644e+07	   76.0517	      15.3	   2.34693	2.34705e+07	   76.1022	      15.3	   2.35097	2.41558e+07	   76.1055	      15.3	   2.30178	 2.3827e+07	   76.0531	      15.3	   2.32033	2.33136e+07	   76.0769	      15.3	   2.34895	2.37909e+07	   76.1038	      15.3	   2.32637	2.39876e+07	   76.0801	      15.3	   2.29776	2.34725e+07	
         R10	   1013	   76.1055	      15.3	   2.30178	2.38434e+07	   76.1022	      15.3	   2.35097	2.41134e+07	    76.148	      15.3	   2.35576	2.49701e+07	   76.1508	      15.3	   2.31171	2.46406e+07	   76.1038	      15.3	   2.32637	2.39733e+07	   76.1251	      15.3	   2.35336	2.45207e+07	   76.1494	      15.3	   2.33373	2.48007e+07	   76.1282	      15.3	   2.30674	 2.4221e+07	
         R10	   1014	   76.1508	      15.3	   2.31171	2.46807e+07	    76.148	      15.3	   2.35576	2.48674e+07	   76.1889	      15.3	   2.36104	2.59269e+07	   76.1918	      15.3	   2.32254	2.55861e+07	   76.1494	      15.3	   2.33373	2.47684e+07	   76.1684	      15.3	    2.3584	2.53787e+07	   76.1904	      15.3	   2.34179	2.57511e+07	   76.1713	      15.3	   2.31712	2.51137e+07	
         R10	   1015	   76.1918	      15.3	   2.32254	2.56402e+07	   76.1889	      15.3	   2.36104	2.57755e+07	   76.2256	      15.3	   2.36616	2.69159e+07	   76.2279	      15.3	   2.33262	2.66372e+07	   76.1904	      15.3	   2.34179	2.57016e+07	   76.2073	      15.3	    2.3636	2.63281e+07	   76.2268	      15.3	   2.34939	2.67706e+07	   76.2098	      15.3	   2.32758	2.61212e+07	
         R10	   1016	   76.2279	      15.3	   2.33262	 2.6675e+07	   76.2256	      15.3	   2.36616	2.67541e+07	   76.2571	      15.3	   2.37103	2.78779e+07	   76.2595	      15.3	   2.34161	2.77135e+07	   76.2268	      15.3	   2.34939	2.67076e+07	   76.2414	      15.3	   2.36859	2.72996e+07	   76.2583	      15.3	   2.35632	2.77891e+07	   76.2437	      15.3	   2.33712	2.71788e+07	
         R10	   1017	   76.2595	      15.3	   2.34161	2.77349e+07	   76.2571	      15.3	   2.37103	 2.7779e+07	   76.2851	      15.3	   2.37563	2.89028e+07	   76.2876	      15.3	   2.35683	2.87701e+07	   76.2583	      15.3	   2.35632	2.77492e+07	   76.2711	      15.3	   2.37333	2.83248e+07	   76.2863	      15.3	   2.36623	2.88317e+07	   76.2736	      15.3	   2.34922	2.82433e+07	
         R10	   1018	   76.3094	      15.3	   2.37632	 2.9642e+07	     76.33	      15.3	     2.366	3.05617e+07	     76.33	      15.3	     2.349	3.10236e+07	    76.309	      15.3	   2.35459	2.96932e+07	   76.3197	      15.3	   2.37116	3.00743e+07	     76.33	      15.3	    2.3575	3.07878e+07	   76.3195	      15.3	   2.35179	3.03342e+07	   76.3092	      15.3	   2.36545	2.96609e+07	
         R10	   1019	   76.2875	      15.3	   2.31637	2.92959e+07	   76.3096	      15.3	   2.31668	3.07617e+07	    76.312	      15.3	   2.29994	3.14702e+07	     76.29	      15.3	   2.29741	2.98803e+07	   76.2985	      15.3	   2.31653	 3.0011e+07	   76.3108	      15.3	   2.30831	3.11102e+07	    76.301	      15.3	   2.29868	  3.066e+07	   76.2887	      15.3	   2.30689	2.95817e+07	
         R10	   1020	   76.2865	      15.3	   2.27358	3.01662e+07	   76.3051	      15.3	   2.28063	3.14488e+07	   76.3113	      15.3	   2.26421	3.23583e+07	    76.286	      15.3	   2.25303	3.04543e+07	   76.2958	      15.3	    2.2771	3.07988e+07	   76.3082	      15.3	   2.27242	3.18956e+07	   76.2987	      15.3	   2.25862	3.13929e+07	   76.2862	      15.3	    2.2633	3.03045e+07	
         R10	   1021	    76.286	      15.3	   2.25303	3.04908e+07	   76.3101	      15.3	   2.24502	3.25575e+07	   76.3076	      15.3	    2.2286	3.25313e+07	   76.2846	      15.3	   2.22953	3.06994e+07	   76.2981	      15.3	   2.24902	 3.1504e+07	   76.3089	      15.3	   2.23681	3.25404e+07	   76.2961	      15.3	   2.22906	3.16031e+07	   76.2853	      15.3	   2.24128	3.05877e+07	
         R10	   1022	   76.3079	      15.3	   2.20551	3.26921e+07	   76.3076	      15.3	    2.2286	3.25428e+07	     76.33	      15.3	      2.23	 3.4584e+07	   76.3298	      15.3	   2.20952	3.45731e+07	   76.3077	      15.3	   2.21705	3.26085e+07	   76.3188	      15.3	    2.2293	3.35521e+07	   76.3299	      15.3	   2.21976	3.45709e+07	   76.3188	      15.3	   2.20752	3.36247e+07	
         R10	   1023	   76.3209	      15.3	   2.18062	 3.3672e+07	   76.3298	      15.3	   2.20952	3.45728e+07	   76.3442	      15.3	    2.2096	3.59561e+07	   76.3474	      15.3	   2.18439	 3.5976e+07	   76.3253	      15.3	   2.19507	3.41131e+07	    76.337	      15.3	   2.20956	3.52599e+07	   76.3458	      15.3	     2.197	3.59543e+07	   76.3341	      15.3	    2.1825	3.48131e+07	
         R10	   1024	   76.3928	      15.3	     2.189	4.00746e+07	   76.3969	      15.3	    2.2093	4.12031e+07	   76.4152	      15.3	   2.20851	4.28797e+07	    76.415	      15.3	   2.18695	4.17814e+07	   76.3948	      15.3	   2.19915	4.06351e+07	    76.406	      15.3	    2.2089	4.20296e+07	   76.4151	      15.3	   2.19773	4.23254e+07	   76.4039	      15.3	   2.18798	4.09139e+07	
         R10	   1025	    76.415	      15.3	   2.18695	 4.1808e+07	   76.4152	      15.3	   2.20851	4.28794e+07	   76.4324	      15.3	   2.20804	4.42874e+07	   76.4348	      15.3	   2.18385	 4.2973e+07	   76.4151	      15.3	   2.19773	4.23385e+07	   76.4238	      15.3	   2.20827	 4.3572e+07	   76.4336	      15.3	   2.19594	4.36238e+07	   76.4249	      15.3	    2.1854	 4.2378e+07	
         R10	   1026	   76.4348	      15.3	   2.18385	4.29729e+07	   76.4324	      15.3	   2.20804	4.42854e+07	   76.4492	      15.3	   2.20937	4.54809e+07	   76.4532	      15.3	   2.18585	4.41189e+07	   76.4336	      15.3	   2.19594	4.36227e+07	   76.4408	      15.3	    2.2087	4.48727e+07	   76.4512	      15.3	   2.19761	4.47947e+07	    76.444	      15.3	   2.18485	4.35373e+07	
         R10	   1027	   76.4275	      15.3	   2.12562	3.97902e+07	   76.4633	      15.3	   2.12376	4.11753e+07	    76.458	      15.3	   2.08527	3.94459e+07	   76.4169	      15.3	   2.08852	3.79483e+07	   76.4454	      15.3	   2.12469	4.04649e+07	   76.4606	      15.3	   2.10452	4.03091e+07	   76.4374	      15.3	    2.0869	3.86801e+07	   76.4222	      15.3	   2.10707	3.88671e+07	
         R10	   1028	   76.4169	      15.3	   2.08852	3.79539e+07	    76.458	      15.3	   2.08527	3.94531e+07	   76.4531	      15.3	   2.04261	3.78881e+07	   76.4069	      15.3	   2.04635	3.63124e+07	   76.4374	      15.3	    2.0869	3.86865e+07	   76.4555	      15.3	   2.06394	3.86681e+07	     76.43	      15.3	   2.04448	3.70847e+07	   76.4119	      15.3	   2.06744	3.71294e+07	
         R10	   1029	   76.4069	      15.3	   2.04635	3.63169e+07	   76.4531	      15.3	   2.04261	3.79016e+07	   76.4488	      15.3	   1.99397	3.64522e+07	   76.3974	      15.3	   1.99705	3.48229e+07	     76.43	      15.3	   2.04448	3.70937e+07	    76.451	      15.3	   2.01829	3.71731e+07	   76.4231	      15.3	   1.99551	3.56235e+07	   76.4022	      15.3	    2.0217	3.55642e+07	
         R10	   1030	   76.3974	      15.3	   1.99705	  3.484e+07	   76.4488	      15.3	   1.99397	3.64884e+07	   76.4447	      15.3	   1.94026	3.51411e+07	   76.3881	      15.3	   1.94382	3.35634e+07	   76.4231	      15.3	   1.99551	3.56501e+07	   76.4467	      15.3	   1.96711	3.58098e+07	   76.4164	      15.3	   1.94204	3.43386e+07	   76.3928	      15.3	   1.97044	 3.4195e+07	
         R10	   1031	   76.3881	      15.3	   1.94382	3.36057e+07	   76.4447	      15.3	   1.94026	3.52133e+07	   76.4389	      15.3	   1.87999	 3.3892e+07	   76.3774	      15.3	   1.88358	3.23675e+07	   76.4164	      15.3	   1.94204	3.43957e+07	   76.4418	      15.3	   1.91013	3.45467e+07	   76.4082	      15.3	   1.88179	3.31157e+07	   76.3828	      15.3	    1.9137	3.29783e+07	
         R10	   1032	   76.3774	      15.3	   1.88358	3.24752e+07	   76.4389	      15.3	   1.87999	3.40695e+07	   76.4316	      15.3	   1.81558	3.26981e+07	   76.3622	      15.3	   1.81819	 3.1345e+07	   76.4082	      15.3	   1.88179	3.32573e+07	   76.4352	      15.3	   1.84779	3.33777e+07	   76.3969	      15.3	   1.81689	3.20012e+07	   76.3698	      15.3	   1.85089	3.18981e+07	
         R10	   1033	   76.3622	      15.3	   1.81819	3.15867e+07	   76.4316	      15.3	   1.81558	3.32155e+07	   76.4243	      15.3	   1.74668	3.19163e+07	   76.3455	      15.3	   1.74867	3.01007e+07	   76.3969	      15.3	   1.81689	3.23784e+07	   76.4279	      15.3	   1.78113	3.25459e+07	   76.3849	      15.3	   1.74767	3.09647e+07	   76.3539	      15.3	   1.78343	3.08252e+07	
         R10	   1034	   76.3455	      15.3	   1.74867	3.07652e+07	   76.4243	      15.3	   1.74668	3.27796e+07	   76.4196	      15.3	   1.67445	2.96954e+07	   76.3351	      15.3	   1.67584	2.97084e+07	   76.3849	      15.3	   1.74767	3.17463e+07	    76.422	      15.3	   1.71056	 3.1216e+07	   76.3774	      15.3	   1.67514	2.96601e+07	   76.3403	      15.3	   1.71225	3.02183e+07	
         R10	   1035	   76.2616	      15.3	   1.75572	2.88329e+07	   76.3455	      15.3	   1.74867	3.07314e+07	   76.3351	      15.3	   1.67584	2.96033e+07	   76.2462	      15.3	   1.68107	2.78278e+07	   76.3035	      15.3	   1.75219	2.97411e+07	   76.3403	      15.3	   1.71225	3.01329e+07	   76.2907	      15.3	   1.67845	2.86888e+07	   76.2539	      15.3	   1.71839	2.83134e+07	
         R10	   1036	   76.2616	      15.3	   1.75572	2.88726e+07	   76.2462	      15.3	   1.68107	 2.7896e+07	   76.1556	      15.3	   1.68481	2.65318e+07	   76.1556	      15.3	   1.76767	2.64984e+07	   76.2539	      15.3	   1.71839	2.83632e+07	   76.2009	      15.3	   1.68294	2.71984e+07	   76.1556	      15.3	   1.72624	2.65096e+07	   76.2086	      15.3	   1.76169	 2.7637e+07	
         R10	   1037	   76.1556	      15.3	   1.76767	2.65513e+07	   76.1556	      15.3	   1.68481	2.64341e+07	   76.0584	      15.3	    1.6859	2.50696e+07	   76.0619	      15.3	   1.77045	2.48067e+07	   76.1556	      15.3	   1.72624	2.64851e+07	    76.107	      15.3	   1.68536	2.57306e+07	   76.0601	      15.3	   1.72818	2.49359e+07	   76.1087	      15.3	   1.76906	2.56427e+07	
         R10	   1038	   76.0619	      15.3	   1.77045	2.48363e+07	   76.0584	      15.3	    1.6859	2.50153e+07	   75.9588	      15.3	   1.69008	2.39237e+07	   75.9674	      15.3	   1.77235	2.35576e+07	   76.0601	      15.3	   1.72818	 2.4922e+07	   76.0086	      15.3	   1.68799	2.44452e+07	   75.9631	      15.3	   1.73121	2.37385e+07	   76.0146	      15.3	    1.7714	2.41576e+07	
         R10	   1039	   75.9674	      15.3	   1.77235	2.35063e+07	   75.9588	      15.3	   1.69008	2.38373e+07	    75.856	      15.3	   1.69633	2.31025e+07	   75.8564	      15.3	   1.79802	2.24867e+07	   75.9631	      15.3	   1.73121	2.36689e+07	   75.9074	      15.3	   1.69321	2.34426e+07	   75.8562	      15.3	   1.74718	2.27892e+07	   75.9119	      15.3	   1.78518	2.29373e+07	
         R10	   1040	    75.904	      15.3	   1.92102	2.20583e+07	   75.8231	      15.3	   1.89834	2.18677e+07	   75.8157	      15.3	   1.98842	2.15974e+07	   75.8958	      15.3	   1.99812	2.17468e+07	   75.8635	      15.3	   1.90968	2.19366e+07	   75.8194	      15.3	   1.94338	2.17254e+07	   75.8557	      15.3	   1.99327	2.16414e+07	   75.8999	      15.3	   1.95957	2.18969e+07	
         R10	   1041	   75.8958	      15.3	   1.99812	2.17541e+07	   75.8157	      15.3	   1.98842	2.16003e+07	   75.8101	      15.3	   2.07463	2.14797e+07	   75.8866	      15.3	   2.07888	2.16457e+07	   75.8557	      15.3	   1.99327	2.16466e+07	   75.8129	      15.3	   2.03152	2.15336e+07	   75.8483	      15.3	   2.07675	2.15322e+07	   75.8912	      15.3	    2.0385	2.16932e+07	
         R10	   1042	   75.8866	      15.3	   2.07888	2.16449e+07	   75.8101	      15.3	   2.07463	2.15035e+07	   75.8054	      15.3	   2.15919	2.16385e+07	   75.8784	      15.3	   2.15946	2.16673e+07	   75.8483	      15.3	   2.07675	 2.1545e+07	   75.8077	      15.3	   2.11691	2.15675e+07	   75.8419	      15.3	   2.15933	2.16272e+07	   75.8825	      15.3	   2.11917	2.16487e+07	
         R10	   1043	   75.8784	      15.3	   2.15946	2.16897e+07	   75.8054	      15.3	   2.15919	2.16803e+07	    75.802	      15.3	   2.24171	2.18183e+07	   75.8759	      15.3	   2.24453	2.19403e+07	   75.8419	      15.3	   2.15933	2.16605e+07	   75.8037	      15.3	   2.20045	2.17466e+07	   75.8389	      15.3	   2.24312	2.18568e+07	   75.8771	      15.3	     2.202	2.18114e+07	
         R10	   1044	   75.9482	      15.3	   2.21722	2.20447e+07	    75.943	      15.3	   2.28502	2.23443e+07	   76.0002	      15.3	   2.28705	2.26499e+07	   76.0057	      15.3	   2.22834	 2.2427e+07	   75.9456	      15.3	   2.25112	2.21905e+07	   75.9716	      15.3	   2.28604	2.24758e+07	    76.003	      15.3	    2.2577	2.25334e+07	   75.9769	      15.3	   2.22278	2.22136e+07	
         R10	   1045	   76.0057	      15.3	   2.22834	2.24239e+07	   76.0002	      15.3	   2.28705	2.26487e+07	   76.0546	      15.3	   2.29374	2.31446e+07	   76.0613	      15.3	   2.23993	2.29955e+07	    76.003	      15.3	    2.2577	2.25315e+07	   76.0274	      15.3	   2.29039	2.28744e+07	   76.0579	      15.3	   2.26683	2.30625e+07	   76.0335	      15.3	   2.23413	 2.2684e+07	
         R10	   1046	   76.0613	      15.3	   2.23993	2.29938e+07	   76.0546	      15.3	   2.29374	2.31516e+07	   76.1055	      15.3	   2.30178	2.38226e+07	   76.1141	      15.3	   2.25393	2.37807e+07	   76.0579	      15.3	   2.26683	2.30657e+07	   76.0801	      15.3	   2.29776	2.34637e+07	   76.1098	      15.3	   2.27785	2.37916e+07	   76.0877	      15.3	   2.24693	2.33598e+07	
         R10	   1047	   76.1141	      15.3	   2.25393	2.37831e+07	   76.1055	      15.3	   2.30178	2.38291e+07	   76.1508	      15.3	   2.31171	2.46472e+07	   76.1604	      15.3	   2.26898	2.47509e+07	   76.1098	      15.3	   2.27785	2.37966e+07	   76.1282	      15.3	   2.30674	2.42167e+07	   76.1556	      15.3	   2.29034	2.46864e+07	   76.1373	      15.3	   2.26145	2.42425e+07	
         R10	   1048	   76.1604	      15.3	   2.26898	 2.4757e+07	   76.1508	      15.3	   2.31171	2.46655e+07	   76.1918	      15.3	   2.32254	2.56083e+07	   76.1962	      15.3	   2.28713	2.57073e+07	   76.1556	      15.3	   2.29034	2.46987e+07	   76.1713	      15.3	   2.31712	2.51171e+07	    76.194	      15.3	   2.30483	2.56488e+07	   76.1783	      15.3	   2.27805	2.52171e+07	
         R10	   1049	   76.1962	      15.3	   2.28713	2.56891e+07	   76.1918	      15.3	   2.32254	2.56349e+07	   76.2279	      15.3	   2.33262	2.66347e+07	   76.2362	      15.3	   2.29981	2.70279e+07	    76.194	      15.3	   2.30483	2.56541e+07	   76.2098	      15.3	   2.32758	2.61168e+07	    76.232	      15.3	   2.31622	2.68167e+07	   76.2162	      15.3	   2.29347	2.63331e+07	
         R10	   1050	   76.2362	      15.3	   2.29981	2.70246e+07	   76.2279	      15.3	   2.33262	2.66778e+07	   76.2595	      15.3	   2.34161	2.77204e+07	   76.2635	      15.3	   2.31677	2.80522e+07	    76.232	      15.3	   2.31622	2.68369e+07	   76.2437	      15.3	   2.33712	2.71837e+07	   76.2615	      15.3	   2.32919	2.78781e+07	   76.2498	      15.3	   2.30829	2.75293e+07	
         R10	   1051	   76.2876	      15.3	   2.35683	2.87995e+07	   76.2851	      15.3	   2.37563	2.87866e+07	   76.3094	      15.3	   2.37632	2.97506e+07	    76.309	      15.3	   2.35459	2.97386e+07	   76.2863	      15.3	   2.36623	2.87882e+07	   76.2972	      15.3	   2.37597	 2.9251e+07	   76.3092	      15.3	   2.36545	2.97387e+07	   76.2983	      15.3	   2.35571	2.92531e+07	
         R10	   1052	   76.3096	      15.3	    2.3341	3.02272e+07	   76.3096	      15.3	   2.31668	3.07584e+07	   76.2875	      15.3	   2.31637	2.93087e+07	   76.2895	      15.3	   2.33342	2.91175e+07	   76.3096	      15.3	   2.32539	3.04887e+07	   76.2985	      15.3	   2.31653	3.00165e+07	   76.2885	      15.3	    2.3249	2.92106e+07	   76.2995	      15.3	   2.33376	2.96586e+07	
         R10	   1053	    76.265	      15.3	   2.28305	2.86102e+07	     76.29	      15.3	   2.29741	2.98594e+07	   76.3051	      15.3	   2.28063	3.14438e+07	   76.2865	      15.3	   2.27358	3.01104e+07	   76.2775	      15.3	   2.29023	2.92234e+07	   76.2975	      15.3	   2.28902	3.06325e+07	   76.2958	      15.3	    2.2771	3.07688e+07	   76.2758	      15.3	   2.27832	2.93419e+07	
         R10	   1054	   76.2555	      15.3	   2.25767	2.84218e+07	    76.286	      15.3	   2.25303	 3.0466e+07	   76.2846	      15.3	   2.22953	3.06841e+07	   76.2559	      15.3	     2.229	2.87805e+07	   76.2708	      15.3	   2.25535	2.94177e+07	   76.2853	      15.3	   2.24128	3.05676e+07	   76.2703	      15.3	   2.22927	2.97139e+07	   76.2557	      15.3	   2.24333	2.85921e+07	
         R10	   1055	   76.2886	      15.3	   2.20102	3.12323e+07	   76.2846	      15.3	   2.22953	3.07002e+07	   76.3076	      15.3	    2.2286	3.25259e+07	   76.3079	      15.3	   2.20551	3.26979e+07	   76.2866	      15.3	   2.21528	3.09532e+07	   76.2961	      15.3	   2.22906	3.16007e+07	   76.3077	      15.3	   2.21705	3.26031e+07	   76.2982	      15.3	   2.20327	3.19591e+07	
         R10	   1056	    76.325	      15.3	    2.1517	3.38339e+07	   76.3209	      15.3	   2.18062	3.37068e+07	   76.3474	      15.3	   2.18439	3.60226e+07	   76.3653	      15.3	   2.15364	3.68512e+07	    76.323	      15.3	   2.16616	 3.3758e+07	   76.3341	      15.3	    2.1825	3.48537e+07	   76.3564	      15.3	   2.16901	3.64094e+07	   76.3452	      15.3	   2.15267	 3.5321e+07	
         R10	   1057	   76.3653	      15.3	   2.15364	3.67874e+07	   76.3474	      15.3	   2.18439	3.60507e+07	   76.3622	      15.3	   2.20348	3.76154e+07	   76.3746	      15.3	    2.1884	3.84322e+07	   76.3564	      15.3	   2.16901	  3.639e+07	   76.3548	      15.3	   2.19393	3.68299e+07	   76.3684	      15.3	   2.19594	3.80107e+07	     76.37	      15.3	   2.17102	3.76006e+07	
         R10	   1058	   76.3746	      15.3	    2.1884	3.84221e+07	   76.3815	      15.3	   2.21183	3.97312e+07	   76.3969	      15.3	    2.2093	4.11941e+07	   76.3928	      15.3	     2.189	4.00399e+07	   76.3781	      15.3	   2.20011	3.90716e+07	   76.3892	      15.3	   2.21057	4.04542e+07	   76.3948	      15.3	   2.19915	4.06134e+07	   76.3837	      15.3	    2.1887	3.92237e+07	
         R10	   1059	   76.4668	      15.3	   2.15823	 4.2981e+07	   76.4633	      15.3	   2.12376	4.11758e+07	   76.4275	      15.3	   2.12562	 3.9791e+07	   76.4344	      15.3	   2.15584	4.15037e+07	   76.4651	      15.3	     2.141	4.20772e+07	   76.4454	      15.3	   2.12469	4.04656e+07	    76.431	      15.3	   2.14073	4.06456e+07	   76.4506	      15.3	   2.15703	4.22233e+07	
         R10	   1060	   76.3918	      15.3	   2.13312	3.80537e+07	   76.4275	      15.3	   2.12562	3.98029e+07	   76.4169	      15.3	   2.08852	3.79566e+07	   76.3762	      15.3	   2.09877	 3.6178e+07	   76.4097	      15.3	   2.12937	3.89062e+07	   76.4222	      15.3	   2.10707	3.88775e+07	   76.3965	      15.3	   2.09364	3.70456e+07	    76.384	      15.3	   2.11594	3.71126e+07	
         R10	   1061	   76.3762	      15.3	   2.09877	  3.616e+07	   76.4169	      15.3	   2.08852	3.79594e+07	   76.4069	      15.3	   2.04635	3.63176e+07	   76.3614	      15.3	   2.05497	3.44388e+07	   76.3965	      15.3	   2.09364	3.70382e+07	   76.4119	      15.3	   2.06744	3.71347e+07	   76.3842	      15.3	   2.05066	3.53599e+07	   76.3688	      15.3	   2.07687	3.52927e+07	
         R10	   1062	   76.3614	      15.3	   2.05497	3.44406e+07	   76.4069	      15.3	   2.04635	3.63203e+07	   76.3974	      15.3	   1.99705	  3.483e+07	    76.346	      15.3	   2.00475	3.29111e+07	   76.3842	      15.3	   2.05066	3.53623e+07	   76.4022	      15.3	    2.0217	3.55694e+07	   76.3717	      15.3	    2.0009	3.38537e+07	   76.3537	      15.3	   2.02986	3.36672e+07	
         R10	   1063	    76.346	      15.3	   2.00475	  3.293e+07	   76.3974	      15.3	   1.99705	3.48406e+07	   76.3881	      15.3	   1.94382	3.35616e+07	   76.3305	      15.3	   1.95242	3.16594e+07	   76.3717	      15.3	    2.0009	3.38683e+07	   76.3928	      15.3	   1.97044	3.41944e+07	   76.3593	      15.3	   1.94812	 3.2593e+07	   76.3383	      15.3	   1.97859	3.22854e+07	
         R10	   1064	   76.3305	      15.3	   1.95242	3.17001e+07	   76.3881	      15.3	   1.94382	3.36003e+07	   76.3774	      15.3	   1.88358	3.24237e+07	   76.3143	      15.3	    1.8946	3.05828e+07	   76.3593	      15.3	   1.94812	3.26326e+07	   76.3828	      15.3	    1.9137	3.30035e+07	   76.3459	      15.3	   1.88909	 3.1483e+07	   76.3224	      15.3	   1.92351	  3.113e+07	
         R10	   1065	   76.3143	      15.3	    1.8946	3.06677e+07	   76.3774	      15.3	   1.88358	3.25033e+07	   76.3622	      15.3	   1.81819	3.12705e+07	   76.2992	      15.3	   1.83329	2.97622e+07	   76.3459	      15.3	   1.88909	3.15656e+07	   76.3698	      15.3	   1.85089	3.18745e+07	   76.3307	      15.3	   1.82574	3.04983e+07	   76.3068	      15.3	   1.86394	 3.0204e+07	
         R10	   1066	   76.2992	      15.3	   1.83329	2.98759e+07	   76.3622	      15.3	   1.81819	3.14734e+07	   76.3455	      15.3	   1.74867	3.02877e+07	   76.2616	      15.3	   1.75572	2.85235e+07	   76.3307	      15.3	   1.82574	3.06519e+07	   76.3539	      15.3	   1.78343	3.08669e+07	   76.3035	      15.3	   1.75219	2.93773e+07	   76.2804	      15.3	    1.7945	2.91728e+07	
         R10	   1067	   76.1463	      15.3	   1.85665	2.59217e+07	   76.1556	      15.3	   1.76767	2.62825e+07	   76.0619	      15.3	   1.77045	2.45889e+07	   76.0664	      15.3	   1.85148	2.43737e+07	   76.1509	      15.3	   1.81216	2.60917e+07	   76.1087	      15.3	   1.76906	2.53958e+07	   76.0641	      15.3	   1.81096	2.44762e+07	   76.1064	      15.3	   1.85406	 2.5117e+07	
         R10	   1068	   76.0664	      15.3	   1.85148	2.44121e+07	   76.0619	      15.3	   1.77045	2.46397e+07	   75.9674	      15.3	   1.77235	2.34058e+07	   75.9847	      15.3	    1.8507	2.32261e+07	   76.0641	      15.3	   1.81096	2.45215e+07	   76.0146	      15.3	    1.7714	2.39851e+07	    75.976	      15.3	   1.81152	2.33102e+07	   76.0255	      15.3	   1.85109	2.37844e+07	
         R10	   1069	   75.9855	      15.3	   1.93129	2.26924e+07	    75.904	      15.3	   1.92102	2.21221e+07	   75.8958	      15.3	   1.99812	2.18088e+07	   75.9743	      15.3	   2.00678	2.22983e+07	   75.9447	      15.3	   1.92615	2.23728e+07	   75.8999	      15.3	   1.95957	2.19579e+07	    75.935	      15.3	   2.00245	2.20151e+07	   75.9799	      15.3	   1.96903	 2.2488e+07	
         R10	   1070	   75.9743	      15.3	   2.00678	2.22707e+07	   75.8958	      15.3	   1.99812	2.18026e+07	   75.8866	      15.3	   2.07888	2.16152e+07	    75.962	      15.3	   2.08317	2.20089e+07	    75.935	      15.3	   2.00245	2.19988e+07	   75.8912	      15.3	    2.0385	2.17005e+07	   75.9243	      15.3	   2.08103	2.17743e+07	   75.9682	      15.3	   2.04498	  2.213e+07	
         R10	   1071	    75.962	      15.3	   2.08317	2.19905e+07	   75.8866	      15.3	   2.07888	2.16242e+07	   75.8784	      15.3	   2.15946	  2.167e+07	   75.9488	      15.3	   2.15673	2.19279e+07	   75.9243	      15.3	   2.08103	2.17707e+07	   75.8825	      15.3	   2.11917	 2.1641e+07	   75.9136	      15.3	   2.15809	 2.1768e+07	   75.9554	      15.3	   2.11995	2.19488e+07	
         R10	   1072	   76.0144	      15.3	   2.16395	2.23754e+07	   76.0057	      15.3	   2.22834	 2.2429e+07	   76.0613	      15.3	   2.23993	2.29872e+07	   76.0714	      15.3	   2.18485	2.30488e+07	     76.01	      15.3	   2.19614	2.23926e+07	   76.0335	      15.3	   2.23413	2.26826e+07	   76.0663	      15.3	   2.21239	2.30068e+07	   76.0429	      15.3	    2.1744	2.26844e+07	
         R10	   1073	   76.0714	      15.3	   2.18485	 2.3059e+07	   76.0613	      15.3	   2.23993	2.29833e+07	   76.1141	      15.3	   2.25393	2.37904e+07	   76.1269	      15.3	   2.20697	2.40406e+07	   76.0663	      15.3	   2.21239	2.30096e+07	   76.0877	      15.3	   2.24693	2.33592e+07	   76.1205	      15.3	   2.23045	2.39009e+07	   76.0991	      15.3	   2.19591	2.35179e+07	
         R10	   1074	   76.1269	      15.3	   2.20697	2.40369e+07	   76.1141	      15.3	   2.25393	2.37866e+07	   76.1604	      15.3	   2.26898	2.47445e+07	   76.1751	      15.3	   2.22512	2.52679e+07	   76.1205	      15.3	   2.23045	2.38971e+07	   76.1373	      15.3	   2.26145	2.42409e+07	   76.1678	      15.3	   2.24705	2.49857e+07	    76.151	      15.3	   2.21605	 2.4623e+07	
         R10	   1075	   76.1751	      15.3	   2.22512	2.52423e+07	   76.1604	      15.3	   2.26898	2.47553e+07	   76.1962	      15.3	   2.28713	2.56948e+07	   76.2206	      15.3	   2.25943	 2.6687e+07	   76.1678	      15.3	   2.24705	2.49783e+07	   76.1783	      15.3	   2.27805	2.52107e+07	   76.2084	      15.3	   2.27328	2.61632e+07	   76.1978	      15.3	   2.24227	2.59392e+07	
         R10	   1076	   76.2876	      15.3	   2.35683	2.88234e+07	    76.309	      15.3	   2.35459	2.97225e+07	   76.3096	      15.3	    2.3341	3.02129e+07	   76.2895	      15.3	   2.33342	2.90766e+07	   76.2983	      15.3	   2.35571	2.92568e+07	   76.3093	      15.3	   2.34435	2.99615e+07	   76.2995	      15.3	   2.33376	2.96311e+07	   76.2885	      15.3	   2.34513	2.89424e+07	
         R10	   1077	   76.2593	      15.3	   2.19876	2.92751e+07	   76.2559	      15.3	     2.229	2.87927e+07	   76.2846	      15.3	   2.22953	3.07033e+07	   76.2886	      15.3	   2.20102	 3.1208e+07	   76.2576	      15.3	   2.21388	2.90235e+07	   76.2703	      15.3	   2.22927	2.97303e+07	   76.2866	      15.3	   2.21528	3.09426e+07	    76.274	      15.3	   2.19989	3.02259e+07	
         R10	   1078	   76.2932	      15.3	   2.17339	3.16237e+07	   76.2886	      15.3	   2.20102	3.12311e+07	   76.3079	      15.3	   2.20551	3.26996e+07	   76.3209	      15.3	   2.18062	3.37189e+07	   76.2909	      15.3	   2.18721	3.14159e+07	   76.2982	      15.3	   2.20327	3.19594e+07	   76.3144	      15.3	   2.19307	3.31925e+07	   76.3071	      15.3	   2.17701	3.26613e+07	
         R10	   1079	    76.408	      15.3	   2.16093	4.01246e+07	   76.4344	      15.3	   2.15584	4.14705e+07	   76.4275	      15.3	   2.12562	3.98085e+07	   76.3918	      15.3	   2.13312	  3.805e+07	   76.4212	      15.3	   2.15838	4.07806e+07	    76.431	      15.3	   2.14073	 4.0638e+07	   76.4097	      15.3	   2.12937	 3.8907e+07	   76.3999	      15.3	   2.14703	3.90857e+07	
         R10	   1080	   76.3378	      15.3	   2.11067	3.40998e+07	   76.3762	      15.3	   2.09877	3.61601e+07	   76.3614	      15.3	   2.05497	3.44305e+07	   76.3164	      15.3	   2.06516	3.22872e+07	    76.357	      15.3	   2.10472	3.51083e+07	   76.3688	      15.3	   2.07687	3.52887e+07	   76.3389	      15.3	   2.06007	3.33394e+07	   76.3271	      15.3	   2.08792	3.31826e+07	
         R10	   1081	   76.3164	      15.3	   2.06516	3.22815e+07	   76.3614	      15.3	   2.05497	 3.4436e+07	    76.346	      15.3	   2.00475	  3.291e+07	   76.2951	      15.3	   2.01761	3.08512e+07	   76.3389	      15.3	   2.06007	 3.3339e+07	   76.3537	      15.3	   2.02986	3.36642e+07	   76.3206	      15.3	   2.01118	3.18606e+07	   76.3058	      15.3	   2.04139	3.15555e+07	
         R10	   1082	   76.2951	      15.3	   2.01761	3.08346e+07	    76.346	      15.3	   2.00475	3.29289e+07	   76.3305	      15.3	   1.95242	 3.1678e+07	   76.2674	      15.3	   1.96478	2.93946e+07	   76.3206	      15.3	   2.01118	3.18614e+07	   76.3383	      15.3	   1.97859	3.22943e+07	    76.299	      15.3	    1.9586	3.05112e+07	   76.2813	      15.3	   1.99119	3.01017e+07	
         R10	   1083	   76.2674	      15.3	   1.96478	2.93829e+07	   76.3305	      15.3	   1.95242	3.17236e+07	   76.3143	      15.3	    1.8946	3.05795e+07	   76.2402	      15.3	   1.91033	2.83633e+07	    76.299	      15.3	    1.9586	3.05273e+07	   76.3224	      15.3	   1.92351	3.11411e+07	   76.2772	      15.3	   1.90246	2.94408e+07	   76.2538	      15.3	   1.93755	2.88593e+07	
         R10	   1084	   76.2402	      15.3	   1.91033	2.83994e+07	   76.3143	      15.3	    1.8946	3.06549e+07	   76.2992	      15.3	   1.83329	2.97472e+07	   76.2249	      15.3	   1.85516	2.78072e+07	   76.2772	      15.3	   1.90246	2.94946e+07	   76.3068	      15.3	   1.86394	3.01866e+07	   76.2621	      15.3	   1.84422	2.87531e+07	   76.2326	      15.3	   1.88274	2.80954e+07	
         R10	   1085	   76.1546	      15.3	   1.93476	2.58328e+07	   76.1463	      15.3	   1.85665	2.58162e+07	   76.0664	      15.3	   1.85148	2.42871e+07	   76.0639	      15.3	   1.93161	2.38933e+07	   76.1504	      15.3	    1.8957	2.58109e+07	   76.1064	      15.3	   1.85406	2.50181e+07	   76.0651	      15.3	   1.89154	 2.4083e+07	   76.1092	      15.3	   1.93318	2.48082e+07	
         R10	   1086	   76.0504	      15.3	   2.00967	2.32051e+07	   75.9743	      15.3	   2.00678	2.22875e+07	    75.962	      15.3	   2.08317	2.19864e+07	   76.0356	      15.3	   2.08941	2.27448e+07	   76.0123	      15.3	   2.00823	2.27027e+07	   75.9682	      15.3	   2.04498	2.21261e+07	   75.9988	      15.3	   2.08629	2.23209e+07	    76.043	      15.3	   2.04954	2.29586e+07	
         R10	   1087	   75.9488	      15.3	   2.15673	2.18945e+07	   75.8784	      15.3	   2.15946	2.16723e+07	   75.8759	      15.3	   2.24453	2.19494e+07	   75.9482	      15.3	   2.21722	2.20554e+07	   75.9136	      15.3	   2.15809	2.17529e+07	   75.8771	      15.3	     2.202	2.18068e+07	    75.912	      15.3	   2.23088	2.19675e+07	   75.9485	      15.3	   2.18697	2.19713e+07	
         R10	   1088	   75.9488	      15.3	   2.15673	2.19322e+07	   75.9482	      15.3	   2.21722	2.20378e+07	   76.0057	      15.3	   2.22834	2.24256e+07	   76.0144	      15.3	   2.16395	2.23795e+07	   75.9485	      15.3	   2.18697	2.19815e+07	   75.9769	      15.3	   2.22278	2.22093e+07	     76.01	      15.3	   2.19614	2.23935e+07	   75.9816	      15.3	   2.16034	 2.2123e+07	
         R10	   1089	   76.0919	      15.3	   2.14197	2.34805e+07	   76.0714	      15.3	   2.18485	2.30636e+07	   76.1269	      15.3	   2.20697	2.40404e+07	   76.1428	      15.3	   2.15992	2.45829e+07	   76.0816	      15.3	   2.16341	2.32578e+07	   76.0991	      15.3	   2.19591	2.35201e+07	   76.1348	      15.3	   2.18345	2.42932e+07	   76.1173	      15.3	   2.15094	2.40027e+07	
         R10	   1090	   76.1428	      15.3	   2.15992	2.45995e+07	   76.1269	      15.3	   2.20697	2.40437e+07	   76.1751	      15.3	   2.22512	2.52769e+07	   76.1849	      15.3	   2.17906	2.58306e+07	   76.1348	      15.3	   2.18345	2.43032e+07	    76.151	      15.3	   2.21605	 2.4631e+07	     76.18	      15.3	   2.20209	2.55357e+07	   76.1638	      15.3	   2.16949	2.51928e+07	
         R10	   1091	   76.2635	      15.3	   2.31677	2.80549e+07	   76.2595	      15.3	   2.34161	2.77486e+07	   76.2895	      15.3	   2.33342	2.90644e+07	   76.2875	      15.3	   2.31637	2.93252e+07	   76.2615	      15.3	   2.32919	2.78934e+07	   76.2745	      15.3	   2.33752	2.83731e+07	   76.2885	      15.3	    2.3249	2.91922e+07	   76.2755	      15.3	   2.31657	2.86718e+07	
         R10	   1092	   76.2635	      15.3	   2.31677	2.80749e+07	   76.2875	      15.3	   2.31637	2.93108e+07	     76.29	      15.3	   2.29741	2.98708e+07	    76.265	      15.3	   2.28305	2.86029e+07	   76.2755	      15.3	   2.31657	2.86762e+07	   76.2887	      15.3	   2.30689	2.95841e+07	   76.2775	      15.3	   2.29023	 2.9226e+07	   76.2642	      15.3	   2.29991	 2.8326e+07	
         R10	   1093	   76.2255	      15.3	   2.22186	2.72638e+07	   76.2559	      15.3	     2.229	2.87918e+07	   76.2593	      15.3	   2.19876	2.92806e+07	   76.2256	      15.3	   2.19286	2.74487e+07	   76.2407	      15.3	   2.22543	2.80115e+07	   76.2576	      15.3	   2.21388	2.90257e+07	   76.2424	      15.3	   2.19581	2.83461e+07	   76.2255	      15.3	   2.20736	2.73477e+07	
         R10	   1094	   76.2602	      15.3	   2.16702	2.94972e+07	   76.2593	      15.3	   2.19876	2.92556e+07	   76.2886	      15.3	   2.20102	3.12358e+07	   76.2932	      15.3	   2.17339	3.16019e+07	   76.2598	      15.3	   2.18289	 2.9366e+07	    76.274	      15.3	   2.19989	3.02303e+07	   76.2909	      15.3	   2.18721	3.14071e+07	   76.2767	      15.3	   2.17021	3.05344e+07	
         R10	   1095	   76.2689	      15.3	   2.08473	 2.9956e+07	   76.3164	      15.3	   2.06516	3.22969e+07	   76.2951	      15.3	   2.01761	3.08348e+07	   76.2473	      15.3	   2.03544	 2.8823e+07	   76.2927	      15.3	   2.07494	3.10987e+07	   76.3058	      15.3	   2.04139	3.15552e+07	   76.2712	      15.3	   2.02653	2.98065e+07	   76.2581	      15.3	   2.06008	 2.9374e+07	
         R10	   1096	   76.2473	      15.3	   2.03544	2.88307e+07	   76.2951	      15.3	   2.01761	3.08139e+07	   76.2674	      15.3	   1.96478	2.94165e+07	   76.2127	      15.3	   1.98594	2.74751e+07	   76.2712	      15.3	   2.02653	   2.98e+07	   76.2813	      15.3	   1.99119	3.01018e+07	   76.2401	      15.3	   1.97536	2.84226e+07	     76.23	      15.3	   2.01069	2.81366e+07	
         R10	   1097	   76.2188	      15.3	   1.81365	2.77558e+07	   76.2249	      15.3	   1.85516	2.78456e+07	   76.2992	      15.3	   1.83329	2.98668e+07	   76.2616	      15.3	   1.75572	 2.8443e+07	   76.2219	      15.3	    1.8344	2.77956e+07	   76.2621	      15.3	   1.84422	2.88312e+07	   76.2804	      15.3	    1.7945	2.91343e+07	   76.2402	      15.3	   1.78468	2.80877e+07	
         R10	   1098	   76.0356	      15.3	   2.08941	 2.2721e+07	    75.962	      15.3	   2.08317	2.19645e+07	   75.9488	      15.3	   2.15673	2.19159e+07	   76.0144	      15.3	   2.16395	 2.2364e+07	   75.9988	      15.3	   2.08629	2.22978e+07	   75.9554	      15.3	   2.11995	2.19309e+07	   75.9816	      15.3	   2.16034	2.21072e+07	    76.025	      15.3	   2.12668	2.25213e+07	
         R10	   1099	   76.0356	      15.3	   2.08941	 2.2674e+07	   76.0144	      15.3	   2.16395	2.23909e+07	   76.0714	      15.3	   2.18485	2.30661e+07	   76.0919	      15.3	   2.14197	2.34712e+07	    76.025	      15.3	   2.12668	2.25114e+07	   76.0429	      15.3	    2.1744	2.27013e+07	   76.0816	      15.3	   2.16341	2.32535e+07	   76.0637	      15.3	   2.11569	2.30463e+07	
         R10	   1100	   76.1157	      15.3	   2.07221	2.42045e+07	   76.0919	      15.3	   2.14197	2.35002e+07	   76.1428	      15.3	   2.15992	2.45948e+07	   76.1656	      15.3	   2.11948	2.54512e+07	   76.1038	      15.3	   2.10709	2.38226e+07	   76.1173	      15.3	   2.15094	2.40184e+07	   76.1542	      15.3	    2.1397	2.50035e+07	   76.1407	      15.3	   2.09585	2.48018e+07	
         R10	   1101	   76.2206	      15.3	   2.25943	 2.6685e+07	   76.2362	      15.3	   2.29981	2.70549e+07	    76.265	      15.3	   2.28305	2.85466e+07	   76.2555	      15.3	   2.25767	2.84198e+07	   76.2284	      15.3	   2.27962	2.68643e+07	   76.2506	      15.3	   2.29143	2.77669e+07	   76.2603	      15.3	   2.27036	2.84781e+07	    76.238	      15.3	   2.25855	2.75223e+07	
         R10	   1102	   76.2206	      15.3	   2.25943	2.66918e+07	   76.2555	      15.3	   2.25767	  2.843e+07	   76.2559	      15.3	     2.229	2.87853e+07	   76.2255	      15.3	   2.22186	2.72476e+07	    76.238	      15.3	   2.25855	2.75315e+07	   76.2557	      15.3	   2.24333	2.85986e+07	   76.2407	      15.3	   2.22543	2.79998e+07	   76.2231	      15.3	   2.24064	2.69545e+07	
         R10	   1103	   76.2354	      15.3	   2.16716	2.80869e+07	   76.2256	      15.3	   2.19286	2.75116e+07	   76.2593	      15.3	   2.19876	 2.9255e+07	   76.2602	      15.3	   2.16702	2.95041e+07	   76.2305	      15.3	   2.18001	2.77891e+07	   76.2424	      15.3	   2.19581	2.83643e+07	   76.2598	      15.3	   2.18289	2.93694e+07	   76.2478	      15.3	   2.16709	2.87859e+07	
         R10	   1104	   76.2601	      15.3	   2.13184	2.95333e+07	   76.2602	      15.3	   2.16702	2.95025e+07	   76.2932	      15.3	   2.17339	 3.1616e+07	   76.2978	      15.3	   2.14104	3.18415e+07	   76.2601	      15.3	   2.14943	2.95056e+07	   76.2767	      15.3	   2.17021	3.05438e+07	   76.2955	      15.3	   2.15721	3.17157e+07	   76.2789	      15.3	   2.13644	3.06719e+07	
         R10	   1105	   76.2253	      15.3	   2.09422	2.78267e+07	   76.2689	      15.3	   2.08473	2.99951e+07	   76.2473	      15.3	   2.03544	2.88098e+07	   76.1903	      15.3	   2.06079	2.65943e+07	   76.2471	      15.3	   2.08947	2.88866e+07	   76.2581	      15.3	   2.06008	2.93877e+07	   76.2188	      15.3	   2.04812	2.76657e+07	   76.2078	      15.3	    2.0775	2.71974e+07	
         R10	   1106	   76.2124	      15.3	   2.13332	2.71769e+07	   76.1656	      15.3	   2.11948	2.54618e+07	   76.1428	      15.3	   2.15992	2.45876e+07	   76.1849	      15.3	   2.17906	2.58534e+07	    76.189	      15.3	    2.1264	2.62929e+07	   76.1542	      15.3	    2.1397	2.50053e+07	   76.1638	      15.3	   2.16949	2.51978e+07	   76.1987	      15.3	   2.15619	2.64821e+07	
         R10	   1107	   76.1849	      15.3	   2.17906	2.58361e+07	   76.1751	      15.3	   2.22512	2.52556e+07	   76.2255	      15.3	   2.22186	 2.7189e+07	   76.2256	      15.3	   2.19286	 2.7474e+07	     76.18	      15.3	   2.20209	2.55269e+07	   76.2003	      15.3	   2.22349	2.61727e+07	   76.2255	      15.3	   2.20736	2.73233e+07	   76.2052	      15.3	   2.18596	2.66321e+07	
         R10	   1108	   76.1727	      15.3	    2.0166	 2.6058e+07	   76.1903	      15.3	   2.06079	2.65734e+07	   76.2473	      15.3	   2.03544	2.88091e+07	   76.2127	      15.3	   1.98594	2.74765e+07	   76.1815	      15.3	    2.0387	2.63043e+07	   76.2188	      15.3	   2.04812	2.76523e+07	     76.23	      15.3	   2.01069	2.81259e+07	   76.1927	      15.3	   2.00127	2.67501e+07	
         R10	   1109	   76.1186	      15.3	   2.01081	2.46108e+07	   76.0504	      15.3	   2.00967	 2.3205e+07	   76.0356	      15.3	   2.08941	2.27219e+07	   76.1157	      15.3	   2.07221	2.42248e+07	   76.0845	      15.3	   2.01024	2.38677e+07	    76.043	      15.3	   2.04954	2.29461e+07	   76.0757	      15.3	   2.08081	2.34014e+07	   76.1172	      15.3	   2.04151	2.44044e+07	
         R10	   1110	   76.2124	      15.3	   2.13332	2.71258e+07	   76.2354	      15.3	   2.16716	2.80901e+07	   76.2602	      15.3	   2.16702	2.95189e+07	   76.2601	      15.3	   2.13184	2.95928e+07	   76.2239	      15.3	   2.15024	2.75973e+07	   76.2478	      15.3	   2.16709	2.87936e+07	   76.2601	      15.3	   2.14943	2.95463e+07	   76.2363	      15.3	   2.13258	2.83279e+07	
         R10	   1111	   76.2865	      15.3	   2.27358	3.01588e+07	    76.286	      15.3	   2.25303	3.04658e+07	   76.2555	      15.3	   2.25767	2.84432e+07	    76.265	      15.3	   2.28305	2.85921e+07	   76.2862	      15.3	    2.2633	3.03069e+07	   76.2708	      15.3	   2.25535	2.94298e+07	   76.2603	      15.3	   2.27036	2.85132e+07	   76.2758	      15.3	   2.27832	2.93547e+07	
         R10	   1112	   76.4662	      15.3	   2.19301	4.51187e+07	   76.4532	      15.3	   2.18585	4.40588e+07	   76.4492	      15.3	   2.20937	4.54931e+07	    76.466	      15.3	   2.21083	4.64347e+07	   76.4597	      15.3	   2.18943	4.45854e+07	   76.4512	      15.3	   2.19761	4.47708e+07	   76.4576	      15.3	    2.2101	4.59534e+07	   76.4661	      15.3	   2.20192	4.57758e+07	
         R10	   1113	   76.4662	      15.3	   2.19301	4.50294e+07	    76.466	      15.3	   2.21083	4.64404e+07	   76.4832	      15.3	   2.20993	4.67899e+07	   76.4805	      15.3	   2.18652	4.50362e+07	   76.4661	      15.3	   2.20192	4.57342e+07	   76.4746	      15.3	   2.21038	 4.6604e+07	   76.4819	      15.3	   2.19823	4.59128e+07	   76.4734	      15.3	   2.18977	4.50258e+07	
         R10	   1114	   76.4662	      15.3	   2.19301	4.51479e+07	   76.4805	      15.3	   2.18652	4.50192e+07	   76.4668	      15.3	   2.15823	4.28994e+07	   76.4532	      15.3	   2.18585	4.41401e+07	   76.4734	      15.3	   2.18977	4.50771e+07	   76.4737	      15.3	   2.17238	4.39587e+07	     76.46	      15.3	   2.17204	4.35072e+07	   76.4597	      15.3	   2.18943	4.46408e+07	
         R10	   1115	   76.4348	      15.3	   2.18385	4.29427e+07	   76.4532	      15.3	   2.18585	4.41253e+07	   76.4668	      15.3	   2.15823	4.30227e+07	   76.4344	      15.3	   2.15584	 4.1523e+07	    76.444	      15.3	   2.18485	4.35245e+07	     76.46	      15.3	   2.17204	4.35624e+07	   76.4506	      15.3	   2.15703	 4.2253e+07	   76.4346	      15.3	   2.16984	 4.2229e+07	
         R10	   1116	    76.415	      15.3	   2.18695	4.17797e+07	   76.4348	      15.3	   2.18385	4.29672e+07	   76.4344	      15.3	   2.15584	4.14789e+07	    76.408	      15.3	   2.16093	4.01254e+07	   76.4249	      15.3	    2.1854	4.23608e+07	   76.4346	      15.3	   2.16984	4.22189e+07	   76.4212	      15.3	   2.15838	4.07854e+07	   76.4115	      15.3	   2.17394	4.09501e+07	
         R10	   1117	   76.3897	      15.3	   2.16894	3.91094e+07	   76.3928	      15.3	     2.189	4.00619e+07	    76.415	      15.3	   2.18695	4.17694e+07	    76.408	      15.3	   2.16093	4.00918e+07	   76.3913	      15.3	   2.17897	3.95821e+07	   76.4039	      15.3	   2.18798	4.09018e+07	   76.4115	      15.3	   2.17394	4.09282e+07	   76.3989	      15.3	   2.16493	3.95903e+07	
         R10	   1118	   76.3897	      15.3	   2.16894	3.90908e+07	    76.408	      15.3	   2.16093	4.00843e+07	   76.3918	      15.3	   2.13312	3.80777e+07	   76.3653	      15.3	   2.15364	3.68452e+07	   76.3989	      15.3	   2.16493	3.95772e+07	   76.3999	      15.3	   2.14703	3.90794e+07	   76.3786	      15.3	   2.14338	 3.7436e+07	   76.3775	      15.3	   2.16129	3.79633e+07	
         R10	   1119	   76.3897	      15.3	   2.16894	3.90456e+07	   76.3653	      15.3	   2.15364	3.67363e+07	   76.3746	      15.3	    2.1884	3.84089e+07	   76.3928	      15.3	     2.189	4.00522e+07	   76.3775	      15.3	   2.16129	3.78862e+07	     76.37	      15.3	   2.17102	3.75633e+07	   76.3837	      15.3	    2.1887	 3.9224e+07	   76.3913	      15.3	   2.17897	3.95452e+07	
         R10	   1120	   76.3378	      15.3	   2.11067	3.40888e+07	   76.3653	      15.3	   2.15364	3.67987e+07	   76.3918	      15.3	   2.13312	3.80479e+07	   76.3762	      15.3	   2.09877	3.61658e+07	   76.3516	      15.3	   2.13215	3.54344e+07	   76.3786	      15.3	   2.14338	3.73993e+07	    76.384	      15.3	   2.11594	3.71037e+07	    76.357	      15.3	   2.10472	3.51059e+07	
         R10	   1121	   76.2249	      15.3	   1.85516	2.78168e+07	   76.2188	      15.3	   1.81365	 2.7742e+07	   76.1556	      15.3	   1.76767	  2.636e+07	   76.1463	      15.3	   1.85665	2.59134e+07	   76.2219	      15.3	    1.8344	 2.7776e+07	   76.1872	      15.3	   1.79066	 2.7025e+07	   76.1509	      15.3	   1.81216	2.61252e+07	   76.1856	      15.3	    1.8559	2.68357e+07	
         R10	   1122	   76.2402	      15.3	   1.91033	2.83161e+07	   76.2249	      15.3	   1.85516	  2.783e+07	   76.1463	      15.3	   1.85665	2.58116e+07	   76.1546	      15.3	   1.93476	2.58399e+07	   76.2326	      15.3	   1.88274	2.80621e+07	   76.1856	      15.3	    1.8559	2.67879e+07	   76.1504	      15.3	    1.8957	2.58114e+07	   76.1974	      15.3	   1.92255	2.70295e+07	
         R10	   1123	   76.1546	      15.3	   1.93476	 2.5793e+07	   76.2127	      15.3	   1.98594	2.74491e+07	   76.2674	      15.3	   1.96478	2.94101e+07	   76.2402	      15.3	   1.91033	2.82908e+07	   76.1836	      15.3	   1.96035	2.65909e+07	   76.2401	      15.3	   1.97536	2.84047e+07	   76.2538	      15.3	   1.93755	2.88387e+07	   76.1974	      15.3	   1.92255	2.69934e+07	
         R10	   1124	   75.9168	      15.3	   1.85761	2.24804e+07	   75.9847	      15.3	    1.8507	2.32559e+07	   75.9674	      15.3	   1.77235	2.34607e+07	   75.8564	      15.3	   1.79802	2.24469e+07	   75.9507	      15.3	   1.85416	2.28414e+07	    75.976	      15.3	   1.81152	2.33544e+07	   75.9119	      15.3	   1.78518	2.28971e+07	   75.8866	      15.3	   1.82782	2.24478e+07	
         R10	   1125	   75.9168	      15.3	   1.85761	2.24827e+07	   75.8564	      15.3	   1.79802	2.24401e+07	   75.8231	      15.3	   1.89834	2.19288e+07	    75.904	      15.3	   1.92102	2.20921e+07	   75.8866	      15.3	   1.82782	2.24468e+07	   75.8398	      15.3	   1.84818	2.21717e+07	   75.8635	      15.3	   1.90968	2.19851e+07	   75.9104	      15.3	   1.88932	2.22822e+07	
         R10	   1126	   75.9168	      15.3	   1.85761	2.24799e+07	    75.904	      15.3	   1.92102	2.21507e+07	   75.9855	      15.3	   1.93129	2.27115e+07	   75.9847	      15.3	    1.8507	2.31626e+07	   75.9104	      15.3	   1.88932	2.23117e+07	   75.9447	      15.3	   1.92615	2.23969e+07	   75.9851	      15.3	   1.89099	2.29309e+07	   75.9507	      15.3	   1.85416	2.27991e+07	
         R10	   1127	   76.0639	      15.3	   1.93161	2.38907e+07	   76.0664	      15.3	   1.85148	2.43089e+07	   75.9847	      15.3	    1.8507	2.31576e+07	   75.9855	      15.3	   1.93129	2.27758e+07	   76.0651	      15.3	   1.89154	2.40922e+07	   76.0255	      15.3	   1.85109	2.37005e+07	   75.9851	      15.3	   1.89099	2.29612e+07	   76.0247	      15.3	   1.93145	2.32933e+07	
         R10	   1128	   76.0639	      15.3	   1.93161	2.38251e+07	   75.9855	      15.3	   1.93129	2.27194e+07	   75.9743	      15.3	   2.00678	2.23029e+07	   76.0504	      15.3	   2.00967	2.32414e+07	   76.0247	      15.3	   1.93145	2.32324e+07	   75.9799	      15.3	   1.96903	2.25032e+07	   76.0123	      15.3	   2.00823	2.27283e+07	   76.0571	      15.3	   1.97064	2.35202e+07	
         R10	   1129	   76.1546	      15.3	   1.93476	2.58129e+07	   76.0639	      15.3	   1.93161	2.38373e+07	   76.0504	      15.3	   2.00967	2.32202e+07	   76.1186	      15.3	   2.01081	2.46699e+07	   76.1092	      15.3	   1.93318	2.47686e+07	   76.0571	      15.3	   1.97064	2.35167e+07	   76.0845	      15.3	   2.01024	2.39066e+07	   76.1366	      15.3	   1.97279	2.52147e+07	
         R10	   1130	   76.1186	      15.3	   2.01081	2.46603e+07	   76.1727	      15.3	    2.0166	2.61368e+07	   76.2127	      15.3	   1.98594	2.74083e+07	   76.1546	      15.3	   1.93476	2.57745e+07	   76.1457	      15.3	   2.01371	2.53754e+07	   76.1927	      15.3	   2.00127	2.67537e+07	   76.1836	      15.3	   1.96035	2.65623e+07	   76.1366	      15.3	   1.97279	2.51892e+07	
         R10	   1131	   76.1903	      15.3	   2.06079	2.65291e+07	   76.1727	      15.3	    2.0166	2.61119e+07	   76.1186	      15.3	   2.01081	2.45966e+07	   76.1157	      15.3	   2.07221	 2.4246e+07	   76.1815	      15.3	    2.0387	2.63096e+07	   76.1457	      15.3	   2.01371	2.53288e+07	   76.1172	      15.3	   2.04151	2.44086e+07	    76.153	      15.3	    2.0665	2.53244e+07	
         R10	   1132	   76.2253	      15.3	   2.09422	2.79003e+07	   76.1903	      15.3	   2.06079	2.65233e+07	   76.1656	      15.3	   2.11948	2.54761e+07	   76.2124	      15.3	   2.13332	2.71595e+07	   76.2078	      15.3	    2.0775	2.71987e+07	   76.1779	      15.3	   2.09013	2.59696e+07	    76.189	      15.3	    2.1264	2.62911e+07	   76.2188	      15.3	   2.11377	2.75147e+07	
         R10	   1133	   76.2689	      15.3	   2.08473	2.99845e+07	   76.2253	      15.3	   2.09422	2.78691e+07	   76.2124	      15.3	   2.13332	2.72285e+07	   76.2601	      15.3	   2.13184	2.95452e+07	   76.2471	      15.3	   2.08947	2.89034e+07	   76.2188	      15.3	   2.11377	2.75334e+07	   76.2363	      15.3	   2.13258	2.83562e+07	   76.2645	      15.3	   2.10828	2.97433e+07	
         R10	   1134	   76.3034	      15.3	   2.11429	3.20835e+07	   76.2978	      15.3	   2.14104	 3.1833e+07	    76.325	      15.3	    2.1517	3.38733e+07	   76.3378	      15.3	   2.11067	3.41038e+07	   76.3006	      15.3	   2.12766	3.19485e+07	   76.3114	      15.3	   2.14637	3.28454e+07	   76.3314	      15.3	   2.13119	3.39635e+07	   76.3206	      15.3	   2.11248	  3.308e+07	
         R10	   1135	   76.3034	      15.3	   2.11429	3.20147e+07	   76.3378	      15.3	   2.11067	3.40431e+07	   76.3164	      15.3	   2.06516	3.23122e+07	   76.2689	      15.3	   2.08473	2.99532e+07	   76.3206	      15.3	   2.11248	3.30151e+07	   76.3271	      15.3	   2.08792	3.31671e+07	   76.2927	      15.3	   2.07494	3.11026e+07	   76.2861	      15.3	   2.09951	3.09726e+07	
         R10	   1136	   76.3034	      15.3	   2.11429	3.20187e+07	   76.2689	      15.3	   2.08473	2.99766e+07	   76.2601	      15.3	   2.13184	2.95641e+07	   76.2978	      15.3	   2.14104	3.17813e+07	   76.2861	      15.3	   2.09951	 3.0986e+07	   76.2645	      15.3	   2.10828	2.97497e+07	   76.2789	      15.3	   2.13644	3.06577e+07	   76.3006	      15.3	   2.12766	3.18908e+07	
         R10	   1137	   76.3209	      15.3	   2.18062	3.36867e+07	    76.325	      15.3	    2.1517	3.38151e+07	   76.2978	      15.3	   2.14104	3.18112e+07	   76.2932	      15.3	   2.17339	3.16156e+07	    76.323	      15.3	   2.16616	3.37368e+07	   76.3114	      15.3	   2.14637	3.28047e+07	   76.2955	      15.3	   2.15721	 3.1701e+07	   76.3071	      15.3	   2.17701	3.26415e+07	
         R10	   1138	   76.2256	      15.3	   2.19286	2.74426e+07	   76.2354	      15.3	   2.16716	2.81445e+07	   76.2124	      15.3	   2.13332	2.72296e+07	   76.1849	      15.3	   2.17906	 2.5834e+07	   76.2305	      15.3	   2.18001	2.77842e+07	   76.2239	      15.3	   2.15024	2.76764e+07	   76.1987	      15.3	   2.15619	2.64961e+07	   76.2052	      15.3	   2.18596	 2.6616e+07	
         R10	   1139	   76.3094	      15.3	   2.37632	2.97511e+07	     76.33	      15.3	     2.383	3.05745e+07	     76.33	      15.3	     2.366	3.05522e+07	   76.3197	      15.3	   2.37966	3.01532e+07	     76.33	      15.3	    2.3745	3.05571e+07	   76.3197	      15.3	   2.37116	3.01284e+07	       N/A	       N/A	       N/A	        N/A	       N/A	       N/A	       N/A	        N/A	
         R10	   1140	     76.29	      15.3	   2.29741	2.98704e+07	    76.312	      15.3	   2.29994	3.15061e+07	   76.3051	      15.3	   2.28063	3.14512e+07	    76.301	      15.3	   2.29868	3.06726e+07	   76.3086	      15.3	   2.29028	3.14751e+07	   76.2975	      15.3	   2.28902	3.06403e+07	       N/A	       N/A	       N/A	        N/A	       N/A	       N/A	       N/A	        N/A	
         R10	   1141	    76.286	      15.3	   2.25303	3.04644e+07	   76.3113	      15.3	   2.26421	3.23665e+07	   76.3101	      15.3	   2.24502	3.25674e+07	   76.2987	      15.3	   2.25862	3.14023e+07	   76.3107	      15.3	   2.25462	3.24611e+07	   76.2981	      15.3	   2.24902	3.14952e+07	       N/A	       N/A	       N/A	        N/A	       N/A	       N/A	       N/A	        N/A	
         R10	   1142	   76.3474	      15.3	   2.18439	 3.5925e+07	   76.3442	      15.3	    2.2096	3.59651e+07	   76.3622	      15.3	   2.20348	3.75992e+07	   76.3458	      15.3	     2.197	 3.5932e+07	   76.3532	      15.3	   2.20654	3.67714e+07	   76.3548	      15.3	   2.19393	3.67585e+07	       N/A	       N/A	       N/A	        N/A	       N/A	       N/A	       N/A	        N/A	
         R10	   1143	   76.3079	      15.3	   2.20551	 3.2713e+07	   76.3298	      15.3	   2.20952	  3.457e+07	   76.3209	      15.3	   2.18062	3.37311e+07	   76.3188	      15.3	   2.20752	3.36332e+07	   76.3253	      15.3	   2.19507	3.41405e+07	   76.3144	      15.3	   2.19307	 3.3203e+07	       N/A	       N/A	       N/A	        N/A	       N/A	       N/A	       N/A	        N/A	
         R10	   1144	   76.3746	      15.3	    2.1884	3.84817e+07	   76.3622	      15.3	   2.20348	3.76135e+07	   76.3815	      15.3	   2.21183	3.96698e+07	   76.3684	      15.3	   2.19594	3.80351e+07	   76.3719	      15.3	   2.20766	3.86363e+07	   76.3781	      15.3	   2.20011	3.90707e+07	       N/A	       N/A	       N/A	        N/A	       N/A	       N/A	       N/A	        N/A	
         R10	   1145	   75.8759	      15.3	   2.24453	2.19241e+07	    75.943	      15.3	   2.28502	2.23429e+07	   75.9482	      15.3	   2.21722	2.20865e+07	   75.9095	      15.3	   2.26478	2.21149e+07	   75.9456	      15.3	   2.25112	2.22115e+07	    75.912	      15.3	   2.23088	 2.1972e+07	       N/A	       N/A	       N/A	        N/A	       N/A	       N/A	       N/A	        N/A	
         R10	   1146	   76.2595	      15.3	   2.34161	2.77402e+07	   76.2876	      15.3	   2.35683	2.87861e+07	   76.2895	      15.3	   2.33342	2.90982e+07	   76.2736	      15.3	   2.34922	2.82533e+07	   76.2885	      15.3	   2.34513	2.89357e+07	   76.2745	      15.3	   2.33752	2.83876e+07	       N/A	       N/A	       N/A	        N/A	       N/A	       N/A	       N/A	        N/A	
         R10	   1147	   76.2362	      15.3	   2.29981	2.70561e+07	   76.2635	      15.3	   2.31677	2.80963e+07	    76.265	      15.3	   2.28305	2.86028e+07	   76.2498	      15.3	   2.30829	2.75664e+07	   76.2642	      15.3	   2.29991	2.83375e+07	   76.2506	      15.3	   2.29143	2.77955e+07	       N/A	       N/A	       N/A	        N/A	       N/A	       N/A	       N/A	        N/A	
         R10	   1148	   76.2206	      15.3	   2.25943	2.67166e+07	   76.1962	      15.3	   2.28713	2.57174e+07	   76.2362	      15.3	   2.29981	2.70995e+07	   76.2084	      15.3	   2.27328	2.61879e+07	   76.2162	      15.3	   2.29347	2.63833e+07	   76.2284	      15.3	   2.27962	2.69027e+07	       N/A	       N/A	       N/A	        N/A	       N/A	       N/A	       N/A	        N/A	
         R10	   1149	   76.1751	      15.3	   2.22512	2.52795e+07	   76.2206	      15.3	   2.25943	 2.6743e+07	   76.2255	      15.3	   2.22186	2.72335e+07	   76.1978	      15.3	   2.24227	2.59844e+07	   76.2231	      15.3	   2.24064	2.69753e+07	   76.2003	      15.3	   2.22349	2.62088e+07	       N/A	       N/A	       N/A	        N/A	       N/A	       N/A	       N/A	        N/A	
         R10	   1150	   76.0356	      15.3	   2.08941	2.26999e+07	   76.0919	      15.3	   2.14197	2.35367e+07	   76.1157	      15.3	   2.07221	2.42554e+07	   76.0637	      15.3	   2.11569	2.30889e+07	   76.1038	      15.3	   2.10709	2.38703e+07	   76.0757	      15.3	   2.08081	2.34083e+07	       N/A	       N/A	       N/A	        N/A	       N/A	       N/A	       N/A	        N/A	
         R10	   1151	   76.1656	      15.3	   2.11948	2.55453e+07	   76.1903	      15.3	   2.06079	2.65288e+07	   76.1157	      15.3	   2.07221	2.42489e+07	   76.1779	      15.3	   2.09013	2.60101e+07	    76.153	      15.3	    2.0665	 2.5329e+07	   76.1407	      15.3	   2.09585	2.48684e+07	       N/A	       N/A	       N/A	        N/A	       N/A	       N/A	       N/A	        N/A	
         R10	   1152	   76.3653	      15.3	   2.15364	3.67062e+07	   76.3378	      15.3	   2.11067	3.40987e+07	    76.325	      15.3	    2.1517	3.38121e+07	   76.3516	      15.3	   2.13215	 3.5392e+07	   76.3314	      15.3	   2.13119	  3.393e+07	   76.3452	      15.3	   2.15267	3.52385e+07	       N/A	       N/A	       N/A	        N/A	       N/A	       N/A	       N/A	        N/A	
         R10	   1153	   76.2616	      15.3	   1.75572	2.84667e+07	   76.1556	      15.3	   1.76767	2.61818e+07	   76.2188	      15.3	   1.81365	2.77253e+07	   76.2086	      15.3	   1.76169	2.72804e+07	   76.1872	      15.3	   1.79066	2.69272e+07	   76.2402	      15.3	   1.78468	2.80852e+07	       N/A	       N/A	       N/A	        N/A	       N/A	       N/A	       N/A	        N/A	
         R10	   1154	    76.581	      15.3	       1.6	3.35251e+07	      76.5	      15.3	       1.6	2.49504e+07	      76.5	      15.3	    1.6796	4.16355e+07	   76.5799	      15.3	   1.67879	3.25612e+07	   76.5405	      15.3	       1.6	2.91475e+07	      76.5	      15.3	    1.6398	3.31885e+07	     76.54	      15.3	   1.67919	3.70167e+07	   76.5805	      15.3	   1.63939	3.30405e+07	
         R10	   1155	   76.5799	      15.3	   1.67879	3.31724e+07	      76.5	      15.3	    1.6796	3.84636e+07	      76.5	      15.3	   1.75401	3.76568e+07	   76.5753	      15.3	   1.75283	3.53155e+07	     76.54	      15.3	   1.67919	3.57852e+07	      76.5	      15.3	    1.7168	3.80082e+07	   76.5376	      15.3	   1.75342	3.64504e+07	   76.5776	      15.3	   1.71581	3.42321e+07	
         R10	   1156	   76.5753	      15.3	   1.75283	3.56285e+07	      76.5	      15.3	   1.75401	3.75627e+07	      76.5	      15.3	   1.82323	3.80138e+07	   76.5683	      15.3	   1.82146	3.61143e+07	   76.5376	      15.3	   1.75342	3.65785e+07	      76.5	      15.3	   1.78862	3.77847e+07	   76.5342	      15.3	   1.82235	3.70542e+07	   76.5718	      15.3	   1.78715	3.58574e+07	
         R10	   1157	   76.5683	      15.3	   1.82146	3.61654e+07	      76.5	      15.3	   1.82323	3.83561e+07	      76.5	      15.3	   1.88726	3.90882e+07	   76.5611	      15.3	   1.88567	  3.737e+07	   76.5342	      15.3	   1.82235	3.72518e+07	      76.5	      15.3	   1.85525	3.87163e+07	   76.5305	      15.3	   1.88647	3.82204e+07	   76.5647	      15.3	   1.85357	3.67595e+07	
         R10	   1158	   76.5611	      15.3	   1.88567	3.73889e+07	      76.5	      15.3	   1.88726	3.91247e+07	      76.5	      15.3	    1.9461	4.02104e+07	   76.5557	      15.3	     1.945	3.85539e+07	   76.5305	      15.3	   1.88647	3.82488e+07	      76.5	      15.3	   1.91668	3.96628e+07	   76.5279	      15.3	   1.94555	3.93728e+07	   76.5584	      15.3	   1.91533	3.79654e+07	
         R10	   1159	   76.5557	      15.3	     1.945	3.85551e+07	      76.5	      15.3	    1.9461	4.02178e+07	      76.5	      15.3	   1.99975	4.14385e+07	   76.5513	      15.3	   1.99859	3.98572e+07	   76.5279	      15.3	   1.94555	3.93771e+07	      76.5	      15.3	   1.97293	4.08245e+07	   76.5256	      15.3	   1.99917	4.06369e+07	   76.5535	      15.3	   1.97179	3.92012e+07	
         R10	   1160	   76.5513	      15.3	   1.99859	3.98615e+07	      76.5	      15.3	   1.99975	4.14263e+07	      76.5	      15.3	   2.04821	 4.2791e+07	   76.5464	      15.3	     2.047	4.13186e+07	   76.5256	      15.3	   1.99917	4.06331e+07	      76.5	      15.3	   2.02398	4.21059e+07	   76.5232	      15.3	   2.04761	 4.2042e+07	   76.5488	      15.3	    2.0228	4.05864e+07	
         R10	   1161	   76.5464	      15.3	     2.047	4.13231e+07	      76.5	      15.3	   2.04821	4.27756e+07	      76.5	      15.3	   2.09149	4.42549e+07	    76.541	      15.3	   2.09001	4.29399e+07	   76.5232	      15.3	   2.04761	4.20366e+07	      76.5	      15.3	   2.06985	4.35132e+07	   76.5205	      15.3	   2.09075	4.35831e+07	   76.5437	      15.3	   2.06851	4.21291e+07	
         R10	   1162	    76.541	      15.3	   2.09001	4.29461e+07	      76.5	      15.3	   2.09149	4.42399e+07	      76.5	      15.3	   2.12957	4.58085e+07	   76.5351	      15.3	   2.12799	4.47194e+07	   76.5205	      15.3	   2.09075	4.35788e+07	      76.5	      15.3	   2.11053	4.50229e+07	   76.5175	      15.3	   2.12878	4.52489e+07	    76.538	      15.3	     2.109	4.38315e+07	
         R10	   1163	   76.5351	      15.3	   2.12799	4.47223e+07	      76.5	      15.3	   2.12957	4.57953e+07	      76.5	      15.3	   2.16246	4.74249e+07	   76.5296	      15.3	   2.16111	4.65845e+07	   76.5175	      15.3	   2.12878	4.52439e+07	      76.5	      15.3	   2.14601	4.66092e+07	   76.5148	      15.3	   2.16178	4.69894e+07	   76.5323	      15.3	   2.14455	4.56528e+07	
         R10	   1164	   76.5296	      15.3	   2.16111	4.66023e+07	      76.5	      15.3	   2.16246	4.74085e+07	      76.5	      15.3	   2.19016	 4.9055e+07	   76.5252	      15.3	   2.18892	4.84599e+07	   76.5148	      15.3	   2.16178	  4.699e+07	      76.5	      15.3	   2.17631	 4.8231e+07	   76.5126	      15.3	   2.18954	4.87419e+07	   76.5274	      15.3	   2.17502	4.75308e+07	
         R10	   1165	   76.5252	      15.3	   2.18892	4.84557e+07	      76.5	      15.3	   2.19016	4.90219e+07	      76.5	      15.3	   2.21268	5.06008e+07	   76.5223	      15.3	   2.21175	5.02482e+07	   76.5126	      15.3	   2.18954	4.87232e+07	      76.5	      15.3	   2.20142	4.98108e+07	   76.5112	      15.3	   2.21221	5.04073e+07	   76.5237	      15.3	   2.20034	4.93517e+07	
         R10	   1166	   76.5223	      15.3	   2.21175	5.02527e+07	      76.5	      15.3	   2.21268	5.05958e+07	      76.5	      15.3	      2.23	5.19761e+07	    76.517	      15.3	      2.23	5.19323e+07	   76.5112	      15.3	   2.21221	5.04067e+07	      76.5	      15.3	   2.22134	5.12855e+07	   76.5085	      15.3	      2.23	5.19412e+07	   76.5197	      15.3	   2.22088	5.10918e+07	
         R10	   1167	   76.5484	      15.3	   2.21209	4.90195e+07	    76.551	      15.3	      2.23	5.02188e+07	    76.568	      15.3	      2.23	4.87091e+07	   76.5678	      15.3	   2.21248	 4.7594e+07	   76.5497	      15.3	   2.22104	4.96152e+07	   76.5595	      15.3	      2.23	4.94476e+07	   76.5679	      15.3	   2.22124	4.81478e+07	   76.5581	      15.3	   2.21228	4.82908e+07	
         R10	   1168	   76.5678	      15.3	   2.21248	4.75653e+07	    76.568	      15.3	      2.23	4.86884e+07	    76.585	      15.3	      2.23	4.68421e+07	   76.5851	      15.3	   2.21232	4.59468e+07	   76.5679	      15.3	   2.22124	 4.8123e+07	   76.5765	      15.3	      2.23	4.77512e+07	   76.5851	      15.3	   2.22116	4.63893e+07	   76.5764	      15.3	    2.2124	4.67447e+07	
         R10	   1169	   76.5851	      15.3	   2.21232	4.59309e+07	    76.585	      15.3	      2.23	4.68255e+07	    76.602	      15.3	      2.23	4.47908e+07	    76.601	      15.3	   2.21312	4.43049e+07	   76.5851	      15.3	   2.22116	4.63732e+07	   76.5935	      15.3	      2.23	4.57968e+07	   76.6015	      15.3	   2.22156	4.45414e+07	    76.593	      15.3	   2.21272	 4.5109e+07	
         R10	   1170	    76.601	      15.3	   2.21312	4.42894e+07	    76.602	      15.3	      2.23	4.47952e+07	    76.619	      15.3	      2.23	4.26512e+07	   76.6193	      15.3	   2.21207	4.22794e+07	   76.6015	      15.3	   2.22156	 4.4536e+07	   76.6105	      15.3	      2.23	4.37137e+07	   76.6192	      15.3	   2.22103	4.24585e+07	   76.6101	      15.3	   2.21259	4.32763e+07	
         R10	   1171	   76.6193	      15.3	   2.21207	4.22459e+07	    76.619	      15.3	      2.23	4.26355e+07	    76.636	      15.3	      2.23	4.05663e+07	   76.6346	      15.3	   2.21138	4.05278e+07	   76.6192	      15.3	   2.22103	4.24342e+07	   76.6275	      15.3	      2.23	4.15935e+07	   76.6353	      15.3	   2.22069	4.05388e+07	   76.6269	      15.3	   2.21172	4.13817e+07	
         R10	   1172	   76.6346	      15.3	   2.21138	4.05136e+07	    76.636	      15.3	      2.23	4.05768e+07	    76.653	      15.3	      2.23	3.85371e+07	   76.6519	      15.3	   2.21336	3.86829e+07	   76.6353	      15.3	   2.22069	4.05371e+07	   76.6445	      15.3	      2.23	3.95503e+07	   76.6525	      15.3	   2.22168	3.86041e+07	   76.6432	      15.3	   2.21237	3.95914e+07	
         R10	   1173	   76.6519	      15.3	   2.21336	3.86655e+07	    76.653	      15.3	      2.23	3.85286e+07	     76.67	      15.3	      2.23	3.66568e+07	   76.6698	      15.3	   2.21049	3.68303e+07	   76.6525	      15.3	   2.22168	3.85912e+07	   76.6615	      15.3	      2.23	3.75867e+07	   76.6699	      15.3	   2.22024	3.67364e+07	   76.6608	      15.3	   2.21192	3.77435e+07	
         R10	   1174	   76.6886	      15.3	   2.22785	3.48144e+07	     76.67	      15.3	      2.23	3.66499e+07	     76.67	      15.3	     2.247	3.64141e+07	   76.6865	      15.3	   2.24602	3.47014e+07	   76.6793	      15.3	   2.22892	3.57265e+07	     76.67	      15.3	    2.2385	3.65265e+07	   76.6782	      15.3	   2.24651	3.55521e+07	   76.6875	      15.3	   2.23693	3.47529e+07	
         R10	   1175	   76.6865	      15.3	   2.24602	3.47049e+07	     76.67	      15.3	     2.247	 3.6419e+07	     76.67	      15.3	     2.264	3.60144e+07	   76.6899	      15.3	   2.26385	3.39205e+07	   76.6782	      15.3	   2.24651	3.55561e+07	     76.67	      15.3	    2.2555	3.62107e+07	   76.6799	      15.3	   2.26392	3.49574e+07	   76.6882	      15.3	   2.25493	3.43059e+07	
         R10	   1176	   76.6899	      15.3	   2.26385	3.39222e+07	     76.67	      15.3	     2.264	3.60238e+07	     76.67	      15.3	     2.281	3.54684e+07	   76.6872	      15.3	   2.28149	3.36465e+07	   76.6799	      15.3	   2.26392	3.49631e+07	     76.67	      15.3	    2.2725	3.57403e+07	   76.6786	      15.3	   2.28124	3.45485e+07	   76.6885	      15.3	   2.27267	3.37802e+07	
         R10	   1177	   76.6872	      15.3	   2.28149	3.36272e+07	     76.67	      15.3	     2.281	3.54714e+07	     76.67	      15.3	     2.298	 3.4756e+07	   76.6876	      15.3	    2.2981	3.29657e+07	   76.6786	      15.3	   2.28124	3.45405e+07	     76.67	      15.3	    2.2895	3.51084e+07	   76.6788	      15.3	   2.29805	  3.385e+07	   76.6874	      15.3	   2.28979	3.32918e+07	
         R10	   1178	   76.6876	      15.3	    2.2981	3.29493e+07	     76.67	      15.3	     2.298	3.47555e+07	     76.67	      15.3	     2.315	3.38845e+07	   76.6868	      15.3	     2.314	3.23817e+07	   76.6788	      15.3	   2.29805	3.38416e+07	     76.67	      15.3	    2.3065	3.43152e+07	   76.6784	      15.3	    2.3145	3.31229e+07	   76.6872	      15.3	   2.30605	3.26625e+07	
         R10	   1179	   76.6868	      15.3	     2.314	3.23766e+07	     76.67	      15.3	     2.315	3.38789e+07	     76.67	      15.3	     2.332	3.29412e+07	   76.6889	      15.3	   2.33208	3.14366e+07	   76.6784	      15.3	    2.3145	3.31175e+07	     76.67	      15.3	    2.3235	 3.3406e+07	   76.6794	      15.3	   2.33204	3.21748e+07	   76.6878	      15.3	   2.32304	3.19011e+07	
         R10	   1180	   76.6889	      15.3	   2.33208	3.13981e+07	     76.67	      15.3	     2.332	3.29384e+07	     76.67	      15.3	     2.349	3.20401e+07	   76.6847	      15.3	   2.34923	3.11544e+07	   76.6794	      15.3	   2.33204	3.21541e+07	     76.67	      15.3	    2.3405	3.24854e+07	   76.6773	      15.3	   2.34911	3.15885e+07	   76.6868	      15.3	   2.34065	 3.1275e+07	
         R10	   1181	   76.6847	      15.3	   2.34923	3.11022e+07	     76.67	      15.3	     2.349	3.20412e+07	     76.67	      15.3	     2.366	3.14112e+07	   76.6869	      15.3	   2.36619	 3.0702e+07	   76.6773	      15.3	   2.34911	3.15628e+07	     76.67	      15.3	    2.3575	 3.1721e+07	   76.6784	      15.3	   2.36609	3.10468e+07	   76.6858	      15.3	   2.35771	3.08962e+07	
         R10	   1182	   76.6869	      15.3	   2.36619	3.06598e+07	     76.67	      15.3	     2.366	3.14178e+07	     76.67	      15.3	     2.383	3.13772e+07	   76.6885	      15.3	   2.38219	3.06187e+07	   76.6784	      15.3	   2.36609	3.10288e+07	     76.67	      15.3	    2.3745	3.13903e+07	   76.6793	      15.3	   2.38259	3.09864e+07	   76.6877	      15.3	   2.37419	3.06344e+07	
         R10	   1183	   76.6885	      15.3	   2.38219	3.05651e+07	     76.67	      15.3	     2.383	3.13701e+07	     76.67	      15.3	       2.4	3.14366e+07	   76.6874	      15.3	       2.4	3.17461e+07	   76.6793	      15.3	   2.38259	3.09554e+07	     76.67	      15.3	    2.3915	3.13955e+07	   76.6787	      15.3	       2.4	3.15904e+07	   76.6879	      15.3	   2.39109	3.11476e+07	
         R10	   1184	   76.6885	      15.3	   2.38219	3.07861e+07	   76.6874	      15.3	       2.4	3.10596e+07	   76.7095	      15.3	       2.4	3.06988e+07	   76.7111	      15.3	   2.37601	2.97601e+07	   76.6879	      15.3	   2.39109	3.09217e+07	   76.6984	      15.3	       2.4	 3.0866e+07	   76.7103	      15.3	   2.38801	3.02245e+07	   76.6998	      15.3	    2.3791	3.02641e+07	
         R10	   1185	   76.7111	      15.3	   2.37601	 2.9905e+07	   76.7095	      15.3	       2.4	3.00292e+07	   76.7365	      15.3	       2.4	2.98522e+07	   76.7377	      15.3	   2.37128	2.86862e+07	   76.7103	      15.3	   2.38801	 2.9965e+07	    76.723	      15.3	       2.4	2.99299e+07	   76.7371	      15.3	   2.38564	2.92643e+07	   76.7244	      15.3	   2.37364	2.92834e+07	
         R10	   1186	   76.7377	      15.3	   2.37128	2.88898e+07	   76.7365	      15.3	       2.4	2.90562e+07	   76.7683	      15.3	       2.4	 2.8576e+07	   76.7695	      15.3	   2.36678	2.77087e+07	   76.7371	      15.3	   2.38564	2.89709e+07	   76.7524	      15.3	       2.4	2.88026e+07	   76.7689	      15.3	   2.38339	2.81392e+07	   76.7536	      15.3	   2.36903	2.82844e+07	
         R10	   1187	   76.7695	      15.3	   2.36678	2.78221e+07	   76.7683	      15.3	       2.4	2.79737e+07	   76.8048	      15.3	       2.4	2.75751e+07	   76.8063	      15.3	   2.36165	2.65308e+07	   76.7689	      15.3	   2.38339	2.78895e+07	   76.7865	      15.3	       2.4	2.77617e+07	   76.8056	      15.3	   2.38082	2.70481e+07	   76.7879	      15.3	   2.36421	2.71558e+07	
         R10	   1188	   76.8063	      15.3	   2.36165	2.67286e+07	   76.8048	      15.3	       2.4	2.70235e+07	   76.8462	      15.3	       2.4	2.63961e+07	   76.8476	      15.3	    2.3561	2.56541e+07	   76.8056	      15.3	   2.38082	2.68733e+07	   76.8255	      15.3	       2.4	2.66953e+07	   76.8469	      15.3	   2.37805	2.60243e+07	    76.827	      15.3	   2.35888	2.61721e+07	
         R10	   1189	   76.8476	      15.3	    2.3561	2.57733e+07	   76.8462	      15.3	       2.4	2.59628e+07	   76.8924	      15.3	       2.4	2.54281e+07	   76.8935	      15.3	    2.3511	2.48432e+07	   76.8469	      15.3	   2.37805	2.58636e+07	   76.8693	      15.3	       2.4	2.56762e+07	   76.8929	      15.3	   2.37555	2.51347e+07	   76.8705	      15.3	    2.3536	2.52882e+07	
         R10	   1190	   76.8935	      15.3	    2.3511	2.49148e+07	   76.8924	      15.3	       2.4	  2.514e+07	   76.9433	      15.3	       2.4	2.46293e+07	   76.9446	      15.3	   2.34606	2.40491e+07	   76.8929	      15.3	   2.37555	2.50219e+07	   76.9179	      15.3	       2.4	2.48626e+07	    76.944	      15.3	   2.37303	2.43377e+07	   76.9191	      15.3	   2.34858	2.44591e+07	
         R10	   1191	   76.9446	      15.3	   2.34606	2.41531e+07	   76.9433	      15.3	       2.4	2.45365e+07	   76.9991	      15.3	       2.4	2.39696e+07	   77.0004	      15.3	   2.34071	2.35836e+07	    76.944	      15.3	   2.37303	2.43437e+07	   76.9712	      15.3	       2.4	2.42344e+07	   76.9997	      15.3	   2.37036	2.37756e+07	   76.9725	      15.3	   2.34339	2.38468e+07	
         R10	   1192	   77.0004	      15.3	   2.34071	2.35202e+07	   76.9991	      15.3	       2.4	2.41045e+07	   77.0597	      15.3	       2.4	 2.3493e+07	   77.0606	      15.3	   2.33606	2.31208e+07	   76.9997	      15.3	   2.37036	2.38067e+07	   77.0294	      15.3	       2.4	2.37778e+07	   77.0602	      15.3	   2.36803	2.33022e+07	   77.0305	      15.3	   2.33839	2.33018e+07	
         R10	   1193	   77.0606	      15.3	   2.33606	2.31073e+07	   77.0597	      15.3	       2.4	2.33074e+07	   77.1251	      15.3	       2.4	2.39483e+07	   77.1261	      15.3	   2.33184	2.25425e+07	   77.0602	      15.3	   2.36803	2.32017e+07	   77.0924	      15.3	       2.4	2.36084e+07	   77.1256	      15.3	   2.36592	2.32273e+07	   77.0934	      15.3	   2.33395	2.27956e+07	
         R10	   1194	   77.1261	      15.3	   2.33184	2.28568e+07	   77.1251	      15.3	       2.4	2.31325e+07	   77.1952	      15.3	       2.4	2.30247e+07	   77.1966	      15.3	   2.32712	2.28404e+07	   77.1256	      15.3	   2.36592	2.29943e+07	   77.1601	      15.3	       2.4	2.30462e+07	   77.1959	      15.3	   2.36356	 2.2929e+07	   77.1614	      15.3	   2.32948	2.28326e+07	
         R10	   1195	   77.1966	      15.3	   2.32712	 2.2867e+07	   77.1952	      15.3	       2.4	2.27323e+07	   77.2702	      15.3	       2.4	2.30852e+07	   77.2714	      15.3	   2.32284	2.26979e+07	   77.1959	      15.3	   2.36356	 2.2792e+07	   77.2327	      15.3	       2.4	2.28959e+07	   77.2708	      15.3	   2.36142	2.28902e+07	    77.234	      15.3	   2.32498	2.27635e+07	
         R10	   1196	   77.2714	      15.3	   2.32284	2.27465e+07	   77.2702	      15.3	       2.4	2.30384e+07	     77.35	      15.3	       2.4	2.27735e+07	     77.35	      15.3	   2.32373	2.26764e+07	   77.2708	      15.3	   2.36142	2.28871e+07	   77.3101	      15.3	       2.4	2.28885e+07	     77.35	      15.3	   2.36187	2.27212e+07	   77.3107	      15.3	   2.32329	2.26981e+07	
         R10	   1197	   77.2694	      15.3	   2.24444	2.23275e+07	   77.2714	      15.3	   2.32284	2.26351e+07	     77.35	      15.3	   2.32373	2.25521e+07	     77.35	      15.3	   2.24431	2.24962e+07	   77.2704	      15.3	   2.28364	2.24794e+07	   77.3107	      15.3	   2.32329	2.25817e+07	     77.35	      15.3	   2.28402	2.25219e+07	   77.3097	      15.3	   2.24437	2.23908e+07	
         R10	   1198	   77.2694	      15.3	   2.24444	2.22377e+07	     77.35	      15.3	   2.24431	2.24244e+07	     77.35	      15.3	   2.16173	2.22405e+07	   77.2656	      15.3	   2.16145	2.20645e+07	   77.3097	      15.3	   2.24437	2.23138e+07	     77.35	      15.3	   2.20302	 2.2331e+07	   77.3078	      15.3	   2.16159	2.21328e+07	   77.2675	      15.3	   2.20294	 2.2149e+07	
         R10	   1199	   77.2656	      15.3	   2.16145	2.20444e+07	     77.35	      15.3	   2.16173	2.21933e+07	     77.35	      15.3	     2.076	2.20814e+07	   77.2626	      15.3	   2.07663	2.19308e+07	   77.3078	      15.3	   2.16159	2.20973e+07	     77.35	      15.3	   2.11887	2.21355e+07	   77.3063	      15.3	   2.07631	2.19821e+07	   77.2641	      15.3	   2.11904	2.19838e+07	
         R10	   1200	   77.2626	      15.3	   2.07663	 2.1916e+07	     77.35	      15.3	     2.076	2.20418e+07	     77.35	      15.3	   1.98711	2.20655e+07	   77.2601	      15.3	   1.98623	2.19525e+07	   77.3063	      15.3	   2.07631	2.19533e+07	     77.35	      15.3	   2.03156	2.20502e+07	   77.3051	      15.3	   1.98667	2.19818e+07	   77.2613	      15.3	   2.03143	2.19294e+07	
         R10	   1201	   77.2601	      15.3	   1.98623	2.19339e+07	     77.35	      15.3	   1.98711	2.20378e+07	     77.35	      15.3	   1.89507	2.21949e+07	   77.2565	      15.3	   1.89413	2.21744e+07	   77.3051	      15.3	   1.98667	 2.1958e+07	     77.35	      15.3	   1.94109	2.21119e+07	   77.3033	      15.3	    1.8946	2.21552e+07	   77.2583	      15.3	   1.94018	2.20479e+07	
         R10	   1202	   77.2565	      15.3	   1.89413	 2.2146e+07	     77.35	      15.3	   1.89507	2.21656e+07	     77.35	      15.3	   1.79987	2.24785e+07	    77.253	      15.3	   1.79915	2.25645e+07	   77.3033	      15.3	    1.8946	2.21261e+07	     77.35	      15.3	   1.84747	2.23165e+07	   77.3015	      15.3	   1.79951	2.24912e+07	   77.2548	      15.3	   1.84664	2.23486e+07	
         R10	   1203	    77.253	      15.3	   1.79915	2.25117e+07	     77.35	      15.3	   1.79987	2.24392e+07	     77.35	      15.3	   1.70151	2.28782e+07	   77.2491	      15.3	   1.70037	 2.3129e+07	   77.3015	      15.3	   1.79951	2.24456e+07	     77.35	      15.3	   1.75069	2.26534e+07	   77.2996	      15.3	   1.70094	2.29723e+07	   77.2511	      15.3	   1.74976	2.28126e+07	
         R10	   1204	   77.2491	      15.3	   1.70037	2.30334e+07	     77.35	      15.3	   1.70151	2.28032e+07	     77.35	      15.3	       1.6	2.34583e+07	   77.2421	      15.3	       1.6	2.37918e+07	   77.2996	      15.3	   1.70094	2.28869e+07	     77.35	      15.3	   1.65076	2.31233e+07	   77.2961	      15.3	       1.6	2.35948e+07	   77.2456	      15.3	   1.65018	2.34056e+07	
         R10	   1205	   77.1464	      15.3	   1.70423	2.35512e+07	   77.2491	      15.3	   1.70037	2.29917e+07	   77.2421	      15.3	       1.6	 2.3793e+07	   77.1376	      15.3	       1.6	2.44522e+07	   77.1978	      15.3	    1.7023	2.32368e+07	   77.2456	      15.3	   1.65018	2.33845e+07	   77.1899	      15.3	       1.6	2.40939e+07	    77.142	      15.3	   1.65212	2.39943e+07	
         R10	   1206	   77.1464	      15.3	   1.70423	2.35271e+07	   77.1376	      15.3	       1.6	2.44513e+07	   77.0365	      15.3	       1.6	2.54457e+07	   77.0405	      15.3	   1.70043	 2.4603e+07	    77.142	      15.3	   1.65212	2.39813e+07	   77.0871	      15.3	       1.6	2.49227e+07	   77.0385	      15.3	   1.65021	2.50174e+07	   77.0934	      15.3	   1.70233	2.40274e+07	
         R10	   1207	   77.0405	      15.3	   1.70043	 2.4596e+07	   77.0365	      15.3	       1.6	2.54495e+07	   76.9387	      15.3	       1.6	2.67324e+07	   76.9418	      15.3	   1.69568	2.60377e+07	   77.0385	      15.3	   1.65021	2.50158e+07	   76.9876	      15.3	       1.6	2.60688e+07	   76.9402	      15.3	   1.64784	2.63771e+07	   76.9911	      15.3	   1.69806	2.52876e+07	
         R10	   1208	   76.9418	      15.3	   1.69568	 2.6046e+07	   76.9387	      15.3	       1.6	 2.6735e+07	   76.8443	      15.3	       1.6	2.82506e+07	   76.8451	      15.3	   1.69056	2.78172e+07	   76.9402	      15.3	   1.64784	2.63826e+07	   76.8915	      15.3	       1.6	2.74739e+07	   76.8447	      15.3	   1.64528	2.80247e+07	   76.8934	      15.3	   1.69312	2.69082e+07	
         R10	   1209	   76.8451	      15.3	   1.69056	2.78249e+07	   76.8443	      15.3	       1.6	2.82565e+07	   76.7532	      15.3	       1.6	2.98856e+07	   76.7541	      15.3	   1.68718	2.96522e+07	   76.8447	      15.3	   1.64528	2.80315e+07	   76.7987	      15.3	       1.6	2.90553e+07	   76.7536	      15.3	   1.64359	2.97601e+07	   76.7996	      15.3	   1.68887	2.87218e+07	
         R10	   1210	   76.7541	      15.3	   1.68718	2.96727e+07	   76.7532	      15.3	       1.6	2.99264e+07	   76.6654	      15.3	       1.6	3.14505e+07	   76.6655	      15.3	   1.68368	3.14847e+07	   76.7536	      15.3	   1.64359	2.97908e+07	   76.7093	      15.3	       1.6	3.06736e+07	   76.6654	      15.3	   1.64184	3.14563e+07	   76.7098	      15.3	   1.68543	3.05681e+07	
         R10	   1211	   76.6655	      15.3	   1.68368	3.13667e+07	   76.6654	      15.3	       1.6	3.16373e+07	    76.581	      15.3	       1.6	3.22625e+07	   76.5799	      15.3	   1.67879	3.30283e+07	   76.6654	      15.3	   1.64184	3.14897e+07	   76.6232	      15.3	       1.6	 3.1942e+07	   76.5805	      15.3	   1.63939	3.26254e+07	   76.6227	      15.3	   1.68123	3.21694e+07	
         R10	   1212	   76.6589	      15.3	   1.75971	3.26119e+07	   76.6655	      15.3	   1.68368	3.14068e+07	   76.5799	      15.3	   1.67879	3.49895e+07	   76.5753	      15.3	   1.75283	3.46727e+07	   76.6622	      15.3	    1.7217	3.20029e+07	   76.6227	      15.3	   1.68123	3.31843e+07	   76.5776	      15.3	   1.71581	3.48194e+07	   76.6171	      15.3	   1.75627	3.36306e+07	
         R10	   1213	   76.6589	      15.3	   1.75971	3.28284e+07	   76.5753	      15.3	   1.75283	3.48168e+07	   76.5683	      15.3	   1.82146	3.62068e+07	   76.6384	      15.3	   1.82622	3.38855e+07	   76.6171	      15.3	   1.75627	3.38031e+07	   76.5718	      15.3	   1.78715	3.55023e+07	   76.6034	      15.3	   1.82384	3.50344e+07	   76.6487	      15.3	   1.79297	3.33509e+07	
         R10	   1214	   76.6384	      15.3	   1.82622	3.39753e+07	   76.5683	      15.3	   1.82146	3.62445e+07	   76.5611	      15.3	   1.88567	3.73388e+07	   76.6173	      15.3	   1.89072	3.54939e+07	   76.6034	      15.3	   1.82384	3.50971e+07	   76.5647	      15.3	   1.85357	3.67841e+07	   76.5892	      15.3	   1.88819	3.64072e+07	   76.6279	      15.3	   1.85847	3.47284e+07	
         R10	   1215	   76.6173	      15.3	   1.89072	3.55554e+07	   76.5611	      15.3	   1.88567	3.73343e+07	   76.5557	      15.3	     1.945	3.85594e+07	   76.6095	      15.3	   1.95018	3.66705e+07	   76.5892	      15.3	   1.88819	3.64355e+07	   76.5584	      15.3	   1.91533	3.79407e+07	   76.5826	      15.3	   1.94759	3.76039e+07	   76.6134	      15.3	   1.92045	3.61052e+07	
         R10	   1216	   76.6095	      15.3	   1.95018	 3.6695e+07	   76.5557	      15.3	     1.945	3.85556e+07	   76.5513	      15.3	   1.99859	3.98574e+07	   76.6026	      15.3	   2.00372	3.79539e+07	   76.5826	      15.3	   1.94759	3.76143e+07	   76.5535	      15.3	   1.97179	3.92016e+07	   76.5769	      15.3	   2.00115	 3.8892e+07	    76.606	      15.3	   1.97695	3.73174e+07	
         R10	   1217	   76.6026	      15.3	   2.00372	 3.7962e+07	   76.5513	      15.3	   1.99859	3.98589e+07	   76.5464	      15.3	     2.047	4.13312e+07	    76.593	      15.3	   2.05248	3.95028e+07	   76.5769	      15.3	   2.00115	3.88967e+07	   76.5488	      15.3	    2.0228	4.05914e+07	   76.5697	      15.3	   2.04974	4.04007e+07	   76.5978	      15.3	    2.0281	 3.8727e+07	
         R10	   1218	    76.593	      15.3	   2.05248	3.95056e+07	   76.5464	      15.3	     2.047	4.13343e+07	    76.541	      15.3	   2.09001	4.29625e+07	   76.5829	      15.3	   2.09566	 4.1263e+07	   76.5697	      15.3	   2.04974	4.04035e+07	   76.5437	      15.3	   2.06851	 4.2146e+07	   76.5619	      15.3	   2.09283	4.20934e+07	   76.5879	      15.3	   2.07407	4.03805e+07	
         R10	   1219	   76.5829	      15.3	   2.09566	4.12639e+07	    76.541	      15.3	   2.09001	4.29719e+07	   76.5351	      15.3	   2.12799	4.47274e+07	    76.568	      15.3	   2.13292	4.34191e+07	   76.5619	      15.3	   2.09283	4.20984e+07	    76.538	      15.3	     2.109	4.38485e+07	   76.5516	      15.3	   2.13046	4.40552e+07	   76.5755	      15.3	   2.11429	4.23404e+07	
         R10	   1220	    76.568	      15.3	   2.13292	4.34403e+07	   76.5351	      15.3	   2.12799	 4.4731e+07	   76.5296	      15.3	   2.16111	4.66056e+07	    76.558	      15.3	   2.16552	4.55319e+07	   76.5516	      15.3	   2.13046	4.40678e+07	   76.5323	      15.3	   2.14455	4.56677e+07	   76.5438	      15.3	   2.16332	4.60497e+07	    76.563	      15.3	   2.14922	4.44854e+07	
         R10	   1221	    76.558	      15.3	   2.16552	 4.5523e+07	   76.5296	      15.3	   2.16111	 4.6627e+07	   76.5252	      15.3	   2.18892	4.83937e+07	   76.5457	      15.3	   2.19313	4.78715e+07	   76.5438	      15.3	   2.16332	4.60556e+07	   76.5274	      15.3	   2.17502	4.75101e+07	   76.5354	      15.3	   2.19102	4.81186e+07	   76.5518	      15.3	   2.17933	4.66971e+07	
         R10	   1222	   76.5223	      15.3	   2.21175	5.02516e+07	    76.534	      15.3	      2.23	5.14128e+07	    76.551	      15.3	      2.23	5.02342e+07	   76.5484	      15.3	   2.21209	4.91331e+07	   76.5282	      15.3	   2.22088	5.08207e+07	   76.5425	      15.3	      2.23	5.08056e+07	   76.5497	      15.3	   2.22104	4.96795e+07	   76.5354	      15.3	   2.21192	4.96621e+07	
         R10	   1223	    76.568	      15.3	   2.19384	4.64552e+07	   76.5678	      15.3	   2.21248	4.75368e+07	   76.5851	      15.3	   2.21232	4.59504e+07	   76.5832	      15.3	   2.19385	4.51553e+07	   76.5679	      15.3	   2.20316	4.69933e+07	   76.5764	      15.3	    2.2124	4.67321e+07	   76.5841	      15.3	   2.20308	 4.5547e+07	   76.5756	      15.3	   2.19384	4.57987e+07	
         R10	   1224	   76.5832	      15.3	   2.19385	4.51919e+07	   76.5851	      15.3	   2.21232	4.59647e+07	    76.601	      15.3	   2.21312	4.42605e+07	   76.6064	      15.3	   2.18945	4.29309e+07	   76.5841	      15.3	   2.20308	4.55728e+07	    76.593	      15.3	   2.21272	4.51038e+07	   76.6037	      15.3	   2.20128	4.35913e+07	   76.5948	      15.3	   2.19165	4.40509e+07	
         R10	   1225	   76.6344	      15.3	   2.18997	4.02029e+07	   76.6346	      15.3	   2.21138	4.05497e+07	   76.6519	      15.3	   2.21336	3.86658e+07	   76.6549	      15.3	   2.19396	3.82485e+07	   76.6345	      15.3	   2.20068	4.03682e+07	   76.6432	      15.3	   2.21237	3.96008e+07	   76.6534	      15.3	   2.20366	3.84519e+07	   76.6446	      15.3	   2.19196	 3.9216e+07	
         R10	   1226	   76.6874	      15.3	   2.20362	3.51711e+07	   76.6698	      15.3	   2.21049	3.68314e+07	     76.67	      15.3	      2.23	 3.6641e+07	   76.6886	      15.3	   2.22785	3.48205e+07	   76.6786	      15.3	   2.20705	3.59972e+07	   76.6699	      15.3	   2.22024	3.67289e+07	   76.6793	      15.3	   2.22892	 3.5725e+07	    76.688	      15.3	   2.21573	3.49857e+07	
         R10	   1227	   76.7098	      15.3	   2.22772	3.29135e+07	   76.6886	      15.3	   2.22785	3.48047e+07	   76.6865	      15.3	   2.24602	3.46951e+07	   76.7062	      15.3	   2.24804	3.28335e+07	   76.6992	      15.3	   2.22778	3.38508e+07	   76.6875	      15.3	   2.23693	3.47449e+07	   76.6963	      15.3	   2.24703	3.37551e+07	    76.708	      15.3	   2.23788	3.28687e+07	
         R10	   1228	   76.7055	      15.3	    2.2691	3.23524e+07	   76.6899	      15.3	   2.26385	3.39331e+07	   76.6872	      15.3	   2.28149	 3.3619e+07	   76.7102	      15.3	   2.28181	3.16174e+07	   76.6977	      15.3	   2.26647	3.31345e+07	   76.6885	      15.3	   2.27267	3.37718e+07	   76.6987	      15.3	   2.28165	3.26031e+07	   76.7079	      15.3	   2.27545	3.19809e+07	
         R10	   1229	   76.7102	      15.3	   2.28181	3.16027e+07	   76.6872	      15.3	   2.28149	 3.3639e+07	   76.6876	      15.3	    2.2981	3.29634e+07	   76.7041	      15.3	   2.29777	3.15832e+07	   76.6987	      15.3	   2.28165	3.26062e+07	   76.6874	      15.3	   2.28979	3.32972e+07	   76.6959	      15.3	   2.29794	3.22649e+07	   76.7071	      15.3	   2.28979	3.15909e+07	
         R10	   1230	   76.7041	      15.3	   2.29777	3.15671e+07	   76.6876	      15.3	    2.2981	3.29615e+07	   76.6868	      15.3	     2.314	3.23522e+07	   76.7081	      15.3	   2.31463	3.07795e+07	   76.6959	      15.3	   2.29794	3.22561e+07	   76.6872	      15.3	   2.30605	3.26537e+07	   76.6975	      15.3	   2.31432	3.15503e+07	   76.7061	      15.3	    2.3062	3.11671e+07	
         R10	   1231	   76.6869	      15.3	   2.36619	 3.0639e+07	   76.6885	      15.3	   2.38219	3.07653e+07	   76.7111	      15.3	   2.37601	 2.9676e+07	   76.7068	      15.3	   2.35232	2.99219e+07	   76.6877	      15.3	   2.37419	3.06958e+07	   76.6998	      15.3	    2.3791	3.02105e+07	   76.7089	      15.3	   2.36417	2.97908e+07	   76.6968	      15.3	   2.35926	3.02766e+07	
         R10	   1232	   76.7068	      15.3	   2.35232	2.98851e+07	   76.7111	      15.3	   2.37601	2.98455e+07	   76.7377	      15.3	   2.37128	2.87056e+07	   76.7346	      15.3	   2.34477	2.88329e+07	   76.7089	      15.3	   2.36417	2.98555e+07	   76.7244	      15.3	   2.37364	 2.9264e+07	   76.7361	      15.3	   2.35802	2.87628e+07	   76.7207	      15.3	   2.34855	2.93455e+07	
         R10	   1233	   76.7346	      15.3	   2.34477	2.87924e+07	   76.7377	      15.3	   2.37128	2.88589e+07	   76.7695	      15.3	   2.36678	2.76059e+07	   76.7652	      15.3	   2.33521	2.77464e+07	   76.7361	      15.3	   2.35802	2.88183e+07	   76.7536	      15.3	   2.36903	 2.8217e+07	   76.7674	      15.3	     2.351	 2.7668e+07	   76.7499	      15.3	   2.33999	2.82557e+07	
         R10	   1234	   76.7652	      15.3	   2.33521	2.77053e+07	   76.7695	      15.3	   2.36678	2.77344e+07	   76.8063	      15.3	   2.36165	2.66365e+07	   76.8017	      15.3	   2.32526	2.65837e+07	   76.7674	      15.3	     2.351	2.77128e+07	   76.7879	      15.3	   2.36421	 2.7167e+07	    76.804	      15.3	   2.34345	2.66016e+07	   76.7835	      15.3	   2.33024	 2.7128e+07	
         R10	   1235	   76.8017	      15.3	   2.32526	2.65678e+07	   76.8063	      15.3	   2.36165	2.67034e+07	   76.8476	      15.3	    2.3561	2.56297e+07	   76.8424	      15.3	   2.31147	2.55616e+07	    76.804	      15.3	   2.34345	2.66292e+07	    76.827	      15.3	   2.35888	2.61476e+07	    76.845	      15.3	   2.33378	2.55869e+07	    76.822	      15.3	   2.31836	2.60478e+07	
         R10	   1236	   76.8424	      15.3	   2.31147	2.55372e+07	   76.8476	      15.3	    2.3561	2.57139e+07	   76.8935	      15.3	    2.3511	2.47651e+07	   76.8882	      15.3	   2.30242	2.46642e+07	    76.845	      15.3	   2.33378	2.56183e+07	   76.8705	      15.3	    2.3536	2.52193e+07	   76.8909	      15.3	   2.32676	2.47066e+07	   76.8653	      15.3	   2.30694	2.50802e+07	
         R10	   1237	   76.8882	      15.3	   2.30242	2.46335e+07	   76.8935	      15.3	    2.3511	2.48144e+07	   76.9446	      15.3	   2.34606	2.41105e+07	     76.94	      15.3	   2.29241	2.38372e+07	   76.8909	      15.3	   2.32676	2.47173e+07	   76.9191	      15.3	   2.34858	 2.4442e+07	   76.9423	      15.3	   2.31923	2.39683e+07	   76.9141	      15.3	   2.29741	 2.4213e+07	
         R10	   1238	     76.94	      15.3	   2.29241	2.38282e+07	   76.9446	      15.3	   2.34606	2.41187e+07	   77.0004	      15.3	   2.34071	2.35304e+07	   76.9953	      15.3	   2.27784	2.32379e+07	   76.9423	      15.3	   2.31923	2.39685e+07	   76.9725	      15.3	   2.34339	2.38034e+07	   76.9978	      15.3	   2.30928	2.33783e+07	   76.9677	      15.3	   2.28512	2.35127e+07	
         R10	   1239	   76.9953	      15.3	   2.27784	2.32242e+07	   77.0004	      15.3	   2.34071	2.35647e+07	   77.0606	      15.3	   2.33606	2.31096e+07	   77.0552	      15.3	   2.26902	2.27676e+07	   76.9978	      15.3	   2.30928	2.33895e+07	   77.0305	      15.3	   2.33839	 2.3315e+07	   77.0579	      15.3	   2.30254	2.29336e+07	   77.0253	      15.3	   2.27343	2.29745e+07	
         R10	   1240	   77.0552	      15.3	   2.26902	2.27501e+07	   77.0606	      15.3	   2.33606	 2.3189e+07	   77.1261	      15.3	   2.33184	2.29056e+07	   77.1211	      15.3	   2.26304	2.24272e+07	   77.0579	      15.3	   2.30254	2.29663e+07	   77.0934	      15.3	   2.33395	2.30283e+07	   77.1236	      15.3	   2.29744	2.26646e+07	   77.0881	      15.3	   2.26603	2.25659e+07	
         R10	   1241	   77.1211	      15.3	   2.26304	2.24361e+07	   77.1261	      15.3	   2.33184	2.29864e+07	   77.1966	      15.3	   2.32712	2.25069e+07	   77.1927	      15.3	    2.2538	2.24524e+07	   77.1236	      15.3	   2.29744	2.27095e+07	   77.1614	      15.3	   2.32948	2.27246e+07	   77.1947	      15.3	   2.29046	2.24754e+07	   77.1569	      15.3	   2.25842	2.24246e+07	
         R10	   1242	   77.1927	      15.3	    2.2538	 2.2375e+07	   77.1966	      15.3	   2.32712	 2.2655e+07	   77.2714	      15.3	   2.32284	2.25756e+07	   77.2694	      15.3	   2.24444	 2.2376e+07	   77.1947	      15.3	   2.29046	 2.2512e+07	    77.234	      15.3	   2.32498	2.25972e+07	   77.2704	      15.3	   2.28364	2.24734e+07	    77.231	      15.3	   2.24912	2.23592e+07	
         R10	   1243	   77.1851	      15.3	   2.17706	2.21043e+07	   77.1927	      15.3	    2.2538	2.23067e+07	   77.2694	      15.3	   2.24444	 2.2293e+07	   77.2656	      15.3	   2.16145	2.20617e+07	   77.1889	      15.3	   2.21543	 2.2201e+07	    77.231	      15.3	   2.24912	2.22803e+07	   77.2675	      15.3	   2.20294	2.21748e+07	   77.2254	      15.3	   2.16925	2.20612e+07	
         R10	   1244	   77.1851	      15.3	   2.17706	2.20511e+07	   77.2656	      15.3	   2.16145	2.20225e+07	   77.2626	      15.3	   2.07663	2.19174e+07	   77.1792	      15.3	   2.08167	2.19529e+07	   77.2254	      15.3	   2.16925	 2.2015e+07	   77.2641	      15.3	   2.11904	2.19671e+07	   77.2209	      15.3	   2.07915	2.19063e+07	   77.1822	      15.3	   2.12936	2.19943e+07	
         R10	   1245	   77.1792	      15.3	   2.08167	2.19391e+07	   77.2626	      15.3	   2.07663	2.18987e+07	   77.2601	      15.3	   1.98623	2.19489e+07	   77.1727	      15.3	   1.99116	2.20805e+07	   77.2209	      15.3	   2.07915	2.18897e+07	   77.2613	      15.3	   2.03143	2.19187e+07	   77.2164	      15.3	   1.98869	2.19828e+07	    77.176	      15.3	   2.03641	2.20015e+07	
         R10	   1246	   77.1727	      15.3	   1.99116	2.20613e+07	   77.2601	      15.3	   1.98623	 2.1927e+07	   77.2565	      15.3	   1.89413	2.21675e+07	   77.1645	      15.3	   1.89718	2.24346e+07	   77.2164	      15.3	   1.98869	2.19618e+07	   77.2583	      15.3	   1.94018	 2.2041e+07	   77.2105	      15.3	   1.89566	2.22664e+07	   77.1686	      15.3	   1.94417	2.22378e+07	
         R10	   1247	   77.1645	      15.3	   1.89718	2.23958e+07	   77.2565	      15.3	   1.89413	2.21354e+07	    77.253	      15.3	   1.79915	2.25539e+07	   77.1552	      15.3	   1.80128	 2.2996e+07	   77.2105	      15.3	   1.89566	2.22308e+07	   77.2548	      15.3	   1.84664	2.23378e+07	   77.2041	      15.3	   1.80022	2.27391e+07	   77.1598	      15.3	   1.84923	2.26858e+07	
         R10	   1248	   77.1552	      15.3	   1.80128	2.29166e+07	    77.253	      15.3	   1.79915	2.25025e+07	   77.2491	      15.3	   1.70037	2.30945e+07	   77.1464	      15.3	   1.70423	2.36847e+07	   77.2041	      15.3	   1.80022	2.26742e+07	   77.2511	      15.3	   1.74976	2.27915e+07	   77.1978	      15.3	    1.7023	2.33546e+07	   77.1508	      15.3	   1.75276	2.32919e+07	
         R10	   1249	   77.0546	      15.3	   1.80551	 2.3831e+07	   77.1552	      15.3	   1.80128	2.29027e+07	   77.1464	      15.3	   1.70423	2.36508e+07	   77.0405	      15.3	   1.70043	2.47403e+07	   77.1049	      15.3	   1.80339	2.33247e+07	   77.1508	      15.3	   1.75276	2.32681e+07	   77.0934	      15.3	   1.70233	2.41587e+07	   77.0476	      15.3	   1.75297	2.42731e+07	
         R10	   1250	   77.0546	      15.3	   1.80551	2.38289e+07	   77.0405	      15.3	   1.70043	2.47205e+07	   76.9418	      15.3	   1.69568	2.62133e+07	    76.938	      15.3	   1.77633	2.57617e+07	   77.0476	      15.3	   1.75297	2.42629e+07	   76.9911	      15.3	   1.69806	 2.5437e+07	   76.9399	      15.3	   1.73601	2.59799e+07	   76.9963	      15.3	   1.79092	2.47431e+07	
         R10	   1251	    76.938	      15.3	   1.77633	2.57744e+07	   76.9418	      15.3	   1.69568	  2.622e+07	   76.8451	      15.3	   1.69056	2.80217e+07	    76.844	      15.3	   1.77482	2.77565e+07	   76.9399	      15.3	   1.73601	2.59889e+07	   76.8934	      15.3	   1.69312	2.70976e+07	   76.8446	      15.3	   1.73269	2.78788e+07	    76.891	      15.3	   1.77558	2.67374e+07	
         R10	   1252	    76.844	      15.3	   1.77482	2.77613e+07	   76.8451	      15.3	   1.69056	2.80465e+07	   76.7541	      15.3	   1.68718	2.99254e+07	   76.7487	      15.3	   1.76977	3.01458e+07	   76.8446	      15.3	   1.73269	2.78937e+07	   76.7996	      15.3	   1.68887	2.89697e+07	   76.7514	      15.3	   1.72848	3.00268e+07	   76.7964	      15.3	    1.7723	2.89328e+07	
         R10	   1253	   76.7487	      15.3	   1.76977	3.01746e+07	   76.7541	      15.3	   1.68718	2.99588e+07	   76.6655	      15.3	   1.68368	3.16371e+07	   76.6589	      15.3	   1.75971	3.25919e+07	   76.7514	      15.3	   1.72848	3.00574e+07	   76.7098	      15.3	   1.68543	3.07859e+07	   76.6622	      15.3	    1.7217	3.21085e+07	   76.7038	      15.3	   1.76474	3.13669e+07	
         R10	   1254	   76.7487	      15.3	   1.76977	3.02436e+07	   76.6589	      15.3	   1.75971	3.26145e+07	   76.6384	      15.3	   1.82622	 3.3993e+07	   76.6954	      15.3	   1.84329	3.21999e+07	   76.7038	      15.3	   1.76474	3.14123e+07	   76.6487	      15.3	   1.79297	3.32984e+07	   76.6669	      15.3	   1.83476	3.30845e+07	    76.722	      15.3	   1.80653	3.12128e+07	
         R10	   1255	   76.6954	      15.3	   1.84329	3.22812e+07	   76.6384	      15.3	   1.82622	3.40748e+07	   76.6173	      15.3	   1.89072	3.54573e+07	   76.6712	      15.3	   1.90299	 3.3659e+07	   76.6669	      15.3	   1.83476	3.31678e+07	   76.6279	      15.3	   1.85847	3.47597e+07	   76.6442	      15.3	   1.89685	3.45475e+07	   76.6833	      15.3	   1.87314	3.29629e+07	
         R10	   1256	   76.6712	      15.3	   1.90299	3.36832e+07	   76.6173	      15.3	   1.89072	3.55143e+07	   76.6095	      15.3	   1.95018	3.66652e+07	   76.6616	      15.3	   1.95794	3.46586e+07	   76.6442	      15.3	   1.89685	3.45879e+07	   76.6134	      15.3	   1.92045	 3.6082e+07	   76.6356	      15.3	   1.95406	3.56503e+07	   76.6664	      15.3	   1.93046	3.41624e+07	
         R10	   1257	   76.6616	      15.3	   1.95794	3.46584e+07	   76.6095	      15.3	   1.95018	3.66949e+07	   76.6026	      15.3	   2.00372	3.79492e+07	   76.6521	      15.3	   2.01192	3.58102e+07	   76.6356	      15.3	   1.95406	3.56651e+07	    76.606	      15.3	   1.97695	 3.7315e+07	   76.6273	      15.3	   2.00782	3.68656e+07	   76.6568	      15.3	   1.98493	3.52249e+07	
         R10	   1258	   76.6521	      15.3	   2.01192	3.58018e+07	   76.6026	      15.3	   2.00372	3.79539e+07	    76.593	      15.3	   2.05248	3.95036e+07	   76.6384	      15.3	   2.06268	3.73594e+07	   76.6273	      15.3	   2.00782	3.68638e+07	   76.5978	      15.3	    2.0281	3.87233e+07	   76.6157	      15.3	   2.05758	3.84134e+07	   76.6452	      15.3	    2.0373	 3.6572e+07	
         R10	   1259	   76.6384	      15.3	   2.06268	3.73597e+07	    76.593	      15.3	   2.05248	3.95029e+07	   76.5829	      15.3	   2.09566	4.12795e+07	   76.6233	      15.3	   2.11152	3.93239e+07	   76.6157	      15.3	   2.05758	3.84133e+07	   76.5879	      15.3	   2.07407	4.03875e+07	   76.6031	      15.3	   2.10359	4.02759e+07	   76.6308	      15.3	    2.0871	3.83335e+07	
         R10	   1260	   76.6233	      15.3	   2.11152	3.93149e+07	   76.5829	      15.3	   2.09566	 4.1289e+07	    76.568	      15.3	   2.13292	4.34184e+07	   76.5981	      15.3	   2.14505	4.20253e+07	   76.6031	      15.3	   2.10359	4.02752e+07	   76.5755	      15.3	   2.11429	4.23527e+07	   76.5831	      15.3	   2.13899	4.27007e+07	   76.6107	      15.3	   2.12828	4.06681e+07	
         R10	   1261	   76.5981	      15.3	   2.14505	 4.2026e+07	    76.568	      15.3	   2.13292	4.34229e+07	    76.558	      15.3	   2.16552	4.54965e+07	   76.5842	      15.3	   2.17158	4.41138e+07	   76.5831	      15.3	   2.13899	4.27036e+07	    76.563	      15.3	   2.14922	4.44589e+07	   76.5711	      15.3	   2.16855	4.47857e+07	   76.5912	      15.3	   2.15832	4.30689e+07	
         R10	   1262	   76.5457	      15.3	   2.19313	4.78626e+07	   76.5252	      15.3	   2.18892	4.84574e+07	   76.5223	      15.3	   2.21175	5.02437e+07	   76.5484	      15.3	   2.21209	4.90716e+07	   76.5354	      15.3	   2.19102	4.81462e+07	   76.5237	      15.3	   2.20034	4.93504e+07	   76.5354	      15.3	   2.21192	4.96285e+07	   76.5471	      15.3	   2.20261	4.84637e+07	
         R10	   1263	   76.5457	      15.3	   2.19313	4.78245e+07	   76.5484	      15.3	   2.21209	4.90656e+07	   76.5678	      15.3	   2.21248	4.75897e+07	    76.568	      15.3	   2.19384	4.64764e+07	   76.5471	      15.3	   2.20261	4.84416e+07	   76.5581	      15.3	   2.21228	 4.8312e+07	   76.5679	      15.3	   2.20316	4.70301e+07	   76.5569	      15.3	   2.19348	4.71339e+07	
         R10	   1264	   76.6064	      15.3	   2.18945	4.29494e+07	   76.6193	      15.3	   2.21207	4.23262e+07	   76.6346	      15.3	   2.21138	4.04952e+07	   76.6344	      15.3	   2.18997	4.02683e+07	   76.6129	      15.3	   2.20076	4.26169e+07	   76.6269	      15.3	   2.21172	4.14053e+07	   76.6345	      15.3	   2.20068	4.03742e+07	   76.6204	      15.3	   2.18971	4.15923e+07	
         R10	   1265	    76.636	      15.3	   2.16039	3.95364e+07	   76.6344	      15.3	   2.18997	4.02502e+07	   76.6549	      15.3	   2.19396	3.82043e+07	   76.6665	      15.3	   2.16903	3.69863e+07	   76.6352	      15.3	   2.17518	3.98831e+07	   76.6446	      15.3	   2.19196	3.92178e+07	   76.6607	      15.3	   2.18149	3.75907e+07	   76.6513	      15.3	   2.16471	3.82427e+07	
         R10	   1266	   76.6665	      15.3	   2.16903	3.70416e+07	   76.6549	      15.3	   2.19396	 3.8238e+07	   76.6698	      15.3	   2.21049	3.68188e+07	   76.6874	      15.3	   2.20362	3.52499e+07	   76.6607	      15.3	   2.18149	 3.7635e+07	   76.6623	      15.3	   2.20222	3.75141e+07	   76.6786	      15.3	   2.20705	 3.6031e+07	    76.677	      15.3	   2.18632	3.61098e+07	
         R10	   1267	   76.7105	      15.3	   2.19971	3.32226e+07	   76.6874	      15.3	   2.20362	3.51562e+07	   76.6886	      15.3	   2.22785	3.48193e+07	   76.7098	      15.3	   2.22772	3.29306e+07	   76.6989	      15.3	   2.20166	3.41819e+07	    76.688	      15.3	   2.21573	3.49778e+07	   76.6992	      15.3	   2.22778	3.38671e+07	   76.7102	      15.3	   2.21372	3.30671e+07	
         R10	   1268	   76.7346	      15.3	   2.23091	3.09548e+07	   76.7098	      15.3	   2.22772	3.29081e+07	   76.7062	      15.3	   2.24804	3.28199e+07	   76.7269	      15.3	   2.25886	 3.0957e+07	   76.7222	      15.3	   2.22932	3.19192e+07	    76.708	      15.3	   2.23788	3.28591e+07	   76.7166	      15.3	   2.25345	3.18738e+07	   76.7308	      15.3	   2.24488	3.09491e+07	
         R10	   1269	   76.7269	      15.3	   2.25886	3.09319e+07	   76.7062	      15.3	   2.24804	3.28128e+07	   76.6899	      15.3	   2.26385	 3.3923e+07	   76.7055	      15.3	    2.2691	3.23339e+07	   76.7166	      15.3	   2.25345	3.18571e+07	    76.698	      15.3	   2.25594	3.33632e+07	   76.6977	      15.3	   2.26647	3.31201e+07	   76.7162	      15.3	   2.26398	3.16245e+07	
         R10	   1270	   76.7304	      15.3	   2.32001	2.93121e+07	   76.7346	      15.3	   2.34477	2.88042e+07	   76.7652	      15.3	   2.33521	2.77098e+07	   76.7575	      15.3	    2.3031	2.82835e+07	   76.7325	      15.3	   2.33239	2.90495e+07	   76.7499	      15.3	   2.33999	2.82434e+07	   76.7614	      15.3	   2.31916	2.79824e+07	    76.744	      15.3	   2.31155	2.87892e+07	
         R10	   1271	   76.7575	      15.3	    2.3031	2.82855e+07	   76.7652	      15.3	   2.33521	2.76951e+07	   76.8017	      15.3	   2.32526	2.65974e+07	   76.7904	      15.3	   2.28614	2.71149e+07	   76.7614	      15.3	   2.31916	 2.7976e+07	   76.7835	      15.3	   2.33024	2.71295e+07	   76.7961	      15.3	    2.3057	2.68379e+07	    76.774	      15.3	   2.29462	2.76871e+07	
         R10	   1272	   76.7904	      15.3	   2.28614	2.71113e+07	   76.8017	      15.3	   2.32526	2.65841e+07	   76.8424	      15.3	   2.31147	2.55547e+07	   76.8293	      15.3	   2.26838	2.59649e+07	   76.7961	      15.3	    2.3057	  2.683e+07	    76.822	      15.3	   2.31836	2.60525e+07	   76.8358	      15.3	   2.28992	2.57427e+07	   76.8099	      15.3	   2.27726	2.65209e+07	
         R10	   1273	   76.8293	      15.3	   2.26838	2.59456e+07	   76.8424	      15.3	   2.31147	2.55357e+07	   76.8882	      15.3	   2.30242	2.46194e+07	   76.8782	      15.3	    2.2558	2.47774e+07	   76.8358	      15.3	   2.28992	2.57231e+07	   76.8653	      15.3	   2.30694	2.50565e+07	   76.8832	      15.3	   2.27911	2.46866e+07	   76.8538	      15.3	   2.26209	2.53346e+07	
         R10	   1274	   76.8782	      15.3	    2.2558	2.47826e+07	   76.8882	      15.3	   2.30242	2.46189e+07	     76.94	      15.3	   2.29241	2.38505e+07	   76.9296	      15.3	   2.24197	2.38544e+07	   76.8832	      15.3	   2.27911	2.46882e+07	   76.9141	      15.3	   2.29741	2.42121e+07	   76.9348	      15.3	   2.26719	2.38426e+07	   76.9039	      15.3	   2.24888	2.42943e+07	
         R10	   1275	   76.9296	      15.3	   2.24197	2.38554e+07	     76.94	      15.3	   2.29241	2.38419e+07	   76.9953	      15.3	   2.27784	2.32087e+07	   76.9837	      15.3	    2.2141	2.31502e+07	   76.9348	      15.3	   2.26719	2.38383e+07	   76.9677	      15.3	   2.28512	 2.3505e+07	   76.9895	      15.3	   2.24597	2.31681e+07	   76.9566	      15.3	   2.22803	2.34836e+07	
         R10	   1276	   76.9837	      15.3	    2.2141	2.31512e+07	   76.9953	      15.3	   2.27784	2.32032e+07	   77.0552	      15.3	   2.26902	2.27951e+07	   77.0469	      15.3	       2.2	2.25846e+07	   76.9895	      15.3	   2.24597	2.31654e+07	   77.0253	      15.3	   2.27343	2.29781e+07	    77.051	      15.3	   2.23451	2.26827e+07	   77.0153	      15.3	   2.20705	2.28418e+07	
         R10	   1277	   77.0469	      15.3	       2.2	2.25921e+07	   77.0552	      15.3	   2.26902	 2.2769e+07	   77.1211	      15.3	   2.26304	2.25563e+07	   77.1139	      15.3	   2.18767	2.21936e+07	    77.051	      15.3	   2.23451	2.26727e+07	   77.0881	      15.3	   2.26603	2.26412e+07	   77.1175	      15.3	   2.22535	2.23709e+07	   77.0804	      15.3	   2.19384	2.23683e+07	
         R10	   1278	   77.1139	      15.3	   2.18767	2.22174e+07	   77.1211	      15.3	   2.26304	 2.2504e+07	   77.1927	      15.3	    2.2538	2.22987e+07	   77.1851	      15.3	   2.17706	2.21152e+07	   77.1175	      15.3	   2.22535	2.23566e+07	   77.1569	      15.3	   2.25842	2.23812e+07	   77.1889	      15.3	   2.21543	 2.2203e+07	   77.1495	      15.3	   2.18236	2.21439e+07	
         R10	   1279	   77.1044	      15.3	    2.1056	2.21741e+07	   77.1139	      15.3	   2.18767	2.22512e+07	   77.1851	      15.3	   2.17706	2.20481e+07	   77.1792	      15.3	   2.08167	2.19599e+07	   77.1091	      15.3	   2.14663	2.22046e+07	   77.1495	      15.3	   2.18236	2.21266e+07	   77.1822	      15.3	   2.12936	2.19966e+07	   77.1418	      15.3	   2.09363	2.20418e+07	
         R10	   1280	   77.1044	      15.3	    2.1056	2.21915e+07	   77.1792	      15.3	   2.08167	2.19158e+07	   77.1727	      15.3	   1.99116	2.20719e+07	    77.089	      15.3	   2.00186	2.24944e+07	   77.1418	      15.3	   2.09363	2.20279e+07	    77.176	      15.3	   2.03641	2.19858e+07	   77.1309	      15.3	   1.99651	2.22467e+07	   77.0967	      15.3	   2.05373	2.23255e+07	
         R10	   1281	    77.089	      15.3	   2.00186	2.24888e+07	   77.1727	      15.3	   1.99116	2.20473e+07	   77.1645	      15.3	   1.89718	2.24366e+07	   77.0787	      15.3	   1.90995	2.30133e+07	   77.1309	      15.3	   1.99651	 2.2232e+07	   77.1686	      15.3	   1.94417	2.22318e+07	   77.1216	      15.3	   1.90356	2.26903e+07	   77.0838	      15.3	    1.9559	2.27389e+07	
         R10	   1282	   77.0787	      15.3	   1.90995	2.29934e+07	   77.1645	      15.3	   1.89718	2.23852e+07	   77.1552	      15.3	   1.80128	2.29803e+07	   77.0546	      15.3	   1.80551	2.38864e+07	   77.1216	      15.3	   1.90356	 2.2654e+07	   77.1598	      15.3	   1.84923	2.26729e+07	   77.1049	      15.3	   1.80339	2.33924e+07	   77.0667	      15.3	   1.85773	2.34231e+07	
         R10	   1283	   76.9264	      15.3	   1.84909	2.56604e+07	    76.938	      15.3	   1.77633	2.58619e+07	    76.844	      15.3	   1.77482	2.78779e+07	   76.8419	      15.3	   1.85286	2.77295e+07	   76.9322	      15.3	   1.81271	2.57518e+07	    76.891	      15.3	   1.77558	2.68422e+07	    76.843	      15.3	   1.81384	2.77927e+07	   76.8841	      15.3	   1.85098	2.66679e+07	
         R10	   1284	   76.7471	      15.3	   1.87155	3.07452e+07	   76.6954	      15.3	   1.84329	3.22586e+07	   76.6712	      15.3	   1.90299	3.36432e+07	   76.7214	      15.3	   1.91583	3.18458e+07	   76.7213	      15.3	   1.85742	3.14897e+07	   76.6833	      15.3	   1.87314	3.29434e+07	   76.6963	      15.3	   1.90941	3.27348e+07	   76.7343	      15.3	   1.89369	3.12899e+07	
         R10	   1285	   76.7214	      15.3	   1.91583	3.18549e+07	   76.6712	      15.3	   1.90299	3.36829e+07	   76.6616	      15.3	   1.95794	 3.4655e+07	   76.7165	      15.3	   1.97016	3.23948e+07	   76.6963	      15.3	   1.90941	 3.2759e+07	   76.6664	      15.3	   1.93046	3.41606e+07	    76.689	      15.3	   1.96405	3.35103e+07	    76.719	      15.3	     1.943	3.21145e+07	
         R10	   1286	   76.7165	      15.3	   1.97016	3.24066e+07	   76.6616	      15.3	   1.95794	3.46533e+07	   76.6521	      15.3	   2.01192	3.58066e+07	   76.6953	      15.3	   2.02525	3.37747e+07	    76.689	      15.3	   1.96405	3.35155e+07	   76.6568	      15.3	   1.98493	3.52208e+07	   76.6737	      15.3	   2.01859	3.47776e+07	   76.7059	      15.3	   1.99771	3.30803e+07	
         R10	   1287	   76.6953	      15.3	   2.02525	3.37865e+07	   76.6521	      15.3	   2.01192	3.57944e+07	   76.6384	      15.3	   2.06268	3.73473e+07	   76.6805	      15.3	   2.07493	 3.5072e+07	   76.6737	      15.3	   2.01859	3.47775e+07	   76.6452	      15.3	    2.0373	3.65622e+07	   76.6594	      15.3	   2.06881	3.61929e+07	   76.6879	      15.3	   2.05009	3.44182e+07	
         R10	   1288	   76.6805	      15.3	   2.07493	3.50644e+07	   76.6384	      15.3	   2.06268	3.73432e+07	   76.6233	      15.3	   2.11152	3.93042e+07	   76.6623	      15.3	   2.12384	 3.6845e+07	   76.6594	      15.3	   2.06881	3.61871e+07	   76.6308	      15.3	    2.0871	3.83156e+07	   76.6428	      15.3	   2.11768	3.80524e+07	   76.6714	      15.3	   2.09939	 3.5942e+07	
         R10	   1289	   76.5842	      15.3	   2.17158	4.41586e+07	    76.558	      15.3	   2.16552	4.55313e+07	    76.568	      15.3	   2.19384	4.64971e+07	   76.5832	      15.3	   2.19385	4.51611e+07	   76.5711	      15.3	   2.16855	4.48247e+07	    76.563	      15.3	   2.17968	4.59992e+07	   76.5756	      15.3	   2.19384	4.58219e+07	   76.5837	      15.3	   2.18271	 4.4656e+07	
         R10	   1290	   76.6124	      15.3	   2.16641	4.16504e+07	   76.6064	      15.3	   2.18945	4.28518e+07	   76.6344	      15.3	   2.18997	4.02541e+07	    76.636	      15.3	   2.16039	3.94054e+07	   76.6094	      15.3	   2.17793	4.22476e+07	   76.6204	      15.3	   2.18971	4.15382e+07	   76.6352	      15.3	   2.17518	3.98192e+07	   76.6242	      15.3	    2.1634	4.05216e+07	
         R10	   1291	   76.6665	      15.3	   2.16903	3.70507e+07	   76.6874	      15.3	   2.20362	3.52344e+07	   76.7105	      15.3	   2.19971	3.32356e+07	   76.6987	      15.3	   2.17014	 3.4371e+07	    76.677	      15.3	   2.18632	3.61086e+07	   76.6989	      15.3	   2.20166	 3.4228e+07	   76.7046	      15.3	   2.18492	3.37869e+07	   76.6826	      15.3	   2.16958	3.56976e+07	
         R10	   1292	   76.7381	      15.3	   2.19731	3.12368e+07	   76.7105	      15.3	   2.19971	3.32081e+07	   76.7098	      15.3	   2.22772	 3.2933e+07	   76.7346	      15.3	   2.23091	3.09586e+07	   76.7243	      15.3	   2.19851	3.22124e+07	   76.7102	      15.3	   2.21372	3.30611e+07	   76.7222	      15.3	   2.22932	3.19328e+07	   76.7364	      15.3	   2.21411	3.10857e+07	
         R10	   1293	    76.768	      15.3	   2.24052	  2.875e+07	   76.7346	      15.3	   2.23091	3.09441e+07	   76.7269	      15.3	   2.25886	 3.0968e+07	   76.7498	      15.3	   2.27359	 2.9178e+07	   76.7513	      15.3	   2.23571	 2.9822e+07	   76.7308	      15.3	   2.24488	3.09496e+07	   76.7384	      15.3	   2.26623	3.00521e+07	   76.7589	      15.3	   2.25706	2.89565e+07	
         R10	   1294	   76.7498	      15.3	   2.27359	 2.9145e+07	   76.7269	      15.3	   2.25886	3.09603e+07	   76.7102	      15.3	   2.28181	3.16047e+07	   76.7291	      15.3	    2.2919	3.00302e+07	   76.7384	      15.3	   2.26623	3.00324e+07	   76.7186	      15.3	   2.27033	3.12767e+07	   76.7196	      15.3	   2.28685	3.08024e+07	   76.7394	      15.3	   2.28275	2.95818e+07	
         R10	   1295	   76.8158	      15.3	   2.22865	2.66981e+07	   76.8293	      15.3	   2.26838	 2.5994e+07	   76.8782	      15.3	    2.2558	 2.4768e+07	   76.8648	      15.3	   2.21188	2.52794e+07	   76.8226	      15.3	   2.24852	 2.6329e+07	   76.8538	      15.3	   2.26209	2.53537e+07	   76.8715	      15.3	   2.23384	2.50083e+07	   76.8403	      15.3	   2.22027	2.59616e+07	
         R10	   1296	   76.8648	      15.3	   2.21188	2.52767e+07	   76.8782	      15.3	    2.2558	2.47753e+07	   76.9296	      15.3	   2.24197	 2.3864e+07	   76.9124	      15.3	   2.19496	2.42322e+07	   76.8715	      15.3	   2.23384	2.50106e+07	   76.9039	      15.3	   2.24888	2.42954e+07	    76.921	      15.3	   2.21846	 2.4033e+07	   76.8886	      15.3	   2.20342	2.47323e+07	
         R10	   1297	   76.9124	      15.3	   2.19496	 2.4224e+07	   76.9296	      15.3	   2.24197	2.38725e+07	   76.9837	      15.3	    2.2141	2.31419e+07	   76.9672	      15.3	   2.15994	 2.3404e+07	    76.921	      15.3	   2.21846	2.40335e+07	   76.9566	      15.3	   2.22803	2.34882e+07	   76.9755	      15.3	   2.18702	2.32596e+07	   76.9398	      15.3	   2.17745	2.37916e+07	
         R10	   1298	   76.9672	      15.3	   2.15994	2.33789e+07	   76.9837	      15.3	    2.2141	2.31469e+07	   77.0469	      15.3	       2.2	 2.2583e+07	   77.0348	      15.3	   2.12457	 2.2661e+07	   76.9755	      15.3	   2.18702	2.32497e+07	   77.0153	      15.3	   2.20705	 2.2839e+07	   77.0409	      15.3	   2.16229	 2.2609e+07	    77.001	      15.3	   2.14225	2.29909e+07	
         R10	   1299	   77.0348	      15.3	   2.12457	2.26529e+07	   77.0469	      15.3	       2.2	2.25878e+07	   77.1139	      15.3	   2.18767	2.22624e+07	   77.1044	      15.3	    2.1056	2.21634e+07	   77.0409	      15.3	   2.16229	2.26077e+07	   77.0804	      15.3	   2.19384	2.24012e+07	   77.1091	      15.3	   2.14663	2.22045e+07	   77.0696	      15.3	   2.11509	2.23805e+07	
         R10	   1300	   77.0091	      15.3	   2.04094	2.31917e+07	   77.0348	      15.3	   2.12457	2.26543e+07	   77.1044	      15.3	    2.1056	2.21942e+07	    77.089	      15.3	   2.00186	2.24673e+07	    77.022	      15.3	   2.08275	2.28989e+07	   77.0696	      15.3	   2.11509	 2.2396e+07	   77.0967	      15.3	   2.05373	 2.2314e+07	    77.049	      15.3	    2.0214	2.27931e+07	
         R10	   1301	   77.0091	      15.3	   2.04094	2.32682e+07	    77.089	      15.3	   2.00186	2.24937e+07	   77.0787	      15.3	   1.90995	2.30183e+07	   77.0019	      15.3	   1.92475	2.38731e+07	    77.049	      15.3	    2.0214	2.28434e+07	   77.0838	      15.3	    1.9559	2.27433e+07	   77.0403	      15.3	   1.91735	2.34151e+07	   77.0055	      15.3	   1.98284	2.35454e+07	
         R10	   1302	   76.9329	      15.3	   1.92023	2.52116e+07	   76.9264	      15.3	   1.84909	2.57384e+07	   76.8419	      15.3	   1.85286	2.78124e+07	   76.8649	      15.3	   1.91869	2.69756e+07	   76.9296	      15.3	   1.88466	2.54653e+07	   76.8841	      15.3	   1.85098	2.67487e+07	   76.8534	      15.3	   1.88577	2.73803e+07	   76.8989	      15.3	   1.91946	2.60709e+07	
         R10	   1303	   76.7487	      15.3	   1.76977	3.02344e+07	   76.6954	      15.3	   1.84329	3.22414e+07	   76.7471	      15.3	   1.87155	3.07104e+07	   76.7757	      15.3	   1.82919	2.96172e+07	    76.722	      15.3	   1.80653	3.12273e+07	   76.7213	      15.3	   1.85742	3.14647e+07	   76.7614	      15.3	   1.85037	3.01589e+07	   76.7622	      15.3	   1.79948	2.99153e+07	
         R10	   1304	   76.7968	      15.3	   1.90292	2.91404e+07	   76.7471	      15.3	   1.87155	  3.068e+07	   76.7214	      15.3	   1.91583	3.18934e+07	   76.7822	      15.3	   1.94904	2.96268e+07	   76.7719	      15.3	   1.88723	2.98984e+07	   76.7343	      15.3	   1.89369	3.12806e+07	   76.7518	      15.3	   1.93243	3.07382e+07	   76.7895	      15.3	   1.92598	2.93772e+07	
         R10	   1305	   76.7481	      15.3	   2.03618	3.12182e+07	   76.6953	      15.3	   2.02525	3.37559e+07	   76.6805	      15.3	   2.07493	3.50829e+07	   76.7213	      15.3	   2.09007	3.27064e+07	   76.7217	      15.3	   2.03072	 3.2469e+07	   76.6879	      15.3	   2.05009	3.44084e+07	   76.7009	      15.3	    2.0825	3.38777e+07	   76.7347	      15.3	   2.06312	3.19476e+07	
         R10	   1306	   76.7213	      15.3	   2.09007	3.27362e+07	   76.6805	      15.3	   2.07493	3.50704e+07	   76.6623	      15.3	   2.12384	3.68224e+07	   76.6972	      15.3	   2.13056	3.43751e+07	   76.7009	      15.3	    2.0825	3.38856e+07	   76.6714	      15.3	   2.09939	3.59344e+07	   76.6797	      15.3	    2.1272	3.55846e+07	   76.7092	      15.3	   2.11031	3.35454e+07	
         R10	   1307	   76.5981	      15.3	   2.14505	4.20313e+07	   76.5842	      15.3	   2.17158	4.41077e+07	   76.6064	      15.3	   2.18945	4.29439e+07	   76.6124	      15.3	   2.16641	4.15815e+07	   76.5912	      15.3	   2.15832	4.30686e+07	   76.5953	      15.3	   2.18052	4.35005e+07	   76.6094	      15.3	   2.17793	4.22592e+07	   76.6053	      15.3	   2.15573	4.17929e+07	
         R10	   1308	   76.6233	      15.3	   2.11152	3.93127e+07	   76.5981	      15.3	   2.14505	4.19262e+07	   76.6124	      15.3	   2.16641	4.16894e+07	    76.636	      15.3	   2.16039	3.95492e+07	   76.6107	      15.3	   2.12828	4.06175e+07	   76.6053	      15.3	   2.15573	4.17936e+07	   76.6242	      15.3	    2.1634	4.06139e+07	   76.6296	      15.3	   2.13596	3.93954e+07	
         R10	   1309	   76.6623	      15.3	   2.12384	3.69284e+07	   76.6233	      15.3	   2.11152	3.93886e+07	    76.636	      15.3	   2.16039	3.95802e+07	   76.6665	      15.3	   2.16903	3.70458e+07	   76.6428	      15.3	   2.11768	3.81362e+07	   76.6296	      15.3	   2.13596	3.94507e+07	   76.6513	      15.3	   2.16471	3.82939e+07	   76.6644	      15.3	   2.14644	3.69618e+07	
         R10	   1310	   76.6972	      15.3	   2.13056	3.44545e+07	   76.6623	      15.3	   2.12384	3.68744e+07	   76.6665	      15.3	   2.16903	 3.7006e+07	   76.6987	      15.3	   2.17014	 3.4359e+07	   76.6797	      15.3	    2.1272	  3.565e+07	   76.6644	      15.3	   2.14644	3.69147e+07	   76.6826	      15.3	   2.16958	3.56693e+07	   76.6979	      15.3	   2.15035	3.43902e+07	
         R10	   1311	   76.7279	      15.3	   2.13813	3.23422e+07	   76.6972	      15.3	   2.13056	3.44199e+07	   76.6987	      15.3	   2.17014	3.43487e+07	   76.7292	      15.3	    2.1648	3.21308e+07	   76.7125	      15.3	   2.13435	3.33701e+07	   76.6979	      15.3	   2.15035	3.43676e+07	   76.7139	      15.3	   2.16747	  3.323e+07	   76.7285	      15.3	   2.15147	3.22289e+07	
         R10	   1312	   76.7292	      15.3	    2.1648	3.21011e+07	   76.6987	      15.3	   2.17014	3.43634e+07	   76.7105	      15.3	   2.19971	3.32399e+07	   76.7381	      15.3	   2.19731	3.12231e+07	   76.7139	      15.3	   2.16747	3.32222e+07	   76.7046	      15.3	   2.18492	3.37844e+07	   76.7243	      15.3	   2.19851	 3.2221e+07	   76.7337	      15.3	   2.18106	3.16485e+07	
         R10	   1313	   76.7622	      15.3	   2.15683	 3.0124e+07	   76.7292	      15.3	    2.1648	3.21137e+07	   76.7381	      15.3	   2.19731	3.12386e+07	   76.7697	      15.3	   2.19393	2.92902e+07	   76.7457	      15.3	   2.16082	 3.1108e+07	   76.7337	      15.3	   2.18106	3.16623e+07	   76.7539	      15.3	   2.19562	3.02506e+07	   76.7659	      15.3	   2.17538	2.96919e+07	
         R10	   1314	   76.7697	      15.3	   2.19393	2.92898e+07	   76.7381	      15.3	   2.19731	3.12233e+07	   76.7346	      15.3	   2.23091	3.09191e+07	    76.768	      15.3	   2.24052	2.87585e+07	   76.7539	      15.3	   2.19562	3.02425e+07	   76.7364	      15.3	   2.21411	3.10593e+07	   76.7513	      15.3	   2.23571	2.98141e+07	   76.7688	      15.3	   2.21722	2.90078e+07	
         R10	   1315	    76.805	      15.3	   2.18842	2.76021e+07	   76.8158	      15.3	   2.22865	2.67093e+07	   76.8648	      15.3	   2.21188	2.52748e+07	     76.85	      15.3	   2.16971	2.60069e+07	   76.8104	      15.3	   2.20853	2.71393e+07	   76.8403	      15.3	   2.22027	2.59644e+07	   76.8574	      15.3	    2.1908	2.56256e+07	   76.8275	      15.3	   2.17907	2.67825e+07	
         R10	   1316	     76.85	      15.3	   2.16971	2.60197e+07	   76.8648	      15.3	   2.21188	2.52768e+07	   76.9124	      15.3	   2.19496	2.42541e+07	   76.8929	      15.3	   2.15152	2.48801e+07	   76.8574	      15.3	    2.1908	2.56328e+07	   76.8886	      15.3	   2.20342	2.47435e+07	   76.9027	      15.3	   2.17324	2.45512e+07	   76.8714	      15.3	   2.16061	2.54324e+07	
         R10	   1317	   76.8929	      15.3	   2.15152	2.48978e+07	   76.9124	      15.3	   2.19496	2.42254e+07	   76.9672	      15.3	   2.15994	2.33913e+07	   76.9429	      15.3	   2.11734	2.39402e+07	   76.9027	      15.3	   2.17324	 2.4546e+07	   76.9398	      15.3	   2.17745	2.37856e+07	   76.9551	      15.3	   2.13864	2.36515e+07	   76.9179	      15.3	   2.13443	2.44014e+07	
         R10	   1318	   76.9429	      15.3	   2.11734	2.39569e+07	   76.9672	      15.3	   2.15994	2.34122e+07	   77.0348	      15.3	   2.12457	2.26727e+07	   77.0091	      15.3	   2.04094	 2.3165e+07	   76.9551	      15.3	   2.13864	2.36692e+07	    77.001	      15.3	   2.14225	2.30144e+07	    77.022	      15.3	   2.08275	2.28953e+07	    76.976	      15.3	   2.07914	2.35298e+07	
         R10	   1319	   77.0546	      15.3	   1.80551	2.38673e+07	    76.938	      15.3	   1.77633	2.58678e+07	   76.9264	      15.3	   1.84909	2.57187e+07	   76.9941	      15.3	   1.85397	2.44022e+07	   76.9963	      15.3	   1.79092	2.48144e+07	   76.9322	      15.3	   1.81271	2.57863e+07	   76.9603	      15.3	   1.85153	2.50374e+07	   77.0244	      15.3	   1.82974	2.41207e+07	
         R10	   1320	   76.9347	      15.3	   1.97923	2.48475e+07	   76.9329	      15.3	   1.92023	2.52875e+07	   76.8649	      15.3	   1.91869	2.69613e+07	   76.8601	      15.3	   1.97305	2.68893e+07	   76.9338	      15.3	   1.94973	2.50592e+07	   76.8989	      15.3	   1.91946	2.61031e+07	   76.8625	      15.3	   1.94587	2.69168e+07	   76.8974	      15.3	   1.97614	2.58322e+07	
         R10	   1321	   76.8419	      15.3	   1.85286	2.77285e+07	    76.844	      15.3	   1.77482	2.78843e+07	   76.7487	      15.3	   1.76977	3.03139e+07	   76.7757	      15.3	   1.82919	2.97258e+07	    76.843	      15.3	   1.81384	2.77961e+07	   76.7964	      15.3	    1.7723	 2.9077e+07	   76.7622	      15.3	   1.79948	3.00091e+07	   76.8088	      15.3	   1.84102	2.87113e+07	
         R10	   1322	   76.8419	      15.3	   1.85286	2.77493e+07	   76.7757	      15.3	   1.82919	2.96959e+07	   76.7471	      15.3	   1.87155	3.06786e+07	   76.7968	      15.3	   1.90292	2.91302e+07	   76.8088	      15.3	   1.84102	2.87072e+07	   76.7614	      15.3	   1.85037	3.01822e+07	   76.7719	      15.3	   1.88723	2.98917e+07	   76.8193	      15.3	   1.87789	2.84288e+07	
         R10	   1323	   76.7555	      15.3	   2.11295	3.07223e+07	   76.7213	      15.3	   2.09007	3.27539e+07	   76.6972	      15.3	   2.13056	 3.4351e+07	   76.7279	      15.3	   2.13813	3.23181e+07	   76.7384	      15.3	   2.10151	3.17203e+07	   76.7092	      15.3	   2.11031	3.35428e+07	   76.7125	      15.3	   2.13435	3.33231e+07	   76.7417	      15.3	   2.12554	3.15126e+07	
         R10	   1324	   76.7555	      15.3	   2.11295	3.07516e+07	   76.7279	      15.3	   2.13813	3.23272e+07	   76.7292	      15.3	    2.1648	3.20714e+07	   76.7622	      15.3	   2.15683	3.01199e+07	   76.7417	      15.3	   2.12554	3.15318e+07	   76.7285	      15.3	   2.15147	 3.2192e+07	   76.7457	      15.3	   2.16082	 3.1085e+07	   76.7588	      15.3	   2.13489	3.04186e+07	
         R10	   1325	   76.8345	      15.3	   2.12526	2.69528e+07	     76.85	      15.3	   2.16971	2.60368e+07	   76.8929	      15.3	   2.15152	2.48835e+07	   76.8695	      15.3	    2.1087	2.58229e+07	   76.8422	      15.3	   2.14749	2.64783e+07	   76.8714	      15.3	   2.16061	2.54428e+07	   76.8812	      15.3	   2.13011	2.53366e+07	    76.852	      15.3	   2.11698	2.63763e+07	
         R10	   1326	   76.8695	      15.3	    2.1087	2.58478e+07	   76.8929	      15.3	   2.15152	2.49342e+07	   76.9429	      15.3	   2.11734	2.39117e+07	   76.9077	      15.3	    2.0802	2.49848e+07	   76.8812	      15.3	   2.13011	2.53742e+07	   76.9179	      15.3	   2.13443	 2.4403e+07	   76.9253	      15.3	   2.09877	 2.4427e+07	   76.8886	      15.3	   2.09445	2.54038e+07	
         R10	   1327	   77.0019	      15.3	   1.92475	2.38843e+07	   77.0787	      15.3	   1.90995	2.29841e+07	   77.0546	      15.3	   1.80551	2.38287e+07	   76.9941	      15.3	   1.85397	2.44491e+07	   77.0403	      15.3	   1.91735	2.34021e+07	   77.0667	      15.3	   1.85773	2.33864e+07	   77.0244	      15.3	   1.82974	2.41249e+07	    76.998	      15.3	   1.88936	2.41592e+07	
         R10	   1328	   77.0019	      15.3	   1.92475	 2.3879e+07	   76.9941	      15.3	   1.85397	2.44625e+07	   76.9264	      15.3	   1.84909	2.57594e+07	   76.9329	      15.3	   1.92023	2.52421e+07	    76.998	      15.3	   1.88936	2.41615e+07	   76.9603	      15.3	   1.85153	2.50889e+07	   76.9296	      15.3	   1.88466	2.54904e+07	   76.9674	      15.3	   1.92249	2.45355e+07	
         R10	   1329	   77.0091	      15.3	   2.04094	2.32597e+07	   77.0019	      15.3	   1.92475	2.38542e+07	   76.9329	      15.3	   1.92023	2.52506e+07	   76.9347	      15.3	   1.97923	 2.4765e+07	   77.0055	      15.3	   1.98284	2.35331e+07	   76.9674	      15.3	   1.92249	2.45255e+07	   76.9338	      15.3	   1.94973	2.49989e+07	   76.9719	      15.3	   2.01008	2.39632e+07	
         R10	   1330	   76.9171	      15.3	   2.02684	2.50087e+07	   76.9347	      15.3	   1.97923	2.48096e+07	   76.8601	      15.3	   1.97305	2.69181e+07	   76.8605	      15.3	   2.02682	   2.66e+07	   76.9259	      15.3	   2.00303	2.48987e+07	   76.8974	      15.3	   1.97614	 2.5829e+07	   76.8603	      15.3	   1.99993	 2.6751e+07	   76.8888	      15.3	   2.02683	2.57801e+07	
         R10	   1331	   76.8601	      15.3	   1.97305	2.68811e+07	   76.8649	      15.3	   1.91869	2.69841e+07	   76.7968	      15.3	   1.90292	 2.9096e+07	   76.7822	      15.3	   1.94904	2.96378e+07	   76.8625	      15.3	   1.94587	2.69243e+07	   76.8308	      15.3	    1.9108	2.80201e+07	   76.7895	      15.3	   1.92598	2.93602e+07	   76.8211	      15.3	   1.96104	 2.8227e+07	
         R10	   1332	   76.7481	      15.3	   2.03618	3.12154e+07	   76.7213	      15.3	   2.09007	3.27199e+07	   76.7555	      15.3	   2.11295	3.07423e+07	   76.7874	      15.3	   2.08995	2.92497e+07	   76.7347	      15.3	   2.06312	3.19523e+07	   76.7384	      15.3	   2.10151	3.17125e+07	   76.7715	      15.3	   2.10145	2.99882e+07	   76.7677	      15.3	   2.06306	3.01968e+07	
         R10	   1333	    76.805	      15.3	   2.18842	2.76017e+07	     76.85	      15.3	   2.16971	2.60317e+07	   76.8345	      15.3	   2.12526	 2.6944e+07	   76.7989	      15.3	   2.14046	 2.8338e+07	   76.8275	      15.3	   2.17907	2.67945e+07	   76.8422	      15.3	   2.14749	2.64721e+07	   76.8167	      15.3	   2.13286	2.76289e+07	   76.8019	      15.3	   2.16444	2.79529e+07	
         R10	   1334	   76.7822	      15.3	   1.94904	2.96707e+07	   76.7165	      15.3	   1.97016	3.23878e+07	   76.7481	      15.3	   2.03618	 3.1279e+07	   76.7925	      15.3	   2.00892	2.91874e+07	   76.7493	      15.3	    1.9596	3.10142e+07	   76.7323	      15.3	   2.00317	 3.1803e+07	   76.7703	      15.3	   2.02255	3.02215e+07	   76.7874	      15.3	   1.97898	2.94132e+07	
         R10	   1335	   76.7925	      15.3	   2.00892	2.91161e+07	   76.7481	      15.3	   2.03618	3.12494e+07	   76.7874	      15.3	   2.08995	2.92054e+07	   76.8154	      15.3	    2.0637	2.81605e+07	   76.7703	      15.3	   2.02255	3.01706e+07	   76.7677	      15.3	   2.06306	 3.0192e+07	   76.8014	      15.3	   2.07683	2.86754e+07	    76.804	      15.3	   2.03631	2.86201e+07	
         R10	   1336	   76.8605	      15.3	   2.02682	2.66383e+07	   76.8601	      15.3	   1.97305	2.69105e+07	   76.7822	      15.3	   1.94904	2.96704e+07	   76.7925	      15.3	   2.00892	2.91941e+07	   76.8603	      15.3	   1.99993	2.67659e+07	   76.8211	      15.3	   1.96104	2.82557e+07	   76.7874	      15.3	   1.97898	2.94153e+07	   76.8265	      15.3	   2.01787	2.78844e+07	
         R10	   1337	   76.9417	      15.3	   2.05242	2.43143e+07	   76.9077	      15.3	    2.0802	2.49206e+07	   76.9429	      15.3	   2.11734	2.39681e+07	   77.0091	      15.3	   2.04094	2.31883e+07	   76.9247	      15.3	   2.06631	2.46053e+07	   76.9253	      15.3	   2.09877	 2.4426e+07	    76.976	      15.3	   2.07914	 2.3547e+07	   76.9754	      15.3	   2.04668	2.37226e+07	
         R10	   1338	   76.9417	      15.3	   2.05242	2.43188e+07	   77.0091	      15.3	   2.04094	2.32552e+07	   76.9347	      15.3	   1.97923	2.48441e+07	   76.9171	      15.3	   2.02684	2.50525e+07	   76.9754	      15.3	   2.04668	2.37565e+07	   76.9719	      15.3	   2.01008	2.39892e+07	   76.9259	      15.3	   2.00303	2.49437e+07	   76.9294	      15.3	   2.03963	2.46776e+07	
         R10	   1339	   76.9417	      15.3	   2.05242	 2.4403e+07	   76.9171	      15.3	   2.02684	2.49296e+07	   76.8605	      15.3	   2.02682	2.66582e+07	   76.9077	      15.3	    2.0802	2.49309e+07	   76.9294	      15.3	   2.03963	2.46589e+07	   76.8888	      15.3	   2.02683	2.57703e+07	   76.8841	      15.3	   2.05351	2.57634e+07	   76.9247	      15.3	   2.06631	2.46613e+07	
         R10	   1340	   76.8486	      15.3	   2.06779	2.67425e+07	   76.8605	      15.3	   2.02682	2.66369e+07	   76.7925	      15.3	   2.00892	2.92273e+07	   76.8154	      15.3	    2.0637	 2.8187e+07	   76.8546	      15.3	    2.0473	2.66843e+07	   76.8265	      15.3	   2.01787	 2.7899e+07	    76.804	      15.3	   2.03631	2.86906e+07	    76.832	      15.3	   2.06574	2.74525e+07	
         R10	   1341	   76.8486	      15.3	   2.06779	2.67898e+07	   76.8154	      15.3	    2.0637	2.80853e+07	   76.8345	      15.3	   2.12526	2.69674e+07	   76.8695	      15.3	    2.1087	2.58889e+07	    76.832	      15.3	   2.06574	2.74286e+07	   76.8249	      15.3	   2.09448	2.75025e+07	    76.852	      15.3	   2.11698	2.64177e+07	    76.859	      15.3	   2.08824	2.63252e+07	
         R10	   1342	   76.8486	      15.3	   2.06779	 2.6825e+07	   76.8695	      15.3	    2.1087	2.58352e+07	   76.9077	      15.3	    2.0802	2.49653e+07	   76.8605	      15.3	   2.02682	2.66254e+07	    76.859	      15.3	   2.08824	2.63168e+07	   76.8886	      15.3	   2.09445	2.53882e+07	   76.8841	      15.3	   2.05351	2.57595e+07	   76.8546	      15.3	    2.0473	2.67189e+07	
         R10	   1343	   76.7989	      15.3	   2.14046	2.83582e+07	   76.8345	      15.3	   2.12526	2.69372e+07	   76.8154	      15.3	    2.0637	2.81518e+07	   76.7874	      15.3	   2.08995	2.92012e+07	   76.8167	      15.3	   2.13286	2.76351e+07	   76.8249	      15.3	   2.09448	2.75177e+07	   76.8014	      15.3	   2.07683	2.86698e+07	   76.7931	      15.3	   2.11521	2.87608e+07	
         R10	   1344	   76.7622	      15.3	   2.15683	3.01145e+07	   76.7989	      15.3	   2.14046	2.83427e+07	   76.7874	      15.3	   2.08995	2.91903e+07	   76.7555	      15.3	   2.11295	3.07632e+07	   76.7805	      15.3	   2.14865	2.92155e+07	   76.7931	      15.3	   2.11521	2.87469e+07	   76.7715	      15.3	   2.10145	2.99679e+07	   76.7588	      15.3	   2.13489	3.04213e+07	
         R10	   1345	    76.805	      15.3	   2.18842	2.75981e+07	   76.7989	      15.3	   2.14046	2.83339e+07	   76.7622	      15.3	   2.15683	3.01011e+07	   76.7697	      15.3	   2.19393	 2.9291e+07	   76.8019	      15.3	   2.16444	 2.7949e+07	   76.7805	      15.3	   2.14865	2.92045e+07	   76.7659	      15.3	   2.17538	2.96815e+07	   76.7873	      15.3	   2.19117	2.84286e+07	
         R10	   1346	   76.8158	      15.3	   2.22865	2.67187e+07	    76.805	      15.3	   2.18842	2.76094e+07	   76.7697	      15.3	   2.19393	2.92983e+07	    76.768	      15.3	   2.24052	2.87633e+07	   76.8104	      15.3	   2.20853	2.71474e+07	   76.7873	      15.3	   2.19117	2.84376e+07	   76.7688	      15.3	   2.21722	2.90141e+07	   76.7919	      15.3	   2.23458	2.77078e+07	
         R10	   1347	    76.768	      15.3	   2.24052	2.87125e+07	   76.7904	      15.3	   2.28614	2.71003e+07	   76.8293	      15.3	   2.26838	2.59542e+07	   76.8158	      15.3	   2.22865	2.66938e+07	   76.7792	      15.3	   2.26333	2.78668e+07	   76.8099	      15.3	   2.27726	2.65089e+07	   76.8226	      15.3	   2.24852	2.63072e+07	   76.7919	      15.3	   2.23458	2.76699e+07	
         R10	   1348	   76.7575	      15.3	    2.3031	2.82787e+07	   76.7904	      15.3	   2.28614	2.71242e+07	    76.768	      15.3	   2.24052	2.87383e+07	   76.7498	      15.3	   2.27359	2.92146e+07	    76.774	      15.3	   2.29462	2.76889e+07	   76.7792	      15.3	   2.26333	2.78887e+07	   76.7589	      15.3	   2.25706	2.89703e+07	   76.7536	      15.3	   2.28834	 2.8732e+07	
         R10	   1349	   76.7304	      15.3	   2.32001	2.93206e+07	   76.7575	      15.3	    2.3031	2.83303e+07	   76.7498	      15.3	   2.27359	2.91623e+07	   76.7291	      15.3	    2.2919	3.00289e+07	    76.744	      15.3	   2.31155	2.88172e+07	   76.7536	      15.3	   2.28834	2.87331e+07	   76.7394	      15.3	   2.28275	2.95895e+07	   76.7298	      15.3	   2.30595	2.96659e+07	
         R10	   1350	   76.7081	      15.3	   2.31463	3.07358e+07	   76.7291	      15.3	    2.2919	3.00027e+07	   76.7102	      15.3	   2.28181	3.16251e+07	   76.7041	      15.3	   2.29777	3.16124e+07	   76.7186	      15.3	   2.30326	3.03632e+07	   76.7196	      15.3	   2.28685	3.07978e+07	   76.7071	      15.3	   2.28979	3.16171e+07	   76.7061	      15.3	    2.3062	 3.1168e+07	
         R10	   1351	   76.7131	      15.3	    2.3299	3.00077e+07	   76.7068	      15.3	   2.35232	2.99824e+07	   76.7346	      15.3	   2.34477	  2.883e+07	   76.7304	      15.3	   2.32001	2.93216e+07	   76.7099	      15.3	   2.34111	2.99935e+07	   76.7207	      15.3	   2.34855	2.93912e+07	   76.7325	      15.3	   2.33239	2.90668e+07	   76.7217	      15.3	   2.32496	2.96609e+07	
         R10	   1352	   76.7131	      15.3	    2.3299	3.00629e+07	   76.7304	      15.3	   2.32001	2.93255e+07	   76.7291	      15.3	    2.2919	3.00471e+07	   76.7081	      15.3	   2.31463	3.07629e+07	   76.7217	      15.3	   2.32496	2.96904e+07	   76.7298	      15.3	   2.30595	2.96772e+07	   76.7186	      15.3	   2.30326	3.04001e+07	   76.7106	      15.3	   2.32227	3.04071e+07	
         R10	   1353	   76.7131	      15.3	    2.3299	2.99152e+07	   76.7081	      15.3	   2.31463	3.08285e+07	   76.6889	      15.3	   2.33208	3.14111e+07	   76.7068	      15.3	   2.35232	 2.9916e+07	   76.7106	      15.3	   2.32227	3.03651e+07	   76.6985	      15.3	   2.32336	 3.1116e+07	   76.6978	      15.3	    2.3422	3.06338e+07	   76.7099	      15.3	   2.34111	2.99143e+07	
         R10	   1354	   76.5223	      15.3	   2.21175	5.01261e+07	    76.517	      15.3	      2.23	5.19121e+07	    76.534	      15.3	      2.23	5.13583e+07	   76.5197	      15.3	   2.22088	5.10186e+07	   76.5255	      15.3	      2.23	5.16196e+07	   76.5282	      15.3	   2.22088	5.07313e+07	       N/A	       N/A	       N/A	        N/A	       N/A	       N/A	       N/A	        N/A	
         R10	   1355	   76.6064	      15.3	   2.18945	4.28696e+07	    76.601	      15.3	   2.21312	 4.4233e+07	   76.6193	      15.3	   2.21207	4.23347e+07	   76.6037	      15.3	   2.20128	4.35464e+07	   76.6101	      15.3	   2.21259	4.32753e+07	   76.6129	      15.3	   2.20076	4.25793e+07	       N/A	       N/A	       N/A	        N/A	       N/A	       N/A	       N/A	        N/A	
         R10	   1356	   76.6549	      15.3	   2.19396	3.82531e+07	   76.6519	      15.3	   2.21336	3.86292e+07	   76.6698	      15.3	   2.21049	 3.6835e+07	   76.6534	      15.3	   2.20366	 3.8436e+07	   76.6608	      15.3	   2.21192	3.77272e+07	   76.6623	      15.3	   2.20222	3.75302e+07	       N/A	       N/A	       N/A	        N/A	       N/A	       N/A	       N/A	        N/A	
         R10	   1357	   76.7062	      15.3	   2.24804	3.28154e+07	   76.6865	      15.3	   2.24602	3.46984e+07	   76.6899	      15.3	   2.26385	3.39491e+07	   76.6963	      15.3	   2.24703	3.37477e+07	   76.6882	      15.3	   2.25493	3.43172e+07	    76.698	      15.3	   2.25594	3.33771e+07	       N/A	       N/A	       N/A	        N/A	       N/A	       N/A	       N/A	        N/A	
         R10	   1358	   76.7081	      15.3	   2.31463	3.07945e+07	   76.6868	      15.3	     2.314	3.23738e+07	   76.6889	      15.3	   2.33208	3.14566e+07	   76.6975	      15.3	   2.31432	3.15698e+07	   76.6878	      15.3	   2.32304	3.19094e+07	   76.6985	      15.3	   2.32336	3.11215e+07	       N/A	       N/A	       N/A	        N/A	       N/A	       N/A	       N/A	        N/A	
         R10	   1359	    76.558	      15.3	   2.16552	 4.5426e+07	   76.5457	      15.3	   2.19313	4.78627e+07	    76.568	      15.3	   2.19384	 4.6468e+07	   76.5518	      15.3	   2.17933	4.66442e+07	   76.5569	      15.3	   2.19348	4.71499e+07	    76.563	      15.3	   2.17968	4.59329e+07	       N/A	       N/A	       N/A	        N/A	       N/A	       N/A	       N/A	        N/A	
         R10	   1360	   76.7269	      15.3	   2.25886	3.09371e+07	   76.7055	      15.3	    2.2691	3.23598e+07	   76.7102	      15.3	   2.28181	3.16262e+07	   76.7162	      15.3	   2.26398	3.16399e+07	   76.7079	      15.3	   2.27545	3.19892e+07	   76.7186	      15.3	   2.27033	 3.1275e+07	       N/A	       N/A	       N/A	        N/A	       N/A	       N/A	       N/A	        N/A	
         R10	   1361	   76.5842	      15.3	   2.17158	 4.4089e+07	   76.5832	      15.3	   2.19385	4.51094e+07	   76.6064	      15.3	   2.18945	4.30068e+07	   76.5837	      15.3	   2.18271	 4.4595e+07	   76.5948	      15.3	   2.19165	4.40472e+07	   76.5953	      15.3	   2.18052	4.35214e+07	       N/A	       N/A	       N/A	        N/A	       N/A	       N/A	       N/A	        N/A	
         R10	   1362	   76.7822	      15.3	   1.94904	2.96501e+07	   76.7214	      15.3	   1.91583	3.18777e+07	   76.7165	      15.3	   1.97016	3.22958e+07	   76.7518	      15.3	   1.93243	3.07404e+07	    76.719	      15.3	     1.943	3.20763e+07	   76.7493	      15.3	    1.9596	3.09577e+07	       N/A	       N/A	       N/A	        N/A	       N/A	       N/A	       N/A	        N/A	
         R10	   1363	   76.8649	      15.3	   1.91869	2.69819e+07	   76.8419	      15.3	   1.85286	2.77806e+07	   76.7968	      15.3	   1.90292	2.90287e+07	   76.8534	      15.3	   1.88577	2.73683e+07	   76.8193	      15.3	   1.87789	 2.8394e+07	   76.8308	      15.3	    1.9108	 2.7986e+07	       N/A	       N/A	       N/A	        N/A	       N/A	       N/A	       N/A	        N/A	
         R10	   1364	   76.7165	      15.3	   1.97016	3.23862e+07	   76.6953	      15.3	   2.02525	3.37224e+07	   76.7481	      15.3	   2.03618	3.12589e+07	   76.7059	      15.3	   1.99771	3.30436e+07	   76.7217	      15.3	   2.03072	3.24728e+07	   76.7323	      15.3	   2.00317	3.17893e+07	       N/A	       N/A	       N/A	        N/A	       N/A	       N/A	       N/A	        N/A	
         R10	   1365	   76.6847	      15.3	   2.34923	3.11139e+07	   76.6869	      15.3	   2.36619	3.06594e+07	   76.7068	      15.3	   2.35232	2.99376e+07	   76.6858	      15.3	   2.35771	3.08816e+07	   76.6968	      15.3	   2.35926	3.02946e+07	   76.6957	      15.3	   2.35077	3.05083e+07	       N/A	       N/A	       N/A	        N/A	       N/A	       N/A	       N/A	        N/A	
         R10	   1366	   76.6847	      15.3	   2.34923	3.11714e+07	   76.7068	      15.3	   2.35232	2.99587e+07	   76.6889	      15.3	   2.33208	3.13965e+07	   76.6957	      15.3	   2.35077	3.05462e+07	   76.6978	      15.3	    2.3422	3.06481e+07	   76.6868	      15.3	   2.34065	3.12826e+07	       N/A	       N/A	       N/A	        N/A	       N/A	       N/A	       N/A	        N/A	
         R10	   1367	      76.5	    15.147	      2.23	7.81093e+07	      76.5	     15.13	      2.23	 7.7131e+07	      76.5	     15.13	     2.247	7.78692e+07	      76.5	    15.147	     2.247	7.90916e+07	      76.5	   15.1385	      2.23	 7.7612e+07	      76.5	     15.13	    2.2385	7.74809e+07	      76.5	   15.1385	     2.247	7.84721e+07	      76.5	    15.147	    2.2385	7.85812e+07	
         R10	   1368	      76.5	    15.147	     2.247	7.90981e+07	      76.5	     15.13	     2.247	7.78922e+07	      76.5	     15.13	     2.264	7.84664e+07	      76.5	    15.147	     2.264	8.00018e+07	      76.5	   15.1385	     2.247	7.84869e+07	      76.5	     15.13	    2.2555	7.81567e+07	      76.5	   15.1385	     2.264	7.92258e+07	      76.5	    15.147	    2.2555	7.95272e+07	
         R10	   1369	      76.5	    15.147	     2.264	8.00122e+07	      76.5	     15.13	     2.264	7.84887e+07	      76.5	     15.13	     2.281	7.88673e+07	      76.5	    15.147	     2.281	8.07259e+07	      76.5	   15.1385	     2.264	7.92423e+07	      76.5	     15.13	    2.2725	7.86517e+07	      76.5	   15.1385	     2.281	7.97886e+07	      76.5	    15.147	    2.2725	8.03418e+07	
         R10	   1370	      76.5	    15.147	     2.281	8.07424e+07	      76.5	     15.13	     2.281	7.88849e+07	      76.5	     15.13	     2.298	 7.8973e+07	      76.5	    15.147	     2.298	8.11672e+07	      76.5	   15.1385	     2.281	7.98058e+07	      76.5	     15.13	    2.2895	7.88989e+07	      76.5	   15.1385	     2.298	 8.0063e+07	      76.5	    15.147	    2.2895	8.09223e+07	
         R10	   1371	      76.5	    15.147	     2.298	8.11859e+07	      76.5	     15.13	     2.298	7.89851e+07	      76.5	     15.13	     2.315	7.86621e+07	      76.5	    15.147	     2.315	8.11836e+07	      76.5	   15.1385	     2.298	8.00784e+07	      76.5	     15.13	    2.3065	7.87898e+07	      76.5	   15.1385	     2.315	 7.9917e+07	      76.5	    15.147	    2.3065	8.11465e+07	
         R10	   1372	      76.5	    15.147	     2.315	8.12024e+07	      76.5	     15.13	     2.315	7.86728e+07	      76.5	     15.13	     2.332	7.78162e+07	      76.5	    15.147	     2.332	8.06107e+07	      76.5	   15.1385	     2.315	7.99317e+07	      76.5	     15.13	    2.3235	7.82074e+07	      76.5	   15.1385	     2.332	 7.9209e+07	      76.5	    15.147	    2.3235	8.08629e+07	
         R10	   1373	      76.5	    15.147	     2.332	8.06219e+07	      76.5	     15.13	     2.332	7.78327e+07	      76.5	     15.13	     2.349	 7.6303e+07	      76.5	    15.147	     2.349	7.92572e+07	      76.5	   15.1385	     2.332	7.92229e+07	      76.5	     15.13	    2.3405	 7.7029e+07	      76.5	   15.1385	     2.349	 7.7777e+07	      76.5	    15.147	    2.3405	7.98918e+07	
         R10	   1374	      76.5	    15.147	     2.349	7.92673e+07	      76.5	     15.13	     2.349	7.63186e+07	      76.5	     15.13	     2.366	7.40378e+07	      76.5	    15.147	     2.366	7.69391e+07	      76.5	   15.1385	     2.349	  7.779e+07	      76.5	     15.13	    2.3575	  7.514e+07	      76.5	   15.1385	     2.366	7.54859e+07	      76.5	    15.147	    2.3575	 7.8055e+07	
         R10	   1375	      76.5	    15.147	     2.366	7.69495e+07	      76.5	     15.13	     2.366	7.40215e+07	      76.5	     15.13	     2.383	7.10058e+07	      76.5	    15.147	     2.383	7.36067e+07	      76.5	   15.1385	     2.366	 7.5483e+07	      76.5	     15.13	    2.3745	7.24829e+07	      76.5	   15.1385	     2.383	7.23023e+07	      76.5	    15.147	    2.3745	7.52329e+07	
         R10	   1376	      76.5	    15.147	     2.383	7.35655e+07	      76.5	     15.13	     2.383	7.09288e+07	      76.5	     15.13	       2.4	6.71191e+07	      76.5	    15.147	       2.4	6.92627e+07	      76.5	   15.1385	     2.383	7.22435e+07	      76.5	     15.13	    2.3915	6.89965e+07	      76.5	   15.1385	       2.4	6.81864e+07	      76.5	    15.147	    2.3915	7.13811e+07	
         R10	   1377	      76.5	    15.164	     2.383	7.67278e+07	      76.5	    15.147	     2.383	 7.3558e+07	      76.5	    15.147	       2.4	 6.9264e+07	      76.5	    15.164	       2.4	7.17193e+07	      76.5	   15.1555	     2.383	7.51392e+07	      76.5	    15.147	    2.3915	7.13779e+07	      76.5	   15.1555	       2.4	7.04848e+07	      76.5	    15.164	    2.3915	7.41754e+07	
         R10	   1378	      76.5	    15.164	     2.383	7.67087e+07	      76.5	    15.164	       2.4	7.17318e+07	      76.5	    15.181	       2.4	7.47719e+07	      76.5	    15.181	     2.383	8.05856e+07	      76.5	    15.164	    2.3915	 7.4173e+07	      76.5	   15.1725	       2.4	7.32438e+07	      76.5	    15.181	    2.3915	7.76072e+07	      76.5	   15.1725	     2.383	7.86429e+07	
         R10	   1379	      76.5	    15.181	     2.383	 8.0568e+07	      76.5	    15.181	       2.4	7.47877e+07	      76.5	    15.198	       2.4	7.86283e+07	      76.5	    15.198	     2.383	8.53662e+07	      76.5	    15.181	    2.3915	7.76076e+07	      76.5	   15.1895	       2.4	7.66978e+07	      76.5	    15.198	    2.3915	8.18857e+07	      76.5	   15.1895	     2.383	8.29615e+07	
         R10	   1380	      76.5	    15.198	     2.383	8.53643e+07	      76.5	    15.198	       2.4	7.86367e+07	      76.5	    15.215	       2.4	8.36658e+07	      76.5	    15.215	     2.383	9.13351e+07	      76.5	    15.198	    2.3915	8.18905e+07	      76.5	   15.2065	       2.4	 8.1137e+07	      76.5	    15.215	    2.3915	8.73144e+07	      76.5	   15.2065	     2.383	8.83395e+07	
         R10	   1381	      76.5	    15.215	     2.383	9.13916e+07	      76.5	    15.215	       2.4	8.36379e+07	      76.5	    15.232	       2.4	9.05078e+07	      76.5	    15.232	     2.383	9.87373e+07	      76.5	    15.215	    2.3915	  8.733e+07	      76.5	   15.2235	       2.4	8.70488e+07	      76.5	    15.232	    2.3915	9.43034e+07	      76.5	   15.2235	     2.383	9.50428e+07	
         R10	   1382	      76.5	    15.232	     2.383	9.89723e+07	      76.5	    15.232	       2.4	9.03802e+07	      76.5	    15.249	       2.4	1.00482e+08	      76.5	    15.249	     2.383	1.07858e+08	      76.5	    15.232	    2.3915	9.43552e+07	      76.5	   15.2405	       2.4	9.53855e+07	      76.5	    15.249	    2.3915	1.03522e+08	      76.5	   15.2405	     2.383	1.03349e+08	
         R10	   1383	      76.5	    15.249	     2.383	1.08319e+08	      76.5	    15.249	       2.4	9.99329e+07	      76.5	    15.266	       2.4	1.15944e+08	      76.5	    15.266	     2.383	1.17059e+08	      76.5	    15.249	    2.3915	1.03465e+08	      76.5	   15.2575	       2.4	 1.0782e+08	      76.5	    15.266	    2.3915	1.15541e+08	      76.5	   15.2575	     2.383	1.12598e+08	
         R10	   1384	      76.5	    15.266	     2.383	1.19998e+08	      76.5	    15.266	       2.4	 1.1402e+08	      76.5	    15.283	       2.4	1.42038e+08	      76.5	    15.283	     2.383	 1.3116e+08	      76.5	    15.266	    2.3915	1.15985e+08	      76.5	   15.2745	       2.4	  1.278e+08	      76.5	    15.283	    2.3915	1.32382e+08	      76.5	   15.2745	     2.383	1.24915e+08	
         R10	   1385	      76.5	    15.283	     2.383	1.26751e+08	      76.5	    15.283	       2.4	1.39291e+08	      76.5	      15.3	       2.4	2.07868e+08	      76.5	      15.3	     2.383	 9.9323e+07	      76.5	    15.283	    2.3915	1.28531e+08	      76.5	   15.2915	       2.4	1.72915e+08	      76.5	      15.3	    2.3915	 1.5312e+08	      76.5	   15.2915	     2.383	1.12057e+08	
         R10	   1386	      76.5	    15.283	     2.366	1.05079e+08	      76.5	    15.283	     2.383	1.27887e+08	      76.5	      15.3	     2.383	1.11883e+08	      76.5	      15.3	     2.366	 1.0297e+08	      76.5	    15.283	    2.3745	1.16074e+08	      76.5	   15.2915	     2.383	1.19659e+08	      76.5	      15.3	    2.3745	1.07159e+08	      76.5	   15.2915	     2.366	 1.0385e+08	
         R10	   1387	      76.5	    15.283	     2.366	  1.048e+08	      76.5	      15.3	     2.366	1.03486e+08	      76.5	      15.3	     2.349	9.42049e+07	      76.5	    15.283	     2.349	9.85289e+07	      76.5	   15.2915	     2.366	1.04004e+08	      76.5	      15.3	    2.3575	9.86903e+07	      76.5	   15.2915	     2.349	9.63011e+07	      76.5	    15.283	    2.3575	1.01594e+08	
         R10	   1388	      76.5	    15.283	     2.349	9.86461e+07	      76.5	      15.3	     2.349	9.44149e+07	      76.5	      15.3	     2.332	8.95789e+07	      76.5	    15.283	     2.332	9.26792e+07	      76.5	   15.2915	     2.349	9.64665e+07	      76.5	      15.3	    2.3405	9.19233e+07	      76.5	   15.2915	     2.332	 9.1087e+07	      76.5	    15.283	    2.3405	9.56113e+07	
         R10	   1389	      76.5	    15.283	     2.332	9.26941e+07	      76.5	      15.3	     2.332	   8.96e+07	      76.5	      15.3	     2.315	  8.532e+07	      76.5	    15.283	     2.315	 8.8405e+07	      76.5	   15.2915	     2.332	9.11072e+07	      76.5	      15.3	    2.3235	8.74134e+07	      76.5	   15.2915	     2.315	8.68338e+07	      76.5	    15.283	    2.3235	9.05158e+07	
         R10	   1390	      76.5	    15.283	     2.315	8.84013e+07	      76.5	      15.3	     2.315	8.53731e+07	      76.5	      15.3	     2.298	8.18543e+07	      76.5	    15.283	     2.298	 8.4696e+07	      76.5	   15.2915	     2.315	8.68596e+07	      76.5	      15.3	    2.3065	8.35831e+07	      76.5	   15.2915	     2.298	8.32539e+07	      76.5	    15.283	    2.3065	8.65239e+07	
         R10	   1391	      76.5	    15.283	     2.298	8.46884e+07	      76.5	      15.3	     2.298	8.18958e+07	      76.5	      15.3	     2.281	7.88512e+07	      76.5	    15.283	     2.281	8.15115e+07	      76.5	   15.2915	     2.298	8.32716e+07	      76.5	      15.3	    2.2895	8.03515e+07	      76.5	   15.2915	     2.281	8.01652e+07	      76.5	    15.283	    2.2895	8.30813e+07	
         R10	   1392	      76.5	    15.283	     2.281	8.15061e+07	      76.5	      15.3	     2.281	7.88873e+07	      76.5	      15.3	     2.264	7.62495e+07	      76.5	    15.283	     2.264	7.87219e+07	      76.5	   15.2915	     2.281	8.01809e+07	      76.5	      15.3	    2.2725	7.75515e+07	      76.5	   15.2915	     2.264	7.74732e+07	      76.5	    15.283	    2.2725	8.00992e+07	
         R10	   1393	      76.5	    15.283	     2.264	7.87209e+07	      76.5	      15.3	     2.264	7.62599e+07	      76.5	      15.3	     2.247	7.39659e+07	      76.5	    15.283	     2.247	7.62731e+07	      76.5	   15.2915	     2.264	7.74779e+07	      76.5	      15.3	    2.2555	7.50993e+07	      76.5	   15.2915	     2.247	7.51096e+07	      76.5	    15.283	    2.2555	 7.7485e+07	
         R10	   1394	      76.5	    15.283	     2.247	7.62663e+07	      76.5	      15.3	     2.247	 7.3981e+07	      76.5	      15.3	      2.23	7.19058e+07	      76.5	    15.283	      2.23	7.40974e+07	      76.5	   15.2915	     2.247	7.51139e+07	      76.5	      15.3	    2.2385	7.29326e+07	      76.5	   15.2915	      2.23	7.29932e+07	      76.5	    15.283	    2.2385	7.51717e+07	
         R10	   1395	      76.5	    15.266	     2.247	7.83111e+07	      76.5	    15.283	     2.247	 7.6287e+07	      76.5	    15.283	      2.23	 7.4115e+07	      76.5	    15.266	      2.23	7.60352e+07	      76.5	   15.2745	     2.247	7.72859e+07	      76.5	    15.283	    2.2385	 7.5191e+07	      76.5	   15.2745	      2.23	7.50647e+07	      76.5	    15.266	    2.2385	7.71632e+07	
         R10	   1396	      76.5	    15.266	     2.247	7.83266e+07	      76.5	    15.266	      2.23	 7.6039e+07	      76.5	    15.249	      2.23	7.75943e+07	      76.5	    15.249	     2.247	 7.9909e+07	      76.5	    15.266	    2.2385	 7.7173e+07	      76.5	   15.2575	      2.23	7.68038e+07	      76.5	    15.249	    2.2385	7.87411e+07	      76.5	   15.2575	     2.247	7.91018e+07	
         R10	   1397	      76.5	    15.249	     2.247	7.99138e+07	      76.5	    15.249	      2.23	 7.7609e+07	      76.5	    15.232	      2.23	7.87163e+07	      76.5	    15.232	     2.247	8.09659e+07	      76.5	    15.249	    2.2385	7.87509e+07	      76.5	   15.2405	      2.23	7.81484e+07	      76.5	    15.232	    2.2385	7.98291e+07	      76.5	   15.2405	     2.247	 8.0422e+07	
         R10	   1398	      76.5	    15.232	     2.247	8.09641e+07	      76.5	    15.232	      2.23	7.87244e+07	      76.5	    15.215	      2.23	7.93772e+07	      76.5	    15.215	     2.247	8.14646e+07	      76.5	    15.232	    2.2385	7.98321e+07	      76.5	   15.2235	      2.23	7.90359e+07	      76.5	    15.215	    2.2385	 8.0407e+07	      76.5	   15.2235	     2.247	8.11962e+07	
         R10	   1399	      76.5	    15.215	     2.247	8.14588e+07	      76.5	    15.215	      2.23	7.93699e+07	      76.5	    15.198	      2.23	 7.9592e+07	      76.5	    15.198	     2.247	  8.144e+07	      76.5	    15.215	    2.2385	8.04003e+07	      76.5	   15.2065	      2.23	7.94664e+07	      76.5	    15.198	    2.2385	8.05001e+07	      76.5	   15.2065	     2.247	8.14323e+07	
         R10	   1400	      76.5	    15.198	     2.247	8.14329e+07	      76.5	    15.198	      2.23	7.95744e+07	      76.5	    15.181	      2.23	7.93994e+07	      76.5	    15.181	     2.247	8.09787e+07	      76.5	    15.198	    2.2385	8.04877e+07	      76.5	   15.1895	      2.23	7.94736e+07	      76.5	    15.181	    2.2385	8.01716e+07	      76.5	   15.1895	     2.247	8.11906e+07	
         R10	   1401	      76.5	    15.181	     2.247	8.09656e+07	      76.5	    15.181	      2.23	7.93982e+07	      76.5	    15.164	      2.23	 7.8865e+07	      76.5	    15.164	     2.247	8.01707e+07	      76.5	    15.181	    2.2385	8.01645e+07	      76.5	   15.1725	      2.23	  7.912e+07	      76.5	    15.164	    2.2385	7.94992e+07	      76.5	   15.1725	     2.247	8.05553e+07	
         R10	   1402	      76.5	    15.164	     2.247	8.01549e+07	      76.5	    15.164	      2.23	7.88738e+07	      76.5	    15.147	      2.23	7.80983e+07	      76.5	    15.147	     2.247	7.91049e+07	      76.5	    15.164	    2.2385	7.94958e+07	      76.5	   15.1555	      2.23	7.84762e+07	      76.5	    15.147	    2.2385	7.85826e+07	      76.5	   15.1555	     2.247	7.96194e+07	
         R10	   1403	      76.5	    15.164	     2.264	8.13985e+07	      76.5	    15.164	     2.247	8.01659e+07	      76.5	    15.147	     2.247	7.91138e+07	      76.5	    15.147	     2.264	8.00106e+07	      76.5	    15.164	    2.2555	8.07595e+07	      76.5	   15.1555	     2.247	7.96293e+07	      76.5	    15.147	    2.2555	7.95393e+07	      76.5	   15.1555	     2.264	8.06937e+07	
         R10	   1404	      76.5	    15.164	     2.264	8.14135e+07	      76.5	    15.147	     2.264	  8.002e+07	      76.5	    15.147	     2.281	 8.0739e+07	      76.5	    15.164	     2.281	8.25077e+07	      76.5	   15.1555	     2.264	8.07058e+07	      76.5	    15.147	    2.2725	8.03522e+07	      76.5	   15.1555	     2.281	8.16125e+07	      76.5	    15.164	    2.2725	8.19326e+07	
         R10	   1405	      76.5	    15.164	     2.281	8.25268e+07	      76.5	    15.147	     2.281	8.07523e+07	      76.5	    15.147	     2.298	8.11781e+07	      76.5	    15.164	     2.298	8.33713e+07	      76.5	   15.1555	     2.281	8.16286e+07	      76.5	    15.147	    2.2895	8.09327e+07	      76.5	   15.1555	     2.298	8.22644e+07	      76.5	    15.164	    2.2895	8.29146e+07	
         R10	   1406	      76.5	    15.164	     2.298	8.33946e+07	      76.5	    15.147	     2.298	8.11972e+07	      76.5	    15.147	     2.315	8.11922e+07	      76.5	    15.164	     2.315	8.38259e+07	      76.5	   15.1555	     2.298	8.22855e+07	      76.5	    15.147	    2.3065	8.11565e+07	      76.5	   15.1555	     2.315	   8.25e+07	      76.5	    15.164	    2.3065	8.35681e+07	
         R10	   1407	      76.5	    15.164	     2.315	8.38534e+07	      76.5	    15.147	     2.315	8.12141e+07	      76.5	    15.147	     2.332	8.06119e+07	      76.5	    15.164	     2.332	8.36558e+07	      76.5	   15.1555	     2.315	8.25247e+07	      76.5	    15.147	    2.3235	8.08693e+07	      76.5	   15.1555	     2.332	8.21268e+07	      76.5	    15.164	    2.3235	8.37039e+07	
         R10	   1408	      76.5	    15.164	     2.332	8.36825e+07	      76.5	    15.147	     2.332	8.06329e+07	      76.5	    15.147	     2.349	7.92519e+07	      76.5	    15.164	     2.349	8.25968e+07	      76.5	   15.1555	     2.332	8.21507e+07	      76.5	    15.147	    2.3405	7.98948e+07	      76.5	   15.1555	     2.349	8.09195e+07	      76.5	    15.164	    2.3405	 8.3081e+07	
         R10	   1409	      76.5	    15.164	     2.349	8.26134e+07	      76.5	    15.147	     2.349	7.92684e+07	      76.5	    15.147	     2.366	7.69358e+07	      76.5	    15.164	     2.366	8.03714e+07	      76.5	   15.1555	     2.349	8.09361e+07	      76.5	    15.147	    2.3575	7.80534e+07	      76.5	   15.1555	     2.366	7.86504e+07	      76.5	    15.164	    2.3575	8.14292e+07	
         R10	   1410	      76.5	    15.164	     2.366	 8.0367e+07	      76.5	    15.147	     2.366	7.69458e+07	      76.5	    15.147	     2.383	7.35849e+07	      76.5	    15.164	     2.383	7.67563e+07	      76.5	   15.1555	     2.366	7.86532e+07	      76.5	    15.147	    2.3745	 7.5221e+07	      76.5	   15.1555	     2.383	7.51668e+07	      76.5	    15.164	    2.3745	 7.8501e+07	
         R10	   1411	      76.5	    15.181	     2.366	8.44055e+07	      76.5	    15.164	     2.366	8.03723e+07	      76.5	    15.164	     2.383	7.67261e+07	      76.5	    15.181	     2.383	8.06169e+07	      76.5	   15.1725	     2.366	 8.2384e+07	      76.5	    15.164	    2.3745	7.84886e+07	      76.5	   15.1725	     2.383	7.86672e+07	      76.5	    15.181	    2.3745	 8.2426e+07	
         R10	   1412	      76.5	    15.181	     2.366	8.44278e+07	      76.5	    15.181	     2.383	8.05678e+07	      76.5	    15.198	     2.383	8.53854e+07	      76.5	    15.198	     2.366	8.91409e+07	      76.5	    15.181	    2.3745	8.24127e+07	      76.5	   15.1895	     2.383	8.29707e+07	      76.5	    15.198	    2.3745	8.71413e+07	      76.5	   15.1895	     2.366	8.67753e+07	
         R10	   1413	      76.5	    15.198	     2.366	8.91986e+07	      76.5	    15.198	     2.383	 8.5316e+07	      76.5	    15.215	     2.383	9.12913e+07	      76.5	    15.215	     2.366	9.45828e+07	      76.5	    15.198	    2.3745	8.71359e+07	      76.5	   15.2065	     2.383	8.82931e+07	      76.5	    15.215	    2.3745	9.27589e+07	      76.5	   15.2065	     2.366	 9.1871e+07	
         R10	   1414	      76.5	    15.215	     2.366	 9.4699e+07	      76.5	    15.215	     2.383	9.11924e+07	      76.5	    15.232	     2.383	9.86188e+07	      76.5	    15.232	     2.366	1.00416e+08	      76.5	    15.215	    2.3745	9.27689e+07	      76.5	   15.2235	     2.383	9.48801e+07	      76.5	    15.232	    2.3745	9.92698e+07	      76.5	   15.2235	     2.366	 9.7516e+07	
         R10	   1415	      76.5	    15.232	     2.366	1.00669e+08	      76.5	    15.232	     2.383	9.85342e+07	      76.5	    15.249	     2.383	1.06936e+08	      76.5	    15.249	     2.366	1.06231e+08	      76.5	    15.232	    2.3745	9.93585e+07	      76.5	   15.2405	     2.383	1.02681e+08	      76.5	    15.249	    2.3745	1.06217e+08	      76.5	   15.2405	     2.366	1.03355e+08	
         R10	   1416	      76.5	    15.249	     2.366	1.06363e+08	      76.5	    15.249	     2.383	1.07101e+08	      76.5	    15.266	     2.383	1.17203e+08	      76.5	    15.266	     2.366	1.08764e+08	      76.5	    15.249	    2.3745	1.06371e+08	      76.5	   15.2575	     2.383	1.11995e+08	      76.5	    15.266	    2.3745	1.12638e+08	      76.5	   15.2575	     2.366	1.07415e+08	
         R10	   1417	      76.5	    15.266	     2.366	1.08801e+08	      76.5	    15.266	     2.383	1.17518e+08	      76.5	    15.283	     2.383	1.17903e+08	      76.5	    15.283	     2.366	1.08635e+08	      76.5	    15.266	    2.3745	1.12874e+08	      76.5	   15.2745	     2.383	1.17446e+08	      76.5	    15.283	    2.3745	1.12945e+08	      76.5	   15.2745	     2.366	1.08566e+08	
         R10	   1418	      76.5	    15.266	     2.349	1.01685e+08	      76.5	    15.266	     2.366	1.08363e+08	      76.5	    15.283	     2.366	1.08076e+08	      76.5	    15.283	     2.349	9.81843e+07	      76.5	    15.266	    2.3575	1.04897e+08	      76.5	   15.2745	     2.366	1.08027e+08	      76.5	    15.283	    2.3575	1.03061e+08	      76.5	   15.2745	     2.349	 9.9841e+07	
         R10	   1419	      76.5	    15.266	     2.349	1.01697e+08	      76.5	    15.283	     2.349	9.84111e+07	      76.5	    15.283	     2.332	9.29436e+07	      76.5	    15.266	     2.332	 9.5624e+07	      76.5	   15.2745	     2.349	9.99517e+07	      76.5	    15.283	    2.3405	9.56284e+07	      76.5	   15.2745	     2.332	9.42272e+07	      76.5	    15.266	    2.3405	9.86085e+07	
         R10	   1420	      76.5	    15.266	     2.332	9.56128e+07	      76.5	    15.283	     2.332	 9.3038e+07	      76.5	    15.283	     2.315	8.84384e+07	      76.5	    15.266	     2.315	9.10518e+07	      76.5	   15.2745	     2.332	9.42653e+07	      76.5	    15.283	    2.3235	 9.0705e+07	      76.5	   15.2745	     2.315	 8.9706e+07	      76.5	    15.266	    2.3235	9.32996e+07	
         R10	   1421	      76.5	    15.266	     2.315	9.10604e+07	      76.5	    15.283	     2.315	8.84588e+07	      76.5	    15.283	     2.298	8.47529e+07	      76.5	    15.266	     2.298	8.71413e+07	      76.5	   15.2745	     2.315	8.97191e+07	      76.5	    15.283	    2.3065	8.65815e+07	      76.5	   15.2745	     2.298	8.59188e+07	      76.5	    15.266	    2.3065	8.90776e+07	
         R10	   1422	      76.5	    15.266	     2.298	8.71449e+07	      76.5	    15.283	     2.298	 8.4753e+07	      76.5	    15.283	     2.281	8.15433e+07	      76.5	    15.266	     2.281	8.38027e+07	      76.5	   15.2745	     2.298	8.59201e+07	      76.5	    15.283	    2.2895	8.31296e+07	      76.5	   15.2745	     2.281	8.26516e+07	      76.5	    15.266	    2.2895	8.54561e+07	
         R10	   1423	      76.5	    15.266	     2.281	8.38056e+07	      76.5	    15.283	     2.281	8.15408e+07	      76.5	    15.283	     2.264	7.87487e+07	      76.5	    15.266	     2.264	 8.0882e+07	      76.5	   15.2745	     2.281	8.26516e+07	      76.5	    15.283	    2.2725	8.01302e+07	      76.5	   15.2745	     2.264	7.97988e+07	      76.5	    15.266	    2.2725	8.23296e+07	
         R10	   1424	      76.5	    15.266	     2.264	8.08844e+07	      76.5	    15.283	     2.264	7.87479e+07	      76.5	    15.283	     2.247	7.62905e+07	      76.5	    15.266	     2.247	7.83094e+07	      76.5	   15.2745	     2.264	7.97995e+07	      76.5	    15.283	    2.2555	7.75072e+07	      76.5	   15.2745	     2.247	 7.7287e+07	      76.5	    15.266	    2.2555	7.95853e+07	
         R10	   1425	      76.5	    15.249	     2.264	8.24968e+07	      76.5	    15.266	     2.264	8.09042e+07	      76.5	    15.266	     2.247	7.83222e+07	      76.5	    15.249	     2.247	7.99082e+07	      76.5	   15.2575	     2.264	8.16801e+07	      76.5	    15.266	    2.2555	7.96015e+07	      76.5	   15.2575	     2.247	7.90993e+07	      76.5	    15.249	    2.2555	8.11898e+07	
         R10	   1426	      76.5	    15.249	     2.264	8.25058e+07	      76.5	    15.249	     2.247	7.99126e+07	      76.5	    15.232	     2.247	8.09683e+07	      76.5	    15.232	     2.264	8.34467e+07	      76.5	    15.249	    2.2555	8.11964e+07	      76.5	   15.2405	     2.247	8.04227e+07	      76.5	    15.232	    2.2555	8.21926e+07	      76.5	   15.2405	     2.264	8.29538e+07	
         R10	   1427	      76.5	    15.232	     2.264	 8.3444e+07	      76.5	    15.232	     2.247	8.09671e+07	      76.5	    15.215	     2.247	8.14676e+07	      76.5	    15.215	     2.264	 8.3721e+07	      76.5	    15.232	    2.2555	8.21906e+07	      76.5	   15.2235	     2.247	8.11992e+07	      76.5	    15.215	    2.2555	8.25767e+07	      76.5	   15.2235	     2.264	8.35602e+07	
         R10	   1428	      76.5	    15.215	     2.264	8.37092e+07	      76.5	    15.215	     2.247	8.14647e+07	      76.5	    15.198	     2.247	8.14475e+07	      76.5	    15.198	     2.264	 8.3392e+07	      76.5	    15.215	    2.2555	8.25694e+07	      76.5	   15.2065	     2.247	8.14389e+07	      76.5	    15.198	    2.2555	8.23998e+07	      76.5	   15.2065	     2.264	8.35303e+07	
         R10	   1429	      76.5	    15.198	     2.264	8.33766e+07	      76.5	    15.198	     2.247	8.14417e+07	      76.5	    15.181	     2.247	8.09874e+07	      76.5	    15.181	     2.264	 8.2578e+07	      76.5	    15.198	    2.2555	8.23892e+07	      76.5	   15.1895	     2.247	8.11993e+07	      76.5	    15.181	    2.2555	8.17609e+07	      76.5	   15.1895	     2.264	  8.296e+07	
         R10	   1430	      76.5	    15.181	     2.264	8.25637e+07	      76.5	    15.181	     2.247	8.09748e+07	      76.5	    15.164	     2.247	8.01786e+07	      76.5	    15.164	     2.264	8.14105e+07	      76.5	    15.181	    2.2555	8.17475e+07	      76.5	   15.1725	     2.247	8.05638e+07	      76.5	    15.164	    2.2555	8.07718e+07	      76.5	   15.1725	     2.264	8.19731e+07	
         R10	   1431	      76.5	    15.181	     2.281	8.40995e+07	      76.5	    15.181	     2.264	8.25787e+07	      76.5	    15.164	     2.264	8.14235e+07	      76.5	    15.164	     2.281	8.25236e+07	      76.5	    15.181	    2.2725	8.33116e+07	      76.5	   15.1725	     2.264	8.19871e+07	      76.5	    15.164	    2.2725	8.19456e+07	      76.5	   15.1725	     2.281	8.32968e+07	
         R10	   1432	      76.5	    15.181	     2.281	8.41207e+07	      76.5	    15.164	     2.281	8.25414e+07	      76.5	    15.164	     2.298	8.33878e+07	      76.5	    15.181	     2.298	8.54653e+07	      76.5	   15.1725	     2.281	8.33163e+07	      76.5	    15.164	    2.2895	8.29301e+07	      76.5	   15.1725	     2.298	8.44117e+07	      76.5	    15.181	    2.2895	8.47579e+07	
         R10	   1433	      76.5	    15.181	     2.298	8.54947e+07	      76.5	    15.164	     2.298	8.34116e+07	      76.5	    15.164	     2.315	8.38417e+07	      76.5	    15.181	     2.315	8.64842e+07	      76.5	   15.1725	     2.298	8.44382e+07	      76.5	    15.164	    2.3065	8.35844e+07	      76.5	   15.1725	     2.315	 8.5149e+07	      76.5	    15.181	    2.3065	8.59444e+07	
         R10	   1434	      76.5	    15.181	     2.315	8.65224e+07	      76.5	    15.164	     2.315	8.38714e+07	      76.5	    15.164	     2.332	8.36664e+07	      76.5	    15.181	     2.332	8.68974e+07	      76.5	   15.1725	     2.315	8.51829e+07	      76.5	    15.164	    2.3235	8.37181e+07	      76.5	   15.1725	     2.332	8.52703e+07	      76.5	    15.181	    2.3235	8.66524e+07	
         R10	   1435	      76.5	    15.181	     2.332	8.69414e+07	      76.5	    15.164	     2.332	8.37009e+07	      76.5	    15.164	     2.349	8.25956e+07	      76.5	    15.181	     2.349	8.63462e+07	      76.5	   15.1725	     2.332	8.53095e+07	      76.5	    15.164	    2.3405	8.30896e+07	      76.5	   15.1725	     2.349	8.44626e+07	      76.5	    15.181	    2.3405	8.65726e+07	
         R10	   1436	      76.5	    15.181	     2.349	8.63858e+07	      76.5	    15.164	     2.349	8.26264e+07	      76.5	    15.164	     2.366	8.03573e+07	      76.5	    15.181	     2.366	8.43909e+07	      76.5	   15.1725	     2.349	8.44979e+07	      76.5	    15.164	    2.3575	8.14288e+07	      76.5	   15.1725	     2.366	8.23691e+07	      76.5	    15.181	    2.3575	8.53056e+07	
         R10	   1437	      76.5	    15.198	     2.349	9.05128e+07	      76.5	    15.181	     2.349	8.64145e+07	      76.5	    15.181	     2.366	8.43823e+07	      76.5	    15.198	     2.366	8.90956e+07	      76.5	   15.1895	     2.349	8.84484e+07	      76.5	    15.181	    2.3575	8.53158e+07	      76.5	   15.1895	     2.366	8.67296e+07	      76.5	    15.198	    2.3575	8.96971e+07	
         R10	   1438	      76.5	    15.198	     2.349	9.05699e+07	      76.5	    15.198	     2.366	8.90999e+07	      76.5	    15.215	     2.366	9.44409e+07	      76.5	    15.215	     2.349	9.48057e+07	      76.5	    15.198	    2.3575	 8.9728e+07	      76.5	   15.2065	     2.366	 9.1751e+07	      76.5	    15.215	    2.3575	9.44877e+07	      76.5	   15.2065	     2.349	 9.2659e+07	
         R10	   1439	      76.5	    15.215	     2.349	9.48888e+07	      76.5	    15.215	     2.366	9.45018e+07	      76.5	    15.232	     2.366	1.00226e+08	      76.5	    15.232	     2.349	9.87284e+07	      76.5	    15.215	    2.3575	9.45595e+07	      76.5	   15.2235	     2.366	9.73209e+07	      76.5	    15.232	    2.3575	9.93212e+07	      76.5	   15.2235	     2.349	9.67575e+07	
         R10	   1440	      76.5	    15.232	     2.349	9.88596e+07	      76.5	    15.232	     2.366	1.00334e+08	      76.5	    15.249	     2.366	1.05417e+08	      76.5	    15.249	     2.349	1.01543e+08	      76.5	    15.232	    2.3575	9.94407e+07	      76.5	   15.2405	     2.366	1.02793e+08	      76.5	    15.249	    2.3575	1.03318e+08	      76.5	   15.2405	     2.349	1.00117e+08	
         R10	   1441	      76.5	    15.249	     2.349	1.01557e+08	      76.5	    15.249	     2.366	1.05992e+08	      76.5	    15.266	     2.366	1.08693e+08	      76.5	    15.266	     2.349	1.01636e+08	      76.5	    15.249	    2.3575	1.03607e+08	      76.5	   15.2575	     2.366	1.07192e+08	      76.5	    15.266	    2.3575	1.05045e+08	      76.5	   15.2575	     2.349	1.01485e+08	
         R10	   1442	      76.5	    15.249	   2.33201	 9.6718e+07	      76.5	    15.249	     2.349	1.01416e+08	      76.5	    15.266	     2.349	1.01396e+08	      76.5	    15.266	     2.332	9.57896e+07	      76.5	    15.249	    2.3405	9.89903e+07	      76.5	   15.2575	     2.349	1.01302e+08	      76.5	    15.266	    2.3405	9.85376e+07	      76.5	   15.2575	     2.332	9.61843e+07	
         R10	   1443	      76.5	    15.249	   2.33201	9.66723e+07	      76.5	    15.266	     2.332	9.57947e+07	      76.5	    15.266	     2.315	9.10695e+07	      76.5	    15.249	     2.315	9.24721e+07	      76.5	   15.2575	     2.332	9.61619e+07	      76.5	    15.266	    2.3235	9.33992e+07	      76.5	   15.2575	     2.315	9.17222e+07	      76.5	    15.249	    2.3235	9.45278e+07	
         R10	   1444	      76.5	    15.249	     2.315	  9.246e+07	      76.5	    15.266	     2.315	9.10825e+07	      76.5	    15.266	     2.298	8.71801e+07	      76.5	    15.249	     2.298	8.87108e+07	      76.5	   15.2575	     2.315	 9.1722e+07	      76.5	    15.266	    2.3065	8.91079e+07	      76.5	   15.2575	     2.298	8.79104e+07	      76.5	    15.249	    2.3065	9.05566e+07	
         R10	   1445	      76.5	    15.249	     2.298	8.87048e+07	      76.5	    15.266	     2.298	8.71933e+07	      76.5	    15.266	     2.281	8.38219e+07	      76.5	    15.249	     2.281	8.54159e+07	      76.5	   15.2575	     2.298	8.79135e+07	      76.5	    15.266	    2.2895	8.54898e+07	      76.5	   15.2575	     2.281	8.45926e+07	      76.5	    15.249	    2.2895	8.70396e+07	
         R10	   1446	      76.5	    15.249	     2.281	 8.5414e+07	      76.5	    15.266	     2.281	  8.383e+07	      76.5	    15.266	     2.264	8.08983e+07	      76.5	    15.249	     2.264	8.24979e+07	      76.5	   15.2575	     2.281	8.45954e+07	      76.5	    15.266	    2.2725	  8.235e+07	      76.5	   15.2575	     2.264	8.16779e+07	      76.5	    15.249	    2.2725	  8.394e+07	
         R10	   1447	      76.5	    15.232	     2.281	8.61829e+07	      76.5	    15.249	     2.281	8.54201e+07	      76.5	    15.249	     2.264	8.25057e+07	      76.5	    15.232	     2.264	8.34502e+07	      76.5	   15.2405	     2.281	8.57728e+07	      76.5	    15.249	    2.2725	8.39469e+07	      76.5	   15.2405	     2.264	8.29556e+07	      76.5	    15.232	    2.2725	8.47974e+07	
         R10	   1448	      76.5	    15.232	     2.281	8.61729e+07	      76.5	    15.232	     2.264	8.34486e+07	      76.5	    15.215	     2.264	8.37285e+07	      76.5	    15.215	     2.281	8.61266e+07	      76.5	    15.232	    2.2725	8.47915e+07	      76.5	   15.2235	     2.264	8.35663e+07	      76.5	    15.215	    2.2725	8.49048e+07	      76.5	   15.2235	     2.281	8.61223e+07	
         R10	   1449	      76.5	    15.215	     2.281	8.61076e+07	      76.5	    15.215	     2.264	8.37194e+07	      76.5	    15.198	     2.264	8.34022e+07	      76.5	    15.198	     2.281	8.53793e+07	      76.5	    15.215	    2.2725	8.48907e+07	      76.5	   15.2065	     2.264	8.35405e+07	      76.5	    15.198	    2.2725	 8.4365e+07	      76.5	   15.2065	     2.281	8.57196e+07	
         R10	   1450	      76.5	    15.198	     2.281	8.53574e+07	      76.5	    15.198	     2.264	8.33905e+07	      76.5	    15.181	     2.264	8.25902e+07	      76.5	    15.181	     2.281	8.41196e+07	      76.5	    15.198	    2.2725	8.43482e+07	      76.5	   15.1895	     2.264	 8.2973e+07	      76.5	    15.181	    2.2725	8.33274e+07	      76.5	   15.1895	     2.281	8.47193e+07	
         R10	   1451	      76.5	    15.198	     2.298	8.72823e+07	      76.5	    15.198	     2.281	8.53791e+07	      76.5	    15.181	     2.281	8.41376e+07	      76.5	    15.181	     2.298	8.54894e+07	      76.5	    15.198	    2.2895	8.62968e+07	      76.5	   15.1895	     2.281	 8.4739e+07	      76.5	    15.181	    2.2895	8.47784e+07	      76.5	   15.1895	     2.298	8.63652e+07	
         R10	   1452	      76.5	    15.198	     2.298	8.73159e+07	      76.5	    15.181	     2.298	8.55162e+07	      76.5	    15.181	     2.315	8.65111e+07	      76.5	    15.198	     2.315	8.89863e+07	      76.5	   15.1895	     2.298	8.63952e+07	      76.5	    15.181	    2.3065	8.59685e+07	      76.5	   15.1895	     2.315	8.77276e+07	      76.5	    15.198	    2.3065	8.81053e+07	
         R10	   1453	      76.5	    15.198	     2.315	 8.9036e+07	      76.5	    15.181	     2.315	8.65488e+07	      76.5	    15.181	     2.332	8.69223e+07	      76.5	    15.198	     2.332	9.01891e+07	      76.5	   15.1895	     2.315	8.77711e+07	      76.5	    15.181	    2.3235	 8.6678e+07	      76.5	   15.1895	     2.332	8.85364e+07	      76.5	    15.198	    2.3235	8.95503e+07	
         R10	   1454	      76.5	    15.198	     2.332	 9.0254e+07	      76.5	    15.181	     2.332	 8.6972e+07	      76.5	    15.181	     2.349	 8.6357e+07	      76.5	    15.198	     2.349	9.04443e+07	      76.5	   15.1895	     2.332	8.85934e+07	      76.5	    15.181	    2.3405	8.65932e+07	      76.5	   15.1895	     2.349	8.83854e+07	      76.5	    15.198	    2.3405	9.02654e+07	
         R10	   1455	      76.5	    15.215	     2.332	9.33444e+07	      76.5	    15.198	     2.332	9.03019e+07	      76.5	    15.198	     2.349	 9.0477e+07	      76.5	    15.215	     2.349	9.46676e+07	      76.5	   15.2065	     2.332	9.17911e+07	      76.5	    15.198	    2.3405	9.03056e+07	      76.5	   15.2065	     2.349	9.25442e+07	      76.5	    15.215	    2.3405	9.39128e+07	
         R10	   1456	      76.5	    15.215	     2.332	9.34022e+07	      76.5	    15.215	     2.349	9.47557e+07	      76.5	    15.232	     2.349	 9.8561e+07	      76.5	    15.232	   2.33201	 9.5723e+07	      76.5	    15.215	    2.3405	9.39855e+07	      76.5	   15.2235	     2.349	9.66083e+07	      76.5	    15.232	   2.34051	9.70488e+07	      76.5	   15.2235	     2.332	9.45139e+07	
         R10	   1457	      76.5	    15.232	   2.33201	9.57763e+07	      76.5	    15.232	     2.349	 9.8692e+07	      76.5	    15.249	     2.349	1.01252e+08	      76.5	    15.249	   2.33201	9.67308e+07	      76.5	    15.232	   2.34051	9.71408e+07	      76.5	   15.2405	     2.349	9.98911e+07	      76.5	    15.249	    2.3405	9.89132e+07	      76.5	   15.2405	   2.33201	9.61886e+07	
         R10	   1458	      76.5	    15.232	   2.31501	9.24266e+07	      76.5	    15.232	   2.33201	9.57065e+07	      76.5	    15.249	   2.33201	9.66491e+07	      76.5	    15.249	     2.315	 9.2469e+07	      76.5	    15.232	   2.32351	9.40097e+07	      76.5	   15.2405	   2.33201	9.61134e+07	      76.5	    15.249	    2.3235	9.45145e+07	      76.5	   15.2405	     2.315	9.23988e+07	
         R10	   1459	      76.5	    15.232	   2.31501	9.23946e+07	      76.5	    15.249	     2.315	9.24389e+07	      76.5	    15.249	     2.298	8.87224e+07	      76.5	    15.232	     2.298	 8.9189e+07	      76.5	   15.2405	     2.315	9.23678e+07	      76.5	    15.249	    2.3065	9.05516e+07	      76.5	   15.2405	     2.298	8.89187e+07	      76.5	    15.232	    2.3065	9.07549e+07	
         R10	   1460	      76.5	    15.232	     2.298	8.91741e+07	      76.5	    15.249	     2.298	8.87153e+07	      76.5	    15.249	     2.281	8.54222e+07	      76.5	    15.232	     2.281	8.61895e+07	      76.5	   15.2405	     2.298	8.89075e+07	      76.5	    15.249	    2.2895	8.70479e+07	      76.5	   15.2405	     2.281	8.57774e+07	      76.5	    15.232	    2.2895	 8.7656e+07	
         R10	   1461	      76.5	    15.215	     2.298	8.86311e+07	      76.5	    15.232	     2.298	 8.9154e+07	      76.5	    15.232	     2.281	8.61842e+07	      76.5	    15.215	     2.281	8.61394e+07	      76.5	   15.2235	     2.298	8.88588e+07	      76.5	    15.232	    2.2895	8.76432e+07	      76.5	   15.2235	     2.281	8.61344e+07	      76.5	    15.215	    2.2895	8.73545e+07	
         R10	   1462	      76.5	    15.215	     2.298	 8.8599e+07	      76.5	    15.215	     2.281	8.61263e+07	      76.5	    15.198	     2.281	8.53961e+07	      76.5	    15.198	     2.298	8.73128e+07	      76.5	    15.215	    2.2895	8.73319e+07	      76.5	   15.2065	     2.281	8.57373e+07	      76.5	    15.198	    2.2895	8.63205e+07	      76.5	   15.2065	     2.298	8.79284e+07	
         R10	   1463	      76.5	    15.215	     2.315	 9.1063e+07	      76.5	    15.215	     2.298	 8.8632e+07	      76.5	    15.198	     2.298	8.73402e+07	      76.5	    15.198	     2.315	 8.9027e+07	      76.5	    15.215	    2.3065	8.98043e+07	      76.5	   15.2065	     2.298	8.79584e+07	      76.5	    15.198	    2.3065	8.81378e+07	      76.5	   15.2065	     2.315	9.00145e+07	
         R10	   1464	      76.5	    15.215	     2.315	  9.112e+07	      76.5	    15.198	     2.315	8.90701e+07	      76.5	    15.198	     2.332	9.02348e+07	      76.5	    15.215	     2.332	9.32509e+07	      76.5	   15.2065	     2.315	9.00642e+07	      76.5	    15.198	    2.3235	  8.959e+07	      76.5	   15.2065	     2.332	9.17114e+07	      76.5	    15.215	    2.3235	9.21227e+07	
         R10	   1465	      76.5	    15.215	     2.315	9.11562e+07	      76.5	    15.215	     2.332	9.33235e+07	      76.5	    15.232	   2.33201	 9.5613e+07	      76.5	    15.232	   2.31501	9.24029e+07	      76.5	    15.215	    2.3235	9.21769e+07	      76.5	   15.2235	     2.332	9.44206e+07	      76.5	    15.232	   2.32351	9.39512e+07	      76.5	   15.2235	     2.315	9.17382e+07	
         R10	   1466	      76.5	    15.215	     2.298	8.86541e+07	      76.5	    15.215	     2.315	 9.1113e+07	      76.5	    15.232	   2.31501	9.23497e+07	      76.5	    15.232	     2.298	 8.9178e+07	      76.5	    15.215	    2.3065	8.98404e+07	      76.5	   15.2235	     2.315	9.16904e+07	      76.5	    15.232	    2.3065	9.07269e+07	      76.5	   15.2235	     2.298	8.88822e+07	
         R10	   1467	   75.7994	   15.3563	   2.45475	7.75046e+07	   75.8048	      15.3	       2.4	1.64459e+08	   75.7298	      15.3	       2.4	1.70915e+08	   75.7264	   15.3594	   2.45783	7.60251e+07	   75.8021	   15.3281	   2.42738	1.20579e+08	   75.7673	      15.3	       2.4	1.67684e+08	   75.7281	   15.3297	   2.42891	1.23098e+08	   75.7629	   15.3579	   2.45629	 7.6757e+07	
         R10	   1468	   75.8692	   15.3507	   2.44936	 7.9273e+07	   75.8749	      15.3	       2.4	1.58087e+08	   75.8048	      15.3	       2.4	1.64532e+08	   75.7994	   15.3563	   2.45475	7.73976e+07	   75.8721	   15.3254	   2.42468	1.18291e+08	   75.8399	      15.3	       2.4	1.61309e+08	   75.8021	   15.3281	   2.42738	1.20536e+08	   75.8343	   15.3535	   2.45206	7.83334e+07	
         R10	   1469	   75.9352	   15.3452	   2.44397	8.06048e+07	   75.9403	      15.3	       2.4	1.49495e+08	   75.8749	      15.3	       2.4	1.58257e+08	   75.8692	   15.3507	   2.44936	7.95476e+07	   75.9377	   15.3226	   2.42199	1.14671e+08	   75.9076	      15.3	       2.4	1.53876e+08	   75.8721	   15.3254	   2.42468	1.18483e+08	   75.9022	    15.348	   2.44667	8.00732e+07	
         R10	   1470	   75.9966	   15.3412	   2.44008	7.79708e+07	   76.0009	      15.3	       2.4	1.39487e+08	   75.9403	      15.3	       2.4	1.49416e+08	   75.9352	   15.3452	   2.44397	8.05587e+07	   75.9988	   15.3206	   2.42004	1.08331e+08	   75.9706	      15.3	       2.4	1.44451e+08	   75.9377	   15.3226	   2.42199	1.14635e+08	   75.9659	   15.3432	   2.44202	7.92593e+07	
         R10	   1471	   76.0529	   15.3384	   2.43732	 7.2862e+07	   76.0567	      15.3	       2.4	1.27757e+08	   76.0009	      15.3	       2.4	1.39372e+08	   75.9966	   15.3412	   2.44008	7.80636e+07	   76.0548	   15.3192	   2.41866	9.98434e+07	   76.0288	      15.3	       2.4	1.33564e+08	   75.9988	   15.3206	   2.42004	 1.0831e+08	   76.0248	   15.3398	    2.4387	7.54562e+07	
         R10	   1472	   76.1036	   15.3355	   2.43453	6.71179e+07	   76.1076	      15.3	       2.4	1.14833e+08	   76.0567	      15.3	       2.4	1.27841e+08	   76.0529	   15.3384	   2.43732	7.27922e+07	   76.1056	   15.3177	   2.41726	9.04189e+07	   76.0821	      15.3	       2.4	1.21335e+08	   76.0548	   15.3192	   2.41866	9.98307e+07	   76.0783	   15.3369	   2.43592	 6.9947e+07	
         R10	   1473	   76.1495	    15.332	   2.43116	6.14291e+07	   76.1538	      15.3	       2.4	1.01182e+08	   76.1076	      15.3	       2.4	1.14862e+08	   76.1036	   15.3355	   2.43453	6.69772e+07	   76.1516	    15.316	   2.41558	 8.0685e+07	   76.1307	      15.3	       2.4	 1.0802e+08	   76.1056	   15.3177	   2.41726	9.03452e+07	   76.1266	   15.3338	   2.43284	6.41979e+07	
         R10	   1474	   76.1915	   15.3285	   2.42777	5.46778e+07	   76.1952	      15.3	       2.4	8.74495e+07	   76.1538	      15.3	       2.4	1.01404e+08	   76.1495	    15.332	   2.43116	6.08982e+07	   76.1933	   15.3143	   2.41389	7.04641e+07	   76.1745	      15.3	       2.4	9.44251e+07	   76.1516	    15.316	   2.41558	 8.0553e+07	   76.1705	   15.3303	   2.42947	5.77644e+07	
         R10	   1475	   76.2276	    15.325	   2.42436	4.82026e+07	   76.2317	      15.3	       2.4	7.37284e+07	   76.1952	      15.3	       2.4	8.75039e+07	   76.1915	   15.3285	   2.42777	5.39489e+07	   76.2297	   15.3125	   2.41218	6.03811e+07	   76.2135	      15.3	       2.4	8.06141e+07	   76.1933	   15.3143	   2.41389	7.01801e+07	   76.2095	   15.3268	   2.42607	5.10488e+07	
         R10	   1476	   76.2592	   15.3207	   2.42015	4.15455e+07	   76.2635	      15.3	       2.4	6.21273e+07	   76.2317	      15.3	       2.4	7.41734e+07	   76.2276	    15.325	   2.42436	4.82213e+07	   76.2614	   15.3104	   2.41007	5.13873e+07	   76.2476	      15.3	       2.4	6.81453e+07	   76.2297	   15.3125	   2.41218	6.06055e+07	   76.2434	   15.3229	   2.42225	4.48828e+07	
         R10	   1477	   76.2868	   15.3174	    2.4169	3.63286e+07	   76.2905	      15.3	       2.4	5.14254e+07	   76.2635	      15.3	       2.4	6.17984e+07	   76.2592	   15.3207	   2.42015	4.25465e+07	   76.2886	   15.3087	   2.40845	4.35188e+07	    76.277	      15.3	       2.4	5.66068e+07	   76.2614	   15.3104	   2.41007	5.17099e+07	    76.273	    15.319	   2.41852	3.94331e+07	
         R10	   1478	   76.3098	   15.3169	   2.41643	2.88154e+07	   76.3126	      15.3	       2.4	4.28698e+07	   76.2905	      15.3	       2.4	5.16212e+07	   76.2868	   15.3174	    2.4169	3.61995e+07	   76.3112	   15.3084	   2.40821	3.55633e+07	   76.3016	      15.3	       2.4	4.72418e+07	   76.2886	   15.3087	   2.40845	4.34911e+07	   76.2983	   15.3171	   2.41667	3.24979e+07	
         R10	   1479	     76.33	   15.3122	   2.41185	2.61536e+07	     76.33	      15.3	       2.4	3.68044e+07	   76.3126	      15.3	       2.4	4.31509e+07	   76.3098	   15.3169	   2.41643	2.87339e+07	     76.33	   15.3061	   2.40593	3.13301e+07	   76.3213	      15.3	       2.4	3.99724e+07	   76.3112	   15.3084	   2.40821	3.56312e+07	   76.3199	   15.3145	   2.41414	2.73961e+07	
         R10	   1480	   76.3111	   15.3471	    2.4458	2.26738e+07	     76.33	   15.3487	   2.44742	2.00775e+07	     76.33	   15.3366	   2.43556	1.57099e+07	   76.3103	   15.3332	   2.43227	1.75541e+07	   76.3206	   15.3479	   2.44661	2.01529e+07	     76.33	   15.3426	   2.44149	1.58466e+07	   76.3201	   15.3349	   2.43392	1.64961e+07	   76.3107	   15.3401	   2.43903	1.93712e+07	
         R10	   1481	   76.3095	     15.36	   2.45837	  2.327e+07	     76.33	   15.3609	   2.45928	3.06524e+07	     76.33	   15.3487	   2.44742	 1.9792e+07	   76.3111	   15.3471	    2.4458	2.10754e+07	   76.3197	   15.3605	   2.45882	2.69063e+07	     76.33	   15.3548	   2.45335	2.50952e+07	   76.3206	   15.3479	   2.44661	 2.0306e+07	   76.3103	   15.3535	   2.45208	2.19163e+07	
         R10	   1482	   76.3116	   15.3707	   2.46879	3.50894e+07	     76.33	   15.3731	   2.47113	3.91906e+07	     76.33	   15.3609	   2.45928	3.01901e+07	   76.3095	     15.36	   2.45837	2.33388e+07	   76.3208	   15.3719	   2.46996	3.71389e+07	     76.33	    15.367	    2.4652	3.46643e+07	   76.3197	   15.3605	   2.45882	2.60814e+07	   76.3106	   15.3653	   2.46358	2.85666e+07	
         R10	   1483	   76.3065	   15.3854	   2.48306	3.85155e+07	     76.33	   15.3853	   2.48299	5.09532e+07	     76.33	   15.3731	   2.47113	3.90008e+07	   76.3116	   15.3707	   2.46879	3.41618e+07	   76.3183	   15.3853	   2.48302	4.44327e+07	     76.33	   15.3792	   2.47706	4.48447e+07	   76.3208	   15.3719	   2.46996	3.65791e+07	   76.3091	    15.378	   2.47593	3.63093e+07	
         R10	   1484	    76.312	    15.397	   2.49437	4.90669e+07	     76.33	   15.3975	   2.49484	5.55412e+07	     76.33	   15.3853	   2.48299	4.55801e+07	   76.3065	   15.3854	   2.48306	4.34485e+07	    76.321	   15.3972	    2.4946	 5.2203e+07	     76.33	   15.3914	   2.48891	5.03848e+07	   76.3183	   15.3853	   2.48302	 4.4437e+07	   76.3092	   15.3912	   2.48872	4.62293e+07	
         R10	   1485	   76.3116	   15.4106	   2.50759	5.72283e+07	     76.33	   15.4097	    2.5067	5.72391e+07	     76.33	   15.3975	   2.49484	 5.7764e+07	    76.312	    15.397	   2.49437	5.27951e+07	   76.3208	   15.4101	   2.50714	5.71845e+07	     76.33	   15.4036	   2.50077	5.71617e+07	    76.321	   15.3972	    2.4946	5.50387e+07	   76.3118	   15.4038	   2.50098	5.49918e+07	
         R10	   1486	   76.3092	   15.4229	   2.51959	6.47913e+07	     76.33	   15.4218	   2.51855	6.55047e+07	     76.33	   15.4097	    2.5067	6.20317e+07	   76.3116	   15.4106	   2.50759	5.70063e+07	   76.3196	   15.4224	   2.51907	6.50896e+07	     76.33	   15.4158	   2.51262	6.37333e+07	   76.3208	   15.4101	   2.50714	 5.9362e+07	   76.3104	   15.4167	   2.51359	 6.0869e+07	
         R10	   1487	   76.3452	   15.4349	   2.53121	7.22241e+07	    76.347	   15.4218	   2.51855	6.48651e+07	     76.33	   15.4218	   2.51855	7.14293e+07	   76.3311	   15.4347	   2.53106	 6.2431e+07	   76.3461	   15.4284	   2.52488	6.84728e+07	   76.3385	   15.4218	   2.51855	  6.796e+07	   76.3305	   15.4283	    2.5248	6.67902e+07	   76.3382	   15.4348	   2.53113	6.72727e+07	
         R10	   1488	   76.3635	   15.4343	   2.53068	6.90808e+07	    76.364	   15.4218	   2.51855	7.37883e+07	    76.347	   15.4218	   2.51855	6.54259e+07	   76.3452	   15.4349	   2.53121	7.22212e+07	   76.3637	   15.4281	   2.52462	 7.1409e+07	   76.3555	   15.4218	   2.51855	 6.9594e+07	   76.3461	   15.4284	   2.52488	6.88193e+07	   76.3543	   15.4346	   2.53095	7.06389e+07	
         R10	   1489	     76.38	   15.4368	   2.53309	 7.4888e+07	    76.381	   15.4218	   2.51855	5.99489e+07	    76.364	   15.4218	   2.51855	7.30775e+07	   76.3635	   15.4343	   2.53068	7.42395e+07	   76.3805	   15.4293	   2.52582	6.70494e+07	   76.3725	   15.4218	   2.51855	6.61967e+07	   76.3637	   15.4281	   2.52462	 7.3627e+07	   76.3717	   15.4356	   2.53189	7.44532e+07	
         R10	   1490	   76.3948	   15.4356	   2.53193	7.74087e+07	    76.398	   15.4218	   2.51855	6.77086e+07	    76.381	   15.4218	   2.51855	7.24455e+07	     76.38	   15.4368	   2.53309	6.65233e+07	   76.3964	   15.4287	   2.52524	7.23111e+07	   76.3895	   15.4218	   2.51855	6.95545e+07	   76.3805	   15.4293	   2.52582	6.90855e+07	   76.3874	   15.4362	   2.53251	7.19308e+07	
         R10	   1491	   76.4143	   15.4355	    2.5318	7.31579e+07	    76.415	   15.4218	   2.51855	7.30543e+07	    76.398	   15.4218	   2.51855	 6.8537e+07	   76.3948	   15.4356	   2.53193	7.49606e+07	   76.4146	   15.4286	   2.52517	7.30906e+07	   76.4065	   15.4218	   2.51855	7.07048e+07	   76.3964	   15.4287	   2.52524	7.15191e+07	   76.4045	   15.4355	   2.53186	7.39595e+07	
         R10	   1492	   76.4288	   15.4365	   2.53282	6.85756e+07	    76.432	   15.4218	   2.51855	 7.0377e+07	    76.415	   15.4218	   2.51855	7.21906e+07	   76.4143	   15.4355	    2.5318	7.58532e+07	   76.4304	   15.4292	   2.52569	6.91669e+07	   76.4235	   15.4218	   2.51855	7.09708e+07	   76.4146	   15.4286	   2.52517	7.37785e+07	   76.4215	    15.436	   2.53231	7.20224e+07	
         R10	   1493	   76.4453	   15.4339	   2.53029	6.98459e+07	    76.449	   15.4218	   2.51855	 6.5661e+07	    76.432	   15.4218	   2.51855	7.17639e+07	   76.4288	   15.4365	   2.53282	7.35528e+07	   76.4472	   15.4279	   2.52442	6.75133e+07	   76.4405	   15.4218	   2.51855	6.84172e+07	   76.4304	   15.4292	   2.52569	7.23882e+07	   76.4371	   15.4352	   2.53155	7.14892e+07	
         R10	   1494	   76.4641	   15.4373	   2.53358	6.64006e+07	    76.466	   15.4218	   2.51855	6.52972e+07	    76.449	   15.4218	   2.51855	7.50275e+07	   76.4453	   15.4339	   2.53029	6.41389e+07	   76.4651	   15.4296	   2.52607	6.58185e+07	   76.4575	   15.4218	   2.51855	 7.0056e+07	   76.4472	   15.4279	   2.52442	6.93713e+07	   76.4547	   15.4356	   2.53193	 6.5244e+07	
         R10	   1495	   76.4839	   15.4361	   2.53243	6.20007e+07	    76.483	   15.4218	   2.51855	6.29489e+07	    76.466	   15.4218	   2.51855	6.66433e+07	   76.4641	   15.4373	   2.53358	6.79258e+07	   76.4835	    15.429	   2.52549	6.23778e+07	   76.4745	   15.4218	   2.51855	6.46123e+07	   76.4651	   15.4296	   2.52607	6.70537e+07	    76.474	   15.4367	     2.533	6.48986e+07	
         R10	   1496	      76.5	   15.4344	   2.53078	6.11595e+07	      76.5	   15.4218	   2.51855	5.75423e+07	    76.483	   15.4218	   2.51855	6.32115e+07	   76.4839	   15.4361	   2.53243	6.29855e+07	      76.5	   15.4281	   2.52466	5.91463e+07	   76.4915	   15.4218	   2.51855	6.01621e+07	   76.4835	    15.429	   2.52549	6.28901e+07	    76.492	   15.4353	    2.5316	6.18148e+07	
         R10	   1497	   76.4742	   15.4563	   2.55203	6.59976e+07	      76.5	   15.4512	   2.54714	6.67546e+07	      76.5	   15.4344	   2.53078	6.04382e+07	   76.4839	   15.4361	   2.53243	6.33828e+07	   76.4871	   15.4537	   2.54958	6.59007e+07	      76.5	   15.4428	   2.53896	6.33645e+07	    76.492	   15.4353	    2.5316	6.16252e+07	    76.479	   15.4462	   2.54223	6.45863e+07	
         R10	   1498	   76.4679	   15.4776	   2.57279	6.70437e+07	      76.5	   15.4723	   2.56762	7.58472e+07	      76.5	   15.4512	   2.54714	6.55261e+07	   76.4742	   15.4563	   2.55203	6.82383e+07	   76.4839	   15.4749	   2.57021	7.06756e+07	      76.5	   15.4618	   2.55738	7.04699e+07	   76.4871	   15.4537	   2.54958	 6.6312e+07	    76.471	   15.4669	   2.56241	6.75435e+07	
         R10	   1499	   76.4609	   15.5021	   2.59662	6.94749e+07	      76.5	   15.4976	   2.59224	8.57548e+07	      76.5	   15.4723	   2.56762	7.42102e+07	   76.4679	   15.4776	   2.57279	7.11771e+07	   76.4805	   15.4998	   2.59443	7.64368e+07	      76.5	   15.4849	   2.57993	7.98145e+07	   76.4839	   15.4749	   2.57021	7.18839e+07	   76.4644	   15.4898	   2.58471	7.02883e+07	
         R10	   1500	   76.4548	   15.5311	   2.62487	7.24883e+07	      76.5	   15.5271	     2.621	 9.5736e+07	      76.5	   15.4976	   2.59224	8.58124e+07	   76.4609	   15.5021	   2.59662	7.01574e+07	   76.4774	   15.5291	   2.62293	8.25862e+07	      76.5	   15.5124	   2.60662	9.06534e+07	   76.4805	   15.4998	   2.59443	7.68973e+07	   76.4579	   15.5166	   2.61075	7.13026e+07	
         R10	   1501	   76.4491	   15.5648	   2.65765	7.08697e+07	      76.5	   15.5609	   2.65388	1.04938e+08	      76.5	   15.5271	     2.621	9.59288e+07	   76.4548	   15.5311	   2.62487	7.19371e+07	   76.4746	   15.5629	   2.65576	8.64334e+07	      76.5	    15.544	   2.63744	1.00377e+08	   76.4774	   15.5291	   2.62293	8.25271e+07	    76.452	    15.548	   2.64126	7.13662e+07	
         R10	   1502	   76.4445	   15.6025	   2.69436	 6.7527e+07	      76.5	    15.599	   2.69089	1.10042e+08	      76.5	   15.5609	   2.65388	1.05183e+08	   76.4491	   15.5648	   2.65765	7.07918e+07	   76.4722	   15.6008	   2.69262	8.74592e+07	      76.5	     15.58	   2.67238	1.07588e+08	   76.4746	   15.5629	   2.65576	8.65769e+07	   76.4468	   15.5837	     2.676	6.90967e+07	
         R10	   1503	     76.44	   15.6452	   2.73583	6.09233e+07	      76.5	   15.6413	   2.73204	 1.0945e+08	      76.5	    15.599	   2.69089	1.10528e+08	   76.4445	   15.6025	   2.69436	6.77764e+07	     76.47	   15.6432	   2.73394	8.38945e+07	      76.5	   15.6201	   2.71146	1.09984e+08	   76.4722	   15.6008	   2.69262	8.78232e+07	   76.4423	   15.6238	    2.7151	6.42175e+07	
         R10	   1504	   76.4347	    15.692	   2.78144	5.12271e+07	      76.5	   15.6878	   2.77731	1.00543e+08	      76.5	   15.6413	   2.73204	1.09935e+08	     76.44	   15.6452	   2.73583	6.16573e+07	   76.4674	   15.6899	   2.77938	7.41942e+07	      76.5	   15.6645	   2.75467	1.05238e+08	     76.47	   15.6432	   2.73394	8.44844e+07	   76.4374	   15.6686	   2.75864	5.61285e+07	
         R10	   1505	   76.4277	   15.7435	   2.83151	3.80912e+07	      76.5	   15.7386	   2.82672	 8.4159e+07	      76.5	   15.6878	   2.77731	1.01944e+08	   76.4347	    15.692	   2.78144	5.13707e+07	   76.4638	    15.741	   2.82911	5.73837e+07	      76.5	   15.7132	   2.80201	9.30205e+07	   76.4674	   15.6899	   2.77938	7.51546e+07	   76.4312	   15.7178	   2.80648	4.33243e+07	
         R10	   1506	   76.4204	   15.7983	   2.88486	2.46916e+07	      76.5	   15.7936	   2.88026	6.02109e+07	      76.5	   15.7386	   2.82672	8.57237e+07	   76.4277	   15.7435	   2.83151	3.79739e+07	   76.4602	    15.796	   2.88256	3.54402e+07	      76.5	   15.7661	   2.85349	7.26495e+07	   76.4638	    15.741	   2.82911	5.91258e+07	    76.424	   15.7709	   2.85819	2.70828e+07	
         R10	   1507	   76.4156	   15.8564	   2.94138	7.75184e+07	      76.5	   15.8529	   2.93793	7.60429e+07	      76.5	   15.7936	   2.88026	 6.3062e+07	   76.4204	   15.7983	   2.88486	3.19051e+07	   76.4578	   15.8546	   2.93965	1.53843e+07	      76.5	   15.8232	   2.90909	6.91135e+07	   76.4602	    15.796	   2.88256	4.29303e+07	    76.418	   15.8274	   2.91312	 3.4501e+07	
         R10	   1508	   76.4145	   15.9164	   2.99973	1.14511e+08	      76.5	   15.9164	   2.99973	1.11873e+08	      76.5	   15.8529	   2.93793	1.01362e+08	   76.4156	   15.8564	   2.94138	7.37611e+07	   76.4573	   15.9164	   2.99973	9.31923e+07	      76.5	   15.8846	   2.96883	2.90817e+07	   76.4578	   15.8546	   2.93965	5.41372e+07	   76.4151	   15.8864	   2.97055	6.24114e+07	
         R10	   1509	   76.3268	   15.9164	   2.99973	8.53673e+07	   76.4145	   15.9164	   2.99973	1.09704e+08	   76.4156	   15.8564	   2.94138	5.14579e+07	   76.3286	   15.8559	   2.94083	4.18788e+07	   76.3707	   15.9164	   2.99973	9.19562e+07	   76.4151	   15.8864	   2.97055	 5.4113e+07	   76.3721	   15.8561	   2.94111	4.07306e+07	   76.3277	   15.8861	   2.97028	5.62652e+07	
         R10	   1510	    76.239	   15.8537	   2.93877	3.24545e+07	   76.2369	   15.9164	   2.99973	9.32137e+07	   76.3268	   15.9164	   2.99973	7.81967e+07	   76.3286	   15.8559	   2.94083	 4.0301e+07	   76.2379	   15.8851	   2.96925	5.57776e+07	   76.2818	   15.9164	   2.99973	8.38128e+07	   76.3277	   15.8861	   2.97028	5.15738e+07	   76.2838	   15.8548	    2.9398	3.55315e+07	
         R10	   1511	   76.1457	   15.8522	    2.9373	3.36586e+07	   76.1447	   15.9164	   2.99973	1.12806e+08	   76.2369	   15.9164	   2.99973	9.34496e+07	    76.239	   15.8537	   2.93877	 3.3589e+07	   76.1452	   15.8843	   2.96851	6.68495e+07	   76.1908	   15.9164	   2.99973	1.02388e+08	   76.2379	   15.8851	   2.96925	5.60827e+07	   76.1923	    15.853	   2.93803	3.30177e+07	
         R10	   1512	   76.0498	   15.8513	   2.93637	3.78201e+07	   76.0502	   15.9164	   2.99973	1.28821e+08	   76.1447	   15.9164	   2.99973	1.12505e+08	   76.1457	   15.8522	    2.9373	3.45062e+07	     76.05	   15.8838	   2.96805	7.74003e+07	   76.0974	   15.9164	   2.99973	1.20415e+08	   76.1452	   15.8843	   2.96851	6.68703e+07	   76.0977	   15.8517	   2.93684	 3.5747e+07	
         R10	   1513	   75.9509	   15.8489	   2.93411	4.06247e+07	   75.9535	   15.9164	   2.99973	 1.3862e+08	   76.0502	   15.9164	   2.99973	 1.2871e+08	   76.0498	   15.8513	   2.93637	3.72541e+07	   75.9522	   15.8827	   2.96692	 8.4464e+07	   76.0019	   15.9164	   2.99973	1.33557e+08	     76.05	   15.8838	   2.96805	7.72515e+07	   76.0004	   15.8501	   2.93524	3.88226e+07	
         R10	   1514	   75.8516	   15.8457	   2.93098	4.05178e+07	   75.8546	   15.9164	   2.99973	1.44563e+08	   75.9535	   15.9164	   2.99973	 1.3851e+08	   75.9509	   15.8489	   2.93411	4.03613e+07	   75.8531	   15.8811	   2.96535	8.78858e+07	   75.9041	   15.9164	   2.99973	1.41482e+08	   75.9522	   15.8827	   2.96692	 8.4322e+07	   75.9012	   15.8473	   2.93255	4.04141e+07	
         R10	   1515	   75.7507	   15.8425	   2.92782	3.97025e+07	   75.7534	   15.9164	   2.99973	1.47464e+08	   75.8546	   15.9164	   2.99973	1.44483e+08	   75.8516	   15.8457	   2.93098	4.07403e+07	   75.7521	   15.8794	   2.96377	8.87839e+07	    75.804	   15.9164	   2.99973	1.45947e+08	   75.8531	   15.8811	   2.96535	8.78602e+07	   75.8011	   15.8441	    2.9294	 4.0202e+07	
         R10	   1516	     75.65	   15.8382	   2.92363	3.55108e+07	     75.65	   15.9164	   2.99973	1.47741e+08	   75.7534	   15.9164	   2.99973	1.47475e+08	   75.7507	   15.8425	   2.92782	3.91183e+07	     75.65	   15.8773	   2.96168	 8.7644e+07	   75.7017	   15.9164	   2.99973	1.47577e+08	   75.7521	   15.8794	   2.96377	8.87878e+07	   75.7004	   15.8403	   2.92572	3.73128e+07	
         R10	   1517	     75.65	   15.7624	   2.84989	5.06299e+07	     75.65	   15.8382	   2.92363	4.42619e+07	   75.7507	   15.8425	   2.92782	 5.1202e+07	   75.7517	   15.7678	   2.85512	4.99395e+07	     75.65	   15.8003	   2.88676	2.46182e+07	   75.7004	   15.8403	   2.92572	4.77235e+07	   75.7512	   15.8051	   2.89147	2.71685e+07	   75.7008	   15.7651	   2.85251	5.02607e+07	
         R10	   1518	   75.7501	   15.6963	   2.78554	9.04737e+07	     75.65	    15.689	   2.77853	9.18035e+07	     75.65	   15.7624	   2.84989	5.39887e+07	   75.7517	   15.7678	   2.85512	5.38624e+07	      75.7	   15.6926	   2.78203	9.11305e+07	     75.65	   15.7257	   2.81421	7.16331e+07	   75.7008	   15.7651	   2.85251	5.37817e+07	   75.7509	    15.732	   2.82033	7.00071e+07	
         R10	   1519	    75.744	   15.6234	   2.71465	1.06874e+08	     75.65	   15.6181	   2.70953	 1.0584e+08	     75.65	    15.689	   2.77853	9.24135e+07	   75.7501	   15.6963	   2.78554	 9.0324e+07	    75.697	   15.6208	   2.71209	1.06346e+08	     75.65	   15.6536	   2.74403	 9.8942e+07	      75.7	   15.6926	   2.78203	 9.1327e+07	    75.747	   15.6598	    2.7501	9.81495e+07	
         R10	   1520	   75.7395	   15.5526	   2.64582	 9.6938e+07	     75.65	   15.5496	   2.64289	9.43968e+07	     75.65	   15.6181	   2.70953	1.05907e+08	    75.744	   15.6234	   2.71465	1.06833e+08	   75.6948	   15.5511	   2.64435	9.56611e+07	     75.65	   15.5839	   2.67621	1.00066e+08	    75.697	   15.6208	   2.71209	1.06358e+08	   75.7418	    15.588	   2.68024	1.01801e+08	
         R10	   1521	   75.7359	   15.4855	   2.58052	6.36783e+07	     75.65	   15.4836	   2.57862	6.13412e+07	     75.65	   15.5496	   2.64289	9.36425e+07	   75.7395	   15.5526	   2.64582	9.63016e+07	    75.693	   15.4846	   2.57957	6.25047e+07	     75.65	   15.5166	   2.61075	7.72972e+07	   75.6948	   15.5511	   2.64435	9.49552e+07	   75.7377	   15.5191	   2.61317	7.97993e+07	
         R10	   1522	   75.7301	   15.4214	    2.5181	 2.4873e+07	     75.65	     15.42	   2.51671	 2.4679e+07	     75.65	   15.4836	   2.57862	6.08818e+07	   75.7359	   15.4855	   2.58052	6.45937e+07	   75.6901	   15.4207	    2.5174	 2.4394e+07	     75.65	   15.4518	   2.54767	3.60705e+07	    75.693	   15.4846	   2.57957	6.27051e+07	    75.733	   15.4535	   2.54931	4.03392e+07	
         R10	   1523	   75.7264	   15.3594	   2.45783	7.61262e+07	   75.7298	      15.3	       2.4	1.70634e+08	     75.65	      15.3	       2.4	1.69899e+08	     75.65	   15.3588	   2.45717	8.48924e+07	   75.7281	   15.3297	   2.42891	1.22964e+08	   75.6899	      15.3	       2.4	1.70266e+08	     75.65	   15.3294	   2.42859	1.27119e+08	   75.6882	   15.3591	    2.4575	8.04942e+07	
         R10	   1524	    75.872	   15.3999	   2.49721	2.95213e+07	   75.8692	   15.3507	   2.44936	7.94221e+07	   75.7994	   15.3563	   2.45475	7.70703e+07	   75.8028	   15.4145	   2.51139	2.44245e+07	   75.8706	   15.3753	   2.47328	5.12425e+07	   75.8343	   15.3535	   2.45206	7.82437e+07	   75.8011	   15.3854	   2.48307	4.41808e+07	   75.8374	   15.4072	    2.5043	 2.6177e+07	
         R10	   1525	   75.9399	   15.3876	   2.48519	3.33954e+07	   75.9352	   15.3452	   2.44397	8.01268e+07	   75.8692	   15.3507	   2.44936	7.86615e+07	    75.872	   15.3999	   2.49721	2.96152e+07	   75.9375	   15.3664	   2.46458	5.48058e+07	   75.9022	    15.348	   2.44667	7.93832e+07	   75.8706	   15.3753	   2.47328	 5.0824e+07	   75.9059	   15.3937	    2.4912	3.13198e+07	
         R10	   1526	   76.0007	   15.3815	   2.47931	3.51667e+07	   75.9966	   15.3412	   2.44008	7.82715e+07	   75.9352	   15.3452	   2.44397	8.02904e+07	   75.9399	   15.3876	   2.48519	3.45668e+07	   75.9986	   15.3614	   2.45969	5.47785e+07	   75.9659	   15.3432	   2.44202	7.92772e+07	   75.9375	   15.3664	   2.46458	5.53292e+07	   75.9703	   15.3845	   2.48225	3.48377e+07	
         R10	   1527	   76.0576	   15.3762	   2.47417	3.58408e+07	   76.0529	   15.3384	   2.43732	7.31308e+07	   75.9966	   15.3412	   2.44008	7.78899e+07	   76.0007	   15.3815	   2.47931	 3.5881e+07	   76.0553	   15.3573	   2.45575	5.22199e+07	   76.0248	   15.3398	    2.4387	7.55045e+07	   75.9986	   15.3614	   2.45969	5.48608e+07	   76.0291	   15.3789	   2.47674	3.58312e+07	
         R10	   1528	   76.1083	   15.3706	   2.46867	 3.5837e+07	   76.1036	   15.3355	   2.43453	6.70922e+07	   76.0529	   15.3384	   2.43732	 7.2568e+07	   76.0576	   15.3762	   2.47417	3.59801e+07	    76.106	    15.353	    2.4516	4.92377e+07	   76.0783	   15.3369	   2.43592	6.98233e+07	   76.0553	   15.3573	   2.45575	5.21492e+07	    76.083	   15.3734	   2.47142	3.58772e+07	
         R10	   1529	    76.154	   15.3633	   2.46155	3.53238e+07	   76.1495	    15.332	   2.43116	6.13607e+07	   76.1036	   15.3355	   2.43453	6.67605e+07	   76.1083	   15.3706	   2.46867	 3.6229e+07	   76.1517	   15.3476	   2.44636	4.61881e+07	   76.1266	   15.3338	   2.43284	6.40588e+07	    76.106	    15.353	    2.4516	4.91965e+07	   76.1311	   15.3669	   2.46511	3.57733e+07	
         R10	   1530	   76.1958	   15.3552	   2.45368	3.42647e+07	   76.1915	   15.3285	   2.42777	5.43271e+07	   76.1495	    15.332	   2.43116	6.06005e+07	    76.154	   15.3633	   2.46155	3.57832e+07	   76.1936	   15.3419	   2.44073	4.25238e+07	   76.1705	   15.3303	   2.42947	5.74521e+07	   76.1517	   15.3476	   2.44636	4.62275e+07	   76.1749	   15.3592	   2.45761	3.50232e+07	
         R10	   1531	    76.235	   15.3497	   2.44833	3.06207e+07	   76.2276	    15.325	   2.42436	4.84539e+07	   76.1915	   15.3285	   2.42777	5.44412e+07	   76.1958	   15.3552	   2.45368	3.34433e+07	   76.2313	   15.3374	   2.43635	3.75195e+07	   76.2095	   15.3268	   2.42607	5.14322e+07	   76.1936	   15.3419	   2.44073	 4.2359e+07	   76.2154	   15.3524	   2.45101	3.20058e+07	
         R10	   1532	   76.2648	   15.3381	   2.43705	2.87691e+07	   76.2592	   15.3207	   2.42015	 4.3007e+07	   76.2276	    15.325	   2.42436	4.67708e+07	    76.235	   15.3497	   2.44833	2.89313e+07	    76.262	   15.3294	    2.4286	3.49904e+07	   76.2434	   15.3229	   2.42225	 4.4884e+07	   76.2313	   15.3374	   2.43635	3.62089e+07	   76.2499	   15.3439	   2.44269	2.86299e+07	
         R10	   1533	   76.2895	   15.3333	   2.43243	2.48503e+07	   76.2868	   15.3174	    2.4169	3.61546e+07	   76.2592	   15.3207	   2.42015	 4.2086e+07	   76.2648	   15.3381	   2.43705	2.77448e+07	   76.2882	   15.3254	   2.42467	2.97246e+07	    76.273	    15.319	   2.41852	3.90979e+07	    76.262	   15.3294	    2.4286	3.41772e+07	   76.2772	   15.3357	   2.43474	 2.6297e+07	
         R10	   1534	   76.3103	   15.3332	   2.43227	1.90232e+07	     76.33	   15.3366	   2.43556	1.48631e+07	     76.33	   15.3244	   2.42371	1.66576e+07	   76.3098	   15.3169	   2.41643	2.87836e+07	   76.3201	   15.3349	   2.43392	 1.6327e+07	     76.33	   15.3305	   2.42964	1.44124e+07	   76.3199	   15.3206	   2.42007	2.25201e+07	   76.3101	    15.325	   2.42435	2.30101e+07	
         R10	   1535	   76.2907	   15.3712	    2.4693	2.46159e+07	   76.3116	   15.3707	   2.46879	3.74286e+07	   76.3095	     15.36	   2.45837	2.33255e+07	   76.2828	   15.3559	   2.45444	2.70899e+07	   76.3012	    15.371	   2.46904	3.07203e+07	   76.3106	   15.3653	   2.46358	 2.9862e+07	   76.2961	    15.358	    2.4564	2.50795e+07	   76.2867	   15.3636	   2.46187	2.56415e+07	
         R10	   1536	   76.2882	   15.4032	   2.50043	4.99484e+07	    76.312	    15.397	   2.49437	 5.2047e+07	   76.3065	   15.3854	   2.48306	4.62819e+07	   76.2883	   15.3899	   2.48749	4.52543e+07	   76.3001	   15.4001	    2.4974	5.08126e+07	   76.3092	   15.3912	   2.48872	4.88173e+07	   76.2974	   15.3876	   2.48528	 4.5751e+07	   76.2882	   15.3966	   2.49396	4.75639e+07	
         R10	   1537	   76.2874	   15.4227	   2.51942	6.05831e+07	   76.3092	   15.4229	   2.51959	6.40632e+07	   76.3116	   15.4106	   2.50759	5.93537e+07	   76.2882	   15.4032	   2.50043	5.25589e+07	   76.2983	   15.4228	    2.5195	6.22684e+07	   76.3104	   15.4167	   2.51359	6.17061e+07	   76.2999	   15.4069	   2.50401	5.59434e+07	   76.2878	    15.413	   2.50992	5.65544e+07	
         R10	   1538	   76.3311	   15.4347	   2.53106	7.24243e+07	     76.33	   15.4218	   2.51855	 6.1415e+07	   76.3092	   15.4229	   2.51959	6.34241e+07	     76.31	   15.4362	   2.53254	6.84755e+07	   76.3305	   15.4283	    2.5248	6.68046e+07	   76.3196	   15.4224	   2.51907	6.23782e+07	   76.3096	   15.4296	   2.52606	 6.5922e+07	   76.3206	   15.4355	    2.5318	7.04269e+07	
         R10	   1539	   76.3497	   15.4511	   2.54698	7.44929e+07	   76.3452	   15.4349	   2.53121	6.83592e+07	   76.3311	   15.4347	   2.53106	7.38071e+07	   76.3269	   15.4508	   2.54669	6.74652e+07	   76.3475	    15.443	    2.5391	7.14119e+07	   76.3382	   15.4348	   2.53113	7.10784e+07	    76.329	   15.4427	   2.53887	 7.0476e+07	   76.3383	   15.4509	   2.54684	7.07435e+07	
         R10	   1540	   76.4028	   15.4556	   2.55143	 7.5923e+07	   76.3948	   15.4356	   2.53193	 7.2609e+07	     76.38	   15.4368	   2.53309	7.26006e+07	   76.3765	   15.4499	   2.54586	6.16058e+07	   76.3988	   15.4456	   2.54168	7.42508e+07	   76.3874	   15.4362	   2.53251	7.24171e+07	   76.3782	   15.4434	   2.53948	6.69142e+07	   76.3896	   15.4528	   2.54865	6.87458e+07	
         R10	   1541	   76.4237	   15.4999	   2.59454	6.51882e+07	   76.4609	   15.5021	   2.59662	7.21574e+07	   76.4679	   15.4776	   2.57279	6.86297e+07	   76.4367	   15.4738	    2.5691	6.80875e+07	   76.4423	    15.501	   2.59558	6.78394e+07	   76.4644	   15.4898	   2.58471	7.03548e+07	   76.4523	   15.4757	   2.57095	6.76464e+07	   76.4302	   15.4869	   2.58182	6.66102e+07	
         R10	   1542	   76.4107	   15.5276	    2.6215	6.37247e+07	   76.4548	   15.5311	   2.62487	7.18613e+07	   76.4609	   15.5021	   2.59662	7.20768e+07	   76.4237	   15.4999	   2.59454	6.64522e+07	   76.4327	   15.5294	   2.62318	6.65657e+07	   76.4579	   15.5166	   2.61075	7.19493e+07	   76.4423	    15.501	   2.59558	6.81063e+07	   76.4172	   15.5138	   2.60802	6.50771e+07	
         R10	   1543	   76.3993	   15.5618	   2.65471	5.91823e+07	   76.4491	   15.5648	   2.65765	7.08082e+07	   76.4548	   15.5311	   2.62487	 7.2375e+07	   76.4107	   15.5276	    2.6215	6.43543e+07	   76.4242	   15.5633	   2.65618	6.31585e+07	    76.452	    15.548	   2.64126	7.15565e+07	   76.4327	   15.5294	   2.62318	6.67935e+07	    76.405	   15.5447	    2.6381	 6.1725e+07	
         R10	   1544	   76.3902	   15.5993	   2.69123	5.32431e+07	   76.4445	   15.6025	   2.69436	 6.7564e+07	   76.4491	   15.5648	   2.65765	7.11032e+07	   76.3993	   15.5618	   2.65471	 5.9646e+07	   76.4174	   15.6009	    2.6928	5.80317e+07	   76.4468	   15.5837	     2.676	6.92691e+07	   76.4242	   15.5633	   2.65618	6.34446e+07	   76.3948	   15.5806	   2.67297	 5.6294e+07	
         R10	   1545	   76.3818	   15.6423	   2.73307	4.64174e+07	     76.44	   15.6452	   2.73583	6.14898e+07	   76.4445	   15.6025	   2.69436	6.79937e+07	   76.3902	   15.5993	   2.69123	5.38664e+07	   76.4109	   15.6437	   2.73445	5.10423e+07	   76.4423	   15.6238	    2.7151	6.46185e+07	   76.4174	   15.6009	    2.6928	5.85605e+07	    76.386	   15.6208	   2.71215	 4.9754e+07	
         R10	   1546	   76.3721	   15.6887	   2.77824	4.11329e+07	   76.4347	    15.692	   2.78144	5.07218e+07	     76.44	   15.6452	   2.73583	6.22223e+07	   76.3818	   15.6423	   2.73307	4.75084e+07	   76.4034	   15.6904	   2.77984	4.23895e+07	   76.4374	   15.6686	   2.75864	 5.6118e+07	   76.4109	   15.6437	   2.73445	5.19616e+07	   76.3769	   15.6655	   2.75565	4.33462e+07	
         R10	   1547	   76.3555	   15.7423	    2.8303	4.18789e+07	   76.4277	   15.7435	   2.83151	3.88968e+07	   76.4347	    15.692	   2.78144	5.19078e+07	   76.3721	   15.6887	   2.77824	4.25272e+07	   76.3916	   15.7429	   2.83091	3.56021e+07	   76.4312	   15.7178	   2.80648	4.40715e+07	   76.4034	   15.6904	   2.77984	4.35758e+07	   76.3638	   15.7155	   2.80427	3.95205e+07	
         R10	   1548	    76.339	   15.7965	   2.88305	6.08041e+07	   76.4204	   15.7983	   2.88486	2.65281e+07	   76.4277	   15.7435	   2.83151	3.82089e+07	   76.3555	   15.7423	    2.8303	3.67183e+07	   76.3797	   15.7974	   2.88396	4.29644e+07	    76.424	   15.7709	   2.85819	2.46302e+07	   76.3916	   15.7429	   2.83091	3.17904e+07	   76.3473	   15.7694	   2.85668	4.44038e+07	
         R10	   1549	   76.3286	   15.8559	   2.94083	7.06268e+07	   76.4156	   15.8564	   2.94138	6.03385e+07	   76.4204	   15.7983	   2.88486	2.96896e+07	    76.339	   15.7965	   2.88305	3.96496e+07	   76.3721	   15.8561	   2.94111	 6.5449e+07	    76.418	   15.8274	   2.91312	2.93088e+07	   76.3797	   15.7974	   2.88396	2.88637e+07	   76.3338	   15.8262	   2.91194	5.14039e+07	
         R10	   1550	    76.239	   15.8537	   2.93877	7.39265e+07	   76.3286	   15.8559	   2.94083	7.66333e+07	    76.339	   15.7965	   2.88305	3.33706e+07	   76.2555	   15.7925	    2.8792	5.05279e+07	   76.2838	   15.8548	    2.9398	7.51617e+07	   76.3338	   15.8262	   2.91194	5.11897e+07	   76.2973	   15.7945	   2.88112	4.18675e+07	   76.2472	   15.8231	   2.90898	5.73129e+07	
         R10	   1551	   76.1457	   15.7899	   2.87667	5.01144e+07	   76.1457	   15.8522	    2.9373	6.50342e+07	    76.239	   15.8537	   2.93877	7.24026e+07	   76.2555	   15.7925	    2.8792	 4.9935e+07	   76.1457	   15.8211	   2.90699	5.03755e+07	   76.1923	    15.853	   2.93803	6.84367e+07	   76.2472	   15.8231	   2.90898	5.60977e+07	   76.2006	   15.7912	   2.87794	5.00125e+07	
         R10	   1552	   76.0511	   15.7892	   2.87598	4.51536e+07	   76.0498	   15.8513	   2.93637	6.28302e+07	   76.1457	   15.8522	    2.9373	6.44984e+07	   76.1457	   15.7899	   2.87667	4.98265e+07	   76.0504	   15.8202	   2.90618	4.19799e+07	   76.0977	   15.8517	   2.93684	 6.3414e+07	   76.1457	   15.8211	   2.90699	4.97154e+07	   76.0984	   15.7896	   2.87633	4.72569e+07	
         R10	   1553	   75.9505	    15.782	   2.86899	4.41774e+07	   75.9509	   15.8489	   2.93411	5.84376e+07	   76.0498	   15.8513	   2.93637	6.32002e+07	   76.0511	   15.7892	   2.87598	4.40595e+07	   75.9507	   15.8155	   2.90155	3.53418e+07	   76.0004	   15.8501	   2.93524	6.06681e+07	   76.0504	   15.8202	   2.90618	4.19116e+07	   76.0008	   15.7856	   2.87249	4.39767e+07	
         R10	   1554	   75.8528	   15.7733	   2.86052	4.74017e+07	   75.8516	   15.8457	   2.93098	 5.4003e+07	   75.9509	   15.8489	   2.93411	5.85678e+07	   75.9505	    15.782	   2.86899	4.40399e+07	   75.8522	   15.8095	   2.89575	3.00328e+07	   75.9012	   15.8473	   2.93255	5.62256e+07	   75.9507	   15.8155	   2.90155	3.56546e+07	   75.9017	   15.7777	   2.86476	4.55324e+07	
         R10	   1555	   75.7517	   15.7678	   2.85512	4.99142e+07	   75.7507	   15.8425	   2.92782	5.09121e+07	   75.8516	   15.8457	   2.93098	5.37529e+07	   75.8528	   15.7733	   2.86052	4.80947e+07	   75.7512	   15.8051	   2.89147	2.66122e+07	   75.8011	   15.8441	    2.9294	5.23189e+07	   75.8522	   15.8095	   2.89575	3.07244e+07	   75.8022	   15.7705	   2.85782	4.88842e+07	
         R10	   1556	   75.7501	   15.6963	   2.78554	9.07324e+07	   75.7517	   15.7678	   2.85512	 5.2962e+07	   75.8528	   15.7733	   2.86052	5.29114e+07	   75.8566	   15.7001	   2.78933	 8.9885e+07	   75.7509	    15.732	   2.82033	6.97881e+07	   75.8022	   15.7705	   2.85782	5.28783e+07	   75.8547	   15.7367	   2.82493	6.92956e+07	   75.8034	   15.6982	   2.78744	9.02388e+07	
         R10	   1557	   75.8276	   15.6194	   2.71076	1.07579e+08	    75.744	   15.6234	   2.71465	1.06847e+08	   75.7501	   15.6963	   2.78554	8.98387e+07	   75.8566	   15.7001	   2.78933	8.90213e+07	   75.7858	   15.6214	   2.71271	1.07205e+08	    75.747	   15.6598	    2.7501	9.80089e+07	   75.8034	   15.6982	   2.78744	8.94171e+07	   75.8421	   15.6598	   2.75005	9.79589e+07	
         R10	   1558	   75.8226	   15.5517	   2.64494	9.68469e+07	   75.7395	   15.5526	   2.64582	9.71171e+07	    75.744	   15.6234	   2.71465	1.06982e+08	   75.8276	   15.6194	   2.71076	1.06822e+08	   75.7811	   15.5522	   2.64538	9.69512e+07	   75.7418	    15.588	   2.68024	1.01954e+08	   75.7858	   15.6214	   2.71271	1.06893e+08	   75.8251	   15.5856	   2.67785	1.01643e+08	
         R10	   1559	   75.8176	   15.4817	   2.57677	 6.5226e+07	   75.7359	   15.4855	   2.58052	6.42781e+07	   75.7395	   15.5526	   2.64582	9.65864e+07	   75.8226	   15.5517	   2.64494	  9.687e+07	   75.7768	   15.4836	   2.57864	 6.4707e+07	   75.7377	   15.5191	   2.61317	 8.0219e+07	   75.7811	   15.5522	   2.64538	 9.6711e+07	   75.8201	   15.5167	   2.61086	8.07818e+07	
         R10	   1560	   75.7264	   15.3594	   2.45783	7.79642e+07	     75.65	   15.3588	   2.45717	8.27045e+07	     75.65	     15.42	   2.51671	2.28374e+07	   75.7301	   15.4214	    2.5181	2.27217e+07	   75.6882	   15.3591	    2.4575	8.03193e+07	     75.65	   15.3894	   2.48694	4.61295e+07	   75.6901	   15.4207	    2.5174	2.26876e+07	   75.7283	   15.3904	   2.48796	4.23807e+07	
         R10	   1561	   75.8028	   15.4145	   2.51139	2.47448e+07	   75.7994	   15.3563	   2.45475	7.67808e+07	   75.7264	   15.3594	   2.45783	7.77433e+07	   75.7301	   15.4214	    2.5181	2.42751e+07	   75.8011	   15.3854	   2.48307	4.40964e+07	   75.7629	   15.3579	   2.45629	7.72618e+07	   75.7283	   15.3904	   2.48796	4.26596e+07	   75.7665	   15.4179	   2.51474	2.44002e+07	
         R10	   1562	   75.9502	   15.4321	   2.52849	3.82775e+07	   75.9399	   15.3876	   2.48519	3.31374e+07	    75.872	   15.3999	   2.49721	3.18756e+07	    75.889	    15.441	   2.53717	3.87557e+07	   75.9451	   15.4098	   2.50684	 2.7438e+07	   75.9059	   15.3937	    2.4912	3.22168e+07	   75.8805	   15.4204	   2.51719	2.72657e+07	   75.9196	   15.4365	   2.53283	3.80164e+07	
         R10	   1563	   76.0089	   15.4214	   2.51814	3.66507e+07	   76.0007	   15.3815	   2.47931	3.56155e+07	   75.9399	   15.3876	   2.48519	 3.4537e+07	   75.9502	   15.4321	   2.52849	 3.8204e+07	   76.0048	   15.4015	   2.49872	2.98097e+07	   75.9703	   15.3845	   2.48225	3.50414e+07	   75.9451	   15.4098	   2.50684	2.83674e+07	   75.9796	   15.4267	   2.52331	3.72934e+07	
         R10	   1564	   76.0671	   15.4132	    2.5101	3.68228e+07	   76.0576	   15.3762	   2.47417	3.58405e+07	   76.0007	   15.3815	   2.47931	3.63023e+07	   76.0089	   15.4214	   2.51814	3.58162e+07	   76.0623	   15.3947	   2.49214	3.12202e+07	   76.0291	   15.3789	   2.47674	3.60382e+07	   76.0048	   15.4015	   2.49872	  2.965e+07	    76.038	   15.4173	   2.51412	3.62051e+07	
         R10	   1565	   76.1185	   15.4051	   2.50228	3.76508e+07	   76.1083	   15.3706	   2.46867	3.59774e+07	   76.0576	   15.3762	   2.47417	 3.6262e+07	   76.0671	   15.4132	    2.5101	3.67083e+07	   76.1134	   15.3878	   2.48548	3.25778e+07	    76.083	   15.3734	   2.47142	3.60794e+07	   76.0623	   15.3947	   2.49214	3.12638e+07	   76.0928	   15.4091	   2.50619	3.71369e+07	
         R10	   1566	   76.1641	   15.3947	   2.49216	3.67092e+07	    76.154	   15.3633	   2.46155	3.51333e+07	   76.1083	   15.3706	   2.46867	3.66045e+07	   76.1185	   15.4051	   2.50228	3.78529e+07	    76.159	    15.379	   2.47685	3.19546e+07	   76.1311	   15.3669	   2.46511	3.58533e+07	   76.1134	   15.3878	   2.48548	3.30732e+07	   76.1413	   15.3999	   2.49722	3.72454e+07	
         R10	   1567	   76.2027	   15.3823	   2.48004	3.59419e+07	   76.1958	   15.3552	   2.45368	3.40997e+07	    76.154	   15.3633	   2.46155	3.52151e+07	   76.1641	   15.3947	   2.49216	 3.5454e+07	   76.1992	   15.3687	   2.46686	3.15675e+07	   76.1749	   15.3592	   2.45761	3.46226e+07	    76.159	    15.379	   2.47685	3.21989e+07	   76.1834	   15.3885	    2.4861	3.56447e+07	
         R10	   1568	   76.2358	   15.3748	    2.4728	3.29825e+07	    76.235	   15.3497	   2.44833	3.02413e+07	   76.1958	   15.3552	   2.45368	3.31025e+07	   76.2027	   15.3823	   2.48004	3.42914e+07	   76.2354	   15.3622	   2.46057	2.96499e+07	   76.2154	   15.3524	   2.45101	3.16238e+07	   76.1992	   15.3687	   2.46686	3.11733e+07	   76.2193	   15.3785	   2.47642	3.36029e+07	
         R10	   1569	   76.3103	   15.3332	   2.43227	1.94327e+07	   76.3098	   15.3169	   2.41643	2.88946e+07	   76.2868	   15.3174	    2.4169	3.64166e+07	   76.2895	   15.3333	   2.43243	2.44711e+07	   76.3101	    15.325	   2.42435	2.30893e+07	   76.2983	   15.3171	   2.41667	3.26487e+07	   76.2882	   15.3254	   2.42467	2.96606e+07	   76.2999	   15.3332	   2.43235	2.18737e+07	
         R10	   1570	   76.2954	   15.3454	    2.4442	2.31345e+07	   76.2828	   15.3559	   2.45444	2.19651e+07	   76.3095	     15.36	   2.45837	2.66581e+07	   76.3111	   15.3471	    2.4458	 2.1872e+07	   76.2891	   15.3507	   2.44932	2.20906e+07	   76.2961	    15.358	    2.4564	2.40879e+07	   76.3103	   15.3535	   2.45208	2.37663e+07	   76.3032	   15.3462	     2.445	 2.2346e+07	
         R10	   1571	   76.2686	   15.3784	   2.47625	3.20757e+07	   76.2907	   15.3712	    2.4693	4.10961e+07	   76.2828	   15.3559	   2.45444	1.84951e+07	   76.2639	   15.3609	   2.45922	3.00928e+07	   76.2796	   15.3748	   2.47277	3.55448e+07	   76.2867	   15.3636	   2.46187	2.60758e+07	   76.2734	   15.3584	   2.45683	 2.3157e+07	   76.2663	   15.3696	   2.46773	3.10358e+07	
         R10	   1572	   76.2883	   15.3899	   2.48749	4.11725e+07	   76.3065	   15.3854	   2.48306	4.47598e+07	   76.2907	   15.3712	    2.4693	  3.802e+07	   76.2686	   15.3784	   2.47625	3.67346e+07	   76.2974	   15.3876	   2.48528	4.29344e+07	   76.2986	   15.3783	   2.47618	4.08693e+07	   76.2796	   15.3748	   2.47277	3.70898e+07	   76.2784	   15.3841	   2.48187	3.86681e+07	
         R10	   1573	   76.2666	   15.4245	   2.52115	6.04426e+07	   76.2874	   15.4227	   2.51942	6.12825e+07	   76.2882	   15.4032	   2.50043	5.21098e+07	   76.2613	   15.4006	   2.49785	4.82166e+07	    76.277	   15.4236	   2.52028	6.08465e+07	   76.2878	    15.413	   2.50992	 5.6616e+07	   76.2748	   15.4019	   2.49914	5.01143e+07	   76.2639	   15.4125	    2.5095	5.41895e+07	
         R10	   1574	     76.31	   15.4362	   2.53254	6.72765e+07	   76.3092	   15.4229	   2.51959	6.46782e+07	   76.2874	   15.4227	   2.51942	6.42304e+07	   76.2902	   15.4411	   2.53729	6.35082e+07	   76.3096	   15.4296	   2.52606	6.59172e+07	   76.2983	   15.4228	    2.5195	6.44341e+07	   76.2888	   15.4319	   2.52835	6.37556e+07	   76.3001	   15.4387	   2.53491	6.52347e+07	
         R10	   1575	   76.3501	   15.4702	   2.56563	7.57488e+07	   76.3497	   15.4511	   2.54698	7.11687e+07	   76.3269	   15.4508	   2.54669	6.66634e+07	   76.3209	   15.4683	   2.56379	7.45887e+07	   76.3499	   15.4607	   2.55631	7.34007e+07	   76.3383	   15.4509	   2.54684	6.88286e+07	   76.3239	   15.4596	   2.55524	7.06247e+07	   76.3355	   15.4693	   2.56471	7.51085e+07	
         R10	   1576	   76.3765	   15.4499	   2.54586	7.42181e+07	     76.38	   15.4368	   2.53309	 6.7942e+07	   76.3635	   15.4343	   2.53068	 7.6586e+07	   76.3497	   15.4511	   2.54698	6.91441e+07	   76.3782	   15.4434	   2.53948	7.05046e+07	   76.3717	   15.4356	   2.53189	7.17363e+07	   76.3566	   15.4427	   2.53883	7.23106e+07	   76.3631	   15.4505	   2.54642	 7.1033e+07	
         R10	   1577	   76.3839	    15.492	   2.58685	6.94999e+07	   76.4237	   15.4999	   2.59454	6.74422e+07	   76.4367	   15.4738	    2.5691	6.70244e+07	    76.411	   15.4723	   2.56765	7.03699e+07	   76.4038	    15.496	    2.5907	6.78786e+07	   76.4302	   15.4869	   2.58182	6.71718e+07	   76.4239	   15.4731	   2.56838	6.83163e+07	   76.3974	   15.4822	   2.57725	6.98537e+07	
         R10	   1578	   76.3679	   15.5224	   2.61638	6.66204e+07	   76.4107	   15.5276	    2.6215	 6.5044e+07	   76.4237	   15.4999	   2.59454	6.68018e+07	   76.3839	    15.492	   2.58685	 7.1106e+07	   76.3893	    15.525	   2.61894	6.52131e+07	   76.4172	   15.5138	   2.60802	 6.5868e+07	   76.4038	    15.496	    2.5907	6.81745e+07	   76.3759	   15.5072	   2.60162	6.88053e+07	
         R10	   1579	   76.3516	   15.5561	    2.6492	6.35229e+07	   76.3993	   15.5618	   2.65471	6.00403e+07	   76.4107	   15.5276	    2.6215	6.42859e+07	   76.3679	   15.5224	   2.61638	6.75445e+07	   76.3755	    15.559	   2.65196	6.08071e+07	    76.405	   15.5447	    2.6381	6.20784e+07	   76.3893	    15.525	   2.61894	6.50471e+07	   76.3598	   15.5393	   2.63279	6.53938e+07	
         R10	   1580	   76.3382	    15.593	   2.68505	5.93243e+07	   76.3902	   15.5993	   2.69123	5.36652e+07	   76.3993	   15.5618	   2.65471	5.98828e+07	   76.3516	   15.5561	    2.6492	6.35656e+07	   76.3642	   15.5961	   2.68814	5.52101e+07	   76.3948	   15.5806	   2.67297	5.66221e+07	   76.3755	    15.559	   2.65196	6.06611e+07	   76.3449	   15.5745	   2.66713	 6.1195e+07	
         R10	   1581	   76.3263	   15.6356	   2.72655	5.53284e+07	   76.3818	   15.6423	   2.73307	4.66929e+07	   76.3902	   15.5993	   2.69123	5.41519e+07	   76.3382	    15.593	   2.68505	 5.9609e+07	    76.354	    15.639	   2.72981	4.96894e+07	    76.386	   15.6208	   2.71215	5.00378e+07	   76.3642	   15.5961	   2.68814	5.55702e+07	   76.3322	   15.6143	    2.7058	5.69613e+07	
         R10	   1582	   76.3108	   15.6816	   2.77129	5.47636e+07	   76.3721	   15.6887	   2.77824	4.13537e+07	   76.3818	   15.6423	   2.73307	4.79285e+07	   76.3263	   15.6356	   2.72655	5.59327e+07	   76.3414	   15.6852	   2.77476	4.69578e+07	   76.3769	   15.6655	   2.75565	4.36119e+07	    76.354	    15.639	   2.72981	5.05566e+07	   76.3185	   15.6586	   2.74892	 5.4459e+07	
         R10	   1583	   76.2924	   15.7323	   2.82059	5.72409e+07	   76.3555	   15.7423	    2.8303	 4.2004e+07	   76.3721	   15.6887	   2.77824	4.25895e+07	   76.3108	   15.6816	   2.77129	5.45401e+07	    76.324	   15.7373	   2.82545	4.94386e+07	   76.3638	   15.7155	   2.80427	 3.9518e+07	   76.3414	   15.6852	   2.77476	4.73786e+07	   76.3016	   15.7069	   2.79594	5.42836e+07	
         R10	   1584	   76.2555	   15.7925	    2.8792	6.39681e+07	    76.339	   15.7965	   2.88305	5.75556e+07	   76.3555	   15.7423	    2.8303	3.71832e+07	   76.2924	   15.7323	   2.82059	5.57464e+07	   76.2973	   15.7945	   2.88112	 6.0678e+07	   76.3473	   15.7694	   2.85668	4.36262e+07	    76.324	   15.7373	   2.82545	4.60954e+07	    76.274	   15.7624	   2.84989	5.74202e+07	
         R10	   1585	   76.0522	   15.7317	      2.82	7.48237e+07	   76.0511	   15.7892	   2.87598	5.77435e+07	   76.1457	   15.7899	   2.87667	6.28227e+07	   76.1303	   15.7303	   2.81863	7.25659e+07	   76.0516	   15.7604	   2.84799	6.30946e+07	   76.0984	   15.7896	   2.87633	6.02819e+07	    76.138	   15.7601	   2.84765	6.53039e+07	   76.0913	    15.731	   2.81931	7.35911e+07	
         R10	   1586	   75.9595	   15.7256	   2.81409	 7.8041e+07	   75.9505	    15.782	   2.86899	5.50903e+07	   76.0511	   15.7892	   2.87598	5.86537e+07	   76.0522	   15.7317	      2.82	 7.3651e+07	    75.955	   15.7538	   2.84154	6.30574e+07	   76.0008	   15.7856	   2.87249	5.67717e+07	   76.0516	   15.7604	   2.84799	6.26874e+07	   76.0059	   15.7286	   2.81704	7.56966e+07	
         R10	   1587	   75.8566	   15.7001	   2.78933	9.04642e+07	   75.8528	   15.7733	   2.86052	5.36547e+07	   75.9505	    15.782	   2.86899	5.71505e+07	   75.9595	   15.7256	   2.81409	7.75226e+07	   75.8547	   15.7367	   2.82493	7.01689e+07	   75.9017	   15.7777	   2.86476	5.49759e+07	    75.955	   15.7538	   2.84154	6.35349e+07	   75.9081	   15.7129	   2.80171	8.39575e+07	
         R10	   1588	   75.9043	   15.5497	   2.64299	9.66966e+07	   75.8226	   15.5517	   2.64494	9.59729e+07	   75.8276	   15.6194	   2.71076	1.05793e+08	   75.9076	   15.6109	   2.70252	1.04882e+08	   75.8634	   15.5507	   2.64396	9.63275e+07	   75.8251	   15.5856	   2.67785	1.00628e+08	   75.8676	   15.6152	   2.70664	1.05185e+08	   75.9059	   15.5803	   2.67275	1.00751e+08	
         R10	   1589	   75.8028	   15.4145	   2.51139	2.45725e+07	   75.7301	   15.4214	    2.5181	2.50616e+07	   75.7359	   15.4855	   2.58052	6.35706e+07	   75.8176	   15.4817	   2.57677	6.27838e+07	   75.7665	   15.4179	   2.51474	2.47824e+07	    75.733	   15.4535	   2.54931	3.95217e+07	   75.7768	   15.4836	   2.57864	6.30812e+07	   75.8102	   15.4481	   2.54408	3.85694e+07	
         R10	   1590	    75.889	    15.441	   2.53717	4.17886e+07	    75.872	   15.3999	   2.49721	3.12881e+07	   75.8028	   15.4145	   2.51139	2.54514e+07	   75.8176	   15.4817	   2.57677	6.35202e+07	   75.8805	   15.4204	   2.51719	2.89982e+07	   75.8374	   15.4072	    2.5043	2.72433e+07	   75.8102	   15.4481	   2.54408	3.94994e+07	   75.8533	   15.4613	   2.55697	5.22342e+07	
         R10	   1591	   75.9607	   15.4742	   2.56952	6.37391e+07	   75.9502	   15.4321	   2.52849	3.90796e+07	    75.889	    15.441	   2.53717	3.99465e+07	      75.9	    15.494	   2.58873	7.33513e+07	   75.9554	   15.4531	   2.54901	5.05086e+07	   75.9196	   15.4365	   2.53283	3.92842e+07	   75.8945	   15.4675	   2.56295	5.59425e+07	   75.9303	   15.4841	   2.57913	6.83935e+07	
         R10	   1592	   76.0211	   15.4606	    2.5563	5.93157e+07	   76.0089	   15.4214	   2.51814	3.64797e+07	   75.9502	   15.4321	   2.52849	3.82599e+07	   75.9607	   15.4742	   2.56952	6.38713e+07	    76.015	    15.441	   2.53722	4.66335e+07	   75.9796	   15.4267	   2.52331	3.71399e+07	   75.9554	   15.4531	   2.54901	5.03319e+07	   75.9909	   15.4674	   2.56291	6.15191e+07	
         R10	   1593	   76.0816	   15.4511	   2.54698	5.79552e+07	   76.0671	   15.4132	    2.5101	3.71219e+07	   76.0089	   15.4214	   2.51814	 3.6168e+07	   76.0211	   15.4606	    2.5563	5.89562e+07	   76.0743	   15.4321	   2.52854	4.63456e+07	    76.038	   15.4173	   2.51412	 3.6551e+07	    76.015	    15.441	   2.53722	4.65134e+07	   76.0513	   15.4559	   2.55164	5.83582e+07	
         R10	   1594	   76.1309	   15.4399	   2.53614	5.59307e+07	   76.1185	   15.4051	   2.50228	3.74104e+07	   76.0671	   15.4132	    2.5101	3.73295e+07	   76.0816	   15.4511	   2.54698	5.78022e+07	   76.1247	   15.4225	   2.51921	4.55937e+07	   76.0928	   15.4091	   2.50619	3.72862e+07	   76.0743	   15.4321	   2.52854	4.64597e+07	   76.1062	   15.4455	   2.54156	5.67973e+07	
         R10	   1595	   76.1831	   15.4263	   2.52287	5.33434e+07	   76.1641	   15.3947	   2.49216	3.67947e+07	   76.1185	   15.4051	   2.50228	3.81433e+07	   76.1309	   15.4399	   2.53614	5.51071e+07	   76.1736	   15.4105	   2.50751	4.41749e+07	   76.1413	   15.3999	   2.49722	3.74218e+07	   76.1247	   15.4225	   2.51921	4.54956e+07	    76.157	   15.4331	    2.5295	5.41195e+07	
         R10	   1596	   76.2164	   15.4046	   2.50178	4.60596e+07	   76.2027	   15.3823	   2.48004	  3.506e+07	   76.1641	   15.3947	   2.49216	3.66293e+07	   76.1831	   15.4263	   2.52287	5.38205e+07	   76.2096	   15.3934	   2.49091	3.96343e+07	   76.1834	   15.3885	    2.4861	 3.5734e+07	   76.1736	   15.4105	   2.50751	4.42912e+07	   76.1998	   15.4154	   2.51232	 4.9822e+07	
         R10	   1597	   76.2954	   15.3454	    2.4442	2.09225e+07	   76.3111	   15.3471	    2.4458	1.96535e+07	   76.3103	   15.3332	   2.43227	1.96365e+07	   76.2895	   15.3333	   2.43243	 2.4425e+07	   76.3032	   15.3462	     2.445	1.98539e+07	   76.3107	   15.3401	   2.43903	1.82292e+07	   76.2999	   15.3332	   2.43235	 2.2006e+07	   76.2924	   15.3394	   2.43831	2.21188e+07	
         R10	   1598	   76.2902	   15.4411	   2.53729	6.68013e+07	   76.2874	   15.4227	   2.51942	5.92903e+07	   76.2666	   15.4245	   2.52115	6.00787e+07	   76.2625	   15.4436	   2.53971	6.69634e+07	   76.2888	   15.4319	   2.52835	6.27142e+07	    76.277	   15.4236	   2.52028	5.96723e+07	   76.2645	    15.434	   2.53043	 6.3495e+07	   76.2764	   15.4423	    2.5385	6.67301e+07	
         R10	   1599	   76.3269	   15.4508	   2.54669	6.94595e+07	     76.31	   15.4362	   2.53254	7.20017e+07	   76.2902	   15.4411	   2.53729	6.82598e+07	   76.2968	   15.4574	   2.55317	 6.8827e+07	   76.3185	   15.4435	   2.53961	7.06132e+07	   76.3001	   15.4387	   2.53491	7.00414e+07	   76.2935	   15.4493	   2.54523	6.85316e+07	   76.3118	   15.4541	   2.54993	6.91402e+07	
         R10	   1600	   76.3374	   15.4944	   2.58912	7.32714e+07	   76.3501	   15.4702	   2.56563	7.20384e+07	   76.3209	   15.4683	   2.56379	7.68122e+07	   76.3027	   15.4865	    2.5815	7.19652e+07	   76.3438	   15.4823	   2.57738	7.26173e+07	   76.3355	   15.4693	   2.56471	7.44038e+07	   76.3118	   15.4774	   2.57264	7.42747e+07	     76.32	   15.4905	   2.58531	7.25029e+07	
         R10	   1601	   76.2865	   15.5846	    2.6769	7.04483e+07	   76.3382	    15.593	   2.68505	5.96172e+07	   76.3516	   15.5561	    2.6492	6.39138e+07	   76.3047	   15.5494	   2.64265	7.10027e+07	   76.3123	   15.5888	   2.68098	6.46934e+07	   76.3449	   15.5745	   2.66713	6.15032e+07	   76.3282	   15.5528	   2.64593	6.70936e+07	   76.2956	    15.567	   2.65977	 7.0456e+07	
         R10	   1602	   76.2709	   15.6246	   2.71587	6.89671e+07	   76.3263	   15.6356	   2.72655	5.55812e+07	   76.3382	    15.593	   2.68505	5.97938e+07	   76.2865	   15.5846	    2.6769	7.01405e+07	   76.2986	   15.6301	   2.72121	6.20677e+07	   76.3322	   15.6143	    2.7058	 5.7182e+07	   76.3123	   15.5888	   2.68098	6.46034e+07	   76.2787	   15.6046	   2.69639	6.92156e+07	
         R10	   1603	   76.2561	    15.668	   2.75808	6.82973e+07	   76.3108	   15.6816	   2.77129	5.43068e+07	   76.3263	   15.6356	   2.72655	5.62279e+07	   76.2709	   15.6246	   2.71587	6.88542e+07	   76.2835	   15.6748	   2.76469	6.11753e+07	   76.3185	   15.6586	   2.74892	 5.4368e+07	   76.2986	   15.6301	   2.72121	 6.2253e+07	   76.2635	   15.6463	   2.73698	6.82281e+07	
         R10	   1604	   76.2172	   15.7163	   2.80509	6.81229e+07	   76.2924	   15.7323	   2.82059	5.84577e+07	   76.3108	   15.6816	   2.77129	5.44091e+07	   76.2561	    15.668	   2.75808	 6.8179e+07	   76.2548	   15.7243	   2.81284	6.30894e+07	   76.3016	   15.7069	   2.79594	5.48932e+07	   76.2835	   15.6748	   2.76469	6.11108e+07	   76.2367	   15.6922	   2.78159	 6.7757e+07	
         R10	   1605	   76.0555	   15.6752	   2.76507	9.13176e+07	   76.0522	   15.7317	      2.82	7.76097e+07	   76.1303	   15.7303	   2.81863	7.52549e+07	   76.1286	   15.6803	   2.77002	8.45821e+07	   76.0538	   15.7034	   2.79253	8.35333e+07	   76.0913	    15.731	   2.81931	7.63963e+07	   76.1295	   15.7053	   2.79432	7.91034e+07	   76.0921	   15.6778	   2.76754	8.79255e+07	
         R10	   1606	   75.9807	   15.6683	   2.75832	9.77983e+07	   75.9595	   15.7256	   2.81409	7.84303e+07	   76.0522	   15.7317	      2.82	7.75978e+07	   76.0555	   15.6752	   2.76507	9.10972e+07	   75.9701	   15.6969	   2.78621	8.73876e+07	   76.0059	   15.7286	   2.81704	7.79402e+07	   76.0538	   15.7034	   2.79253	8.34677e+07	   76.0181	   15.6717	    2.7617	9.43924e+07	
         R10	   1607	   75.9175	   15.6585	   2.74881	1.02262e+08	   75.9076	   15.6109	   2.70252	1.04296e+08	   75.8276	   15.6194	   2.71076	1.09571e+08	   75.8566	   15.7001	   2.78933	 9.0333e+07	   75.9125	   15.6347	   2.72567	1.03095e+08	   75.8676	   15.6152	   2.70664	1.06851e+08	   75.8421	   15.6598	   2.75005	9.95788e+07	   75.8871	   15.6793	   2.76907	9.60804e+07	
         R10	   1608	   75.9802	   15.5601	   2.65303	9.68054e+07	   75.9043	   15.5497	   2.64299	9.82895e+07	   75.9076	   15.6109	   2.70252	1.05195e+08	   75.9934	   15.6099	   2.70157	1.01449e+08	   75.9422	   15.5549	   2.64801	9.75063e+07	   75.9059	   15.5803	   2.67275	1.01682e+08	   75.9505	   15.6104	   2.70204	  1.033e+08	   75.9868	    15.585	    2.6773	9.89291e+07	
         R10	   1609	   76.0356	   15.5017	   2.59622	7.87037e+07	   76.0211	   15.4606	    2.5563	5.85837e+07	   75.9607	   15.4742	   2.56952	6.28208e+07	   75.9775	   15.5109	   2.60517	8.28163e+07	   76.0284	   15.4812	   2.57626	6.85538e+07	   75.9909	   15.4674	   2.56291	6.06812e+07	   75.9691	   15.4926	   2.58735	7.24782e+07	   76.0066	   15.5063	    2.6007	8.05694e+07	
         R10	   1610	   76.0957	   15.4883	   2.58322	7.52998e+07	   76.0816	   15.4511	   2.54698	5.80874e+07	   76.0211	   15.4606	    2.5563	5.93986e+07	   76.0356	   15.5017	   2.59622	7.95892e+07	   76.0887	   15.4697	    2.5651	6.64282e+07	   76.0513	   15.4559	   2.55164	5.86012e+07	   76.0284	   15.4812	   2.57626	6.93407e+07	   76.0657	    15.495	   2.58972	7.73675e+07	
         R10	   1611	   76.1518	   15.4761	   2.57133	7.17122e+07	   76.1309	   15.4399	   2.53614	5.53502e+07	   76.0816	   15.4511	   2.54698	5.79608e+07	   76.0957	   15.4883	   2.58322	 7.4987e+07	   76.1413	    15.458	   2.55374	6.33716e+07	   76.1062	   15.4455	   2.54156	5.66019e+07	   76.0887	   15.4697	    2.5651	6.61262e+07	   76.1237	   15.4822	   2.57728	7.31461e+07	
         R10	   1612	   76.1882	   15.4527	    2.5486	6.52543e+07	   76.1831	   15.4263	   2.52287	5.40848e+07	   76.1309	   15.4399	   2.53614	5.60317e+07	   76.1518	   15.4761	   2.57133	 7.1878e+07	   76.1856	   15.4395	   2.53573	5.94374e+07	    76.157	   15.4331	    2.5295	 5.4898e+07	   76.1413	    15.458	   2.55374	6.38278e+07	     76.17	   15.4644	   2.55996	6.84511e+07	
         R10	   1613	   76.2294	   15.4382	   2.53446	6.22229e+07	   76.2625	   15.4436	   2.53971	6.62311e+07	   76.2666	   15.4245	   2.52115	6.00152e+07	   76.2372	   15.4191	   2.51588	5.46956e+07	    76.246	   15.4409	   2.53708	6.41973e+07	   76.2645	    15.434	   2.53043	 6.3111e+07	   76.2519	   15.4218	   2.51851	 5.7272e+07	   76.2333	   15.4286	   2.52517	5.84116e+07	
         R10	   1614	   76.2968	   15.4574	   2.55317	7.48387e+07	   76.2902	   15.4411	   2.53729	6.24817e+07	   76.2625	   15.4436	   2.53971	6.84499e+07	   76.2646	   15.4645	   2.56001	7.07937e+07	   76.2935	   15.4493	   2.54523	6.84605e+07	   76.2764	   15.4423	    2.5385	6.54518e+07	   76.2635	    15.454	   2.54986	6.95628e+07	   76.2807	   15.4609	   2.55659	7.25107e+07	
         R10	   1615	   76.3027	   15.4865	    2.5815	7.60267e+07	   76.3209	   15.4683	   2.56379	7.57816e+07	   76.2968	   15.4574	   2.55317	7.05421e+07	   76.2646	   15.4645	   2.56001	7.19696e+07	   76.3118	   15.4774	   2.57264	 7.5764e+07	   76.3088	   15.4629	   2.55848	7.29915e+07	   76.2807	   15.4609	   2.55659	 7.1183e+07	   76.2836	   15.4755	   2.57075	7.39375e+07	
         R10	   1616	   76.3248	   15.5176	   2.61172	7.23712e+07	   76.3047	   15.5494	   2.64265	7.05413e+07	   76.3516	   15.5561	    2.6492	6.41091e+07	   76.3679	   15.5224	   2.61638	6.72786e+07	   76.3147	   15.5335	   2.62719	7.13375e+07	   76.3282	   15.5528	   2.64593	6.69727e+07	   76.3598	   15.5393	   2.63279	6.55418e+07	   76.3463	     15.52	   2.61405	6.93916e+07	
         R10	   1617	   76.2321	   15.5715	   2.66421	 7.9579e+07	   76.2865	   15.5846	    2.6769	7.05897e+07	   76.3047	   15.5494	   2.64265	 7.1292e+07	   76.2557	   15.5403	   2.63382	7.85212e+07	   76.2593	   15.5781	   2.67055	7.50006e+07	   76.2956	    15.567	   2.65977	7.06739e+07	   76.2802	   15.5449	   2.63824	7.47646e+07	   76.2439	   15.5559	   2.64901	7.88342e+07	
         R10	   1618	   76.2136	   15.6087	   2.70034	8.11341e+07	   76.2709	   15.6246	   2.71587	6.93893e+07	   76.2865	   15.5846	    2.6769	7.04316e+07	   76.2321	   15.5715	   2.66421	8.01994e+07	   76.2422	   15.6167	   2.70811	 7.5237e+07	   76.2787	   15.6046	   2.69639	6.95535e+07	   76.2593	   15.5781	   2.67055	7.52342e+07	   76.2229	   15.5901	   2.68227	8.04278e+07	
         R10	   1619	   76.1987	   15.6473	    2.7379	8.00702e+07	   76.2561	    15.668	   2.75808	6.80371e+07	   76.2709	   15.6246	   2.71587	 6.8706e+07	   76.2136	   15.6087	   2.70034	8.13421e+07	   76.2274	   15.6577	   2.74799	7.40209e+07	   76.2635	   15.6463	   2.73698	6.80663e+07	   76.2422	   15.6167	   2.70811	7.50091e+07	   76.2061	    15.628	   2.71912	8.04035e+07	
         R10	   1620	   76.2555	   15.7925	    2.8792	6.06895e+07	   76.2924	   15.7323	   2.82059	5.45268e+07	   76.2172	   15.7163	   2.80509	7.14769e+07	    76.211	   15.7517	   2.83948	6.83347e+07	    76.274	   15.7624	   2.84989	5.45531e+07	   76.2548	   15.7243	   2.81284	6.28748e+07	   76.2141	    15.734	   2.82228	 6.9684e+07	   76.2333	   15.7721	   2.85934	6.23206e+07	
         R10	   1621	   76.0686	   15.6275	   2.71868	9.68913e+07	   76.0555	   15.6752	   2.76507	9.16724e+07	   76.1286	   15.6803	   2.77002	8.47314e+07	    76.137	   15.6341	   2.72507	 8.9794e+07	    76.062	   15.6514	   2.74187	9.38634e+07	   76.0921	   15.6778	   2.76754	8.81908e+07	   76.1328	   15.6572	   2.74754	8.69322e+07	   76.1028	   15.6308	   2.72187	 9.3328e+07	
         R10	   1622	   75.9175	   15.6585	   2.74881	1.00783e+08	   75.8566	   15.7001	   2.78933	8.48271e+07	   75.9595	   15.7256	   2.81409	7.84262e+07	   75.9807	   15.6683	   2.75832	 9.7111e+07	   75.8871	   15.6793	   2.76907	9.24857e+07	   75.9081	   15.7129	   2.80171	 8.1511e+07	   75.9701	   15.6969	   2.78621	8.71878e+07	   75.9491	   15.6634	   2.75357	9.88927e+07	
         R10	   1623	   75.9934	   15.6099	   2.70157	1.02997e+08	   75.9076	   15.6109	   2.70252	1.00644e+08	   75.9175	   15.6585	   2.74881	1.02231e+08	   75.9807	   15.6683	   2.75832	9.61379e+07	   75.9505	   15.6104	   2.70204	1.01817e+08	   75.9125	   15.6347	   2.72567	1.01325e+08	   75.9491	   15.6634	   2.75357	9.90543e+07	    75.987	   15.6391	   2.72994	9.92965e+07	
         R10	   1624	      75.9	    15.494	   2.58873	7.28531e+07	   75.8176	   15.4817	   2.57677	6.64687e+07	   75.8226	   15.5517	   2.64494	9.72125e+07	   75.9043	   15.5497	   2.64299	9.44746e+07	   75.8588	   15.4878	   2.58275	 6.9522e+07	   75.8201	   15.5167	   2.61086	8.15317e+07	   75.8634	   15.5507	   2.64396	 9.5798e+07	   75.9021	   15.5219	   2.61586	8.35682e+07	
         R10	   1625	   75.9775	   15.5109	   2.60517	8.43433e+07	   75.9607	   15.4742	   2.56952	 6.4807e+07	      75.9	    15.494	   2.58873	7.48911e+07	   75.9043	   15.5497	   2.64299	9.44917e+07	   75.9691	   15.4926	   2.58735	7.43031e+07	   75.9303	   15.4841	   2.57913	6.96046e+07	   75.9021	   15.5219	   2.61586	8.46394e+07	   75.9409	   15.5303	   2.62408	8.93684e+07	
         R10	   1626	   76.0441	   15.5414	   2.63485	9.16258e+07	   76.0356	   15.5017	   2.59622	7.98671e+07	   75.9775	   15.5109	   2.60517	8.29797e+07	   75.9802	   15.5601	   2.65303	9.69627e+07	   76.0399	   15.5215	   2.61554	 8.5621e+07	   76.0066	   15.5063	    2.6007	8.12993e+07	   75.9789	   15.5355	    2.6291	8.98937e+07	   76.0122	   15.5507	   2.64394	9.42084e+07	
         R10	   1627	   76.1144	   15.5334	   2.62708	8.77838e+07	   76.0957	   15.4883	   2.58322	7.54384e+07	   76.0356	   15.5017	   2.59622	7.93385e+07	   76.0441	   15.5414	   2.63485	9.12192e+07	    76.105	   15.5108	   2.60515	8.14602e+07	   76.0657	    15.495	   2.58972	7.72728e+07	   76.0399	   15.5215	   2.61554	8.51752e+07	   76.0793	   15.5374	   2.63096	8.94222e+07	
         R10	   1628	   76.1592	   15.5079	   2.60224	8.20705e+07	   76.1518	   15.4761	   2.57133	7.31324e+07	   76.0957	   15.4883	   2.58322	 7.5553e+07	   76.1144	   15.5334	   2.62708	8.74746e+07	   76.1555	    15.492	   2.58679	7.74632e+07	   76.1237	   15.4822	   2.57728	7.41707e+07	    76.105	   15.5108	   2.60515	8.14438e+07	   76.1368	   15.5206	   2.61466	8.46756e+07	
         R10	   1629	   76.2646	   15.4645	   2.56001	7.20459e+07	   76.2625	   15.4436	   2.53971	6.72338e+07	   76.2294	   15.4382	   2.53446	 6.2345e+07	   76.2231	   15.4602	   2.55591	6.89198e+07	   76.2635	    15.454	   2.54986	6.96152e+07	    76.246	   15.4409	   2.53708	6.47336e+07	   76.2263	   15.4492	   2.54519	6.55706e+07	   76.2439	   15.4623	   2.55796	 7.0444e+07	
         R10	   1630	   76.2557	   15.5403	   2.63382	7.75198e+07	   76.3047	   15.5494	   2.64265	7.21674e+07	   76.3248	   15.5176	   2.61172	7.11109e+07	   76.2833	   15.5128	   2.60706	7.60831e+07	   76.2802	   15.5449	   2.63824	7.47078e+07	   76.3147	   15.5335	   2.62719	7.14415e+07	    76.304	   15.5152	   2.60939	 7.3473e+07	   76.2695	   15.5266	   2.62044	7.65968e+07	
         R10	   1631	    76.178	   15.5561	    2.6492	8.61635e+07	   76.2321	   15.5715	   2.66421	8.07064e+07	   76.2557	   15.5403	   2.63382	7.80359e+07	   76.2083	   15.5203	   2.61437	8.08903e+07	    76.205	   15.5638	   2.65671	8.34171e+07	   76.2439	   15.5559	   2.64901	7.91549e+07	    76.232	   15.5303	   2.62409	7.94494e+07	   76.1931	   15.5382	   2.63178	8.32882e+07	
         R10	   1632	   76.0942	   15.5804	   2.67281	 9.5003e+07	   76.0686	   15.6275	   2.71868	9.68213e+07	    76.137	   15.6341	   2.72507	8.97825e+07	   76.1551	   15.5916	   2.68369	8.98439e+07	   76.0814	    15.604	   2.69574	9.56737e+07	   76.1028	   15.6308	   2.72187	9.32928e+07	    76.146	   15.6128	   2.70438	8.95499e+07	   76.1246	    15.586	   2.67825	9.24177e+07	
         R10	   1633	   75.9934	   15.6099	   2.70157	1.03568e+08	   75.9807	   15.6683	   2.75832	9.59875e+07	   76.0555	   15.6752	   2.76507	9.22298e+07	   76.0686	   15.6275	   2.71868	9.70571e+07	    75.987	   15.6391	   2.72994	9.95598e+07	   76.0181	   15.6717	    2.7617	9.40431e+07	    76.062	   15.6514	   2.74187	9.42082e+07	    76.031	   15.6187	   2.71012	1.00301e+08	
         R10	   1634	   76.2504	   15.4889	   2.58382	7.74636e+07	   76.2646	   15.4645	   2.56001	7.11979e+07	   76.2231	   15.4602	   2.55591	7.13481e+07	   76.2121	   15.4866	   2.58153	7.21052e+07	   76.2575	   15.4767	   2.57191	7.42493e+07	   76.2439	   15.4623	   2.55796	7.12239e+07	   76.2176	   15.4734	   2.56872	7.16611e+07	   76.2312	   15.4877	   2.58268	7.47136e+07	
         R10	   1635	   76.1303	   15.7303	   2.81863	7.21353e+07	   76.1457	   15.7899	   2.87667	6.65844e+07	    76.211	   15.7517	   2.83948	5.78085e+07	   76.2172	   15.7163	   2.80509	 7.0716e+07	    76.138	   15.7601	   2.84765	6.68238e+07	   76.1784	   15.7708	   2.85807	6.10428e+07	   76.2141	    15.734	   2.82228	6.42392e+07	   76.1738	   15.7233	   2.81186	7.12161e+07	
         R10	   1636	   76.1987	   15.6473	    2.7379	8.08206e+07	    76.137	   15.6341	   2.72507	 8.9979e+07	   76.1286	   15.6803	   2.77002	8.51966e+07	    76.183	   15.6806	   2.77034	7.84953e+07	   76.1678	   15.6407	   2.73148	8.53935e+07	   76.1328	   15.6572	   2.74754	8.72182e+07	   76.1558	   15.6805	   2.77018	8.18366e+07	   76.1909	    15.664	   2.75412	7.94312e+07	
         R10	   1637	   76.2172	   15.7163	   2.80509	6.93314e+07	   76.2561	    15.668	   2.75808	 6.8053e+07	   76.1987	   15.6473	    2.7379	8.07043e+07	    76.183	   15.6806	   2.77034	 7.8504e+07	   76.2367	   15.6922	   2.78159	6.82956e+07	   76.2274	   15.6577	   2.74799	7.43245e+07	   76.1909	    15.664	   2.75412	7.94058e+07	   76.2001	   15.6985	   2.78772	7.37217e+07	
         R10	   1638	   76.1286	   15.6803	   2.77002	8.49443e+07	   76.1303	   15.7303	   2.81863	7.39653e+07	   76.2172	   15.7163	   2.80509	 7.1649e+07	    76.183	   15.6806	   2.77034	7.90688e+07	   76.1295	   15.7053	   2.79432	7.86781e+07	   76.1738	   15.7233	   2.81186	7.27034e+07	   76.2001	   15.6985	   2.78772	7.50103e+07	   76.1558	   15.6805	   2.77018	 8.1989e+07	
         R10	   1639	    76.137	   15.6341	   2.72507	8.97878e+07	   76.1987	   15.6473	    2.7379	 8.0192e+07	   76.2136	   15.6087	   2.70034	 8.1536e+07	   76.1551	   15.5916	   2.68369	8.96712e+07	   76.1678	   15.6407	   2.73148	8.49842e+07	   76.2061	    15.628	   2.71912	8.05784e+07	   76.1843	   15.6001	   2.69202	8.56029e+07	    76.146	   15.6128	   2.70438	8.94757e+07	
         R10	   1640	   76.2136	   15.6087	   2.70034	8.10963e+07	   76.2321	   15.5715	   2.66421	8.02469e+07	    76.178	   15.5561	    2.6492	8.62203e+07	   76.1551	   15.5916	   2.68369	8.92582e+07	   76.2229	   15.5901	   2.68227	 8.0411e+07	    76.205	   15.5638	   2.65671	8.32081e+07	   76.1665	   15.5738	   2.66645	8.75496e+07	   76.1843	   15.6001	   2.69202	8.51769e+07	
         R10	   1641	   75.9934	   15.6099	   2.70157	9.89415e+07	   76.0686	   15.6275	   2.71868	9.70562e+07	   76.0942	   15.5804	   2.67281	9.50203e+07	   76.0481	   15.5753	   2.66787	9.78609e+07	    76.031	   15.6187	   2.71012	9.79824e+07	   76.0814	    15.604	   2.69574	9.57959e+07	   76.0711	   15.5778	   2.67034	9.64234e+07	   76.0208	   15.5926	   2.68472	9.83139e+07	
         R10	   1642	   76.0441	   15.5414	   2.63485	9.15685e+07	   75.9802	   15.5601	   2.65303	9.77412e+07	   75.9934	   15.6099	   2.70157	1.00902e+08	   76.0481	   15.5753	   2.66787	9.72913e+07	   76.0122	   15.5507	   2.64394	9.45689e+07	   75.9868	    15.585	    2.6773	9.92367e+07	   76.0208	   15.5926	   2.68472	9.90338e+07	   76.0461	   15.5583	   2.65136	9.43295e+07	
         R10	   1643	   76.0942	   15.5804	   2.67281	9.46939e+07	   76.1144	   15.5334	   2.62708	8.76798e+07	   76.0441	   15.5414	   2.63485	9.03112e+07	   76.0481	   15.5753	   2.66787	9.67147e+07	   76.1043	   15.5569	   2.64994	9.10137e+07	   76.0793	   15.5374	   2.63096	8.89388e+07	   76.0461	   15.5583	   2.65136	9.34173e+07	   76.0711	   15.5778	   2.67034	9.56829e+07	
         R10	   1644	   76.1144	   15.5334	   2.62708	8.85956e+07	   76.0942	   15.5804	   2.67281	9.45746e+07	   76.1551	   15.5916	   2.68369	9.00358e+07	    76.178	   15.5561	    2.6492	8.67502e+07	   76.1043	   15.5569	   2.64994	9.13964e+07	   76.1246	    15.586	   2.67825	9.22994e+07	   76.1665	   15.5738	   2.66645	8.81928e+07	   76.1462	   15.5448	   2.63814	8.76623e+07	
         R10	   1645	   76.1592	   15.5079	   2.60224	 8.0358e+07	   76.1144	   15.5334	   2.62708	8.65807e+07	    76.178	   15.5561	    2.6492	8.67812e+07	   76.2083	   15.5203	   2.61437	8.19781e+07	   76.1368	   15.5206	   2.61466	8.33987e+07	   76.1462	   15.5448	   2.63814	8.66703e+07	   76.1931	   15.5382	   2.63178	8.41138e+07	   76.1838	   15.5141	    2.6083	8.11154e+07	
         R10	   1646	   76.2954	   15.3454	    2.4442	2.08014e+07	   76.2895	   15.3333	   2.43243	2.55073e+07	   76.2648	   15.3381	   2.43705	  2.791e+07	   76.2828	   15.3559	   2.45444	2.83207e+07	   76.2924	   15.3394	   2.43831	2.22128e+07	   76.2772	   15.3357	   2.43474	2.66977e+07	   76.2738	    15.347	   2.44574	2.47461e+07	   76.2891	   15.3507	   2.44932	 2.4112e+07	
         R10	   1647	   76.2639	   15.3609	   2.45922	3.21789e+07	   76.2828	   15.3559	   2.45444	2.08588e+07	   76.2648	   15.3381	   2.43705	3.07559e+07	    76.235	   15.3497	   2.44833	2.62531e+07	   76.2734	   15.3584	   2.45683	2.64191e+07	   76.2738	    15.347	   2.44574	2.40972e+07	   76.2499	   15.3439	   2.44269	 2.8317e+07	   76.2495	   15.3553	   2.45377	 2.7858e+07	
         R10	   1648	   76.2639	   15.3609	   2.45922	2.57638e+07	    76.235	   15.3497	   2.44833	3.15445e+07	   76.2358	   15.3748	    2.4728	3.28458e+07	   76.2686	   15.3784	   2.47625	3.69205e+07	   76.2495	   15.3553	   2.45377	2.75449e+07	   76.2354	   15.3622	   2.46057	 2.9941e+07	   76.2522	   15.3766	   2.47452	  3.441e+07	   76.2663	   15.3696	   2.46773	3.02572e+07	
         R10	   1649	   76.2882	   15.4032	   2.50043	5.14949e+07	   76.2883	   15.3899	   2.48749	4.67733e+07	   76.2686	   15.3784	   2.47625	3.67391e+07	   76.2613	   15.4006	   2.49785	 4.7114e+07	   76.2882	   15.3966	   2.49396	4.86947e+07	   76.2784	   15.3841	   2.48187	 4.1735e+07	    76.265	   15.3895	   2.48705	4.18392e+07	   76.2748	   15.4019	   2.49914	4.89622e+07	
         R10	   1650	   76.2164	   15.4046	   2.50178	4.56929e+07	   76.2372	   15.4191	   2.51588	5.46204e+07	   76.2613	   15.4006	   2.49785	4.79451e+07	   76.2402	   15.3927	   2.49019	 4.2648e+07	   76.2268	   15.4119	   2.50883	5.00126e+07	   76.2492	   15.4098	   2.50686	5.12391e+07	   76.2507	   15.3966	   2.49402	4.51143e+07	   76.2283	   15.3987	   2.49598	4.41167e+07	
         R10	   1651	   76.2358	   15.3748	    2.4728	3.26282e+07	   76.2027	   15.3823	   2.48004	3.45213e+07	   76.2164	   15.4046	   2.50178	4.57654e+07	   76.2402	   15.3927	   2.49019	4.21809e+07	   76.2193	   15.3785	   2.47642	3.35671e+07	   76.2096	   15.3934	   2.49091	3.93633e+07	   76.2283	   15.3987	   2.49598	4.39437e+07	    76.238	   15.3838	   2.48149	3.68908e+07	
         R10	   1652	   76.2613	   15.4006	   2.49785	4.78375e+07	   76.2686	   15.3784	   2.47625	3.63774e+07	   76.2358	   15.3748	    2.4728	3.41201e+07	   76.2402	   15.3927	   2.49019	4.13445e+07	    76.265	   15.3895	   2.48705	4.20324e+07	   76.2522	   15.3766	   2.47452	3.46635e+07	    76.238	   15.3838	   2.48149	3.70743e+07	   76.2507	   15.3966	   2.49402	4.45515e+07	
         R10	   1653	   76.2372	   15.4191	   2.51588	5.51734e+07	   76.2164	   15.4046	   2.50178	4.56918e+07	   76.1831	   15.4263	   2.52287	 5.3557e+07	   76.2294	   15.4382	   2.53446	6.20481e+07	   76.2268	   15.4119	   2.50883	5.03233e+07	   76.1998	   15.4154	   2.51232	4.94698e+07	   76.2063	   15.4322	   2.52866	5.76546e+07	   76.2333	   15.4286	   2.52517	5.85091e+07	
         R10	   1654	   76.2294	   15.4382	   2.53446	6.19667e+07	   76.1831	   15.4263	   2.52287	5.37211e+07	   76.1882	   15.4527	    2.5486	6.48347e+07	   76.2231	   15.4602	   2.55591	6.97574e+07	   76.2063	   15.4322	   2.52866	5.77373e+07	   76.1856	   15.4395	   2.53573	5.90874e+07	   76.2057	   15.4565	   2.55226	6.72505e+07	   76.2263	   15.4492	   2.54519	6.57916e+07	
         R10	   1655	   76.2231	   15.4602	   2.55591	6.96037e+07	   76.1882	   15.4527	    2.5486	 6.5786e+07	   76.1518	   15.4761	   2.57133	7.04808e+07	   76.2121	   15.4866	   2.58153	7.65948e+07	   76.2057	   15.4565	   2.55226	6.76402e+07	     76.17	   15.4644	   2.55996	6.80036e+07	    76.182	   15.4813	   2.57643	7.35293e+07	   76.2176	   15.4734	   2.56872	 7.2857e+07	
         R10	   1656	   76.2121	   15.4866	   2.58153	7.36751e+07	   76.1518	   15.4761	   2.57133	7.35089e+07	   76.1592	   15.5079	   2.60224	7.92253e+07	   76.2083	   15.5203	   2.61437	8.19563e+07	    76.182	   15.4813	   2.57643	7.34771e+07	   76.1555	    15.492	   2.58679	 7.6194e+07	   76.1838	   15.5141	    2.6083	8.05571e+07	   76.2102	   15.5034	   2.59795	7.77301e+07	
         R10	   1657	   76.2083	   15.5203	   2.61437	8.13975e+07	   76.2557	   15.5403	   2.63382	7.79217e+07	   76.2833	   15.5128	   2.60706	7.66798e+07	   76.2508	   15.5057	   2.60015	7.77826e+07	    76.232	   15.5303	   2.62409	7.96555e+07	   76.2695	   15.5266	   2.62044	7.70465e+07	   76.2671	   15.5093	    2.6036	7.71572e+07	   76.2296	    15.513	   2.60726	7.95264e+07	
         R10	   1658	   76.2504	   15.4889	   2.58382	7.70121e+07	   76.2121	   15.4866	   2.58153	 7.6041e+07	   76.2083	   15.5203	   2.61437	8.16845e+07	   76.2508	   15.5057	   2.60015	 7.7332e+07	   76.2312	   15.4877	   2.58268	7.64362e+07	   76.2102	   15.5034	   2.59795	7.88004e+07	   76.2296	    15.513	   2.60726	7.94649e+07	   76.2506	   15.4973	   2.59198	7.70949e+07	
         R10	   1659	   76.2833	   15.5128	   2.60706	7.67861e+07	   76.3027	   15.4865	    2.5815	7.45316e+07	   76.2504	   15.4889	   2.58382	 7.6386e+07	   76.2508	   15.5057	   2.60015	7.62111e+07	    76.293	   15.4997	   2.59428	7.55701e+07	   76.2765	   15.4877	   2.58266	7.53435e+07	   76.2506	   15.4973	   2.59198	7.62474e+07	   76.2671	   15.5093	    2.6036	7.64234e+07	
         R10	   1660	   76.3027	   15.4865	    2.5815	 7.5303e+07	   76.2833	   15.5128	   2.60706	7.57029e+07	   76.3248	   15.5176	   2.61172	7.25431e+07	   76.3374	   15.4944	   2.58912	7.29482e+07	    76.293	   15.4997	   2.59428	 7.5468e+07	    76.304	   15.5152	   2.60939	7.40201e+07	   76.3311	    15.506	   2.60042	7.26667e+07	     76.32	   15.4905	   2.58531	7.39278e+07	
         R10	   1661	   76.3374	   15.4944	   2.58912	7.22343e+07	   76.3248	   15.5176	   2.61172	7.22595e+07	   76.3679	   15.5224	   2.61638	6.72563e+07	   76.3839	    15.492	   2.58685	  7.099e+07	   76.3311	    15.506	   2.60042	7.21838e+07	   76.3463	     15.52	   2.61405	6.94667e+07	   76.3759	   15.5072	   2.60162	6.90692e+07	   76.3606	   15.4932	   2.58799	7.12972e+07	
         R10	   1662	   76.3501	   15.4702	   2.56563	7.26294e+07	   76.3839	    15.492	   2.58685	7.26929e+07	    76.386	   15.4672	   2.56269	6.18014e+07	    76.374	   15.4633	   2.55884	7.84353e+07	    76.367	   15.4811	   2.57624	7.25622e+07	    76.385	   15.4796	   2.57477	6.69354e+07	     76.38	   15.4652	   2.56077	 6.9366e+07	   76.3621	   15.4667	   2.56224	7.55163e+07	
         R10	   1663	   76.3765	   15.4499	   2.54586	6.95971e+07	   76.3497	   15.4511	   2.54698	7.56069e+07	   76.3501	   15.4702	   2.56563	6.88759e+07	    76.374	   15.4633	   2.55884	7.53205e+07	   76.3631	   15.4505	   2.54642	7.10298e+07	   76.3499	   15.4607	   2.55631	 7.1549e+07	   76.3621	   15.4667	   2.56224	7.17464e+07	   76.3752	   15.4566	   2.55235	7.14814e+07	
         R10	   1664	    76.386	   15.4672	   2.56269	8.04154e+07	   76.4028	   15.4556	   2.55143	6.39004e+07	   76.3765	   15.4499	   2.54586	8.08233e+07	    76.374	   15.4633	   2.55884	6.19484e+07	   76.3944	   15.4614	   2.55706	7.00798e+07	   76.3896	   15.4528	   2.54865	7.08357e+07	   76.3752	   15.4566	   2.55235	7.03932e+07	     76.38	   15.4652	   2.56077	6.99187e+07	
         R10	   1665	    76.386	   15.4672	   2.56269	6.77964e+07	   76.3839	    15.492	   2.58685	5.88195e+07	    76.411	   15.4723	   2.56765	7.79988e+07	   76.4028	   15.4556	   2.55143	7.08388e+07	    76.385	   15.4796	   2.57477	6.32448e+07	   76.3974	   15.4822	   2.57725	6.82644e+07	   76.4069	    15.464	   2.55954	7.41952e+07	   76.3944	   15.4614	   2.55706	 6.9242e+07	
         R10	   1666	   76.4282	   15.4527	   2.54857	7.18716e+07	   76.4028	   15.4556	   2.55143	7.33101e+07	    76.411	   15.4723	   2.56765	 6.7972e+07	   76.4367	   15.4738	    2.5691	6.84136e+07	   76.4155	   15.4542	      2.55	7.25102e+07	   76.4069	    15.464	   2.55954	7.05668e+07	   76.4239	   15.4731	   2.56838	6.80225e+07	   76.4325	   15.4632	   2.55884	7.00032e+07	
         R10	   1667	   76.4742	   15.4563	   2.55203	6.74392e+07	   76.4641	   15.4373	   2.53358	6.47332e+07	   76.4473	   15.4489	   2.54487	6.50466e+07	    76.454	   15.4581	   2.55379	 7.0393e+07	   76.4691	   15.4468	   2.54281	6.53124e+07	   76.4557	   15.4431	   2.53922	 6.4333e+07	   76.4507	   15.4535	   2.54933	6.74525e+07	   76.4641	   15.4572	   2.55291	6.87121e+07	
         R10	   1668	   76.4367	   15.4738	    2.5691	6.95728e+07	   76.4679	   15.4776	   2.57279	6.98695e+07	   76.4742	   15.4563	   2.55203	6.71658e+07	    76.454	   15.4581	   2.55379	 6.5595e+07	   76.4523	   15.4757	   2.57095	6.90161e+07	    76.471	   15.4669	   2.56241	6.84563e+07	   76.4641	   15.4572	   2.55291	6.61401e+07	   76.4454	   15.4659	   2.56145	 6.7573e+07	
         R10	   1669	   76.4473	   15.4489	   2.54487	7.47008e+07	   76.4282	   15.4527	   2.54857	6.76337e+07	   76.4367	   15.4738	    2.5691	7.20815e+07	    76.454	   15.4581	   2.55379	6.51012e+07	   76.4378	   15.4508	   2.54672	7.10673e+07	   76.4325	   15.4632	   2.55884	6.96379e+07	   76.4454	   15.4659	   2.56145	6.85167e+07	   76.4507	   15.4535	   2.54933	6.96741e+07	
         R10	   1670	   76.4473	   15.4489	   2.54487	 7.0893e+07	   76.4453	   15.4339	   2.53029	6.86898e+07	   76.4288	   15.4365	   2.53282	7.34276e+07	   76.4282	   15.4527	   2.54857	6.65325e+07	   76.4463	   15.4414	   2.53758	6.97009e+07	   76.4371	   15.4352	   2.53155	7.07621e+07	   76.4285	   15.4446	    2.5407	6.96144e+07	   76.4378	   15.4508	   2.54672	6.84979e+07	
         R10	   1671	   76.4282	   15.4527	   2.54857	7.54794e+07	   76.4288	   15.4365	   2.53282	6.67341e+07	   76.4143	   15.4355	    2.5318	7.51417e+07	   76.4028	   15.4556	   2.55143	6.98867e+07	   76.4285	   15.4446	    2.5407	7.10879e+07	   76.4215	    15.436	   2.53231	7.07581e+07	   76.4086	   15.4455	   2.54161	7.25008e+07	   76.4155	   15.4542	      2.55	7.26369e+07	
         R10	   1672	     76.33	   15.3244	   2.42371	1.66696e+07	     76.33	   15.3122	   2.41185	2.62785e+07	   76.3098	   15.3169	   2.41643	2.84841e+07	     76.33	   15.3183	   2.41778	2.10142e+07	   76.3199	   15.3145	   2.41414	2.73188e+07	   76.3199	   15.3206	   2.42007	 2.2353e+07	       N/A	       N/A	       N/A	        N/A	       N/A	       N/A	       N/A	        N/A	
         R10	   1673	   76.3065	   15.3854	   2.48306	4.01068e+07	   76.3116	   15.3707	   2.46879	3.60766e+07	   76.2907	   15.3712	    2.4693	3.18946e+07	   76.3091	    15.378	   2.47593	 3.7586e+07	   76.3012	    15.371	   2.46904	3.38805e+07	   76.2986	   15.3783	   2.47618	 3.5552e+07	       N/A	       N/A	       N/A	        N/A	       N/A	       N/A	       N/A	        N/A	
         R10	   1674	   76.3116	   15.4106	   2.50759	6.32939e+07	    76.312	    15.397	   2.49437	4.59033e+07	   76.2882	   15.4032	   2.50043	5.17827e+07	   76.3118	   15.4038	   2.50098	 5.4576e+07	   76.3001	   15.4001	    2.4974	4.84746e+07	   76.2999	   15.4069	   2.50401	5.72868e+07	       N/A	       N/A	       N/A	        N/A	       N/A	       N/A	       N/A	        N/A	
         R10	   1675	   76.3635	   15.4343	   2.53068	6.99159e+07	   76.3452	   15.4349	   2.53121	7.03974e+07	   76.3497	   15.4511	   2.54698	 7.1725e+07	   76.3543	   15.4346	   2.53095	7.00441e+07	   76.3475	    15.443	    2.5391	 7.1052e+07	   76.3566	   15.4427	   2.53883	7.06766e+07	       N/A	       N/A	       N/A	        N/A	       N/A	       N/A	       N/A	        N/A	
         R10	   1676	   76.4143	   15.4355	    2.5318	7.13104e+07	   76.3948	   15.4356	   2.53193	7.63534e+07	   76.4028	   15.4556	   2.55143	7.20535e+07	   76.4045	   15.4355	   2.53186	7.37984e+07	   76.3988	   15.4456	   2.54168	 7.4179e+07	   76.4086	   15.4455	   2.54161	7.16758e+07	       N/A	       N/A	       N/A	        N/A	       N/A	       N/A	       N/A	        N/A	
         R10	   1677	   76.3269	   15.4508	   2.54669	6.52978e+07	   76.3311	   15.4347	   2.53106	7.03765e+07	     76.31	   15.4362	   2.53254	 6.6562e+07	    76.329	   15.4427	   2.53887	 6.7792e+07	   76.3206	   15.4355	    2.5318	6.83204e+07	   76.3185	   15.4435	   2.53961	6.58987e+07	       N/A	       N/A	       N/A	        N/A	       N/A	       N/A	       N/A	        N/A	
         R10	   1678	   76.3209	   15.4683	   2.56379	7.35443e+07	   76.3269	   15.4508	   2.54669	7.24048e+07	   76.2968	   15.4574	   2.55317	 7.1114e+07	   76.3239	   15.4596	   2.55524	7.29443e+07	   76.3118	   15.4541	   2.54993	7.16628e+07	   76.3088	   15.4629	   2.55848	 7.2308e+07	       N/A	       N/A	       N/A	        N/A	       N/A	       N/A	       N/A	        N/A	
         R10	   1679	      75.9	    15.494	   2.58873	7.13565e+07	    75.889	    15.441	   2.53717	4.13439e+07	   75.8176	   15.4817	   2.57677	5.95112e+07	   75.8945	   15.4675	   2.56295	5.53127e+07	   75.8533	   15.4613	   2.55697	5.00243e+07	   75.8588	   15.4878	   2.58275	6.52585e+07	       N/A	       N/A	       N/A	        N/A	       N/A	       N/A	       N/A	        N/A	
         R10	   1680	   75.9775	   15.5109	   2.60517	8.30904e+07	   75.9043	   15.5497	   2.64299	9.12601e+07	   75.9802	   15.5601	   2.65303	 9.6265e+07	   75.9409	   15.5303	   2.62408	8.70822e+07	   75.9422	   15.5549	   2.64801	9.37548e+07	   75.9789	   15.5355	    2.6291	8.96039e+07	       N/A	       N/A	       N/A	        N/A	       N/A	       N/A	       N/A	        N/A	
         R10	   1681	   76.3501	   15.4702	   2.56563	7.50381e+07	   76.3374	   15.4944	   2.58912	7.17056e+07	   76.3839	    15.492	   2.58685	6.98876e+07	   76.3438	   15.4823	   2.57738	7.33181e+07	   76.3606	   15.4932	   2.58799	7.05248e+07	    76.367	   15.4811	   2.57624	7.23474e+07	       N/A	       N/A	       N/A	        N/A	       N/A	       N/A	       N/A	        N/A	
         R10	   1682	   76.2613	   15.4006	   2.49785	4.79546e+07	   76.2372	   15.4191	   2.51588	5.47442e+07	   76.2666	   15.4245	   2.52115	6.02293e+07	   76.2492	   15.4098	   2.50686	5.13051e+07	   76.2519	   15.4218	   2.51851	5.74335e+07	   76.2639	   15.4125	    2.5095	5.39684e+07	       N/A	       N/A	       N/A	        N/A	       N/A	       N/A	       N/A	        N/A	
         R10	   1683	   76.4641	   15.4373	   2.53358	6.88125e+07	   76.4453	   15.4339	   2.53029	 7.2237e+07	   76.4473	   15.4489	   2.54487	5.72206e+07	   76.4547	   15.4356	   2.53193	7.01157e+07	   76.4463	   15.4414	   2.53758	 6.4728e+07	   76.4557	   15.4431	   2.53922	6.26819e+07	       N/A	       N/A	       N/A	        N/A	       N/A	       N/A	       N/A	        N/A	
         R10	   1684	   76.2646	   15.4645	   2.56001	7.34756e+07	   76.2504	   15.4889	   2.58382	 7.5714e+07	   76.3027	   15.4865	    2.5815	7.30687e+07	   76.2575	   15.4767	   2.57191	 7.4552e+07	   76.2765	   15.4877	   2.58266	7.43202e+07	   76.2836	   15.4755	   2.57075	7.31788e+07	       N/A	       N/A	       N/A	        N/A	       N/A	       N/A	       N/A	        N/A	
         R10	   1685	   76.4641	   15.4373	   2.53358	 6.3826e+07	   76.4742	   15.4563	   2.55203	6.80965e+07	   76.4839	   15.4361	   2.53243	6.44343e+07	   76.4691	   15.4468	   2.54281	6.53181e+07	    76.479	   15.4462	   2.54223	6.61491e+07	    76.474	   15.4367	     2.533	 6.3826e+07	       N/A	       N/A	       N/A	        N/A	       N/A	       N/A	       N/A	        N/A	
         R10	   1686	    76.211	   15.7517	   2.83948	6.03923e+07	   76.1457	   15.7899	   2.87667	6.72065e+07	   76.2555	   15.7925	    2.8792	6.63718e+07	   76.1784	   15.7708	   2.85807	6.21399e+07	   76.2006	   15.7912	   2.87794	6.67215e+07	   76.2333	   15.7721	   2.85934	6.11327e+07	       N/A	       N/A	       N/A	        N/A	       N/A	       N/A	       N/A	        N/A	
         R10	   1687	   76.5349	   15.4345	   2.53086	6.81866e+07	    76.534	   15.4218	   2.51855	  6.622e+07	    76.517	   15.4218	   2.51855	6.15897e+07	   76.5159	   15.4351	   2.53148	6.29601e+07	   76.5344	   15.4282	    2.5247	6.69952e+07	   76.5255	   15.4218	   2.51855	6.37046e+07	   76.5164	   15.4285	   2.52502	6.21909e+07	   76.5254	   15.4348	   2.53117	6.53409e+07	
         R10	   1688	   76.5507	   15.4353	   2.53169	7.19166e+07	    76.551	   15.4218	   2.51855	7.01937e+07	    76.534	   15.4218	   2.51855	6.80195e+07	   76.5349	   15.4345	   2.53086	6.64239e+07	   76.5509	   15.4286	   2.52512	7.07562e+07	   76.5425	   15.4218	   2.51855	6.86884e+07	   76.5344	   15.4282	    2.5247	6.71984e+07	   76.5428	   15.4349	   2.53127	6.91504e+07	
         R10	   1689	   76.5695	    15.435	   2.53134	 7.1572e+07	    76.568	   15.4218	   2.51855	7.40943e+07	    76.551	   15.4218	   2.51855	 7.0589e+07	   76.5507	   15.4353	   2.53169	7.08532e+07	   76.5688	   15.4284	   2.52494	7.28109e+07	   76.5595	   15.4218	   2.51855	7.22857e+07	   76.5509	   15.4286	   2.52512	7.07099e+07	   76.5601	   15.4352	   2.53151	7.11865e+07	
         R10	   1690	   76.5856	    15.434	   2.53033	6.98651e+07	    76.585	   15.4218	   2.51855	7.57235e+07	    76.568	   15.4218	   2.51855	7.41266e+07	   76.5695	    15.435	   2.53134	 7.3247e+07	   76.5853	   15.4279	   2.52444	7.27096e+07	   76.5765	   15.4218	   2.51855	7.48703e+07	   76.5688	   15.4284	   2.52494	7.36685e+07	   76.5776	   15.4345	   2.53084	7.14725e+07	
         R10	   1691	   76.6035	   15.4339	   2.53032	6.80844e+07	    76.602	   15.4218	   2.51855	7.35554e+07	    76.585	   15.4218	   2.51855	7.28483e+07	   76.5856	    15.434	   2.53033	 7.6522e+07	   76.6028	   15.4279	   2.52444	7.07662e+07	   76.5935	   15.4218	   2.51855	 7.3058e+07	   76.5853	   15.4279	   2.52444	 7.4556e+07	   76.5945	   15.4339	   2.53033	7.22442e+07	
         R10	   1692	   76.6173	   15.4337	   2.53013	6.34314e+07	    76.619	   15.4218	   2.51855	7.32192e+07	    76.602	   15.4218	   2.51855	7.41478e+07	   76.6035	   15.4339	   2.53032	7.50612e+07	   76.6182	   15.4278	   2.52434	6.82873e+07	   76.6105	   15.4218	   2.51855	7.33728e+07	   76.6028	   15.4279	   2.52444	7.44381e+07	   76.6104	   15.4338	   2.53022	6.92448e+07	
         R10	   1693	   76.6366	   15.4346	   2.53096	6.10008e+07	    76.636	   15.4218	   2.51855	7.46703e+07	    76.619	   15.4218	   2.51855	7.33102e+07	   76.6173	   15.4337	   2.53013	7.19681e+07	   76.6363	   15.4282	   2.52476	6.72073e+07	   76.6275	   15.4218	   2.51855	7.39256e+07	   76.6182	   15.4278	   2.52434	 7.2418e+07	    76.627	   15.4342	   2.53054	6.60961e+07	
         R10	   1694	   76.6511	   15.4357	   2.53202	6.76491e+07	    76.653	   15.4218	   2.51855	6.77146e+07	    76.636	   15.4218	   2.51855	7.06871e+07	   76.6366	   15.4346	   2.53096	6.75671e+07	   76.6521	   15.4288	   2.52528	6.73413e+07	   76.6445	   15.4218	   2.51855	 6.9117e+07	   76.6363	   15.4282	   2.52476	6.85325e+07	   76.6438	   15.4351	   2.53149	6.72661e+07	
         R10	   1695	   76.6716	   15.4355	   2.53181	6.92066e+07	     76.67	   15.4218	   2.51855	6.14543e+07	    76.653	   15.4218	   2.51855	6.95784e+07	   76.6511	   15.4357	   2.53202	6.66295e+07	   76.6708	   15.4287	   2.52518	6.50995e+07	   76.6615	   15.4218	   2.51855	6.53315e+07	   76.6521	   15.4288	   2.52528	6.80357e+07	   76.6613	   15.4356	   2.53191	6.78919e+07	
         R10	   1696	   76.6861	   15.4106	   2.50766	 5.4037e+07	     76.67	   15.4097	    2.5067	 5.5235e+07	     76.67	   15.4218	   2.51855	 7.1929e+07	   76.6864	   15.4209	   2.51764	5.08762e+07	   76.6781	   15.4102	   2.50718	  5.333e+07	     76.67	   15.4158	   2.51262	6.30629e+07	   76.6782	   15.4214	   2.51809	6.10589e+07	   76.6863	   15.4158	   2.51265	5.14461e+07	
         R10	   1697	   76.6913	   15.3977	   2.49502	5.27426e+07	     76.67	   15.3975	   2.49484	5.64489e+07	     76.67	   15.4097	    2.5067	5.27477e+07	   76.6861	   15.4106	   2.50766	5.94681e+07	   76.6807	   15.3976	   2.49493	5.36291e+07	     76.67	   15.4036	   2.50077	5.22994e+07	   76.6781	   15.4102	   2.50718	5.30033e+07	   76.6887	   15.4042	   2.50134	 5.4633e+07	
         R10	   1698	   76.6873	   15.3848	    2.4825	4.51497e+07	     76.67	   15.3853	   2.48299	4.17545e+07	     76.67	   15.3975	   2.49484	6.28076e+07	   76.6913	   15.3977	   2.49502	4.59273e+07	   76.6786	    15.385	   2.48274	4.33952e+07	     76.67	   15.3914	   2.48891	5.16405e+07	   76.6807	   15.3976	   2.49493	 5.3722e+07	   76.6893	   15.3912	   2.48876	4.54722e+07	
         R10	   1699	   76.6879	    15.373	   2.47103	4.09571e+07	     76.67	   15.3731	   2.47113	3.54726e+07	     76.67	   15.3853	   2.48299	4.71937e+07	   76.6873	   15.3848	    2.4825	4.34391e+07	    76.679	   15.3731	   2.47108	3.81644e+07	     76.67	   15.3792	   2.47706	4.12826e+07	   76.6786	    15.385	   2.48274	4.52728e+07	   76.6876	   15.3789	   2.47676	4.21411e+07	
         R10	   1700	   76.6878	    15.361	   2.45931	2.26906e+07	     76.67	   15.3609	   2.45928	3.01782e+07	     76.67	   15.3731	   2.47113	3.86541e+07	   76.6879	    15.373	   2.47103	4.11544e+07	   76.6789	   15.3609	   2.45929	2.38178e+07	     76.67	    15.367	    2.4652	3.36253e+07	    76.679	   15.3731	   2.47108	3.96871e+07	   76.6879	    15.367	   2.46517	3.07338e+07	
         R10	   1701	    76.687	   15.3486	   2.44733	1.80839e+07	     76.67	   15.3487	   2.44742	1.79107e+07	     76.67	   15.3609	   2.45928	2.88975e+07	   76.6878	    15.361	   2.45931	 2.4719e+07	   76.6785	   15.3487	   2.44737	 1.7804e+07	     76.67	   15.3548	   2.45335	2.25877e+07	   76.6789	   15.3609	   2.45929	2.61933e+07	   76.6874	   15.3548	   2.45332	2.12014e+07	
         R10	   1702	   76.6853	   15.3372	   2.43616	1.65957e+07	     76.67	   15.3366	   2.43556	 1.4294e+07	     76.67	   15.3487	   2.44742	1.99558e+07	    76.687	   15.3486	   2.44733	1.93075e+07	   76.6776	   15.3369	   2.43586	1.53774e+07	     76.67	   15.3426	   2.44149	1.64475e+07	   76.6785	   15.3487	   2.44737	1.96121e+07	   76.6861	   15.3429	   2.44174	1.67118e+07	
         R10	   1703	   76.6868	   15.3242	   2.42351	1.96349e+07	     76.67	   15.3244	   2.42371	1.71368e+07	     76.67	   15.3366	   2.43556	1.37404e+07	   76.6853	   15.3372	   2.43616	2.03048e+07	   76.6784	   15.3243	   2.42361	1.82718e+07	     76.67	   15.3305	   2.42964	1.32758e+07	   76.6776	   15.3369	   2.43586	1.64031e+07	    76.686	   15.3307	   2.42983	1.90502e+07	
         R10	   1704	   76.6893	   15.3131	   2.41271	3.08318e+07	     76.67	   15.3122	   2.41185	2.66243e+07	     76.67	   15.3244	   2.42371	1.89524e+07	   76.6868	   15.3242	   2.42351	2.34823e+07	   76.6796	   15.3126	   2.41228	2.86449e+07	     76.67	   15.3183	   2.41778	2.20986e+07	   76.6784	   15.3243	   2.42361	2.09576e+07	    76.688	   15.3186	   2.41811	2.70702e+07	
         R10	   1705	   76.6874	      15.3	       2.4	4.49609e+07	     76.67	      15.3	       2.4	 3.7971e+07	     76.67	   15.3122	   2.41185	 2.6006e+07	   76.6893	   15.3131	   2.41271	3.27598e+07	   76.6787	      15.3	       2.4	4.14617e+07	     76.67	   15.3061	   2.40593	3.18865e+07	   76.6796	   15.3126	   2.41228	2.93748e+07	   76.6883	   15.3065	   2.40635	3.86479e+07	
         R10	   1706	   76.7118	    15.317	   2.41652	3.65929e+07	   76.7095	      15.3	       2.4	5.29416e+07	   76.6874	      15.3	       2.4	 4.3222e+07	   76.6893	   15.3131	   2.41271	3.26042e+07	   76.7107	   15.3085	   2.40826	4.45111e+07	   76.6984	      15.3	       2.4	4.80774e+07	   76.6883	   15.3065	   2.40635	3.77656e+07	   76.7005	    15.315	   2.41461	3.45779e+07	
         R10	   1707	   76.7382	   15.3203	   2.41978	4.24976e+07	   76.7365	      15.3	       2.4	6.27523e+07	   76.7095	      15.3	       2.4	5.22737e+07	   76.7118	    15.317	   2.41652	3.67017e+07	   76.7373	   15.3102	   2.40989	5.22031e+07	    76.723	      15.3	       2.4	5.75107e+07	   76.7107	   15.3085	   2.40826	4.41771e+07	    76.725	   15.3187	   2.41815	3.95478e+07	
         R10	   1708	   76.7701	   15.3235	   2.42284	4.90875e+07	   76.7683	      15.3	       2.4	7.53259e+07	   76.7365	      15.3	       2.4	6.26908e+07	   76.7382	   15.3203	   2.41978	4.27837e+07	   76.7692	   15.3117	   2.41142	6.16775e+07	   76.7524	      15.3	       2.4	6.90069e+07	   76.7373	   15.3102	   2.40989	5.23454e+07	   76.7542	   15.3219	   2.42131	4.59102e+07	
         R10	   1709	    76.807	   15.3273	   2.42655	5.65495e+07	   76.8048	      15.3	       2.4	8.78973e+07	   76.7683	      15.3	       2.4	7.50643e+07	   76.7701	   15.3235	   2.42284	4.90429e+07	   76.8059	   15.3136	   2.41328	  7.173e+07	   76.7865	      15.3	       2.4	8.14763e+07	   76.7692	   15.3117	   2.41142	 6.1588e+07	   76.7886	   15.3254	   2.42469	5.27938e+07	
         R10	   1710	   76.8482	   15.3315	   2.43061	6.21289e+07	   76.8462	      15.3	       2.4	1.02213e+08	   76.8048	      15.3	       2.4	8.88953e+07	    76.807	   15.3273	   2.42655	5.47031e+07	   76.8472	   15.3157	   2.41531	 8.1574e+07	   76.8255	      15.3	       2.4	9.55507e+07	   76.8059	   15.3136	   2.41328	7.13611e+07	   76.8276	   15.3294	   2.42858	 5.8411e+07	
         R10	   1711	    76.894	   15.3352	   2.43428	6.72548e+07	   76.8924	      15.3	       2.4	1.15993e+08	   76.8462	      15.3	       2.4	1.02007e+08	   76.8482	   15.3315	   2.43061	6.22344e+07	   76.8932	   15.3176	   2.41714	9.10593e+07	   76.8693	      15.3	       2.4	1.08999e+08	   76.8472	   15.3157	   2.41531	8.15161e+07	   76.8711	   15.3334	   2.43245	6.47395e+07	
         R10	   1712	   76.9448	   15.3385	   2.43744	7.28068e+07	   76.9433	      15.3	       2.4	1.28456e+08	   76.8924	      15.3	       2.4	1.15858e+08	    76.894	   15.3352	   2.43428	 6.7349e+07	   76.9441	   15.3192	   2.41872	1.00181e+08	   76.9179	      15.3	       2.4	1.22155e+08	   76.8932	   15.3176	   2.41714	9.10458e+07	   76.9194	   15.3369	   2.43586	7.00657e+07	
         R10	   1713	   77.0006	   15.3412	   2.44013	7.78036e+07	   76.9991	      15.3	       2.4	1.40556e+08	   76.9433	      15.3	       2.4	1.28781e+08	   76.9448	   15.3385	   2.43744	7.25199e+07	   76.9998	   15.3206	   2.42007	1.08846e+08	   76.9712	      15.3	       2.4	1.34668e+08	   76.9441	   15.3192	   2.41872	 1.0017e+08	   76.9727	   15.3399	   2.43879	7.51446e+07	
         R10	   1714	   77.0619	   15.3449	   2.44365	8.13812e+07	   77.0597	      15.3	       2.4	1.50346e+08	   76.9991	      15.3	       2.4	1.40358e+08	   77.0006	   15.3412	   2.44013	7.79334e+07	   77.0608	   15.3224	   2.42182	1.15457e+08	   77.0294	      15.3	       2.4	 1.4535e+08	   76.9998	   15.3206	   2.42007	1.08781e+08	   77.0312	   15.3431	   2.44189	 7.9657e+07	
         R10	   1715	   77.1272	   15.3492	   2.44791	8.14666e+07	   77.1251	      15.3	       2.4	 1.5956e+08	   77.0597	      15.3	       2.4	1.50164e+08	   77.0619	   15.3449	   2.44365	 8.1345e+07	   77.1261	   15.3246	   2.42396	1.20071e+08	   77.0924	      15.3	       2.4	 1.5486e+08	   77.0608	   15.3224	   2.42182	1.15373e+08	   77.0945	   15.3471	   2.44578	8.14046e+07	
         R10	   1716	    77.197	   15.3529	    2.4515	8.21743e+07	   77.1952	      15.3	       2.4	 1.6596e+08	   77.1251	      15.3	       2.4	1.59487e+08	   77.1272	   15.3492	   2.44791	8.14084e+07	   77.1961	   15.3265	   2.42575	1.23722e+08	   77.1601	      15.3	       2.4	1.62723e+08	   77.1261	   15.3246	   2.42396	 1.2007e+08	   77.1621	   15.3511	   2.44971	8.17878e+07	
         R10	   1717	   77.2726	   15.3565	   2.45498	8.17138e+07	   77.2702	      15.3	       2.4	1.71984e+08	   77.1952	      15.3	       2.4	1.66018e+08	    77.197	   15.3529	    2.4515	8.22671e+07	   77.2714	   15.3283	   2.42749	1.26531e+08	   77.2327	      15.3	       2.4	   1.69e+08	   77.1961	   15.3265	   2.42575	1.23793e+08	   77.2348	   15.3547	   2.45324	8.19804e+07	
         R10	   1718	     77.35	   15.3588	   2.45717	8.25773e+07	     77.35	      15.3	       2.4	1.76331e+08	   77.2702	      15.3	       2.4	1.71849e+08	   77.2726	   15.3565	   2.45498	8.16684e+07	     77.35	   15.3294	   2.42859	1.29123e+08	   77.3101	      15.3	       2.4	 1.7409e+08	   77.2714	   15.3283	   2.42749	1.26438e+08	   77.3113	   15.3576	   2.45608	8.21227e+07	
         R10	   1719	     77.35	     15.42	   2.51671	2.32419e+07	     77.35	   15.3588	   2.45717	8.20436e+07	   77.2726	   15.3565	   2.45498	8.18255e+07	   77.2694	   15.4169	   2.51371	2.41641e+07	     77.35	   15.3894	   2.48694	4.64764e+07	   77.3113	   15.3576	   2.45608	8.19344e+07	    77.271	   15.3867	   2.48435	4.62897e+07	   77.3097	   15.4184	   2.51521	2.36592e+07	
         R10	   1720	   77.2623	   15.4826	   2.57766	6.38158e+07	     77.35	   15.4836	   2.57862	6.15902e+07	     77.35	     15.42	   2.51671	2.37289e+07	   77.2694	   15.4169	   2.51371	2.50435e+07	   77.3061	   15.4831	   2.57814	6.26546e+07	     77.35	   15.4518	   2.54767	3.66711e+07	   77.3097	   15.4184	   2.51521	2.43389e+07	   77.2659	   15.4497	   2.54569	3.75566e+07	
         R10	   1721	   77.2578	    15.549	   2.64226	9.66842e+07	     77.35	   15.5496	   2.64289	9.59624e+07	     77.35	   15.4836	   2.57862	6.14308e+07	   77.2623	   15.4826	   2.57766	6.39937e+07	   77.3039	   15.5493	   2.64258	9.63097e+07	     77.35	   15.5166	   2.61075	7.84561e+07	   77.3061	   15.4831	   2.57814	6.26462e+07	     77.26	   15.5158	   2.60996	8.00916e+07	
         R10	   1722	   77.2563	    15.619	   2.71036	 1.0946e+08	     77.35	   15.6181	   2.70953	1.07719e+08	     77.35	   15.5496	   2.64289	9.59806e+07	   77.2578	    15.549	   2.64226	9.66465e+07	   77.3032	   15.6186	   2.70994	1.08581e+08	     77.35	   15.5839	   2.67621	1.01751e+08	   77.3039	   15.5493	   2.64258	 9.6302e+07	    77.257	    15.584	   2.67631	1.02972e+08	
         R10	   1723	   77.2534	   15.6904	   2.77984	9.63558e+07	     77.35	    15.689	   2.77853	9.61986e+07	     77.35	   15.6181	   2.70953	1.09246e+08	   77.2563	    15.619	   2.71036	1.08909e+08	   77.3017	   15.6897	   2.77918	9.62692e+07	     77.35	   15.6536	   2.74403	1.02459e+08	   77.3032	   15.6186	   2.70994	1.09072e+08	   77.2548	   15.6547	    2.7451	1.02338e+08	
         R10	   1724	   77.2487	    15.764	   2.85143	5.96091e+07	     77.35	   15.7624	   2.84989	5.98271e+07	     77.35	    15.689	   2.77853	 9.3392e+07	   77.2534	   15.6904	   2.77984	9.65982e+07	   77.2994	   15.7632	   2.85066	5.96433e+07	     77.35	   15.7257	   2.81421	7.55677e+07	   77.3017	   15.6897	   2.77918	9.49899e+07	    77.251	   15.7272	   2.81563	 7.6541e+07	
         R10	   1725	   77.2458	    15.839	   2.92447	4.52072e+07	     77.35	   15.8382	   2.92363	4.36634e+07	     77.35	   15.7624	   2.84989	5.54852e+07	   77.2487	    15.764	   2.85143	5.60901e+07	   77.2979	   15.8386	   2.92405	4.43664e+07	     77.35	   15.8003	   2.88676	2.83316e+07	   77.2994	   15.7632	   2.85066	5.57617e+07	   77.2473	   15.8015	   2.88795	3.14452e+07	
         R10	   1726	   77.2466	   15.9164	   2.99973	1.40689e+08	     77.35	   15.9164	   2.99973	 1.4193e+08	     77.35	   15.8382	   2.92363	3.19795e+07	   77.2458	    15.839	   2.92447	3.27689e+07	   77.2983	   15.9164	   2.99973	1.41288e+08	     77.35	   15.8773	   2.96168	8.20049e+07	   77.2979	   15.8386	   2.92405	3.23702e+07	   77.2462	   15.8777	    2.9621	 8.1263e+07	
         R10	   1727	   77.1454	   15.9164	   2.99973	 1.3816e+08	   77.2466	   15.9164	   2.99973	1.40694e+08	   77.2458	    15.839	   2.92447	3.28537e+07	   77.1459	   15.8391	   2.92449	3.15195e+07	    77.196	   15.9164	   2.99973	1.39401e+08	   77.2462	   15.8777	    2.9621	8.14266e+07	   77.1959	    15.839	   2.92448	3.21069e+07	   77.1457	   15.8777	   2.96211	7.84704e+07	
         R10	   1728	    77.048	    15.842	   2.92734	3.22413e+07	   77.0465	   15.9164	   2.99973	1.32285e+08	   77.1454	   15.9164	   2.99973	1.38359e+08	   77.1459	   15.8391	   2.92449	3.07296e+07	   77.0472	   15.8792	   2.96353	7.60143e+07	   77.0959	   15.9164	   2.99973	1.35265e+08	   77.1457	   15.8777	   2.96211	7.85591e+07	   77.0969	   15.8405	   2.92592	3.14269e+07	
         R10	   1729	    76.954	   15.8465	   2.93172	3.20961e+07	   76.9498	   15.9164	   2.99973	1.24134e+08	   77.0465	   15.9164	   2.99973	1.32556e+08	    77.048	    15.842	   2.92734	3.16048e+07	   76.9519	   15.8814	   2.96572	7.20028e+07	   76.9981	   15.9164	   2.99973	1.28201e+08	   77.0472	   15.8792	   2.96353	7.61899e+07	    77.001	   15.8442	   2.92953	3.18217e+07	
         R10	   1730	   76.8559	   15.8514	   2.93649	3.27508e+07	   76.8553	   15.9164	   2.99973	1.11504e+08	   76.9498	   15.9164	   2.99973	1.24148e+08	    76.954	   15.8465	   2.93172	3.21412e+07	   76.8556	   15.8839	   2.96811	6.50735e+07	   76.9026	   15.9164	   2.99973	1.17509e+08	   76.9519	   15.8814	   2.96572	7.20539e+07	    76.905	   15.8489	    2.9341	 3.2234e+07	
         R10	   1731	   76.7635	   15.8528	   2.93788	3.53004e+07	   76.7631	   15.9164	   2.99973	9.49975e+07	   76.8553	   15.9164	   2.99973	1.11503e+08	   76.8559	   15.8514	   2.93649	3.42471e+07	   76.7633	   15.8846	    2.9688	5.69692e+07	   76.8092	   15.9164	   2.99973	1.02477e+08	   76.8556	   15.8839	   2.96811	6.54717e+07	   76.8097	   15.8521	   2.93718	 3.4351e+07	
         R10	   1732	   76.6737	   15.8538	   2.93883	4.46628e+07	   76.6732	   15.9164	   2.99973	8.13123e+07	   76.7631	   15.9164	   2.99973	9.46801e+07	   76.7635	   15.8528	   2.93788	3.55658e+07	   76.6734	   15.8851	   2.96928	5.57093e+07	   76.7182	   15.9164	   2.99973	8.62267e+07	   76.7633	   15.8846	    2.9688	5.71552e+07	   76.7186	   15.8533	   2.93835	3.94635e+07	
         R10	   1733	   76.5861	   15.8546	   2.93963	5.18032e+07	   76.5855	   15.9164	   2.99973	1.15085e+08	   76.6732	   15.9164	   2.99973	8.99944e+07	   76.6737	   15.8538	   2.93883	4.51474e+07	   76.5858	   15.8855	   2.96968	5.71894e+07	   76.6293	   15.9164	   2.99973	9.75442e+07	   76.6734	   15.8851	   2.96928	6.05954e+07	   76.6299	   15.8542	   2.93923	4.15197e+07	
         R10	   1734	      76.5	   15.8529	   2.93793	1.02769e+08	      76.5	   15.9164	   2.99973	1.22074e+08	   76.5855	   15.9164	   2.99973	1.15968e+08	   76.5861	   15.8546	   2.93963	7.26132e+07	      76.5	   15.8846	   2.96883	3.25516e+07	   76.5427	   15.9164	   2.99973	9.09544e+07	   76.5858	   15.8855	   2.96968	 6.2567e+07	   76.5431	   15.8537	   2.93878	4.83137e+07	
         R10	   1735	      76.5	   15.7936	   2.88026	6.12035e+07	      76.5	   15.8529	   2.93793	8.03072e+07	   76.5861	   15.8546	   2.93963	8.48722e+07	   76.5851	   15.7954	   2.88205	3.20472e+07	      76.5	   15.8232	   2.90909	6.96729e+07	   76.5431	   15.8537	   2.93878	1.62692e+07	   76.5856	    15.825	   2.91084	3.85005e+07	   76.5425	   15.7945	   2.88115	4.13547e+07	
         R10	   1736	    76.578	   15.7407	   2.82882	3.80534e+07	      76.5	   15.7386	   2.82672	8.34769e+07	      76.5	   15.7936	   2.88026	5.88333e+07	   76.5851	   15.7954	   2.88205	2.75764e+07	    76.539	   15.7397	   2.82777	5.72236e+07	      76.5	   15.7661	   2.85349	7.08005e+07	   76.5425	   15.7945	   2.88115	3.39106e+07	   76.5816	   15.7681	   2.85543	2.78199e+07	
         R10	   1737	   76.5686	   15.6905	   2.77997	5.09974e+07	      76.5	   15.6878	   2.77731	1.00293e+08	      76.5	   15.7386	   2.82672	8.21448e+07	    76.578	   15.7407	   2.82882	3.78606e+07	   76.5343	   15.6892	   2.77864	7.36903e+07	      76.5	   15.7132	   2.80201	9.11662e+07	    76.539	   15.7397	   2.82777	5.47897e+07	   76.5733	   15.7156	   2.80439	4.22837e+07	
         R10	   1738	   76.5606	   15.6427	   2.73346	6.08846e+07	      76.5	   15.6413	   2.73204	1.08333e+08	      76.5	   15.6878	   2.77731	9.87797e+07	   76.5686	   15.6905	   2.77997	4.90746e+07	   76.5303	    15.642	   2.73275	8.31724e+07	      76.5	   15.6645	   2.75467	1.03556e+08	   76.5343	   15.6892	   2.77864	7.18401e+07	   76.5646	   15.6666	   2.75671	5.46127e+07	
         R10	   1739	    76.556	   15.6005	    2.6924	6.71306e+07	      76.5	    15.599	   2.69089	 1.0904e+08	      76.5	   15.6413	   2.73204	1.07724e+08	   76.5606	   15.6427	   2.73346	6.01602e+07	    76.528	   15.5997	   2.69165	8.66102e+07	      76.5	   15.6201	   2.71146	1.08377e+08	   76.5303	    15.642	   2.73275	8.25112e+07	   76.5583	   15.6216	   2.71293	6.34776e+07	
         R10	   1740	   76.5509	   15.5624	   2.65534	7.03194e+07	      76.5	   15.5609	   2.65388	1.03862e+08	      76.5	    15.599	   2.69089	1.08667e+08	    76.556	   15.6005	    2.6924	6.65402e+07	   76.5254	   15.5617	   2.65461	8.55255e+07	      76.5	     15.58	   2.67238	 1.0624e+08	    76.528	   15.5997	   2.69165	8.61696e+07	   76.5535	   15.5815	   2.67387	6.83492e+07	
         R10	   1741	   76.5447	    15.529	   2.62282	7.18653e+07	      76.5	   15.5271	     2.621	9.47874e+07	      76.5	   15.5609	   2.65388	1.03505e+08	   76.5509	   15.5624	   2.65534	7.02492e+07	   76.5224	   15.5281	   2.62191	8.17679e+07	      76.5	    15.544	   2.63744	9.90913e+07	   76.5254	   15.5617	   2.65461	8.53559e+07	   76.5478	   15.5457	   2.63908	    7.1e+07	
         R10	   1742	   76.5375	   15.4995	   2.59408	7.02079e+07	      76.5	   15.4976	   2.59224	8.47214e+07	      76.5	   15.5271	     2.621	 9.4442e+07	   76.5447	    15.529	   2.62282	7.17876e+07	   76.5188	   15.4985	   2.59316	7.62261e+07	      76.5	   15.5124	   2.60662	8.94655e+07	   76.5224	   15.5281	   2.62191	8.15956e+07	   76.5411	   15.5142	   2.60845	7.09587e+07	
         R10	   1743	    76.531	    15.474	   2.56934	6.85206e+07	      76.5	   15.4723	   2.56762	7.40249e+07	      76.5	   15.4976	   2.59224	8.40524e+07	   76.5375	   15.4995	   2.59408	7.16906e+07	   76.5155	   15.4732	   2.56848	7.03735e+07	      76.5	   15.4849	   2.57993	7.88862e+07	   76.5188	   15.4985	   2.59316	7.66306e+07	   76.5343	   15.4868	   2.58171	7.00622e+07	
         R10	   1744	   76.5262	   15.4528	   2.54863	6.72727e+07	      76.5	   15.4512	   2.54714	6.48077e+07	      76.5	   15.4723	   2.56762	7.50599e+07	    76.531	    15.474	   2.56934	6.75766e+07	   76.5131	    15.452	   2.54788	6.56409e+07	      76.5	   15.4618	   2.55738	6.96325e+07	   76.5155	   15.4732	   2.56848	 7.0134e+07	   76.5286	   15.4634	   2.55898	6.73065e+07	
         R10	   1745	   76.5159	   15.4351	   2.53148	6.12255e+07	    76.517	   15.4218	   2.51855	6.44125e+07	      76.5	   15.4218	   2.51855	5.72108e+07	      76.5	   15.4344	   2.53078	6.07936e+07	   76.5164	   15.4285	   2.52502	 6.2734e+07	   76.5085	   15.4218	   2.51855	6.07392e+07	      76.5	   15.4281	   2.52466	5.87468e+07	   76.5079	   15.4348	   2.53113	6.07421e+07	
         R10	   1746	    76.625	   15.4493	   2.54528	6.99757e+07	   76.6173	   15.4337	   2.53013	7.57326e+07	   76.6035	   15.4339	   2.53032	 6.7558e+07	      76.6	   15.4477	   2.54374	7.09241e+07	   76.6212	   15.4415	    2.5377	7.27338e+07	   76.6104	   15.4338	   2.53022	 7.1448e+07	   76.6018	   15.4408	   2.53703	6.90352e+07	   76.6125	   15.4485	   2.54451	 7.0421e+07	
         R10	   1747	   76.6728	   15.4505	   2.54641	7.19326e+07	   76.6716	   15.4355	   2.53181	6.93375e+07	   76.6511	   15.4357	   2.53202	6.53922e+07	   76.6481	   15.4508	   2.54673	7.15212e+07	   76.6722	    15.443	   2.53911	7.04096e+07	   76.6613	   15.4356	   2.53191	6.71937e+07	   76.6496	   15.4432	   2.53937	6.83763e+07	   76.6605	   15.4506	   2.54657	7.17007e+07	
         R10	   1748	   76.6864	   15.4209	   2.51764	6.37392e+07	     76.67	   15.4218	   2.51855	 6.3021e+07	   76.6716	   15.4355	   2.53181	7.14262e+07	   76.6916	   15.4354	   2.53179	5.89575e+07	   76.6782	   15.4214	   2.51809	6.24101e+07	   76.6708	   15.4287	   2.52518	6.71152e+07	   76.6816	   15.4355	    2.5318	6.41542e+07	    76.689	   15.4282	   2.52471	5.93062e+07	
         R10	   1749	   76.7071	   15.4092	   2.50621	5.73975e+07	   76.6861	   15.4106	   2.50766	 4.6154e+07	   76.6864	   15.4209	   2.51764	6.72291e+07	   76.7113	   15.4257	   2.52233	6.12601e+07	   76.6966	   15.4099	   2.50693	  5.149e+07	   76.6863	   15.4158	   2.51265	5.62482e+07	   76.6989	   15.4233	   2.51998	6.36878e+07	   76.7092	   15.4174	   2.51427	5.92527e+07	
         R10	   1750	   76.7127	   15.3819	   2.47973	3.75397e+07	   76.6873	   15.3848	    2.4825	4.37627e+07	   76.6913	   15.3977	   2.49502	5.23228e+07	   76.7124	   15.3915	   2.48907	3.73291e+07	      76.7	   15.3834	   2.48111	3.89051e+07	   76.6893	   15.3912	   2.48876	4.74521e+07	   76.7018	   15.3946	   2.49204	4.38804e+07	   76.7125	   15.3867	    2.4844	 3.7135e+07	
         R10	   1751	    76.708	   15.3727	   2.47069	3.45366e+07	   76.6879	    15.373	   2.47103	3.63153e+07	   76.6873	   15.3848	    2.4825	4.56398e+07	   76.7127	   15.3819	   2.47973	3.11916e+07	    76.698	   15.3728	   2.47086	 3.4691e+07	   76.6876	   15.3789	   2.47676	4.09471e+07	      76.7	   15.3834	   2.48111	3.83862e+07	   76.7104	   15.3773	   2.47521	3.24186e+07	
         R10	   1752	   76.7184	   15.3586	   2.45706	2.68908e+07	   76.6878	    15.361	   2.45931	 2.4474e+07	   76.6879	    15.373	   2.47103	4.04043e+07	    76.708	   15.3727	   2.47069	3.41732e+07	   76.7031	   15.3598	   2.45819	2.48881e+07	   76.6879	    15.367	   2.46517	3.20339e+07	    76.698	   15.3728	   2.47086	3.48643e+07	   76.7132	   15.3657	   2.46388	3.02231e+07	
         R10	   1753	   76.7073	   15.3337	   2.43278	2.56246e+07	   76.7118	    15.317	   2.41652	3.45004e+07	   76.6893	   15.3131	   2.41271	3.60119e+07	   76.6868	   15.3242	   2.42351	1.75431e+07	   76.7095	   15.3253	   2.42465	2.96315e+07	   76.7005	    15.315	   2.41461	3.52146e+07	    76.688	   15.3186	   2.41811	 2.6329e+07	   76.6971	   15.3289	   2.42815	2.15232e+07	
         R10	   1754	   76.7332	   15.3414	   2.44028	2.79394e+07	   76.7382	   15.3203	   2.41978	4.17512e+07	   76.7118	    15.317	   2.41652	3.76068e+07	   76.7073	   15.3337	   2.43278	2.23476e+07	   76.7357	   15.3309	   2.43003	3.35268e+07	    76.725	   15.3187	   2.41815	3.96453e+07	   76.7095	   15.3253	   2.42465	2.88595e+07	   76.7202	   15.3375	   2.43653	2.51233e+07	
         R10	   1755	   76.7631	   15.3475	   2.44619	2.86534e+07	   76.7701	   15.3235	   2.42284	5.04932e+07	   76.7382	   15.3203	   2.41978	4.18332e+07	   76.7332	   15.3414	   2.44028	2.87379e+07	   76.7666	   15.3355	   2.43452	3.82708e+07	   76.7542	   15.3219	   2.42131	 4.6144e+07	   76.7357	   15.3309	   2.43003	3.36831e+07	   76.7481	   15.3444	   2.44324	2.86651e+07	
         R10	   1756	   76.8018	   15.3545	   2.45304	 3.4429e+07	    76.807	   15.3273	   2.42655	5.48405e+07	   76.7701	   15.3235	   2.42284	4.96106e+07	   76.7631	   15.3475	   2.44619	 3.0285e+07	   76.8044	   15.3409	    2.4398	4.27789e+07	   76.7886	   15.3254	   2.42469	5.22187e+07	   76.7666	   15.3355	   2.43452	3.86051e+07	   76.7825	    15.351	   2.44962	3.23184e+07	
         R10	   1757	   76.8424	   15.3636	   2.46184	3.48612e+07	   76.8482	   15.3315	   2.43061	6.17008e+07	    76.807	   15.3273	   2.42655	5.62848e+07	   76.8018	   15.3545	   2.45304	3.51965e+07	   76.8453	   15.3475	   2.44622	4.60865e+07	   76.8276	   15.3294	   2.42858	5.89874e+07	   76.8044	   15.3409	    2.4398	4.37883e+07	   76.8221	    15.359	   2.45744	 3.5012e+07	
         R10	   1758	   76.8883	   15.3705	   2.46855	3.62612e+07	    76.894	   15.3352	   2.43428	6.72141e+07	   76.8482	   15.3315	   2.43061	6.18274e+07	   76.8424	   15.3636	   2.46184	3.44102e+07	   76.8912	   15.3528	   2.45142	4.93628e+07	   76.8711	   15.3334	   2.43245	6.45153e+07	   76.8453	   15.3475	   2.44622	4.60308e+07	   76.8654	    15.367	   2.46519	3.53197e+07	
         R10	   1759	   76.9397	   15.3767	   2.47464	3.56568e+07	   76.9448	   15.3385	   2.43744	7.27188e+07	    76.894	   15.3352	   2.43428	6.74318e+07	   76.8883	   15.3705	   2.46855	3.56507e+07	   76.9422	   15.3576	   2.45604	5.18533e+07	   76.9194	   15.3369	   2.43586	 7.0066e+07	   76.8912	   15.3528	   2.45142	4.92808e+07	    76.914	   15.3736	   2.47159	3.56397e+07	
         R10	   1760	   76.9953	   15.3815	   2.47931	3.52865e+07	   77.0006	   15.3412	   2.44013	7.76202e+07	   76.9448	   15.3385	   2.43744	7.30729e+07	   76.9397	   15.3767	   2.47464	3.56307e+07	    76.998	   15.3614	   2.45972	5.44754e+07	   76.9727	   15.3399	   2.43879	7.53341e+07	   76.9422	   15.3576	   2.45604	5.20079e+07	   76.9675	   15.3791	   2.47697	3.54086e+07	
         R10	   1761	   77.0576	   15.3874	   2.48507	3.44434e+07	   77.0619	   15.3449	   2.44365	8.06749e+07	   77.0006	   15.3412	   2.44013	7.82597e+07	   76.9953	   15.3815	   2.47931	3.53721e+07	   77.0597	   15.3661	   2.46436	5.54777e+07	   77.0312	   15.3431	   2.44189	7.94622e+07	    76.998	   15.3614	   2.45972	5.46528e+07	   77.0265	   15.3845	   2.48219	3.48585e+07	
         R10	   1762	   77.1229	   15.3984	   2.49575	 3.0002e+07	   77.1272	   15.3492	   2.44791	8.14317e+07	   77.0619	   15.3449	   2.44365	8.05051e+07	   77.0576	   15.3874	   2.48507	3.44682e+07	   77.1251	   15.3738	   2.47183	 5.2445e+07	   77.0945	   15.3471	   2.44578	8.09626e+07	   77.0597	   15.3661	   2.46436	5.54322e+07	   77.0902	   15.3929	   2.49041	3.20777e+07	
         R10	   1763	   77.1938	   15.4077	   2.50483	2.63946e+07	    77.197	   15.3529	    2.4515	8.16909e+07	   77.1272	   15.3492	   2.44791	8.17058e+07	   77.1229	   15.3984	   2.49575	2.97792e+07	   77.1954	   15.3803	   2.47816	 4.9573e+07	   77.1621	   15.3511	   2.44971	8.16973e+07	   77.1251	   15.3738	   2.47183	5.25877e+07	   77.1584	   15.4031	   2.50029	2.78587e+07	
         R10	   1764	   77.2694	   15.4169	   2.51371	 2.3937e+07	   77.2726	   15.3565	   2.45498	8.17442e+07	    77.197	   15.3529	    2.4515	8.16135e+07	   77.1938	   15.4077	   2.50483	2.59841e+07	    77.271	   15.3867	   2.48435	4.61633e+07	   77.2348	   15.3547	   2.45324	8.16786e+07	   77.1954	   15.3803	   2.47816	4.94894e+07	   77.2316	   15.4123	   2.50927	2.46116e+07	
         R10	   1765	   77.2623	   15.4826	   2.57766	6.37073e+07	   77.2694	   15.4169	   2.51371	2.49732e+07	   77.1938	   15.4077	   2.50483	2.60142e+07	   77.1873	   15.4685	   2.56395	5.55406e+07	   77.2659	   15.4497	   2.54569	3.74472e+07	   77.2316	   15.4123	   2.50927	2.53316e+07	   77.1906	   15.4381	   2.53439	3.31177e+07	   77.2248	   15.4756	   2.57081	5.94679e+07	
         R10	   1766	   77.1725	    15.549	   2.64227	9.70283e+07	   77.2578	    15.549	   2.64226	9.64293e+07	   77.2623	   15.4826	   2.57766	6.38861e+07	   77.1873	   15.4685	   2.56395	5.95144e+07	   77.2152	    15.549	   2.64227	9.67099e+07	     77.26	   15.5158	   2.60996	7.99195e+07	   77.2248	   15.4756	   2.57081	6.16031e+07	   77.1799	   15.5088	   2.60311	7.77678e+07	
         R10	   1767	   77.1671	   15.6172	   2.70862	1.08224e+08	   77.2563	    15.619	   2.71036	1.09614e+08	   77.2578	    15.549	   2.64226	9.68949e+07	   77.1725	    15.549	   2.64227	9.80884e+07	   77.2117	   15.6181	   2.70949	1.08901e+08	    77.257	    15.584	   2.67631	1.03166e+08	   77.2152	    15.549	   2.64227	9.74697e+07	   77.1698	   15.5831	   2.67544	1.02985e+08	
         R10	   1768	   77.1635	   15.6891	   2.77856	9.82401e+07	   77.2534	   15.6904	   2.77984	 9.6048e+07	   77.2563	    15.619	   2.71036	1.08933e+08	   77.1671	   15.6172	   2.70862	1.08965e+08	   77.2084	   15.6897	    2.7792	 9.7128e+07	   77.2548	   15.6547	    2.7451	1.02245e+08	   77.2117	   15.6181	   2.70949	 1.0893e+08	   77.1653	   15.6531	   2.74359	1.03218e+08	
         R10	   1769	    77.152	    15.764	   2.85149	6.40307e+07	   77.2487	    15.764	   2.85143	5.96637e+07	   77.2534	   15.6904	   2.77984	9.68262e+07	   77.1635	   15.6891	   2.77856	9.63279e+07	   77.2004	    15.764	   2.85146	6.17983e+07	    77.251	   15.7272	   2.81563	7.66854e+07	   77.2084	   15.6897	    2.7792	9.65579e+07	   77.1578	   15.7266	   2.81503	7.79987e+07	
         R10	   1770	   77.1459	   15.8391	   2.92449	4.96146e+07	   77.2458	    15.839	   2.92447	4.57089e+07	   77.2487	    15.764	   2.85143	5.60908e+07	    77.152	    15.764	   2.85149	5.82908e+07	   77.1959	    15.839	   2.92448	4.76035e+07	   77.2473	   15.8015	   2.88795	3.14968e+07	   77.2004	    15.764	   2.85146	5.71792e+07	    77.149	   15.8015	   2.88799	3.57416e+07	
         R10	   1771	    77.048	    15.842	   2.92734	5.24162e+07	   77.1459	   15.8391	   2.92449	5.00589e+07	    77.152	    15.764	   2.85149	 5.8611e+07	   77.0546	   15.7639	   2.85139	6.12922e+07	   77.0969	   15.8405	   2.92592	5.12111e+07	    77.149	   15.8015	   2.88799	3.58173e+07	   77.1033	    15.764	   2.85144	5.97491e+07	   77.0513	    15.803	   2.88937	4.15832e+07	
         R10	   1772	   76.9485	   15.7881	   2.87489	4.67691e+07	    76.954	   15.8465	   2.93172	6.69812e+07	    77.048	    15.842	   2.92734	5.34877e+07	   77.0546	   15.7639	   2.85139	5.97312e+07	   76.9512	   15.8173	    2.9033	4.52573e+07	    77.001	   15.8442	   2.92953	6.01315e+07	   77.0513	    15.803	   2.88937	4.12077e+07	   77.0015	    15.776	   2.86314	5.30281e+07	
         R10	   1773	   76.8523	   15.7896	   2.87639	5.31178e+07	   76.8559	   15.8514	   2.93649	6.91548e+07	    76.954	   15.8465	   2.93172	6.63989e+07	   76.9485	   15.7881	   2.87489	4.93912e+07	   76.8541	   15.8205	   2.90644	5.29622e+07	    76.905	   15.8489	    2.9341	6.77308e+07	   76.9512	   15.8173	    2.9033	4.53766e+07	   76.9004	   15.7889	   2.87564	5.08957e+07	
         R10	   1774	   76.7608	   15.7939	   2.88054	5.09574e+07	   76.7635	   15.8528	   2.93788	7.61397e+07	   76.8559	   15.8514	   2.93649	6.94001e+07	   76.8523	   15.7896	   2.87639	5.26198e+07	   76.7622	   15.8234	   2.90921	5.84359e+07	   76.8097	   15.8521	   2.93718	7.25036e+07	   76.8541	   15.8205	   2.90644	5.27902e+07	   76.8066	   15.7918	   2.87847	5.17046e+07	
         R10	   1775	   76.6698	   15.7943	   2.88089	3.94243e+07	   76.6737	   15.8538	   2.93883	7.72784e+07	   76.7635	   15.8528	   2.93788	7.76742e+07	   76.7608	   15.7939	   2.88054	5.26895e+07	   76.6718	    15.824	   2.90986	5.47918e+07	   76.7186	   15.8533	   2.93835	7.73453e+07	   76.7622	   15.8234	   2.90921	5.99001e+07	   76.7153	   15.7941	   2.88072	4.60523e+07	
         R10	   1776	   76.5851	   15.7954	   2.88205	3.18084e+07	   76.5861	   15.8546	   2.93963	6.28365e+07	   76.6737	   15.8538	   2.93883	7.07601e+07	   76.6698	   15.7943	   2.88089	4.36498e+07	   76.5856	    15.825	   2.91084	3.27983e+07	   76.6299	   15.8542	   2.93923	6.67886e+07	   76.6718	    15.824	   2.90986	5.40753e+07	   76.6275	   15.7948	   2.88147	3.27104e+07	
         R10	   1777	    76.578	   15.7407	   2.82882	3.73515e+07	   76.5851	   15.7954	   2.88205	3.04276e+07	   76.6698	   15.7943	   2.88089	6.28767e+07	   76.6658	   15.7372	   2.82535	4.35749e+07	   76.5816	   15.7681	   2.85543	 2.5783e+07	   76.6275	   15.7948	   2.88147	4.62461e+07	   76.6678	   15.7657	   2.85312	5.01562e+07	   76.6219	   15.7389	   2.82708	 3.4368e+07	
         R10	   1778	   76.6226	   15.6845	   2.77408	4.44759e+07	   76.5686	   15.6905	   2.77997	 5.1514e+07	    76.578	   15.7407	   2.82882	3.83967e+07	   76.6658	   15.7372	   2.82535	4.86155e+07	   76.5956	   15.6875	   2.77702	4.49888e+07	   76.5733	   15.7156	   2.80439	4.26805e+07	   76.6219	   15.7389	   2.82708	 3.9171e+07	   76.6442	   15.7108	   2.79971	4.32518e+07	
         R10	   1779	   76.6187	   15.6386	    2.7294	4.93596e+07	   76.5606	   15.6427	   2.73346	6.16166e+07	   76.5686	   15.6905	   2.77997	4.94047e+07	   76.6226	   15.6845	   2.77408	 4.1686e+07	   76.5897	   15.6406	   2.73143	5.24824e+07	   76.5646	   15.6666	   2.75671	5.51508e+07	   76.5956	   15.6875	   2.77702	4.27586e+07	   76.6207	   15.6615	   2.75174	4.45769e+07	
         R10	   1780	    76.611	    15.597	   2.68897	5.41633e+07	    76.556	   15.6005	    2.6924	6.74333e+07	   76.5606	   15.6427	   2.73346	6.08417e+07	   76.6187	   15.6386	    2.7294	 4.7885e+07	   76.5835	   15.5988	   2.69068	5.83348e+07	   76.5583	   15.6216	   2.71293	6.39774e+07	   76.5897	   15.6406	   2.73143	5.14875e+07	   76.6149	   15.6178	   2.70919	5.07582e+07	
         R10	   1781	    76.601	   15.5583	   2.65128	6.04261e+07	   76.5509	   15.5624	   2.65534	7.07731e+07	    76.556	   15.6005	    2.6924	 6.6685e+07	    76.611	    15.597	   2.68897	5.42084e+07	   76.5759	   15.5603	   2.65331	6.36581e+07	   76.5535	   15.5815	   2.67387	6.86554e+07	   76.5835	   15.5988	   2.69068	5.79495e+07	    76.606	   15.5776	   2.67013	5.71358e+07	
         R10	   1782	   76.5896	   15.5245	   2.61839	6.49816e+07	   76.5447	    15.529	   2.62282	7.17391e+07	   76.5509	   15.5624	   2.65534	7.00269e+07	    76.601	   15.5583	   2.65128	6.05847e+07	   76.5671	   15.5267	   2.62061	6.69229e+07	   76.5478	   15.5457	   2.63908	7.08327e+07	   76.5759	   15.5603	   2.65331	6.33394e+07	   76.5953	   15.5414	   2.63484	6.27409e+07	
         R10	   1783	   76.5744	   15.4951	   2.58982	6.50313e+07	   76.5375	   15.4995	   2.59408	7.26545e+07	   76.5447	    15.529	   2.62282	7.15134e+07	   76.5896	   15.5245	   2.61839	6.61497e+07	   76.5559	   15.4973	   2.59195	6.79836e+07	   76.5411	   15.5142	   2.60845	7.20349e+07	   76.5671	   15.5267	   2.62061	6.72196e+07	    76.582	   15.5098	   2.60411	6.55611e+07	
         R10	   1784	    76.562	   15.4704	   2.56582	7.17679e+07	    76.531	    15.474	   2.56934	6.73864e+07	   76.5375	   15.4995	   2.59408	7.24914e+07	   76.5744	   15.4951	   2.58982	6.47167e+07	   76.5465	   15.4722	   2.56758	6.90077e+07	   76.5343	   15.4868	   2.58171	6.98672e+07	   76.5559	   15.4973	   2.59195	 6.7533e+07	   76.5682	   15.4828	   2.57782	6.82296e+07	
         R10	   1785	   76.5527	   15.4511	   2.54699	6.87512e+07	   76.5262	   15.4528	   2.54863	6.55475e+07	    76.531	    15.474	   2.56934	6.95797e+07	    76.562	   15.4704	   2.56582	6.79789e+07	   76.5395	   15.4519	   2.54781	6.64734e+07	   76.5286	   15.4634	   2.55898	6.75269e+07	   76.5465	   15.4722	   2.56758	 6.8208e+07	   76.5574	   15.4607	    2.5564	6.83135e+07	
         R10	   1786	   76.5159	   15.4351	   2.53148	6.31936e+07	      76.5	   15.4344	   2.53078	6.06685e+07	      76.5	   15.4512	   2.54714	6.69315e+07	   76.5262	   15.4528	   2.54863	6.40469e+07	   76.5079	   15.4348	   2.53113	6.17337e+07	      76.5	   15.4428	   2.53896	6.35109e+07	   76.5131	    15.452	   2.54788	6.46855e+07	    76.521	   15.4439	   2.54005	6.35547e+07	
         R10	   1787	   76.6481	   15.4508	   2.54673	7.28338e+07	   76.6511	   15.4357	   2.53202	 7.2491e+07	   76.6366	   15.4346	   2.53096	6.56775e+07	    76.625	   15.4493	   2.54528	6.99541e+07	   76.6496	   15.4432	   2.53937	7.17636e+07	   76.6438	   15.4351	   2.53149	6.85955e+07	   76.6308	    15.442	   2.53812	6.77481e+07	   76.6366	   15.4501	   2.54601	7.11489e+07	
         R10	   1788	   76.6738	   15.4687	   2.56417	7.62591e+07	   76.6728	   15.4505	   2.54641	7.15074e+07	   76.6481	   15.4508	   2.54673	7.38257e+07	   76.6456	   15.4694	    2.5648	 7.2771e+07	   76.6733	   15.4596	   2.55529	7.36915e+07	   76.6605	   15.4506	   2.54657	7.22095e+07	   76.6469	   15.4601	   2.55576	7.30812e+07	   76.6597	   15.4691	   2.56448	7.44284e+07	
         R10	   1789	   76.6916	   15.4354	   2.53179	5.53761e+07	   76.6716	   15.4355	   2.53181	7.38445e+07	   76.6728	   15.4505	   2.54641	6.81627e+07	   76.6954	   15.4488	   2.54477	7.64162e+07	   76.6816	   15.4355	    2.5318	6.43945e+07	   76.6722	    15.443	   2.53911	7.09248e+07	   76.6841	   15.4496	   2.54559	7.22793e+07	   76.6935	   15.4421	   2.53828	6.58639e+07	
         R10	   1790	   76.7124	   15.3915	   2.48907	3.93144e+07	   76.6913	   15.3977	   2.49502	4.59901e+07	   76.7071	   15.4092	   2.50621	5.76385e+07	   76.7363	   15.4007	   2.49799	5.18845e+07	   76.7018	   15.3946	   2.49204	4.25288e+07	   76.6992	   15.4034	   2.50062	5.17644e+07	   76.7217	   15.4049	    2.5021	 5.4394e+07	   76.7243	   15.3961	   2.49353	4.55506e+07	
         R10	   1791	   76.7886	   15.3814	   2.47916	3.51087e+07	   76.8018	   15.3545	   2.45304	3.42482e+07	   76.7631	   15.3475	   2.44619	3.26479e+07	   76.7501	   15.3717	   2.46976	3.15066e+07	   76.7952	   15.3679	    2.4661	3.11989e+07	   76.7825	    15.351	   2.44962	3.33658e+07	   76.7566	   15.3596	   2.45797	2.82533e+07	   76.7693	   15.3765	   2.47446	3.32517e+07	
         R10	   1792	   76.8302	    15.394	   2.49146	3.55653e+07	   76.8424	   15.3636	   2.46184	3.50618e+07	   76.8018	   15.3545	   2.45304	3.34773e+07	   76.7886	   15.3814	   2.47916	3.48475e+07	   76.8363	   15.3788	   2.47665	3.21462e+07	   76.8221	    15.359	   2.45744	3.42502e+07	   76.7952	   15.3679	    2.4661	3.15561e+07	   76.8094	   15.3877	   2.48531	3.51262e+07	
         R10	   1793	   76.8781	   15.4048	   2.50201	3.76811e+07	   76.8883	   15.3705	   2.46855	3.59801e+07	   76.8424	   15.3636	   2.46184	3.53497e+07	   76.8302	    15.394	   2.49146	3.75375e+07	   76.8832	   15.3876	   2.48528	3.27457e+07	   76.8654	    15.367	   2.46519	 3.5653e+07	   76.8363	   15.3788	   2.47665	3.21541e+07	   76.8542	   15.3994	   2.49674	3.75585e+07	
         R10	   1794	   76.9318	   15.4141	   2.51104	3.71769e+07	   76.9397	   15.3767	   2.47464	3.57349e+07	   76.8883	   15.3705	   2.46855	3.55647e+07	   76.8781	   15.4048	   2.50201	3.77985e+07	   76.9357	   15.3954	   2.49284	3.11313e+07	    76.914	   15.3736	   2.47159	 3.5613e+07	   76.8832	   15.3876	   2.48528	 3.2495e+07	   76.9049	   15.4095	   2.50652	3.73984e+07	
         R10	   1795	   76.9872	   15.4205	   2.51724	3.59996e+07	   76.9953	   15.3815	   2.47931	3.51884e+07	   76.9397	   15.3767	   2.47464	3.56487e+07	   76.9318	   15.4141	   2.51104	 3.8295e+07	   76.9913	    15.401	   2.49827	2.92544e+07	   76.9675	   15.3791	   2.47697	3.53629e+07	   76.9357	   15.3954	   2.49284	3.17853e+07	   76.9595	   15.4173	   2.51414	3.70402e+07	
         R10	   1796	   77.0479	   15.4287	   2.52518	3.57094e+07	   77.0576	   15.3874	   2.48507	3.44337e+07	   76.9953	   15.3815	   2.47931	3.56331e+07	   76.9872	   15.4205	   2.51724	3.61544e+07	   77.0527	    15.408	   2.50513	2.80611e+07	   77.0265	   15.3845	   2.48219	3.50142e+07	   76.9913	    15.401	   2.49827	2.95468e+07	   77.0175	   15.4246	   2.52121	3.58443e+07	
         R10	   1797	   77.1108	   15.4427	   2.53889	4.05815e+07	   77.1229	   15.3984	   2.49575	3.06334e+07	   77.0576	   15.3874	   2.48507	3.45461e+07	   77.0479	   15.4287	   2.52518	 3.6854e+07	   77.1169	   15.4206	   2.51732	2.76548e+07	   77.0902	   15.3929	   2.49041	3.23907e+07	   77.0527	    15.408	   2.50513	2.81509e+07	   77.0794	   15.4357	   2.53204	3.82778e+07	
         R10	   1798	   77.1873	   15.4685	   2.56395	5.45182e+07	   77.1938	   15.4077	   2.50483	 2.6435e+07	   77.1229	   15.3984	   2.49575	3.00679e+07	   77.1108	   15.4427	   2.53889	4.28359e+07	   77.1906	   15.4381	   2.53439	3.25564e+07	   77.1584	   15.4031	   2.50029	 2.7957e+07	   77.1169	   15.4206	   2.51732	2.88828e+07	    77.149	   15.4556	   2.55142	4.82146e+07	
         R10	   1799	   77.0855	   15.6151	   2.70654	1.08328e+08	   77.1671	   15.6172	   2.70862	1.08446e+08	   77.1725	    15.549	   2.64227	9.91786e+07	    77.085	   15.5505	   2.64376	9.65772e+07	   77.1263	   15.6161	   2.70758	1.08373e+08	   77.1698	   15.5831	   2.67544	1.03701e+08	   77.1288	   15.5498	   2.64302	9.78058e+07	   77.0852	   15.5828	   2.67515	1.02124e+08	
         R10	   1800	   77.0823	    15.684	   2.77362	9.84694e+07	   77.1635	   15.6891	   2.77856	9.82105e+07	   77.1671	   15.6172	   2.70862	1.08721e+08	   77.0855	   15.6151	   2.70654	1.07504e+08	   77.1229	   15.6865	   2.77609	9.83202e+07	   77.1653	   15.6531	   2.74359	1.03014e+08	   77.1263	   15.6161	   2.70758	1.08096e+08	   77.0839	   15.6495	   2.74008	1.02533e+08	
         R10	   1801	   77.0546	   15.7639	   2.85139	6.56393e+07	    77.152	    15.764	   2.85149	6.35803e+07	   77.1635	   15.6891	   2.77856	 9.6553e+07	   77.0823	    15.684	   2.77362	9.80412e+07	   77.1033	    15.764	   2.85144	6.46013e+07	   77.1578	   15.7266	   2.81503	7.80895e+07	   77.1229	   15.6865	   2.77609	9.72612e+07	   77.0685	    15.724	    2.8125	8.00362e+07	
         R10	   1802	   76.8479	   15.7321	   2.82041	7.32868e+07	   76.8523	   15.7896	   2.87639	6.84149e+07	   76.9485	   15.7881	   2.87489	6.11042e+07	   76.9302	   15.7289	   2.81727	8.09259e+07	   76.8501	   15.7609	    2.8484	6.80908e+07	   76.9004	   15.7889	   2.87564	6.47532e+07	   76.9393	   15.7585	   2.84608	6.73172e+07	   76.8891	   15.7305	   2.81884	7.69536e+07	
         R10	   1803	   76.7579	   15.7397	   2.82783	6.37741e+07	   76.7608	   15.7939	   2.88054	6.97517e+07	   76.8523	   15.7896	   2.87639	6.77504e+07	   76.8479	   15.7321	   2.82041	7.31169e+07	   76.7594	   15.7668	   2.85419	6.37935e+07	   76.8066	   15.7918	   2.87847	6.86406e+07	   76.8501	   15.7609	    2.8484	6.78255e+07	   76.8029	   15.7359	   2.82412	6.84151e+07	
         R10	   1804	   76.6658	   15.7372	   2.82535	4.54721e+07	   76.6698	   15.7943	   2.88089	5.93869e+07	   76.7608	   15.7939	   2.88054	7.00159e+07	   76.7579	   15.7397	   2.82783	6.47269e+07	   76.6678	   15.7657	   2.85312	4.98021e+07	   76.7153	   15.7941	   2.88072	 6.4643e+07	   76.7594	   15.7668	   2.85419	6.44213e+07	   76.7119	   15.7384	   2.82659	5.49945e+07	
         R10	   1805	   76.6694	   15.6294	    2.7205	5.71152e+07	   76.6187	   15.6386	    2.7294	 4.9816e+07	   76.6226	   15.6845	   2.77408	4.22738e+07	   76.6976	   15.6778	   2.76758	5.95215e+07	   76.6441	    15.634	   2.72495	5.23359e+07	   76.6207	   15.6615	   2.75174	4.51452e+07	   76.6601	   15.6811	   2.77083	4.95305e+07	   76.6835	   15.6536	   2.74404	5.72448e+07	
         R10	   1806	   76.6639	   15.5911	   2.68319	6.19197e+07	    76.611	    15.597	   2.68897	 5.4304e+07	   76.6187	   15.6386	    2.7294	4.79018e+07	   76.6694	   15.6294	    2.7205	5.59097e+07	   76.6375	    15.594	   2.68608	5.69031e+07	   76.6149	   15.6178	   2.70919	5.08002e+07	   76.6441	    15.634	   2.72495	5.07483e+07	   76.6667	   15.6102	   2.70184	5.84862e+07	
         R10	   1807	   76.6486	   15.5495	   2.64276	6.57912e+07	    76.601	   15.5583	   2.65128	6.08528e+07	    76.611	    15.597	   2.68897	5.45443e+07	   76.6639	   15.5911	   2.68319	6.11993e+07	   76.6248	   15.5539	   2.64702	6.23464e+07	    76.606	   15.5776	   2.67013	5.75394e+07	   76.6375	    15.594	   2.68608	5.66489e+07	   76.6562	   15.5703	   2.66297	6.31616e+07	
         R10	   1808	   76.6247	   15.5164	   2.61056	6.71203e+07	   76.5896	   15.5245	   2.61839	6.49722e+07	    76.601	   15.5583	   2.65128	6.09916e+07	   76.6486	   15.5495	   2.64276	6.56467e+07	   76.6071	   15.5204	   2.61448	6.54769e+07	   76.5953	   15.5414	   2.63484	6.29072e+07	   76.6248	   15.5539	   2.64702	6.23657e+07	   76.6366	    15.533	   2.62666	6.61961e+07	
         R10	   1809	   76.6065	   15.4869	   2.58183	6.87988e+07	   76.5744	   15.4951	   2.58982	6.80266e+07	   76.5896	   15.5245	   2.61839	6.60473e+07	   76.6247	   15.5164	   2.61056	6.66535e+07	   76.5904	    15.491	   2.58583	6.76751e+07	    76.582	   15.5098	   2.60411	6.70087e+07	   76.6071	   15.5204	   2.61448	6.58315e+07	   76.6156	   15.5016	    2.5962	 6.7725e+07	
         R10	   1810	    76.587	   15.4648	   2.56036	  7.313e+07	    76.562	   15.4704	   2.56582	6.86517e+07	   76.5744	   15.4951	   2.58982	6.89781e+07	   76.6065	   15.4869	   2.58183	6.59175e+07	   76.5745	   15.4676	   2.56309	7.06726e+07	   76.5682	   15.4828	   2.57782	6.87828e+07	   76.5904	    15.491	   2.58583	6.72029e+07	   76.5967	   15.4758	    2.5711	6.94637e+07	
         R10	   1811	   76.5507	   15.4353	   2.53169	6.90007e+07	   76.5349	   15.4345	   2.53086	6.74869e+07	   76.5262	   15.4528	   2.54863	6.37129e+07	   76.5527	   15.4511	   2.54699	7.09238e+07	   76.5428	   15.4349	   2.53127	6.81646e+07	   76.5305	   15.4436	   2.53974	6.53135e+07	   76.5395	   15.4519	   2.54781	6.71597e+07	   76.5517	   15.4432	   2.53934	6.98131e+07	
         R10	   1812	   76.5695	    15.435	   2.53134	7.37157e+07	   76.5507	   15.4353	   2.53169	7.13078e+07	   76.5527	   15.4511	   2.54699	6.66149e+07	   76.5732	    15.448	   2.54395	7.11601e+07	   76.5601	   15.4352	   2.53151	7.24682e+07	   76.5517	   15.4432	   2.53934	6.89147e+07	    76.563	   15.4495	   2.54547	6.88076e+07	   76.5714	   15.4415	   2.53765	7.24288e+07	
         R10	   1813	      76.6	   15.4477	   2.54374	7.22523e+07	   76.5856	    15.434	   2.53033	7.35403e+07	   76.5695	    15.435	   2.53134	7.02101e+07	   76.5732	    15.448	   2.54395	7.30683e+07	   76.5928	   15.4408	   2.53703	7.27577e+07	   76.5776	   15.4345	   2.53084	7.17441e+07	   76.5714	   15.4415	   2.53765	7.16228e+07	   76.5866	   15.4478	   2.54384	7.26266e+07	
         R10	   1814	   76.6255	   15.4665	     2.562	7.70061e+07	   76.6456	   15.4694	    2.5648	7.89765e+07	   76.6481	   15.4508	   2.54673	6.59375e+07	    76.625	   15.4493	   2.54528	7.15003e+07	   76.6356	   15.4679	    2.5634	7.78317e+07	   76.6469	   15.4601	   2.55576	7.21335e+07	   76.6366	   15.4501	   2.54601	6.79752e+07	   76.6253	   15.4579	   2.55364	7.37286e+07	
         R10	   1815	   76.6793	    15.489	   2.58393	7.34315e+07	   76.6738	   15.4687	   2.56417	7.57221e+07	   76.6456	   15.4694	    2.5648	6.92171e+07	    76.648	   15.4954	   2.59012	7.28252e+07	   76.6765	   15.4789	   2.57405	7.45455e+07	   76.6597	   15.4691	   2.56448	7.23023e+07	   76.6468	   15.4824	   2.57746	7.06557e+07	   76.6636	   15.4922	   2.58703	7.28592e+07	
         R10	   1816	   76.6954	   15.4488	   2.54477	 7.3802e+07	   76.6728	   15.4505	   2.54641	7.02253e+07	   76.6738	   15.4687	   2.56417	7.45736e+07	    76.699	   15.4673	   2.56276	6.98139e+07	   76.6841	   15.4496	   2.54559	 7.1991e+07	   76.6733	   15.4596	   2.55529	 7.2376e+07	   76.6864	    15.468	   2.56346	 7.2155e+07	   76.6972	    15.458	   2.55376	7.17768e+07	
         R10	   1817	   76.7363	   15.4007	   2.49799	5.04958e+07	   76.7071	   15.4092	   2.50621	5.30448e+07	   76.7113	   15.4257	   2.52233	 6.4918e+07	   76.7332	   15.4225	   2.51916	5.86098e+07	   76.7217	   15.4049	    2.5021	5.14764e+07	   76.7092	   15.4174	   2.51427	5.88708e+07	   76.7223	   15.4241	   2.52075	6.16706e+07	   76.7348	   15.4116	   2.50857	5.42569e+07	
         R10	   1818	   76.8139	   15.4236	   2.52022	5.33654e+07	   76.8302	    15.394	   2.49146	3.60027e+07	   76.7886	   15.3814	   2.47916	3.58087e+07	   76.7727	   15.4085	   2.50555	4.88496e+07	   76.8221	   15.4088	   2.50584	4.37571e+07	   76.8094	   15.3877	   2.48531	3.58241e+07	   76.7807	   15.3949	   2.49236	4.13694e+07	   76.7933	    15.416	   2.51289	5.10282e+07	
         R10	   1819	   76.8647	   15.4374	   2.53369	 5.4847e+07	   76.8781	   15.4048	   2.50201	3.81573e+07	   76.8302	    15.394	   2.49146	3.70624e+07	   76.8139	   15.4236	   2.52022	5.24022e+07	   76.8714	   15.4211	   2.51785	4.55926e+07	   76.8542	   15.3994	   2.49674	3.75441e+07	   76.8221	   15.4088	   2.50584	 4.3879e+07	   76.8393	   15.4305	   2.52695	5.35336e+07	
         R10	   1820	   76.9214	   15.4502	   2.54616	5.76496e+07	   76.9318	   15.4141	   2.51104	3.70739e+07	   76.8781	   15.4048	   2.50201	3.78482e+07	   76.8647	   15.4374	   2.53369	5.54065e+07	   76.9266	   15.4322	    2.5286	 4.6296e+07	   76.9049	   15.4095	   2.50652	3.73672e+07	   76.8714	   15.4211	   2.51785	4.56626e+07	   76.8931	   15.4438	   2.53992	 5.6407e+07	
         R10	   1821	   76.9779	    15.463	   2.55856	6.11769e+07	   76.9872	   15.4205	   2.51724	3.59779e+07	   76.9318	   15.4141	   2.51104	3.84886e+07	   76.9214	   15.4502	   2.54616	5.72145e+07	   76.9825	   15.4417	    2.5379	4.77728e+07	   76.9595	   15.4173	   2.51414	  3.707e+07	   76.9266	   15.4322	    2.5286	4.66521e+07	   76.9496	   15.4566	   2.55236	5.91718e+07	
         R10	   1822	   77.0345	   15.4782	   2.57334	6.73781e+07	   77.0479	   15.4287	   2.52518	 3.6341e+07	   76.9872	   15.4205	   2.51724	3.51981e+07	   76.9779	    15.463	   2.55856	6.07909e+07	   77.0412	   15.4534	   2.54926	 5.0255e+07	   77.0175	   15.4246	   2.52121	3.57189e+07	   76.9825	   15.4417	    2.5379	4.69966e+07	   77.0062	   15.4706	   2.56595	6.37034e+07	
         R10	   1823	   77.0895	   15.4913	   2.58613	7.42364e+07	   77.1108	   15.4427	   2.53889	 4.1983e+07	   77.0479	   15.4287	   2.52518	 3.7579e+07	   77.0345	   15.4782	   2.57334	6.86318e+07	   77.1002	    15.467	   2.56251	5.73281e+07	   77.0794	   15.4357	   2.53204	3.94502e+07	   77.0412	   15.4534	   2.54926	5.16393e+07	    77.062	   15.4847	   2.57974	 7.1354e+07	
         R10	   1824	   77.0095	   15.6124	   2.70397	1.03586e+08	   77.0855	   15.6151	   2.70654	1.08089e+08	    77.085	   15.5505	   2.64376	9.74844e+07	   77.0134	   15.5451	    2.6385	  9.718e+07	   77.0475	   15.6137	   2.70526	1.05801e+08	   77.0852	   15.5828	   2.67515	1.02634e+08	   77.0492	   15.5478	   2.64113	 9.7291e+07	   77.0114	   15.5788	   2.67124	1.00178e+08	
         R10	   1825	    77.007	   15.6769	   2.76674	9.95534e+07	   77.0823	    15.684	   2.77362	9.70945e+07	   77.0855	   15.6151	   2.70654	 1.0709e+08	   77.0095	   15.6124	   2.70397	1.04607e+08	   77.0447	   15.6805	   2.77018	9.81123e+07	   77.0839	   15.6495	   2.74008	1.01525e+08	   77.0475	   15.6137	   2.70526	1.05828e+08	   77.0082	   15.6447	   2.73536	1.01893e+08	
         R10	   1826	   76.8456	   15.6806	   2.77036	8.47177e+07	   76.8479	   15.7321	   2.82041	7.74906e+07	   76.9302	   15.7289	   2.81727	8.05266e+07	   76.9279	   15.6741	   2.76403	9.39346e+07	   76.8467	   15.7064	   2.79539	8.00761e+07	   76.8891	   15.7305	   2.81884	7.89682e+07	    76.929	   15.7015	   2.79065	8.61521e+07	   76.8867	   15.6774	    2.7672	8.92798e+07	
         R10	   1827	   76.7597	   15.6903	   2.77973	 7.0857e+07	   76.7579	   15.7397	   2.82783	6.90894e+07	   76.8479	   15.7321	   2.82041	7.81561e+07	   76.8456	   15.6806	   2.77036	8.48391e+07	   76.7588	    15.715	   2.80378	6.84779e+07	   76.8029	   15.7359	   2.82412	7.34968e+07	   76.8467	   15.7064	   2.79539	8.04834e+07	   76.8026	   15.6855	   2.77505	7.78427e+07	
         R10	   1828	   76.7146	   15.5843	   2.67665	 7.2154e+07	   76.6639	   15.5911	   2.68319	6.21825e+07	   76.6694	   15.6294	    2.7205	5.65143e+07	   76.7276	   15.6287	   2.71979	7.06397e+07	   76.6892	   15.5877	   2.67992	6.68121e+07	   76.6667	   15.6102	   2.70184	5.89085e+07	   76.6985	    15.629	   2.72014	6.32387e+07	   76.7211	   15.6065	   2.69822	7.08743e+07	
         R10	   1829	    76.698	   15.5469	   2.64022	7.33788e+07	   76.6486	   15.5495	   2.64276	6.58078e+07	   76.6639	   15.5911	   2.68319	6.16115e+07	   76.7146	   15.5843	   2.67665	7.08738e+07	   76.6733	   15.5482	   2.64149	6.92773e+07	   76.6562	   15.5703	   2.66297	6.33694e+07	   76.6892	   15.5877	   2.67992	6.58843e+07	   76.7063	   15.5656	   2.65844	7.18024e+07	
         R10	   1830	   76.5732	    15.448	   2.54395	7.20292e+07	   76.5527	   15.4511	   2.54699	6.98619e+07	    76.562	   15.4704	   2.56582	6.81291e+07	    76.587	   15.4648	   2.56036	7.14475e+07	    76.563	   15.4495	   2.54547	7.08405e+07	   76.5574	   15.4607	    2.5564	6.89721e+07	   76.5745	   15.4676	   2.56309	6.94899e+07	   76.5801	   15.4564	   2.55216	  7.172e+07	
         R10	   1831	   76.6255	   15.4665	     2.562	7.54188e+07	    76.625	   15.4493	   2.54528	6.55383e+07	      76.6	   15.4477	   2.54374	 7.8088e+07	    76.587	   15.4648	   2.56036	6.94523e+07	   76.6253	   15.4579	   2.55364	7.02944e+07	   76.6125	   15.4485	   2.54451	7.14333e+07	   76.5935	   15.4563	   2.55205	7.37316e+07	   76.6062	   15.4657	   2.56118	7.22942e+07	
         R10	   1832	    76.648	   15.4954	   2.59012	6.75116e+07	   76.6456	   15.4694	    2.5648	7.59214e+07	   76.6255	   15.4665	     2.562	7.14656e+07	   76.6065	   15.4869	   2.58183	7.24621e+07	   76.6468	   15.4824	   2.57746	7.17159e+07	   76.6356	   15.4679	    2.5634	7.36068e+07	    76.616	   15.4767	   2.57191	7.17676e+07	   76.6272	   15.4911	   2.58597	6.96342e+07	
         R10	   1833	   76.6856	   15.5145	   2.60875	7.14401e+07	   76.6793	    15.489	   2.58393	7.66819e+07	    76.648	   15.4954	   2.59012	7.04001e+07	   76.6634	    15.517	   2.61118	7.23721e+07	   76.6825	   15.5018	   2.59634	7.40459e+07	   76.6636	   15.4922	   2.58703	7.33774e+07	   76.6557	   15.5062	   2.60065	7.11326e+07	   76.6745	   15.5158	   2.60997	7.18942e+07	
         R10	   1834	    76.699	   15.4673	   2.56276	7.54784e+07	   76.6738	   15.4687	   2.56417	7.04097e+07	   76.6793	    15.489	   2.58393	7.26997e+07	   76.7069	   15.4873	   2.58226	7.71059e+07	   76.6864	    15.468	   2.56346	7.28303e+07	   76.6765	   15.4789	   2.57405	7.13866e+07	   76.6931	   15.4882	    2.5831	7.48631e+07	    76.703	   15.4773	   2.57251	 7.6286e+07	
         R10	   1835	   76.7197	   15.4447	   2.54083	6.86883e+07	   76.6954	   15.4488	   2.54477	6.86639e+07	    76.699	   15.4673	   2.56276	 7.6394e+07	    76.728	   15.4633	    2.5589	7.00142e+07	   76.7076	   15.4468	    2.5428	6.86003e+07	   76.6972	    15.458	   2.55376	7.23211e+07	   76.7135	   15.4653	   2.56083	7.31436e+07	   76.7239	    15.454	   2.54987	6.93426e+07	
         R10	   1836	   76.7113	   15.4257	   2.52233	6.72172e+07	   76.6916	   15.4354	   2.53179	6.41195e+07	   76.6954	   15.4488	   2.54477	7.14328e+07	   76.7197	   15.4447	   2.54083	6.59569e+07	   76.7014	   15.4306	   2.52706	6.51605e+07	   76.6935	   15.4421	   2.53828	6.75905e+07	   76.7076	   15.4468	    2.5428	 6.8615e+07	   76.7155	   15.4352	   2.53158	6.64535e+07	
         R10	   1837	   76.7332	   15.4225	   2.51916	6.27531e+07	   76.7113	   15.4257	   2.52233	6.20126e+07	   76.7197	   15.4447	   2.54083	6.96178e+07	   76.7563	   15.4362	   2.53248	6.06487e+07	   76.7223	   15.4241	   2.52075	6.20742e+07	   76.7155	   15.4352	   2.53158	6.57358e+07	    76.738	   15.4405	   2.53666	6.51003e+07	   76.7448	   15.4293	   2.52582	6.15781e+07	
         R10	   1838	    76.849	   15.4697	   2.56511	7.04357e+07	   76.8647	   15.4374	   2.53369	5.52664e+07	   76.8139	   15.4236	   2.52022	5.26572e+07	      76.8	    15.451	   2.54695	6.59667e+07	   76.8568	   15.4535	    2.5494	6.26375e+07	   76.8393	   15.4305	   2.52695	5.38435e+07	    76.807	   15.4373	   2.53358	5.90821e+07	   76.8245	   15.4604	   2.55603	6.80727e+07	
         R10	   1839	   76.9046	   15.4838	   2.57885	7.41795e+07	   76.9214	   15.4502	   2.54616	5.79645e+07	   76.8647	   15.4374	   2.53369	 5.5174e+07	    76.849	   15.4697	   2.56511	7.04055e+07	    76.913	    15.467	   2.56251	  6.589e+07	   76.8931	   15.4438	   2.53992	 5.6461e+07	   76.8568	   15.4535	    2.5494	6.25972e+07	   76.8768	   15.4768	   2.57198	7.21652e+07	
         R10	   1840	   76.9637	   15.4977	   2.59232	7.96525e+07	   76.9779	    15.463	   2.55856	6.02763e+07	   76.9214	   15.4502	   2.54616	5.63806e+07	   76.9046	   15.4838	   2.57885	7.37836e+07	   76.9708	   15.4803	   2.57544	6.94352e+07	   76.9496	   15.4566	   2.55236	5.83042e+07	    76.913	    15.467	   2.56251	6.50031e+07	   76.9342	   15.4907	   2.58559	7.63912e+07	
         R10	   1841	   77.1873	   15.4685	   2.56395	5.52309e+07	   77.1108	   15.4427	   2.53889	4.24792e+07	   77.0895	   15.4913	   2.58613	7.28311e+07	   77.1339	   15.4998	   2.59444	7.89472e+07	    77.149	   15.4556	   2.55142	 4.8519e+07	   77.1002	    15.467	   2.56251	5.67225e+07	   77.1117	   15.4956	   2.59029	7.57129e+07	   77.1606	   15.4842	    2.5792	6.65497e+07	
         R10	   1842	   76.9299	   15.6115	   2.70308	1.00699e+08	   77.0095	   15.6124	   2.70397	1.04546e+08	   77.0134	   15.5451	    2.6385	9.82362e+07	   76.9333	   15.5636	   2.65648	9.73945e+07	   76.9697	    15.612	   2.70352	1.02598e+08	   77.0114	   15.5788	   2.67124	1.01368e+08	   76.9734	   15.5544	   2.64749	9.76205e+07	   76.9316	   15.5875	   2.67978	9.85722e+07	
         R10	   1843	   77.0546	   15.7639	   2.85139	7.00924e+07	   77.0823	    15.684	   2.77362	9.92807e+07	    77.007	   15.6769	   2.76674	9.62122e+07	   76.9992	   15.7251	   2.81362	7.97541e+07	   77.0685	    15.724	    2.8125	8.23601e+07	   77.0447	   15.6805	   2.77018	9.76009e+07	   77.0031	    15.701	   2.79018	8.77305e+07	   77.0269	   15.7445	    2.8325	7.35118e+07	
         R10	   1844	   76.6976	   15.6778	   2.76758	5.64679e+07	   76.6658	   15.7372	   2.82535	5.21132e+07	   76.7579	   15.7397	   2.82783	6.81398e+07	   76.7597	   15.6903	   2.77973	7.09183e+07	   76.6817	   15.7075	   2.79646	5.30854e+07	   76.7119	   15.7384	   2.82659	5.99469e+07	   76.7588	    15.715	   2.80378	6.80662e+07	   76.7286	    15.684	   2.77365	6.35434e+07	
         R10	   1845	   76.7748	   15.5793	   2.67176	8.27402e+07	   76.7146	   15.5843	   2.67665	7.21893e+07	   76.7276	   15.6287	   2.71979	7.07105e+07	   76.7811	   15.6301	   2.72114	7.99158e+07	   76.7447	   15.5818	   2.67421	7.73294e+07	   76.7211	   15.6065	   2.69822	 7.0905e+07	   76.7544	   15.6294	   2.72046	7.52622e+07	    76.778	   15.6047	   2.69645	8.08803e+07	
         R10	   1846	   76.7472	   15.5375	   2.63107	8.03586e+07	    76.698	   15.5469	   2.64022	7.27248e+07	   76.7146	   15.5843	   2.67665	7.23041e+07	   76.7748	   15.5793	   2.67176	8.16619e+07	   76.7226	   15.5422	   2.63564	7.64119e+07	   76.7063	   15.5656	   2.65844	 7.2171e+07	   76.7447	   15.5818	   2.67421	 7.6863e+07	    76.761	   15.5584	   2.65141	8.06524e+07	
         R10	   1847	   76.6634	    15.517	   2.61118	6.89923e+07	    76.648	   15.4954	   2.59012	 7.3079e+07	   76.6247	   15.5164	   2.61056	6.99088e+07	   76.6486	   15.5495	   2.64276	6.64286e+07	   76.6557	   15.5062	   2.60065	7.10038e+07	   76.6363	   15.5059	   2.60034	7.13075e+07	   76.6366	    15.533	   2.62666	6.79559e+07	    76.656	   15.5333	   2.62697	6.76061e+07	
         R10	   1848	   76.7069	   15.4873	   2.58226	 7.7868e+07	   76.6793	    15.489	   2.58393	7.06424e+07	   76.6856	   15.5145	   2.60875	7.48901e+07	   76.7195	     15.51	    2.6043	7.72821e+07	   76.6931	   15.4882	    2.5831	7.42471e+07	   76.6825	   15.5018	   2.59634	7.27277e+07	   76.7026	   15.5123	   2.60653	7.60175e+07	   76.7132	   15.4986	   2.59328	7.74532e+07	
         R10	   1849	    76.728	   15.4633	    2.5589	7.40751e+07	    76.699	   15.4673	   2.56276	7.08252e+07	   76.7069	   15.4873	   2.58226	7.69728e+07	   76.7356	   15.4816	   2.57665	7.36713e+07	   76.7135	   15.4653	   2.56083	7.22885e+07	    76.703	   15.4773	   2.57251	7.37787e+07	   76.7213	   15.4844	   2.57945	7.53185e+07	   76.7318	   15.4724	   2.56777	7.38684e+07	
         R10	   1850	   76.8292	   15.5008	   2.59536	8.04434e+07	    76.849	   15.4697	   2.56511	 7.0739e+07	      76.8	    15.451	   2.54695	6.61084e+07	   76.7847	   15.4802	   2.57532	7.53377e+07	   76.8391	   15.4852	   2.58023	 7.5548e+07	   76.8245	   15.4604	   2.55603	6.82734e+07	   76.7923	   15.4656	   2.56113	7.05942e+07	   76.8069	   15.4905	   2.58534	 7.7731e+07	
         R10	   1851	   76.8817	   15.5173	   2.61145	8.53582e+07	   76.9046	   15.4838	   2.57885	7.33588e+07	    76.849	   15.4697	   2.56511	7.00506e+07	   76.8292	   15.5008	   2.59536	8.00021e+07	   76.8931	   15.5006	   2.59515	7.92447e+07	   76.8768	   15.4768	   2.57198	7.15899e+07	   76.8391	   15.4852	   2.58023	7.49722e+07	   76.8554	   15.5091	    2.6034	8.24921e+07	
         R10	   1852	   76.7811	   15.6301	   2.72114	 8.1444e+07	   76.7276	   15.6287	   2.71979	6.93815e+07	   76.6976	   15.6778	   2.76758	6.09077e+07	   76.7597	   15.6903	   2.77973	7.12627e+07	   76.7544	   15.6294	   2.72046	7.53411e+07	   76.7126	   15.6532	   2.74368	6.44283e+07	   76.7286	    15.684	   2.77365	6.58593e+07	   76.7704	   15.6602	   2.75043	7.56533e+07	
         R10	   1853	   76.8526	   15.6219	   2.71322	9.23338e+07	   76.7811	   15.6301	   2.72114	8.08949e+07	   76.7597	   15.6903	   2.77973	7.11963e+07	   76.8456	   15.6806	   2.77036	8.52111e+07	   76.8169	    15.626	   2.71718	8.66139e+07	   76.7704	   15.6602	   2.75043	7.53303e+07	   76.8026	   15.6855	   2.77505	7.81957e+07	   76.8491	   15.6513	   2.74179	8.80874e+07	
         R10	   1854	   76.7356	   15.4816	   2.57665	7.53046e+07	   76.7069	   15.4873	   2.58226	7.43746e+07	   76.7195	     15.51	    2.6043	7.73834e+07	   76.7614	   15.5042	   2.59867	7.93013e+07	   76.7213	   15.4844	   2.57945	7.47766e+07	   76.7132	   15.4986	   2.59328	7.58152e+07	   76.7405	   15.5071	   2.60149	7.82983e+07	   76.7485	   15.4929	   2.58766	7.72511e+07	
         R10	   1855	   76.8491	   15.5689	   2.66163	9.00223e+07	   76.8817	   15.5173	   2.61145	8.75636e+07	   76.8292	   15.5008	   2.59536	8.07721e+07	   76.7988	   15.5275	   2.62134	8.52045e+07	   76.8654	   15.5431	   2.63654	8.86737e+07	   76.8554	   15.5091	    2.6034	8.40111e+07	    76.814	   15.5141	   2.60835	 8.2947e+07	   76.8239	   15.5482	   2.64149	8.72682e+07	
         R10	   1856	    77.085	   15.5505	   2.64376	9.68368e+07	   77.1725	    15.549	   2.64227	9.50775e+07	   77.1339	   15.4998	   2.59444	7.48076e+07	   77.0895	   15.4913	   2.58613	7.47785e+07	   77.1288	   15.5498	   2.64302	 9.5943e+07	   77.1532	   15.5244	   2.61835	8.48964e+07	   77.1117	   15.4956	   2.59029	7.45868e+07	   77.0872	   15.5209	   2.61495	8.54359e+07	
         R10	   1857	   77.0134	   15.5451	    2.6385	9.36148e+07	    77.085	   15.5505	   2.64376	  9.699e+07	   77.0895	   15.4913	   2.58613	7.27182e+07	   77.0345	   15.4782	   2.57334	 6.9276e+07	   77.0492	   15.5478	   2.64113	9.50778e+07	   77.0872	   15.5209	   2.61495	8.45219e+07	    77.062	   15.4847	   2.57974	7.09686e+07	    77.024	   15.5116	   2.60592	8.13375e+07	
         R10	   1858	   77.0345	   15.4782	   2.57334	7.07536e+07	   76.9779	    15.463	   2.55856	 6.2796e+07	   76.9637	   15.4977	   2.59232	8.27252e+07	   77.0134	   15.5451	    2.6385	9.46988e+07	   77.0062	   15.4706	   2.56595	6.63601e+07	   76.9708	   15.4803	   2.57544	7.23952e+07	   76.9886	   15.5214	   2.61541	8.86162e+07	    77.024	   15.5116	   2.60592	8.26816e+07	
         R10	   1859	   76.9637	   15.4977	   2.59232	8.25745e+07	   76.9046	   15.4838	   2.57885	7.33395e+07	   76.8817	   15.5173	   2.61145	8.60436e+07	   76.9325	   15.5221	    2.6161	8.53593e+07	   76.9342	   15.4907	   2.58559	7.76665e+07	   76.8931	   15.5006	   2.59515	7.95628e+07	   76.9071	   15.5197	   2.61378	8.56162e+07	   76.9481	   15.5099	   2.60421	8.39555e+07	
         R10	   1860	   76.9333	   15.5636	   2.65648	9.76119e+07	   77.0134	   15.5451	    2.6385	 8.8936e+07	   76.9637	   15.4977	   2.59232	8.01831e+07	   76.9325	   15.5221	    2.6161	8.42981e+07	   76.9734	   15.5544	   2.64749	9.32175e+07	   76.9886	   15.5214	   2.61541	 8.4354e+07	   76.9481	   15.5099	   2.60421	8.22311e+07	   76.9329	   15.5429	   2.63629	9.09194e+07	
         R10	   1861	   76.8817	   15.5173	   2.61145	8.70853e+07	   76.8491	   15.5689	   2.66163	   9.02e+07	   76.9333	   15.5636	   2.65648	9.71971e+07	   76.9325	   15.5221	    2.6161	8.70214e+07	   76.8654	   15.5431	   2.63654	 8.8489e+07	   76.8912	   15.5663	   2.65906	9.36408e+07	   76.9329	   15.5429	   2.63629	9.20145e+07	   76.9071	   15.5197	   2.61378	8.69515e+07	
         R10	   1862	   76.9485	   15.7881	   2.87489	6.30694e+07	   77.0546	   15.7639	   2.85139	6.59605e+07	   76.9992	   15.7251	   2.81362	8.15286e+07	   76.9302	   15.7289	   2.81727	7.86512e+07	   77.0015	    15.776	   2.86314	6.39384e+07	   77.0269	   15.7445	    2.8325	7.18389e+07	   76.9647	    15.727	   2.81545	 8.0012e+07	   76.9393	   15.7585	   2.84608	6.72886e+07	
         R10	   1863	   76.9302	   15.7289	   2.81727	8.18486e+07	   76.9992	   15.7251	   2.81362	8.37858e+07	    77.007	   15.6769	   2.76674	9.33211e+07	   76.9279	   15.6741	   2.76403	9.44788e+07	   76.9647	    15.727	   2.81545	8.23339e+07	   77.0031	    15.701	   2.79018	8.85239e+07	   76.9674	   15.6755	   2.76539	9.37976e+07	    76.929	   15.7015	   2.79065	8.68463e+07	
         R10	   1864	   76.9279	   15.6741	   2.76403	9.28946e+07	    77.007	   15.6769	   2.76674	9.77613e+07	   77.0095	   15.6124	   2.70397	1.05223e+08	   76.9299	   15.6115	   2.70308	9.98201e+07	   76.9674	   15.6755	   2.76539	   9.53e+07	   77.0082	   15.6447	   2.73536	1.01202e+08	   76.9697	    15.612	   2.70352	1.02504e+08	   76.9289	   15.6428	   2.73355	9.59434e+07	
         R10	   1865	   76.8526	   15.6219	   2.71322	9.28117e+07	   76.8456	   15.6806	   2.77036	 8.5336e+07	   76.9279	   15.6741	   2.76403	9.44964e+07	   76.9299	   15.6115	   2.70308	9.96699e+07	   76.8491	   15.6513	   2.74179	8.84307e+07	   76.8867	   15.6774	    2.7672	8.98864e+07	   76.9289	   15.6428	   2.73355	 9.6605e+07	   76.8912	   15.6167	   2.70815	9.62202e+07	
         R10	   1866	   76.9299	   15.6115	   2.70308	9.88315e+07	   76.9333	   15.5636	   2.65648	 9.6299e+07	   76.8491	   15.5689	   2.66163	9.15992e+07	   76.8526	   15.6219	   2.71322	9.14028e+07	   76.9316	   15.5875	   2.67978	9.73076e+07	   76.8912	   15.5663	   2.65906	9.39212e+07	   76.8508	   15.5954	   2.68743	9.12249e+07	   76.8912	   15.6167	   2.70815	9.50829e+07	
         R10	   1867	   76.7811	   15.6301	   2.72114	8.10103e+07	   76.8526	   15.6219	   2.71322	 9.1817e+07	   76.8491	   15.5689	   2.66163	9.22419e+07	   76.7748	   15.5793	   2.67176	8.30151e+07	   76.8169	    15.626	   2.71718	8.64129e+07	   76.8508	   15.5954	   2.68743	9.18299e+07	    76.812	   15.5741	    2.6667	8.75096e+07	    76.778	   15.6047	   2.69645	8.14387e+07	
         R10	   1868	   76.7748	   15.5793	   2.67176	8.31356e+07	   76.8491	   15.5689	   2.66163	8.92804e+07	   76.7988	   15.5275	   2.62134	 8.3526e+07	   76.7472	   15.5375	   2.63107	7.93314e+07	    76.812	   15.5741	    2.6667	 8.6156e+07	   76.8239	   15.5482	   2.64149	8.60916e+07	    76.773	   15.5325	    2.6262	8.13653e+07	    76.761	   15.5584	   2.65141	8.08956e+07	
         R10	   1869	   76.6634	    15.517	   2.61118	7.21616e+07	   76.6486	   15.5495	   2.64276	6.57107e+07	    76.698	   15.5469	   2.64022	7.28743e+07	   76.6856	   15.5145	   2.60875	7.40472e+07	    76.656	   15.5333	   2.62697	6.88902e+07	   76.6733	   15.5482	   2.64149	6.89847e+07	   76.6918	   15.5307	   2.62448	7.32754e+07	   76.6745	   15.5158	   2.60997	7.28836e+07	
         R10	   1870	   76.7195	     15.51	    2.6043	7.82189e+07	   76.6856	   15.5145	   2.60875	7.45862e+07	    76.698	   15.5469	   2.64022	7.31659e+07	   76.7472	   15.5375	   2.63107	 7.8882e+07	   76.7026	   15.5123	   2.60653	7.63463e+07	   76.6918	   15.5307	   2.62448	7.37833e+07	   76.7226	   15.5422	   2.63564	7.59215e+07	   76.7334	   15.5237	   2.61768	 7.8297e+07	
         R10	   1871	   76.7614	   15.5042	   2.59867	 7.8073e+07	   76.7195	     15.51	    2.6043	7.73737e+07	   76.7472	   15.5375	   2.63107	7.97472e+07	   76.7988	   15.5275	   2.62134	8.46707e+07	   76.7405	   15.5071	   2.60149	7.76009e+07	   76.7334	   15.5237	   2.61768	7.83169e+07	    76.773	   15.5325	    2.6262	8.21948e+07	   76.7801	   15.5158	   2.61001	8.12522e+07	
         R10	   1872	   76.7614	   15.5042	   2.59867	7.84504e+07	   76.7988	   15.5275	   2.62134	 8.4103e+07	   76.8292	   15.5008	   2.59536	7.90705e+07	   76.7847	   15.4802	   2.57532	7.56519e+07	   76.7801	   15.5158	   2.61001	8.11091e+07	    76.814	   15.5141	   2.60835	8.15117e+07	   76.8069	   15.4905	   2.58534	 7.7184e+07	   76.7731	   15.4922	   2.58699	 7.7041e+07	
         R10	   1873	   76.7563	   15.4362	   2.53248	 6.2957e+07	   76.7197	   15.4447	   2.54083	6.95664e+07	    76.728	   15.4633	    2.5589	7.24532e+07	   76.7532	   15.4588	   2.55454	6.84181e+07	    76.738	   15.4405	   2.53666	6.62066e+07	   76.7239	    15.454	   2.54987	7.09269e+07	   76.7406	   15.4611	   2.55672	7.03908e+07	   76.7548	   15.4475	   2.54351	6.56739e+07	
         R10	   1874	   76.7847	   15.4802	   2.57532	7.58806e+07	      76.8	    15.451	   2.54695	6.62037e+07	   76.7563	   15.4362	   2.53248	6.21133e+07	   76.7532	   15.4588	   2.55454	7.14299e+07	   76.7923	   15.4656	   2.56113	7.09798e+07	   76.7781	   15.4436	   2.53971	6.40494e+07	   76.7548	   15.4475	   2.54351	6.66655e+07	    76.769	   15.4695	   2.56493	7.36233e+07	
         R10	   1875	    76.728	   15.4633	    2.5589	7.35796e+07	   76.7356	   15.4816	   2.57665	7.56316e+07	   76.7847	   15.4802	   2.57532	7.33575e+07	   76.7532	   15.4588	   2.55454	7.07068e+07	   76.7318	   15.4724	   2.56777	7.44835e+07	   76.7601	   15.4809	   2.57598	7.43949e+07	    76.769	   15.4695	   2.56493	7.19265e+07	   76.7406	   15.4611	   2.55672	7.21237e+07	
         R10	   1876	      76.8	    15.451	   2.54695	6.54936e+07	   76.8139	   15.4236	   2.52022	5.29535e+07	   76.7727	   15.4085	   2.50555	4.84619e+07	   76.7563	   15.4362	   2.53248	6.31611e+07	    76.807	   15.4373	   2.53358	5.89989e+07	   76.7933	    15.416	   2.51289	5.06647e+07	   76.7645	   15.4223	   2.51902	5.56505e+07	   76.7781	   15.4436	   2.53971	6.42407e+07	
         R10	   1877	   76.7332	   15.4225	   2.51916	5.74945e+07	   76.7563	   15.4362	   2.53248	6.42137e+07	   76.7727	   15.4085	   2.50555	4.92128e+07	   76.7363	   15.4007	   2.49799	4.82143e+07	   76.7448	   15.4293	   2.52582	6.08493e+07	   76.7645	   15.4223	   2.51902	 5.6523e+07	   76.7545	   15.4046	   2.50177	4.86238e+07	   76.7348	   15.4116	   2.50857	5.26837e+07	
         R10	   1878	   76.7727	   15.4085	   2.50555	4.81935e+07	   76.7886	   15.3814	   2.47916	3.49827e+07	   76.7501	   15.3717	   2.46976	2.97098e+07	   76.7363	   15.4007	   2.49799	 5.1298e+07	   76.7807	   15.3949	   2.49236	4.07375e+07	   76.7693	   15.3765	   2.47446	3.23417e+07	   76.7432	   15.3862	   2.48387	3.92992e+07	   76.7545	   15.4046	   2.50177	4.96738e+07	
         R10	   1879	   76.7127	   15.3819	   2.47973	3.39978e+07	   76.7124	   15.3915	   2.48907	5.33023e+07	   76.7363	   15.4007	   2.49799	4.38218e+07	   76.7501	   15.3717	   2.46976	3.40664e+07	   76.7125	   15.3867	    2.4844	4.25787e+07	   76.7243	   15.3961	   2.49353	4.81308e+07	   76.7432	   15.3862	   2.48387	3.85184e+07	   76.7314	   15.3768	   2.47474	3.39809e+07	
         R10	   1880	    76.708	   15.3727	   2.47069	 3.1576e+07	   76.7127	   15.3819	   2.47973	3.40678e+07	   76.7501	   15.3717	   2.46976	3.02938e+07	   76.7104	   15.3773	   2.47521	3.27734e+07	   76.7314	   15.3768	   2.47474	3.19726e+07	    76.729	   15.3722	   2.47022	3.07964e+07	       N/A	       N/A	       N/A	        N/A	       N/A	       N/A	       N/A	        N/A	
         R10	   1881	   76.7501	   15.3717	   2.46976	2.95366e+07	   76.7631	   15.3475	   2.44619	3.06349e+07	   76.7332	   15.3414	   2.44028	2.79077e+07	   76.7184	   15.3586	   2.45706	2.47528e+07	   76.7566	   15.3596	   2.45797	2.80339e+07	   76.7481	   15.3444	   2.44324	  2.927e+07	   76.7258	     15.35	   2.44867	2.44645e+07	   76.7342	   15.3652	   2.46341	 2.7068e+07	
         R10	   1882	   76.7073	   15.3337	   2.43278	1.85105e+07	   76.6853	   15.3372	   2.43616	 1.8238e+07	    76.687	   15.3486	   2.44733	2.18202e+07	   76.7028	    15.347	   2.44569	1.59012e+07	   76.6963	   15.3354	   2.43447	1.82596e+07	   76.6861	   15.3429	   2.44174	1.92476e+07	   76.6949	   15.3478	   2.44651	1.74938e+07	    76.705	   15.3403	   2.43924	1.65476e+07	
         R10	   1883	   76.7184	   15.3586	   2.45706	2.67765e+07	   76.7332	   15.3414	   2.44028	2.67353e+07	   76.7073	   15.3337	   2.43278	2.73605e+07	   76.7028	    15.347	   2.44569	2.14218e+07	   76.7258	     15.35	   2.44867	2.52919e+07	   76.7202	   15.3375	   2.43653	2.64376e+07	    76.705	   15.3403	   2.43924	1.97779e+07	   76.7106	   15.3528	   2.45138	2.40004e+07	
         R10	   1884	    76.687	   15.3486	   2.44733	1.62747e+07	   76.6878	    15.361	   2.45931	2.85098e+07	   76.7184	   15.3586	   2.45706	1.81222e+07	   76.7028	    15.347	   2.44569	2.90846e+07	   76.6874	   15.3548	   2.45332	2.16815e+07	   76.7031	   15.3598	   2.45819	2.27628e+07	   76.7106	   15.3528	   2.45138	2.33907e+07	   76.6949	   15.3478	   2.44651	2.21592e+07	
         R10	   1885	   76.6366	   15.4346	   2.53096	6.91632e+07	   76.6173	   15.4337	   2.53013	6.98846e+07	    76.625	   15.4493	   2.54528	7.01843e+07	    76.627	   15.4342	   2.53054	6.85185e+07	   76.6212	   15.4415	    2.5377	6.96708e+07	   76.6308	    15.442	   2.53812	6.95014e+07	       N/A	       N/A	       N/A	        N/A	       N/A	       N/A	       N/A	        N/A	
         R10	   1886	   76.6913	   15.3977	   2.49502	4.45038e+07	   76.6861	   15.4106	   2.50766	4.61885e+07	   76.7071	   15.4092	   2.50621	5.57679e+07	   76.6887	   15.4042	   2.50134	4.49855e+07	   76.6966	   15.4099	   2.50693	5.09198e+07	   76.6992	   15.4034	   2.50062	4.98519e+07	       N/A	       N/A	       N/A	        N/A	       N/A	       N/A	       N/A	        N/A	
         R10	   1887	   76.5349	   15.4345	   2.53086	6.85237e+07	   76.5159	   15.4351	   2.53148	6.18561e+07	   76.5262	   15.4528	   2.54863	6.54887e+07	   76.5254	   15.4348	   2.53117	6.49951e+07	    76.521	   15.4439	   2.54005	 6.3576e+07	   76.5305	   15.4436	   2.53974	6.65097e+07	       N/A	       N/A	       N/A	        N/A	       N/A	       N/A	       N/A	        N/A	
         R10	   1888	      76.6	   15.4477	   2.54374	7.25388e+07	   76.6035	   15.4339	   2.53032	7.64141e+07	   76.5856	    15.434	   2.53033	7.13706e+07	   76.6018	   15.4408	   2.53703	 7.4452e+07	   76.5945	   15.4339	   2.53033	7.35112e+07	   76.5928	   15.4408	   2.53703	 7.1711e+07	       N/A	       N/A	       N/A	        N/A	       N/A	       N/A	       N/A	        N/A	
         R10	   1889	   76.7113	   15.4257	   2.52233	6.06347e+07	   76.6864	   15.4209	   2.51764	5.31958e+07	   76.6916	   15.4354	   2.53179	6.94418e+07	   76.6989	   15.4233	   2.51998	5.66396e+07	    76.689	   15.4282	   2.52471	6.06626e+07	   76.7014	   15.4306	   2.52706	6.46301e+07	       N/A	       N/A	       N/A	        N/A	       N/A	       N/A	       N/A	        N/A	
         R10	   1890	   76.6976	   15.6778	   2.76758	5.57796e+07	   76.6226	   15.6845	   2.77408	4.52277e+07	   76.6658	   15.7372	   2.82535	4.77962e+07	   76.6601	   15.6811	   2.77083	4.89554e+07	   76.6442	   15.7108	   2.79971	4.37487e+07	   76.6817	   15.7075	   2.79646	5.08334e+07	       N/A	       N/A	       N/A	        N/A	       N/A	       N/A	       N/A	        N/A	
         R10	   1891	      76.6	   15.4477	   2.54374	7.16071e+07	   76.5732	    15.448	   2.54395	7.26196e+07	    76.587	   15.4648	   2.56036	7.04896e+07	   76.5866	   15.4478	   2.54384	7.19132e+07	   76.5801	   15.4564	   2.55216	7.15467e+07	   76.5935	   15.4563	   2.55205	7.09188e+07	       N/A	       N/A	       N/A	        N/A	       N/A	       N/A	       N/A	        N/A	
         R10	   1892	   76.6255	   15.4665	     2.562	7.37954e+07	    76.587	   15.4648	   2.56036	7.38476e+07	   76.6065	   15.4869	   2.58183	6.96807e+07	   76.6062	   15.4657	   2.56118	7.35761e+07	   76.5967	   15.4758	    2.5711	 7.1723e+07	    76.616	   15.4767	   2.57191	7.16552e+07	       N/A	       N/A	       N/A	        N/A	       N/A	       N/A	       N/A	        N/A	
         R10	   1893	    76.648	   15.4954	   2.59012	7.04015e+07	   76.6065	   15.4869	   2.58183	6.95829e+07	   76.6247	   15.5164	   2.61056	 6.9309e+07	   76.6272	   15.4911	   2.58597	6.97347e+07	   76.6156	   15.5016	    2.5962	6.93425e+07	   76.6363	   15.5059	   2.60034	6.96774e+07	       N/A	       N/A	       N/A	        N/A	       N/A	       N/A	       N/A	        N/A	
         R10	   1894	   76.7276	   15.6287	   2.71979	6.88878e+07	   76.6694	   15.6294	    2.7205	 5.7486e+07	   76.6976	   15.6778	   2.76758	5.88078e+07	   76.6985	    15.629	   2.72014	6.28221e+07	   76.6835	   15.6536	   2.74404	5.72391e+07	   76.7126	   15.6532	   2.74368	6.32639e+07	       N/A	       N/A	       N/A	        N/A	       N/A	       N/A	       N/A	        N/A	
         R10	   1895	   76.6853	   15.3372	   2.43616	1.74196e+07	   76.7073	   15.3337	   2.43278	2.54093e+07	   76.6868	   15.3242	   2.42351	 1.9971e+07	   76.6963	   15.3354	   2.43447	2.02702e+07	   76.6971	   15.3289	   2.42815	2.24966e+07	    76.686	   15.3307	   2.42983	1.67125e+07	       N/A	       N/A	       N/A	        N/A	       N/A	       N/A	       N/A	        N/A	
         R10	   1896	   76.7847	   15.4802	   2.57532	7.63089e+07	   76.7356	   15.4816	   2.57665	7.46363e+07	   76.7614	   15.5042	   2.59867	7.88767e+07	   76.7601	   15.4809	   2.57598	7.54258e+07	   76.7485	   15.4929	   2.58766	 7.6686e+07	   76.7731	   15.4922	   2.58699	7.75621e+07	       N/A	       N/A	       N/A	        N/A	       N/A	       N/A	       N/A	        N/A	
         R10	   1897	   77.1339	   15.4998	   2.59444	7.55735e+07	   77.1725	    15.549	   2.64227	 9.5363e+07	   77.1873	   15.4685	   2.56395	6.22162e+07	   77.1532	   15.5244	   2.61835	8.53831e+07	   77.1799	   15.5088	   2.60311	7.80512e+07	   77.1606	   15.4842	    2.5792	6.85484e+07	       N/A	       N/A	       N/A	        N/A	       N/A	       N/A	       N/A	        N/A	
         R10	   1898	    76.708	   15.3727	   2.47069	3.42031e+07	   76.7501	   15.3717	   2.46976	2.52079e+07	   76.7184	   15.3586	   2.45706	2.93803e+07	    76.729	   15.3722	   2.47022	2.91912e+07	   76.7342	   15.3652	   2.46341	2.71955e+07	   76.7132	   15.3657	   2.46388	3.07909e+07	       N/A	       N/A	       N/A	        N/A	       N/A	       N/A	       N/A	        N/A	
         R10	   1899	    77.535	   15.3659	   2.46416	7.92028e+07	   77.5234	      15.3	       2.4	1.82421e+08	   77.4288	      15.3	       2.4	1.78516e+08	   77.4369	     15.36	   2.45841	8.49362e+07	   77.5292	    15.333	   2.43208	1.30391e+08	   77.4761	      15.3	       2.4	1.80408e+08	   77.4329	     15.33	    2.4292	1.31251e+08	   77.4859	    15.363	   2.46128	8.19988e+07	
         R10	   1900	   77.6461	   15.3829	   2.48063	6.07044e+07	   77.6336	      15.3	       2.4	1.84883e+08	   77.5234	      15.3	       2.4	1.83787e+08	    77.535	   15.3659	   2.46416	8.04823e+07	   77.6399	   15.3414	   2.44032	1.22021e+08	   77.5785	      15.3	       2.4	1.84333e+08	   77.5292	    15.333	   2.43208	1.31701e+08	   77.5906	   15.3744	   2.47239	7.05263e+07	
         R10	   1901	   77.7668	   15.3978	   2.49511	4.29736e+07	   77.7596	      15.3	       2.4	1.85858e+08	   77.6336	      15.3	       2.4	1.84323e+08	   77.6461	   15.3829	   2.48063	6.11964e+07	   77.7632	   15.3489	   2.44756	1.12694e+08	   77.6966	      15.3	       2.4	1.85088e+08	   77.6399	   15.3414	   2.44032	1.21688e+08	   77.7065	   15.3903	   2.48787	 5.1921e+07	
         R10	   1902	   77.9083	   15.4097	   2.50673	 3.1071e+07	   77.9013	      15.3	       2.4	1.88507e+08	   77.7596	      15.3	       2.4	1.85383e+08	   77.7668	   15.3978	   2.49511	 4.1943e+07	   77.9048	   15.3548	   2.45337	1.06467e+08	   77.8304	      15.3	       2.4	1.86931e+08	   77.7632	   15.3489	   2.44756	1.12276e+08	   77.8376	   15.4037	   2.50092	 3.6083e+07	
         R10	   1903	   78.0655	   15.4217	   2.51837	 2.3797e+07	   78.0586	      15.3	       2.4	1.87602e+08	   77.9013	      15.3	       2.4	1.87991e+08	   77.9083	   15.4097	   2.50673	3.04415e+07	   78.0621	   15.3608	   2.45918	1.01482e+08	     77.98	      15.3	       2.4	1.87777e+08	   77.9048	   15.3548	   2.45337	1.06053e+08	   77.9869	   15.4157	   2.51255	2.59631e+07	
         R10	   1904	   78.2392	    15.433	   2.52945	2.32077e+07	   78.2317	      15.3	       2.4	1.89995e+08	   78.0586	      15.3	       2.4	1.89106e+08	   78.0655	   15.4217	   2.51837	3.16691e+07	   78.2355	   15.3665	   2.46473	9.71364e+07	   78.1452	      15.3	       2.4	1.89545e+08	   78.0621	   15.3608	   2.45918	1.03534e+08	   78.1524	   15.4274	   2.52391	2.63595e+07	
         R10	   1905	   78.4287	   15.4423	   2.53842	2.49607e+07	   78.4205	      15.3	       2.4	1.87591e+08	   78.2317	      15.3	       2.4	1.89136e+08	   78.2392	    15.433	   2.52945	2.13297e+07	   78.4246	   15.3711	   2.46921	8.89746e+07	   78.3261	      15.3	       2.4	1.88273e+08	   78.2355	   15.3665	   2.46473	9.60843e+07	    78.334	   15.4377	   2.53393	2.21959e+07	
         R10	   1906	    78.625	   15.4468	   2.54279	2.93424e+07	    78.625	      15.3	       2.4	1.91735e+08	   78.4205	      15.3	       2.4	 1.8857e+08	   78.4287	   15.4423	   2.53842	 2.6163e+07	    78.625	   15.3734	    2.4714	8.62014e+07	   78.5228	      15.3	       2.4	1.90118e+08	   78.4246	   15.3711	   2.46921	9.02975e+07	   78.5268	   15.4445	    2.5406	2.68145e+07	
         R10	   1907	    78.625	   15.5984	   2.69034	9.68356e+07	    78.625	   15.4468	   2.54279	2.47099e+07	   78.4287	   15.4423	   2.53842	 2.5814e+07	   78.4182	   15.5985	    2.6904	1.02791e+08	    78.625	   15.5226	   2.61657	5.84588e+07	   78.5268	   15.4445	    2.5406	2.46893e+07	   78.4234	   15.5204	   2.61441	6.01593e+07	   78.5216	   15.5984	   2.69037	9.97369e+07	
         R10	   1908	   78.4134	   15.7495	   2.83738	6.29686e+07	    78.625	    15.755	   2.84265	5.36807e+07	    78.625	   15.5984	   2.69034	1.08574e+08	   78.4182	   15.5985	    2.6904	1.00353e+08	   78.5192	   15.7522	   2.84002	5.81264e+07	    78.625	   15.6767	    2.7665	8.09846e+07	   78.5216	   15.5984	   2.69037	1.04399e+08	   78.4158	    15.674	   2.76389	8.14251e+07	
         R10	   1909	   78.4076	   15.9164	   2.99973	1.29542e+08	    78.625	   15.9164	   2.99973	1.31275e+08	    78.625	    15.755	   2.84265	5.69138e+07	   78.4134	   15.7495	   2.83738	6.23819e+07	   78.5163	   15.9164	   2.99973	1.30367e+08	    78.625	   15.8357	   2.92119	3.99363e+07	   78.5192	   15.7522	   2.84002	5.96316e+07	   78.4105	    15.833	   2.91855	3.67521e+07	
         R10	   1910	   78.2069	   15.9164	   2.99973	1.28276e+08	   78.4076	   15.9164	   2.99973	1.29472e+08	   78.4134	   15.7495	   2.83738	6.19514e+07	   78.2173	   15.7536	   2.84131	 5.9145e+07	   78.3073	   15.9164	   2.99973	1.28837e+08	   78.4105	    15.833	   2.91855	3.65103e+07	   78.3154	   15.7515	   2.83935	6.05348e+07	   78.2121	    15.835	   2.92052	3.78044e+07	
         R10	   1911	   78.0389	   15.7778	   2.86486	3.74432e+07	   78.0226	   15.9164	   2.99973	1.29018e+08	   78.2069	   15.9164	   2.99973	1.28598e+08	   78.2173	   15.7536	   2.84131	5.81772e+07	   78.0308	   15.8471	   2.93229	4.93092e+07	   78.1147	   15.9164	   2.99973	1.28733e+08	   78.2121	    15.835	   2.92052	3.74517e+07	   78.1281	   15.7657	   2.85308	4.75079e+07	
         R10	   1912	   77.8625	   15.8044	   2.89073	1.96537e+07	    77.855	   15.9164	   2.99973	1.32806e+08	   78.0226	   15.9164	   2.99973	1.28753e+08	   78.0389	   15.7778	   2.86486	   3.53e+07	   77.8588	   15.8604	   2.94523	6.22641e+07	   77.9388	   15.9164	   2.99973	1.30735e+08	   78.0308	   15.8471	   2.93229	4.84446e+07	   77.9507	   15.7911	    2.8778	2.59751e+07	
         R10	   1913	   77.7119	   15.8164	    2.9024	1.78391e+07	   77.7039	   15.9164	   2.99973	1.36107e+08	    77.855	   15.9164	   2.99973	1.32517e+08	   77.8625	   15.8044	   2.89073	1.87504e+07	   77.7079	   15.8664	   2.95106	6.92109e+07	   77.7794	   15.9164	   2.99973	1.34287e+08	   77.8588	   15.8604	   2.94523	6.19904e+07	   77.7872	   15.8104	   2.89657	1.74387e+07	
         R10	   1914	   77.5781	   15.8274	   2.91317	2.25157e+07	   77.5694	   15.9164	   2.99973	1.38499e+08	   77.7039	   15.9164	   2.99973	   1.36e+08	   77.7119	   15.8164	    2.9024	 1.7774e+07	   77.5737	   15.8719	   2.95645	7.61621e+07	   77.6366	   15.9164	   2.99973	1.37229e+08	   77.7079	   15.8664	   2.95106	6.90005e+07	    77.645	   15.8219	   2.90778	1.93235e+07	
         R10	   1915	   77.4595	   15.8359	   2.92146	3.10541e+07	   77.4514	   15.9164	   2.99973	1.40966e+08	   77.5694	   15.9164	   2.99973	1.38814e+08	   77.5781	   15.8274	   2.91317	2.43617e+07	   77.4555	   15.8762	   2.96059	8.24423e+07	   77.5104	   15.9164	   2.99973	1.39851e+08	   77.5737	   15.8719	   2.95645	7.65699e+07	   77.5188	   15.8317	   2.91731	 2.7426e+07	
         R10	   1916	     77.35	   15.8382	   2.92363	3.15009e+07	     77.35	   15.9164	   2.99973	1.41663e+08	   77.4514	   15.9164	   2.99973	1.40342e+08	   77.4595	   15.8359	   2.92146	3.12694e+07	     77.35	   15.8773	   2.96168	8.17296e+07	   77.4007	   15.9164	   2.99973	1.40989e+08	   77.4555	   15.8762	   2.96059	8.20113e+07	   77.4048	   15.8371	   2.92254	3.13522e+07	
         R10	   1917	     77.35	   15.7624	   2.84989	5.61497e+07	     77.35	   15.8382	   2.92363	4.27381e+07	   77.4595	   15.8359	   2.92146	4.37224e+07	   77.4446	   15.7697	   2.85703	5.10295e+07	     77.35	   15.8003	   2.88676	2.76058e+07	   77.4048	   15.8371	   2.92254	4.31299e+07	   77.4521	   15.8028	   2.88924	2.52022e+07	   77.3973	   15.7661	   2.85346	5.34366e+07	
         R10	   1918	   77.4464	   15.6844	     2.774	9.91636e+07	     77.35	    15.689	   2.77853	 9.3305e+07	     77.35	   15.7624	   2.84989	5.96236e+07	   77.4446	   15.7697	   2.85703	4.91477e+07	   77.3982	   15.6867	   2.77626	9.62302e+07	     77.35	   15.7257	   2.81421	7.54911e+07	   77.3973	   15.7661	   2.85346	5.43637e+07	   77.4455	   15.7271	   2.81551	7.29061e+07	
         R10	   1919	   77.4567	   15.6263	   2.71744	1.04032e+08	     77.35	   15.6181	   2.70953	1.09593e+08	     77.35	    15.689	   2.77853	9.65199e+07	   77.4464	   15.6844	     2.774	9.49218e+07	   77.4034	   15.6222	   2.71348	1.06711e+08	     77.35	   15.6536	   2.74403	1.02772e+08	   77.3982	   15.6867	   2.77626	9.56996e+07	   77.4516	   15.6553	   2.74572	9.94191e+07	
         R10	   1920	   77.4621	    15.546	   2.63932	9.33636e+07	     77.35	   15.5496	   2.64289	9.59595e+07	     77.35	   15.6181	   2.70953	1.07362e+08	   77.4567	   15.6263	   2.71744	1.09076e+08	    77.406	   15.5478	    2.6411	9.46484e+07	     77.35	   15.5839	   2.67621	1.01573e+08	   77.4034	   15.6222	   2.71348	1.08191e+08	   77.4594	   15.5861	   2.67838	 1.0117e+08	
         R10	   1921	   77.4647	   15.4849	   2.57988	 6.0409e+07	     77.35	   15.4836	   2.57862	6.12359e+07	     77.35	   15.5496	   2.64289	9.64785e+07	   77.4621	    15.546	   2.63932	9.11535e+07	   77.4073	   15.4842	   2.57925	6.06768e+07	     77.35	   15.5166	   2.61075	7.86089e+07	    77.406	   15.5478	    2.6411	9.38051e+07	   77.4634	   15.5154	    2.6096	7.54771e+07	
         R10	   1922	    77.448	   15.4252	   2.52185	2.23904e+07	     77.35	     15.42	   2.51671	2.46724e+07	     77.35	   15.4836	   2.57862	6.09424e+07	   77.4647	   15.4849	   2.57988	5.97198e+07	    77.399	   15.4226	   2.51928	2.33771e+07	     77.35	   15.4518	   2.54767	 3.6502e+07	   77.4073	   15.4842	   2.57925	6.02813e+07	   77.4564	   15.4551	   2.55086	3.60528e+07	
         R10	   1923	   77.4369	     15.36	   2.45841	8.51221e+07	   77.4288	      15.3	       2.4	1.79942e+08	     77.35	      15.3	       2.4	1.76026e+08	     77.35	   15.3588	   2.45717	8.22449e+07	   77.4329	     15.33	    2.4292	1.32207e+08	   77.3894	      15.3	       2.4	1.77983e+08	     77.35	   15.3294	   2.42859	1.28855e+08	   77.3934	   15.3594	   2.45779	8.36805e+07	
         R10	   1924	   77.7441	   15.4988	   2.59345	6.54777e+07	   77.7668	   15.3978	   2.49511	4.20459e+07	   77.6461	   15.3829	   2.48063	5.66614e+07	   77.5903	    15.466	   2.56151	4.31413e+07	   77.7554	   15.4483	   2.54428	 2.7059e+07	   77.7065	   15.3903	   2.48787	4.91919e+07	   77.6182	   15.4244	   2.52107	2.34943e+07	   77.6672	   15.4824	   2.57748	5.41896e+07	
         R10	   1925	   77.9041	   15.5057	   2.60015	6.89023e+07	   77.9083	   15.4097	   2.50673	 3.8272e+07	   77.7668	   15.3978	   2.49511	4.20459e+07	   77.7441	   15.4988	   2.59345	6.39359e+07	   77.9062	   15.4577	   2.55344	2.88691e+07	   77.8376	   15.4037	   2.50092	4.00183e+07	   77.7554	   15.4483	   2.54428	2.54399e+07	   77.8241	   15.5023	    2.5968	6.63811e+07	
         R10	   1926	   78.0401	   15.5177	   2.61179	7.35747e+07	   78.0655	   15.4217	   2.51837	2.01146e+07	   77.9083	   15.4097	   2.50673	3.57684e+07	   77.9041	   15.5057	   2.60015	6.72782e+07	   78.0528	   15.4697	   2.56508	3.49815e+07	   77.9869	   15.4157	   2.51255	 2.6444e+07	   77.9062	   15.4577	   2.55344	2.61009e+07	   77.9721	   15.5117	   2.60597	6.92551e+07	
         R10	   1927	   78.2139	   15.6009	   2.69277	1.07005e+08	   78.2392	    15.433	   2.52945	3.06174e+07	   78.0655	   15.4217	   2.51837	3.28835e+07	   78.0401	   15.5177	   2.61179	7.62722e+07	   78.2266	    15.517	   2.61111	6.51876e+07	   78.1524	   15.4274	   2.52391	2.97637e+07	   78.0528	   15.4697	   2.56508	 4.2418e+07	    78.127	   15.5593	   2.65228	9.01957e+07	
         R10	   1928	   78.4182	   15.5985	    2.6904	1.03485e+08	   78.4287	   15.4423	   2.53842	2.48839e+07	   78.2392	    15.433	   2.52945	2.52555e+07	   78.2139	   15.6009	   2.69277	1.01121e+08	   78.4234	   15.5204	   2.61441	6.01008e+07	    78.334	   15.4377	   2.53393	2.46425e+07	   78.2266	    15.517	   2.61111	5.93546e+07	    78.316	   15.5997	   2.69159	1.02162e+08	
         R10	   1929	   78.2173	   15.7536	   2.84131	6.00879e+07	   78.4134	   15.7495	   2.83738	6.20459e+07	   78.4182	   15.5985	    2.6904	1.01458e+08	   78.2139	   15.6009	   2.69277	1.02892e+08	   78.3154	   15.7515	   2.83935	 6.1007e+07	   78.4158	    15.674	   2.76389	8.17326e+07	    78.316	   15.5997	   2.69159	1.02136e+08	   78.2156	   15.6772	   2.76704	8.12026e+07	
         R10	   1930	   78.0074	   15.6669	   2.75699	9.90687e+07	   78.0389	   15.7778	   2.86486	4.86873e+07	   78.2173	   15.7536	   2.84131	6.22053e+07	   78.2139	   15.6009	   2.69277	1.08249e+08	   78.0231	   15.7223	   2.81093	6.93779e+07	   78.1281	   15.7657	   2.85308	5.43585e+07	   78.2156	   15.6772	   2.76704	8.52091e+07	   78.1106	   15.6339	   2.72488	 1.0175e+08	
         R10	   1931	   77.8352	   15.7036	   2.79265	8.84593e+07	   77.8625	   15.8044	   2.89073	3.18236e+07	   78.0389	   15.7778	   2.86486	4.34787e+07	   78.0074	   15.6669	   2.75699	1.01362e+08	   77.8489	    15.754	   2.84169	4.97669e+07	   77.9507	   15.7911	    2.8778	3.49835e+07	   78.0231	   15.7223	   2.81093	7.02943e+07	   77.9213	   15.6852	   2.77482	9.44952e+07	
         R10	   1932	   77.6965	   15.7162	   2.80499	8.19428e+07	   77.7119	   15.8164	    2.9024	2.96433e+07	   77.8625	   15.8044	   2.89073	2.59812e+07	   77.8352	   15.7036	   2.79265	8.93989e+07	   77.7042	   15.7663	   2.85369	4.26836e+07	   77.7872	   15.8104	   2.89657	2.74132e+07	   77.8489	    15.754	   2.84169	5.04161e+07	   77.7658	   15.7099	   2.79882	8.56318e+07	
         R10	   1933	   77.5637	   15.7262	   2.81465	7.60573e+07	   77.5781	   15.8274	   2.91317	2.86728e+07	   77.7119	   15.8164	    2.9024	2.79666e+07	   77.6965	   15.7162	   2.80499	8.11001e+07	   77.5709	   15.7768	   2.86391	3.69962e+07	    77.645	   15.8219	   2.90778	2.80273e+07	   77.7042	   15.7663	   2.85369	4.26074e+07	   77.6301	   15.7212	   2.80982	 7.8559e+07	
         R10	   1934	   77.4446	   15.7697	   2.85703	5.08255e+07	   77.4595	   15.8359	   2.92146	4.49684e+07	   77.5781	   15.8274	   2.91317	2.88878e+07	   77.5637	   15.7262	   2.81465	7.61898e+07	   77.4521	   15.8028	   2.88924	2.66015e+07	   77.5188	   15.8317	   2.91731	3.66135e+07	   77.5709	   15.7768	   2.86391	3.85345e+07	   77.5042	   15.7479	   2.83584	6.29517e+07	
         R10	   1935	   77.5613	   15.5448	   2.63821	9.12436e+07	   77.4621	    15.546	   2.63932	9.32153e+07	   77.4567	   15.6263	   2.71744	1.09446e+08	   77.5587	   15.6379	    2.7288	1.04911e+08	   77.5117	   15.5454	   2.63876	9.21792e+07	   77.4594	   15.5861	   2.67838	 1.0131e+08	   77.5077	   15.6321	   2.72312	1.07037e+08	     77.56	   15.5914	   2.68351	9.78683e+07	
         R10	   1936	   77.4369	     15.36	   2.45841	 8.4045e+07	     77.35	   15.3588	   2.45717	8.24157e+07	     77.35	     15.42	   2.51671	2.42177e+07	    77.448	   15.4252	   2.52185	2.22028e+07	   77.3934	   15.3594	   2.45779	8.32299e+07	     77.35	   15.3894	   2.48694	4.69112e+07	    77.399	   15.4226	   2.51928	2.31348e+07	   77.4425	   15.3926	   2.49013	4.57682e+07	
         R10	   1937	   77.6801	   15.6275	   2.71864	1.07046e+08	   77.6965	   15.7162	   2.80499	8.08428e+07	   77.8352	   15.7036	   2.79265	8.24533e+07	   77.7865	    15.608	   2.69972	1.04914e+08	   77.6883	   15.6719	   2.76181	9.34519e+07	   77.7658	   15.7099	   2.79882	8.15642e+07	   77.8109	   15.6558	   2.74619	 9.2893e+07	   77.7333	   15.6178	   2.70918	1.05937e+08	
         R10	   1938	   77.5587	   15.6379	    2.7288	1.07751e+08	   77.4567	   15.6263	   2.71744	1.06887e+08	   77.4464	   15.6844	     2.774	9.13763e+07	   77.5637	   15.7262	   2.81465	8.31766e+07	   77.5077	   15.6321	   2.72312	1.07294e+08	   77.4516	   15.6553	   2.74572	9.86355e+07	   77.5051	   15.7053	   2.79432	8.59237e+07	   77.5612	   15.6821	   2.77173	9.48025e+07	
         R10	   1939	   77.5587	   15.6379	    2.7288	1.05945e+08	   77.5637	   15.7262	   2.81465	7.69411e+07	   77.6965	   15.7162	   2.80499	8.17218e+07	   77.6801	   15.6275	   2.71864	1.06459e+08	   77.5612	   15.6821	   2.77173	9.12083e+07	   77.6301	   15.7212	   2.80982	7.92792e+07	   77.6883	   15.6719	   2.76181	9.32346e+07	   77.6194	   15.6327	   2.72372	1.06157e+08	
         R10	   1940	   77.5613	   15.5448	   2.63821	9.17442e+07	   77.5587	   15.6379	    2.7288	 1.0711e+08	   77.6801	   15.6275	   2.71864	9.99966e+07	   77.6628	   15.5558	   2.64885	 9.7604e+07	     77.56	   15.5914	   2.68351	9.93048e+07	   77.6194	   15.6327	   2.72372	1.03542e+08	   77.6715	   15.5916	   2.68375	9.85854e+07	   77.6121	   15.5503	   2.64353	9.46738e+07	
         R10	   1941	   77.5903	    15.466	   2.56151	4.24367e+07	   77.6461	   15.3829	   2.48063	 5.5826e+07	    77.535	   15.3659	   2.46416	7.94165e+07	   77.5228	   15.4215	   2.51824	2.35788e+07	   77.6182	   15.4244	   2.52107	2.21354e+07	   77.5906	   15.3744	   2.47239	6.75083e+07	   77.5289	   15.3937	    2.4912	4.54634e+07	   77.5565	   15.4438	   2.53988	2.78858e+07	
         R10	   1942	    77.448	   15.4252	   2.52185	2.32628e+07	   77.4647	   15.4849	   2.57988	5.89776e+07	   77.5903	    15.466	   2.56151	4.20031e+07	   77.5228	   15.4215	   2.51824	2.56119e+07	   77.4564	   15.4551	   2.55086	3.55991e+07	   77.5275	   15.4754	    2.5707	 4.9378e+07	   77.5565	   15.4438	   2.53988	2.95423e+07	   77.4854	   15.4234	   2.52004	2.40076e+07	
         R10	   1943	    77.535	   15.3659	   2.46416	8.10099e+07	   77.4369	     15.36	   2.45841	8.49103e+07	    77.448	   15.4252	   2.52185	2.28588e+07	   77.5228	   15.4215	   2.51824	   2.43e+07	   77.4859	    15.363	   2.46128	8.28762e+07	   77.4425	   15.3926	   2.49013	 4.6284e+07	   77.4854	   15.4234	   2.52004	2.29751e+07	   77.5289	   15.3937	    2.4912	4.74592e+07	
         R10	   1944	   77.4647	   15.4849	   2.57988	5.66129e+07	   77.4621	    15.546	   2.63932	9.22624e+07	   77.5613	   15.5448	   2.63821	 9.2578e+07	   77.5903	    15.466	   2.56151	4.81342e+07	   77.4634	   15.5154	    2.6096	7.43934e+07	   77.5117	   15.5454	   2.63876	9.24088e+07	   77.5758	   15.5054	   2.59986	6.91996e+07	   77.5275	   15.4754	    2.5707	5.17108e+07	
         R10	   1945	   77.5903	    15.466	   2.56151	4.27573e+07	   77.5613	   15.5448	   2.63821	9.11259e+07	   77.6628	   15.5558	   2.64885	8.96086e+07	   77.7441	   15.4988	   2.59345	6.54006e+07	   77.5758	   15.5054	   2.59986	6.62161e+07	   77.6121	   15.5503	   2.64353	9.02993e+07	   77.7035	   15.5273	   2.62115	 7.7016e+07	   77.6672	   15.4824	   2.57748	5.39455e+07	
         R10	   1946	   77.9041	   15.5057	   2.60015	6.36892e+07	   77.7441	   15.4988	   2.59345	6.86057e+07	   77.7865	    15.608	   2.69972	1.03243e+08	   77.8968	   15.5908	   2.68296	1.03199e+08	   77.8241	   15.5023	    2.5968	6.61098e+07	   77.7653	   15.5534	   2.64659	8.56186e+07	   77.8416	   15.5994	   2.69134	1.03189e+08	   77.9005	   15.5483	   2.64155	 8.3192e+07	
         R10	   1947	   78.0074	   15.6669	   2.75699	9.17658e+07	   78.0401	   15.5177	   2.61179	9.32978e+07	   77.9041	   15.5057	   2.60015	7.09613e+07	   77.8968	   15.5908	   2.68296	1.04338e+08	   78.0237	   15.5923	   2.68439	9.24777e+07	   77.9721	   15.5117	   2.60597	8.20257e+07	   77.9005	   15.5483	   2.64155	8.69598e+07	   77.9521	   15.6289	   2.71997	9.78688e+07	
         R10	   1948	   77.7865	    15.608	   2.69972	1.08103e+08	   77.8352	   15.7036	   2.79265	8.19553e+07	   78.0074	   15.6669	   2.75699	8.72907e+07	   77.8968	   15.5908	   2.68296	 9.7426e+07	   77.8109	   15.6558	   2.74619	9.45333e+07	   77.9213	   15.6852	   2.77482	 8.4062e+07	   77.9521	   15.6289	   2.71997	9.20182e+07	   77.8416	   15.5994	   2.69134	1.02649e+08	
         R10	   1949	   77.7865	    15.608	   2.69972	1.03791e+08	   77.7441	   15.4988	   2.59345	6.89394e+07	   77.6628	   15.5558	   2.64885	9.24113e+07	   77.6801	   15.6275	   2.71864	1.03797e+08	   77.7653	   15.5534	   2.64659	8.58009e+07	   77.7035	   15.5273	   2.62115	7.98358e+07	   77.6715	   15.5916	   2.68375	9.77845e+07	   77.7333	   15.6178	   2.70918	 1.0372e+08	
         R10	   1950	   77.4464	   15.6844	     2.774	9.58938e+07	   77.4446	   15.7697	   2.85703	5.22956e+07	   77.5637	   15.7262	   2.81465	7.12431e+07	   77.4455	   15.7271	   2.81551	7.18948e+07	   77.5042	   15.7479	   2.83584	6.15439e+07	   77.5051	   15.7053	   2.79432	8.18709e+07	       N/A	       N/A	       N/A	        N/A	       N/A	       N/A	       N/A	        N/A	
         R10	   1951	   78.2139	   15.6009	   2.69277	8.15333e+07	   78.0401	   15.5177	   2.61179	8.61444e+07	   78.0074	   15.6669	   2.75699	8.60291e+07	    78.127	   15.5593	   2.65228	 8.3719e+07	   78.0237	   15.5923	   2.68439	8.56596e+07	   78.1106	   15.6339	   2.72488	8.28187e+07	       N/A	       N/A	       N/A	        N/A	       N/A	       N/A	       N/A	        N/A	
         R10	   1952	   76.1386	   13.7863	       2.4	7.19731e+07	   76.1433	      13.6	       2.4	1.29497e+08	   75.9137	      13.6	       2.4	1.61495e+08	   75.8912	   13.8107	       2.4	5.09518e+07	   76.1409	   13.6932	       2.4	 6.8925e+07	   76.0285	      13.6	       2.4	1.44792e+08	   75.9025	   13.7054	       2.4	6.51103e+07	   76.0149	   13.7985	       2.4	5.91726e+07	
         R10	   1953	   76.3195	   13.7772	       2.4	4.36465e+07	   76.3387	      13.6	       2.4	9.38031e+07	   76.1433	      13.6	       2.4	 1.3273e+08	   76.1386	   13.7863	       2.4	6.67818e+07	   76.3291	   13.6886	       2.4	6.59841e+07	    76.241	      13.6	       2.4	1.02234e+08	   76.1409	   13.6932	       2.4	6.89014e+07	    76.229	   13.7818	       2.4	4.92331e+07	
         R10	   1954	      76.5	   13.7605	       2.4	8.66919e+07	      76.5	      13.6	       2.4	9.19413e+07	   76.3387	      13.6	       2.4	9.26248e+07	   76.3195	   13.7772	       2.4	6.83161e+07	      76.5	   13.6802	       2.4	1.16397e+07	   76.4194	      13.6	       2.4	 7.7817e+07	   76.3291	   13.6886	       2.4	7.32634e+07	   76.4097	   13.7689	       2.4	3.82692e+07	
         R10	   1955	      76.5	    13.908	       2.4	  1.064e+08	      76.5	   13.7605	       2.4	6.84516e+07	   76.3195	   13.7772	       2.4	1.10658e+08	   76.3444	   13.9658	       2.4	4.10036e+07	      76.5	   13.8342	       2.4	8.03699e+07	   76.4097	   13.7689	       2.4	4.85731e+07	   76.3319	   13.8715	       2.4	 6.3872e+07	   76.4222	   13.9369	       2.4	4.87074e+07	
         R10	   1956	   76.3965	   14.2662	       2.4	 7.8503e+07	      76.5	   14.2723	       2.4	7.13695e+07	      76.5	   14.1639	       2.4	9.46995e+07	   76.3654	   14.1208	       2.4	3.07534e+07	   76.4483	   14.2692	       2.4	4.96674e+07	      76.5	   14.2181	       2.4	8.24284e+07	   76.4327	   14.1423	       2.4	 5.4067e+07	    76.381	   14.1935	       2.4	4.71606e+07	
         R10	   1957	   76.4071	   14.3605	       2.4	1.34813e+08	      76.5	   14.3676	       2.4	6.81973e+07	      76.5	   14.2723	       2.4	6.43382e+07	   76.3965	   14.2662	       2.4	1.70125e+07	   76.4536	   14.3641	       2.4	4.20751e+07	      76.5	   14.3199	       2.4	 6.4885e+07	   76.4483	   14.2692	       2.4	2.90248e+07	   76.4018	   14.3134	       2.4	7.46306e+07	
         R10	   1958	    76.419	     14.45	       2.4	1.68562e+08	      76.5	     14.45	       2.4	1.64488e+08	      76.5	   14.3676	       2.4	1.46495e+08	   76.4071	   14.3605	       2.4	8.63308e+07	   76.4595	     14.45	       2.4	1.58048e+08	      76.5	   14.4088	       2.4	2.56517e+07	   76.4536	   14.3641	       2.4	7.48513e+07	    76.413	   14.4052	       2.4	1.05771e+08	
         R10	   1959	   76.3346	     14.45	       2.4	1.24508e+08	    76.419	     14.45	       2.4	1.61933e+08	   76.4071	   14.3605	       2.4	6.16418e+07	   76.3263	   14.3703	       2.4	7.18918e+07	   76.3768	     14.45	       2.4	1.39486e+08	    76.413	   14.4052	       2.4	9.53698e+07	   76.3667	   14.3654	       2.4	6.48526e+07	   76.3304	   14.4102	       2.4	9.18099e+07	
         R10	   1960	   76.1522	   14.3463	       2.4	5.25483e+07	   76.1557	     14.45	       2.4	1.37078e+08	   76.2468	     14.45	       2.4	1.07023e+08	   76.2245	    14.356	       2.4	6.82767e+07	    76.154	   14.3982	       2.4	9.00079e+07	   76.2013	     14.45	       2.4	1.20881e+08	   76.2357	    14.403	       2.4	8.62864e+07	   76.1884	   14.3512	       2.4	5.97725e+07	
         R10	   1961	   76.0613	   14.3438	       2.4	4.35478e+07	   76.0613	     14.45	       2.4	1.54356e+08	   76.1557	     14.45	       2.4	1.35638e+08	   76.1522	   14.3463	       2.4	5.76829e+07	   76.0613	   14.3969	       2.4	9.53702e+07	   76.1085	     14.45	       2.4	1.44478e+08	    76.154	   14.3982	       2.4	9.05604e+07	   76.1068	   14.3451	       2.4	5.00515e+07	
         R10	   1962	   75.9658	   14.3467	       2.4	4.64275e+07	   75.9635	     14.45	       2.4	1.66109e+08	   76.0613	     14.45	       2.4	1.54593e+08	   76.0613	   14.3438	       2.4	4.48788e+07	   75.9646	   14.3983	       2.4	1.03303e+08	   76.0124	     14.45	       2.4	1.60088e+08	   76.0613	   14.3969	       2.4	9.54928e+07	   76.0135	   14.3452	       2.4	4.53663e+07	
         R10	   1963	   75.8646	   14.3486	       2.4	4.72078e+07	   75.8624	     14.45	       2.4	1.72251e+08	   75.9635	     14.45	       2.4	1.64862e+08	   75.9658	   14.3467	       2.4	5.25521e+07	   75.8635	   14.3993	       2.4	 1.0729e+08	   75.9129	     14.45	       2.4	1.68528e+08	   75.9646	   14.3983	       2.4	1.03305e+08	   75.9152	   14.3476	       2.4	4.79883e+07	
         R10	   1964	   75.7564	   14.3355	       2.4	 3.2285e+07	   75.7579	     14.45	       2.4	1.75603e+08	   75.8624	     14.45	       2.4	1.73288e+08	   75.8646	   14.3486	       2.4	4.58392e+07	   75.7571	   14.3927	       2.4	1.01245e+08	   75.8101	     14.45	       2.4	1.74296e+08	   75.8635	   14.3993	       2.4	1.07168e+08	   75.8105	    14.342	       2.4	3.85782e+07	
         R10	   1965	     75.65	   14.3498	       2.4	6.19151e+07	     75.65	     14.45	       2.4	1.71865e+08	   75.7579	     14.45	       2.4	1.75514e+08	   75.7564	   14.3355	       2.4	3.50632e+07	     75.65	   14.3999	       2.4	1.11969e+08	   75.7039	     14.45	       2.4	1.73685e+08	   75.7571	   14.3927	       2.4	1.01642e+08	   75.7032	   14.3427	       2.4	4.74633e+07	
         R10	   1966	   75.7756	   14.2014	       2.4	8.11856e+07	     75.65	   14.2147	       2.4	7.24255e+07	     75.65	   14.3498	       2.4	6.67324e+07	   75.7564	   14.3355	       2.4	6.55997e+07	   75.7128	   14.2081	       2.4	7.46705e+07	     75.65	   14.2823	       2.4	3.20628e+07	   75.7032	   14.3427	       2.4	6.61201e+07	    75.766	   14.2685	       2.4	4.86036e+07	
         R10	   1967	   75.8356	   14.0511	       2.4	1.03766e+08	     75.65	   14.0447	       2.4	1.25314e+08	     75.65	   14.2147	       2.4	7.40874e+07	   75.7756	   14.2014	       2.4	9.68977e+07	   75.7428	   14.0479	       2.4	1.13843e+08	     75.65	   14.1297	       2.4	9.58024e+07	   75.7128	   14.2081	       2.4	8.50386e+07	   75.8056	   14.1262	       2.4	9.66651e+07	
         R10	   1968	   75.8912	   13.8107	       2.4	5.64645e+07	   75.9137	      13.6	       2.4	1.60995e+08	     75.65	      13.6	       2.4	 1.7581e+08	     75.65	   13.8398	       2.4	7.85319e+07	   75.9025	   13.7054	       2.4	6.66987e+07	   75.7819	      13.6	       2.4	 1.6815e+08	     75.65	   13.7199	       2.4	5.30765e+07	   75.7706	   13.8253	       2.4	6.56394e+07	
         R10	   1969	   76.3444	   13.9658	       2.4	4.90653e+07	   76.3195	   13.7772	       2.4	9.41206e+07	   76.1386	   13.7863	       2.4	7.42691e+07	   76.1953	   13.9878	       2.4	9.44445e+07	   76.3319	   13.8715	       2.4	5.34504e+07	    76.229	   13.7818	       2.4	   8.37e+07	   76.1669	    13.887	       2.4	7.51953e+07	   76.2699	   13.9768	       2.4	6.99387e+07	
         R10	   1970	   76.3654	   14.1208	       2.4	7.78801e+07	      76.5	   14.1639	       2.4	9.94401e+07	      76.5	   14.0424	       2.4	1.24123e+08	   76.3444	   13.9658	       2.4	4.03254e+07	   76.4327	   14.1423	       2.4	6.11056e+07	      76.5	   14.1031	       2.4	1.11773e+08	   76.4222	   14.0041	       2.4	5.74796e+07	   76.3549	   14.0433	       2.4	4.47293e+07	
         R10	   1971	   76.2885	   14.2954	       2.4	1.02837e+08	   76.3965	   14.2662	       2.4	8.21795e+07	   76.3654	   14.1208	       2.4	3.38536e+07	   76.2727	   14.1281	       2.4	 7.1596e+07	   76.3425	   14.2808	       2.4	9.07892e+07	    76.381	   14.1935	       2.4	  5.243e+07	   76.3191	   14.1245	       2.4	5.16194e+07	   76.2806	   14.2117	       2.4	8.39544e+07	
         R10	   1972	   76.3263	   14.3703	       2.4	1.09923e+08	   76.4071	   14.3605	       2.4	1.12594e+08	   76.3965	   14.2662	       2.4	3.99998e+07	   76.2885	   14.2954	       2.4	9.55753e+07	   76.3667	   14.3654	       2.4	1.10565e+08	   76.4018	   14.3134	       2.4	7.27015e+07	   76.3425	   14.2808	       2.4	6.56855e+07	   76.3074	   14.3328	       2.4	1.02709e+08	
         R10	   1973	   76.2245	    14.356	       2.4	9.80967e+07	   76.2468	     14.45	       2.4	1.15079e+08	   76.3263	   14.3703	       2.4	8.37468e+07	   76.2885	   14.2954	       2.4	8.96822e+07	   76.2357	    14.403	       2.4	1.02418e+08	   76.2866	   14.4102	       2.4	9.06455e+07	   76.3074	   14.3328	       2.4	8.10962e+07	   76.2565	   14.3257	       2.4	9.09861e+07	
         R10	   1974	   76.1666	   14.2212	       2.4	8.65566e+07	   76.1522	   14.3463	       2.4	9.68588e+07	   76.2245	    14.356	       2.4	1.00223e+08	   76.2885	   14.2954	       2.4	8.45144e+07	   76.1594	   14.2837	       2.4	8.73724e+07	   76.1884	   14.3512	       2.4	9.82444e+07	   76.2565	   14.3257	       2.4	8.96207e+07	   76.2275	   14.2583	       2.4	8.48751e+07	
         R10	   1975	   76.0726	   14.2527	       2.4	7.89947e+07	   76.0613	   14.3438	       2.4	1.00602e+08	   76.1522	   14.3463	       2.4	9.53792e+07	   76.1666	   14.2212	       2.4	8.48758e+07	   76.0669	   14.2982	       2.4	7.46391e+07	   76.1068	   14.3451	       2.4	9.74873e+07	   76.1594	   14.2837	       2.4	8.45704e+07	   76.1196	   14.2369	       2.4	7.88262e+07	
         R10	   1976	   75.9534	    14.178	       2.4	9.13673e+07	   75.9658	   14.3467	       2.4	6.44215e+07	   76.0613	   14.3438	       2.4	1.02869e+08	   76.0726	   14.2527	       2.4	5.01772e+07	   75.9596	   14.2623	       2.4	 6.4057e+07	   76.0135	   14.3452	       2.4	 8.3143e+07	   76.0669	   14.2982	       2.4	 6.9224e+07	    76.013	   14.2153	       2.4	7.06099e+07	
         R10	   1977	   75.8912	   13.8107	       2.4	7.53855e+07	     75.65	   13.8398	       2.4	7.34233e+07	     75.65	   14.0447	       2.4	 1.2488e+08	   75.8356	   14.0511	       2.4	1.25212e+08	   75.7706	   13.8253	       2.4	7.33511e+07	     75.65	   13.9423	       2.4	9.59741e+07	   75.7428	   14.0479	       2.4	1.25017e+08	   75.8634	   13.9309	       2.4	9.23286e+07	
         R10	   1978	    76.019	   14.0044	       2.4	1.06761e+08	   76.1953	   13.9878	       2.4	 9.4056e+07	   76.1386	   13.7863	       2.4	8.51394e+07	   75.8912	   13.8107	       2.4	8.31596e+07	   76.1071	   13.9961	       2.4	 1.0028e+08	   76.1669	    13.887	       2.4	7.38219e+07	   76.0149	   13.7985	       2.4	8.08063e+07	   75.9551	   13.9075	       2.4	8.51263e+07	
         R10	   1979	   76.2727	   14.1281	       2.4	8.04973e+07	   76.3654	   14.1208	       2.4	6.97908e+07	   76.3444	   13.9658	       2.4	4.54597e+07	   76.1953	   13.9878	       2.4	9.02622e+07	   76.3191	   14.1245	       2.4	7.21408e+07	   76.3549	   14.0433	       2.4	4.01308e+07	   76.2699	   13.9768	       2.4	6.70931e+07	    76.234	   14.0579	       2.4	7.62311e+07	
         R10	   1980	   76.0317	    14.106	       2.4	9.48464e+07	   76.0726	   14.2527	       2.4	9.51772e+07	   76.1666	   14.2212	       2.4	8.66322e+07	   76.1397	   14.1185	       2.4	9.87796e+07	   76.0521	   14.1793	       2.4	8.71196e+07	   76.1196	   14.2369	       2.4	9.08164e+07	   76.1532	   14.1698	       2.4	9.00001e+07	   76.0857	   14.1123	       2.4	9.59741e+07	
         R10	   1981	   76.1397	   14.1185	       2.4	1.21332e+08	   76.1666	   14.2212	       2.4	 9.5772e+07	   76.2727	   14.1281	       2.4	 7.8373e+07	   76.1953	   13.9878	       2.4	8.37513e+07	   76.1532	   14.1698	       2.4	1.05796e+08	   76.2197	   14.1746	       2.4	8.60919e+07	    76.234	   14.0579	       2.4	7.13014e+07	   76.1675	   14.0532	       2.4	9.87115e+07	
         R10	   1982	   76.0317	    14.106	       2.4	1.20404e+08	   76.1397	   14.1185	       2.4	1.02704e+08	   76.1953	   13.9878	       2.4	7.98808e+07	    76.019	   14.0044	       2.4	1.08864e+08	   76.0857	   14.1123	       2.4	 1.1124e+08	   76.1675	   14.0532	       2.4	8.64414e+07	   76.1071	   13.9961	       2.4	9.39307e+07	   76.0253	   14.0552	       2.4	   1.05e+08	
         R10	   1983	   75.9534	    14.178	       2.4	9.66492e+07	   76.0317	    14.106	       2.4	1.01761e+08	    76.019	   14.0044	       2.4	 1.1152e+08	   75.8356	   14.0511	       2.4	1.14726e+08	   75.9925	    14.142	       2.4	 9.5428e+07	   76.0253	   14.0552	       2.4	9.76644e+07	   75.9273	   14.0277	       2.4	1.12508e+08	   75.8945	   14.1145	       2.4	 1.0341e+08	
         R10	   1984	   75.7756	   14.2014	       2.4	7.24777e+07	   75.7564	   14.3355	       2.4	6.60684e+07	   75.8646	   14.3486	       2.4	7.03373e+07	   75.8704	   14.2449	       2.4	6.20087e+07	    75.766	   14.2685	       2.4	3.68276e+07	   75.8105	    14.342	       2.4	6.81388e+07	   75.8675	   14.2967	       2.4	5.74564e+07	    75.823	   14.2231	       2.4	 5.9612e+07	
         R10	   1985	   75.9534	    14.178	       2.4	9.69265e+07	   75.8356	   14.0511	       2.4	1.10048e+08	   75.7756	   14.2014	       2.4	1.03909e+08	   75.8704	   14.2449	       2.4	8.25173e+07	   75.8945	   14.1145	       2.4	1.00933e+08	   75.8056	   14.1262	       2.4	1.04987e+08	    75.823	   14.2231	       2.4	8.87894e+07	   75.9119	   14.2114	       2.4	8.44365e+07	
         R10	   1986	   75.8646	   14.3486	       2.4	6.99759e+07	   75.9658	   14.3467	       2.4	7.14082e+07	   75.9534	    14.178	       2.4	8.72974e+07	   75.8704	   14.2449	       2.4	7.41548e+07	   75.9152	   14.3476	       2.4	6.95221e+07	   75.9596	   14.2623	       2.4	6.51087e+07	   75.9119	   14.2114	       2.4	7.51038e+07	   75.8675	   14.2967	       2.4	5.68547e+07	
         R10	   1987	      76.5	   14.0424	       2.4	1.15707e+08	      76.5	    13.908	       2.4	9.94463e+07	   76.3444	   13.9658	       2.4	3.88896e+07	      76.5	   13.9752	       2.4	1.07096e+08	   76.4222	   13.9369	       2.4	3.37849e+07	   76.4222	   14.0041	       2.4	4.01296e+07	       N/A	       N/A	       N/A	        N/A	       N/A	       N/A	       N/A	        N/A	
         R10	   1988	   76.2468	     14.45	       2.4	 1.1232e+08	   76.3346	     14.45	       2.4	1.15597e+08	   76.3263	   14.3703	       2.4	6.77016e+07	   76.2907	     14.45	       2.4	1.11457e+08	   76.3304	   14.4102	       2.4	8.82496e+07	   76.2866	   14.4102	       2.4	8.44794e+07	       N/A	       N/A	       N/A	        N/A	       N/A	       N/A	       N/A	        N/A	
         R10	   1989	   76.1666	   14.2212	       2.4	9.32821e+07	   76.2885	   14.2954	       2.4	9.58515e+07	   76.2727	   14.1281	       2.4	7.50996e+07	   76.2275	   14.2583	       2.4	9.42551e+07	   76.2806	   14.2117	       2.4	8.33362e+07	   76.2197	   14.1746	       2.4	8.32956e+07	       N/A	       N/A	       N/A	        N/A	       N/A	       N/A	       N/A	        N/A	
         R10	   1990	   75.9534	    14.178	       2.4	8.79483e+07	   76.0726	   14.2527	       2.4	1.05265e+08	   76.0317	    14.106	       2.4	9.09804e+07	    76.013	   14.2153	       2.4	9.47906e+07	   76.0521	   14.1793	       2.4	9.01356e+07	   75.9925	    14.142	       2.4	8.73735e+07	       N/A	       N/A	       N/A	        N/A	       N/A	       N/A	       N/A	        N/A	
         R10	   1991	    76.019	   14.0044	       2.4	1.04588e+08	   75.8912	   13.8107	       2.4	9.30484e+07	   75.8356	   14.0511	       2.4	1.27818e+08	   75.9551	   13.9075	       2.4	8.80125e+07	   75.8634	   13.9309	       2.4	 1.0271e+08	   75.9273	   14.0277	       2.4	1.15684e+08	       N/A	       N/A	       N/A	        N/A	       N/A	       N/A	       N/A	        N/A	
         R10	   1992	    76.819	   13.7586	       2.4	 6.3317e+07	   76.8158	      13.6	       2.4	1.28852e+08	   76.6538	      13.6	       2.4	1.03089e+08	   76.6574	   13.7542	       2.4	4.37277e+07	   76.8174	   13.6793	       2.4	7.76061e+07	   76.7348	      13.6	       2.4	1.06542e+08	   76.6556	   13.6771	       2.4	6.91131e+07	   76.7382	   13.7564	       2.4	4.97674e+07	
         R10	   1993	   76.9902	   13.7646	       2.4	4.32715e+07	   76.9858	      13.6	       2.4	1.57807e+08	   76.8158	      13.6	       2.4	1.24769e+08	    76.819	   13.7586	       2.4	6.44923e+07	    76.988	   13.6823	       2.4	7.87836e+07	   76.9008	      13.6	       2.4	1.40499e+08	   76.8174	   13.6793	       2.4	7.54143e+07	   76.9046	   13.7616	       2.4	5.31515e+07	
         R10	   1994	    77.168	   13.7696	       2.4	3.71466e+07	   77.1638	      13.6	       2.4	1.73324e+08	   76.9858	      13.6	       2.4	1.57088e+08	   76.9902	   13.7646	       2.4	4.46193e+07	   77.1659	   13.6848	       2.4	8.17609e+07	   77.0748	      13.6	       2.4	1.64999e+08	    76.988	   13.6823	       2.4	7.88734e+07	   77.0791	   13.7671	       2.4	4.02181e+07	
         R10	   1995	     77.35	   13.7811	       2.4	3.67146e+07	     77.35	      13.6	       2.4	1.76259e+08	   77.1638	      13.6	       2.4	1.72827e+08	    77.168	   13.7696	       2.4	3.53034e+07	     77.35	   13.6906	       2.4	7.75652e+07	   77.2569	      13.6	       2.4	 1.7444e+08	   77.1659	   13.6848	       2.4	8.13443e+07	    77.259	   13.7753	       2.4	3.56286e+07	
         R10	   1996	     77.35	   13.9464	       2.4	1.12554e+08	     77.35	   13.7811	       2.4	4.53474e+07	    77.168	   13.7696	       2.4	5.55534e+07	   77.1645	   13.9364	       2.4	1.11198e+08	     77.35	   13.8638	       2.4	7.09432e+07	    77.259	   13.7753	       2.4	4.99946e+07	   77.1662	    13.853	       2.4	 6.9966e+07	   77.2572	   13.9414	       2.4	1.11685e+08	
         R10	   1997	   77.1739	   14.0792	       2.4	1.20621e+08	     77.35	    14.096	       2.4	1.14535e+08	     77.35	   13.9464	       2.4	1.13473e+08	   77.1645	   13.9364	       2.4	1.07458e+08	   77.2619	   14.0876	       2.4	 1.1724e+08	     77.35	   14.0212	       2.4	1.12343e+08	   77.2572	   13.9414	       2.4	 1.1014e+08	   77.1692	   14.0078	       2.4	1.10053e+08	
         R10	   1998	   77.2064	   14.2116	       2.4	8.30545e+07	     77.35	   14.2298	       2.4	6.97969e+07	     77.35	    14.096	       2.4	 1.1311e+08	   77.1739	   14.0792	       2.4	1.12939e+08	   77.2782	   14.2207	       2.4	7.63869e+07	     77.35	   14.1629	       2.4	8.75056e+07	   77.2619	   14.0876	       2.4	1.12726e+08	   77.1901	   14.1454	       2.4	9.44397e+07	
         R10	   1999	   77.2381	   14.3396	       2.4	  6.813e+07	     77.35	   14.3478	       2.4	 6.0606e+07	     77.35	   14.2298	       2.4	5.52796e+07	   77.2064	   14.2116	       2.4	7.44711e+07	    77.294	   14.3437	       2.4	6.41128e+07	     77.35	   14.2888	       2.4	3.34632e+07	   77.2782	   14.2207	       2.4	6.48167e+07	   77.2222	   14.2756	       2.4	4.54614e+07	
         R10	   2000	   77.2421	     14.45	       2.4	1.79392e+08	     77.35	     14.45	       2.4	1.77654e+08	     77.35	   14.3478	       2.4	5.15425e+07	   77.2381	   14.3396	       2.4	4.29087e+07	   77.2961	     14.45	       2.4	1.78489e+08	     77.35	   14.3989	       2.4	1.11617e+08	    77.294	   14.3437	       2.4	4.68376e+07	   77.2401	   14.3948	       2.4	1.06787e+08	
         R10	   2001	   77.1376	     14.45	       2.4	1.76502e+08	   77.2421	     14.45	       2.4	1.79472e+08	   77.2381	   14.3396	       2.4	3.79197e+07	    77.147	   14.3542	       2.4	5.39574e+07	   77.1899	     14.45	       2.4	1.77902e+08	   77.2401	   14.3948	       2.4	1.05992e+08	   77.1925	   14.3469	       2.4	4.58128e+07	   77.1423	   14.4021	       2.4	 1.1252e+08	
         R10	   2002	   77.0291	   14.3524	       2.4	5.20534e+07	   77.0365	     14.45	       2.4	1.71925e+08	   77.1376	     14.45	       2.4	1.76645e+08	    77.147	   14.3542	       2.4	5.89854e+07	   77.0328	   14.4012	       2.4	1.08631e+08	   77.0871	     14.45	       2.4	1.74218e+08	   77.1423	   14.4021	       2.4	 1.1376e+08	   77.0881	   14.3533	       2.4	 5.4631e+07	
         R10	   2003	   76.9498	   14.3426	       2.4	 5.1014e+07	   76.9387	     14.45	       2.4	1.56327e+08	   77.0365	     14.45	       2.4	1.71388e+08	   77.0291	   14.3524	       2.4	4.92794e+07	   76.9442	   14.3963	       2.4	9.71199e+07	   76.9876	     14.45	       2.4	1.63696e+08	   77.0328	   14.4012	       2.4	1.07489e+08	   76.9894	   14.3475	       2.4	4.89823e+07	
         R10	   2004	   76.8456	   14.3489	       2.4	4.96569e+07	   76.8443	     14.45	       2.4	1.40529e+08	   76.9387	     14.45	       2.4	1.57335e+08	   76.9498	   14.3426	       2.4	4.40381e+07	   76.8449	   14.3995	       2.4	9.00138e+07	   76.8915	     14.45	       2.4	1.48409e+08	   76.9442	   14.3963	       2.4	9.66036e+07	   76.8977	   14.3458	       2.4	 4.6554e+07	
         R10	   2005	    76.743	   14.3495	       2.4	5.70792e+07	   76.7532	     14.45	       2.4	1.21092e+08	   76.8443	     14.45	       2.4	1.40825e+08	   76.8456	   14.3489	       2.4	5.22415e+07	   76.7481	   14.3997	       2.4	8.44143e+07	   76.7987	     14.45	       2.4	1.29697e+08	   76.8449	   14.3995	       2.4	9.10212e+07	   76.7943	   14.3492	       2.4	5.43425e+07	
         R10	   2006	   76.6702	    14.361	       2.4	6.35651e+07	   76.6654	     14.45	       2.4	1.15117e+08	   76.7532	     14.45	       2.4	 1.2089e+08	    76.743	   14.3495	       2.4	5.49505e+07	   76.6678	   14.4055	       2.4	8.70738e+07	   76.7093	     14.45	       2.4	1.15536e+08	   76.7481	   14.3997	       2.4	8.46719e+07	   76.7066	   14.3553	       2.4	5.89549e+07	
         R10	   2007	   76.5729	   14.3725	       2.4	4.90983e+07	    76.581	     14.45	       2.4	1.74011e+08	   76.6654	     14.45	       2.4	1.23463e+08	   76.6702	    14.361	       2.4	6.94457e+07	    76.577	   14.4112	       2.4	9.34364e+07	   76.6232	     14.45	       2.4	1.42787e+08	   76.6678	   14.4055	       2.4	9.34057e+07	   76.6215	   14.3667	       2.4	5.34526e+07	
         R10	   2008	      76.5	   14.3676	       2.4	 1.4846e+08	      76.5	     14.45	       2.4	1.68504e+08	    76.581	     14.45	       2.4	 1.7243e+08	   76.5729	   14.3725	       2.4	6.91998e+07	      76.5	   14.4088	       2.4	1.09847e+07	   76.5405	     14.45	       2.4	 1.5603e+08	    76.577	   14.4112	       2.4	9.90131e+07	   76.5364	   14.3701	       2.4	 7.4032e+07	
         R10	   2009	      76.5	   14.2723	       2.4	6.49061e+07	      76.5	   14.3676	       2.4	7.00591e+07	   76.5729	   14.3725	       2.4	 1.1018e+08	   76.6258	   14.2614	       2.4	3.43875e+07	      76.5	   14.3199	       2.4	6.45268e+07	   76.5364	   14.3701	       2.4	2.68292e+07	   76.5993	   14.3169	       2.4	6.96583e+07	   76.5629	   14.2668	       2.4	2.33771e+07	
         R10	   2010	   76.6252	    14.154	       2.4	3.95386e+07	      76.5	   14.1639	       2.4	9.46696e+07	      76.5	   14.2723	       2.4	6.88051e+07	   76.6258	   14.2614	       2.4	7.95039e+07	   76.5626	   14.1589	       2.4	4.99781e+07	      76.5	   14.2181	       2.4	 8.0216e+07	   76.5629	   14.2668	       2.4	4.93305e+07	   76.6255	   14.2077	       2.4	5.57161e+07	
         R10	   2011	    76.642	   14.0285	       2.4	3.69133e+07	      76.5	   14.0424	       2.4	1.12802e+08	      76.5	   14.1639	       2.4	9.62378e+07	   76.6252	    14.154	       2.4	7.15737e+07	    76.571	   14.0355	       2.4	5.30292e+07	      76.5	   14.1031	       2.4	 1.0445e+08	   76.5626	   14.1589	       2.4	6.16164e+07	   76.6336	   14.0913	       2.4	4.30295e+07	
         R10	   2012	   76.6543	   13.9014	       2.4	5.60237e+07	      76.5	    13.908	       2.4	1.01778e+08	      76.5	   14.0424	       2.4	  1.148e+08	    76.642	   14.0285	       2.4	5.79661e+07	   76.5771	   13.9047	       2.4	4.52104e+07	      76.5	   13.9752	       2.4	 1.0801e+08	    76.571	   14.0355	       2.4	5.90635e+07	   76.6481	   13.9649	       2.4	3.76937e+07	
         R10	   2013	   76.6574	   13.7542	       2.4	 7.3086e+07	   76.6538	      13.6	       2.4	1.00244e+08	      76.5	      13.6	       2.4	1.04618e+08	      76.5	   13.7605	       2.4	9.36909e+07	   76.6556	   13.6771	       2.4	7.79293e+07	   76.5769	      13.6	       2.4	8.19658e+07	      76.5	   13.6802	       2.4	1.67518e+07	   76.5787	   13.7573	       2.4	3.93144e+07	
         R10	   2014	   76.9928	    13.929	       2.4	1.01671e+08	   76.9902	   13.7646	       2.4	7.32024e+07	    76.819	   13.7586	       2.4	9.39944e+07	   76.8112	    13.911	       2.4	8.13891e+07	   76.9915	   13.8468	       2.4	7.40152e+07	   76.9046	   13.7616	       2.4	8.34558e+07	   76.8151	   13.8348	       2.4	7.50155e+07	    76.902	     13.92	       2.4	9.11498e+07	
         R10	   2015	   77.1645	   13.9364	       2.4	1.10419e+08	    77.168	   13.7696	       2.4	5.50892e+07	   76.9902	   13.7646	       2.4	7.44345e+07	   76.9928	    13.929	       2.4	1.01104e+08	   77.1662	    13.853	       2.4	7.01029e+07	   77.0791	   13.7671	       2.4	6.46878e+07	   76.9915	   13.8468	       2.4	7.29988e+07	   77.0787	   13.9327	       2.4	1.05371e+08	
         R10	   2016	   77.1739	   14.0792	       2.4	1.19515e+08	   77.1645	   13.9364	       2.4	1.06478e+08	   76.9928	    13.929	       2.4	1.02599e+08	   77.0045	   14.0867	       2.4	1.18605e+08	   77.1692	   14.0078	       2.4	1.09796e+08	   77.0787	   13.9327	       2.4	1.04113e+08	   76.9987	   14.0079	       2.4	1.04145e+08	   77.0892	    14.083	       2.4	1.18571e+08	
         R10	   2017	    77.147	   14.3542	       2.4	7.89614e+07	   77.2381	   14.3396	       2.4	6.90243e+07	   77.2064	   14.2116	       2.4	6.95882e+07	   77.0892	   14.2294	       2.4	6.18934e+07	   77.1925	   14.3469	       2.4	7.39882e+07	   77.2222	   14.2756	       2.4	4.22706e+07	   77.1478	   14.2205	       2.4	6.46992e+07	   77.1181	   14.2918	       2.4	5.21855e+07	
         R10	   2018	   76.8465	   14.2107	       2.4	8.81092e+07	   76.8456	   14.3489	       2.4	 1.0025e+08	   76.9498	   14.3426	       2.4	 9.1946e+07	   76.9361	   14.2216	       2.4	7.64765e+07	   76.8461	   14.2798	       2.4	8.55906e+07	   76.8977	   14.3458	       2.4	9.60534e+07	   76.9429	   14.2821	       2.4	6.95097e+07	   76.8913	   14.2161	       2.4	 8.1298e+07	
         R10	   2019	    76.726	   14.2426	       2.4	7.84651e+07	    76.743	   14.3495	       2.4	1.14054e+08	   76.8456	   14.3489	       2.4	1.01976e+08	   76.8465	   14.2107	       2.4	7.69607e+07	   76.7345	   14.2961	       2.4	9.39471e+07	   76.7943	   14.3492	       2.4	1.07618e+08	   76.8461	   14.2798	       2.4	7.90859e+07	   76.7863	   14.2266	       2.4	7.61163e+07	
         R10	   2020	   76.6574	   13.7542	       2.4	 1.0901e+08	      76.5	   13.7605	       2.4	 7.7576e+07	      76.5	    13.908	       2.4	1.01582e+08	   76.6543	   13.9014	       2.4	4.52517e+07	   76.5787	   13.7573	       2.4	4.08881e+07	      76.5	   13.8342	       2.4	 8.2463e+07	   76.5771	   13.9047	       2.4	3.90038e+07	   76.6558	   13.8278	       2.4	6.53772e+07	
         R10	   2021	   76.8112	    13.911	       2.4	8.26343e+07	    76.819	   13.7586	       2.4	8.53233e+07	   76.6574	   13.7542	       2.4	9.50186e+07	   76.6543	   13.9014	       2.4	4.76382e+07	   76.8151	   13.8348	       2.4	7.31588e+07	   76.7382	   13.7564	       2.4	8.97615e+07	   76.6558	   13.8278	       2.4	5.86573e+07	   76.7327	   13.9062	       2.4	6.48477e+07	
         R10	   2022	    76.805	   14.0681	       2.4	9.89461e+07	   76.8112	    13.911	       2.4	9.35555e+07	   76.6543	   13.9014	       2.4	6.55224e+07	    76.642	   14.0285	       2.4	 6.1647e+07	   76.8081	   13.9896	       2.4	8.96749e+07	   76.7327	   13.9062	       2.4	7.79067e+07	   76.6481	   13.9649	       2.4	3.72094e+07	   76.7235	   14.0483	       2.4	7.34464e+07	
         R10	   2023	   77.0045	   14.0867	       2.4	1.18049e+08	   76.9928	    13.929	       2.4	1.06435e+08	   76.8112	    13.911	       2.4	8.97896e+07	    76.805	   14.0681	       2.4	 9.2494e+07	   76.9987	   14.0079	       2.4	1.06086e+08	    76.902	     13.92	       2.4	9.77482e+07	   76.8081	   13.9896	       2.4	8.27206e+07	   76.9047	   14.0774	       2.4	1.04945e+08	
         R10	   2024	   77.0892	   14.2294	       2.4	9.38837e+07	   77.2064	   14.2116	       2.4	8.52095e+07	   77.1739	   14.0792	       2.4	1.15559e+08	   77.0045	   14.0867	       2.4	1.04908e+08	   77.1478	   14.2205	       2.4	8.84234e+07	   77.1901	   14.1454	       2.4	9.68406e+07	   77.0892	    14.083	       2.4	1.09884e+08	   77.0469	    14.158	       2.4	9.26662e+07	
         R10	   2025	   76.9361	   14.2216	       2.4	7.77452e+07	   76.9498	   14.3426	       2.4	9.20346e+07	   77.0291	   14.3524	       2.4	7.47344e+07	   77.0892	   14.2294	       2.4	7.01599e+07	   76.9429	   14.2821	       2.4	7.38596e+07	   76.9894	   14.3475	       2.4	8.27937e+07	   77.0592	   14.2909	       2.4	5.66249e+07	   77.0126	   14.2255	       2.4	7.31876e+07	
         R10	   2026	   76.6258	   14.2614	       2.4	4.68246e+07	   76.6702	    14.361	       2.4	1.19641e+08	    76.743	   14.3495	       2.4	1.19986e+08	    76.726	   14.2426	       2.4	7.10881e+07	    76.648	   14.3112	       2.4	8.04147e+07	   76.7066	   14.3553	       2.4	1.19681e+08	   76.7345	   14.2961	       2.4	9.32121e+07	   76.6759	    14.252	       2.4	5.82479e+07	
         R10	   2027	   76.6252	    14.154	       2.4	3.40236e+07	   76.6258	   14.2614	       2.4	8.56174e+07	    76.726	   14.2426	       2.4	1.00694e+08	   76.7115	   14.1606	       2.4	6.93959e+07	   76.6255	   14.2077	       2.4	5.54969e+07	   76.6759	    14.252	       2.4	9.25167e+07	   76.7188	   14.2016	       2.4	7.88986e+07	   76.6684	   14.1573	       2.4	5.07337e+07	
         R10	   2028	    76.805	   14.0681	       2.4	8.82728e+07	    76.642	   14.0285	       2.4	3.77962e+07	   76.6252	    14.154	       2.4	6.68854e+07	   76.7115	   14.1606	       2.4	7.90376e+07	   76.7235	   14.0483	       2.4	6.00558e+07	   76.6336	   14.0913	       2.4	4.41626e+07	   76.6684	   14.1573	       2.4	7.06266e+07	   76.7583	   14.1144	       2.4	  7.884e+07	
         R10	   2029	   76.8465	   14.2107	       2.4	1.09969e+08	   76.9361	   14.2216	       2.4	9.09578e+07	   77.0045	   14.0867	       2.4	1.12681e+08	    76.805	   14.0681	       2.4	8.52657e+07	   76.8913	   14.2161	       2.4	1.00209e+08	   76.9703	   14.1541	       2.4	9.57742e+07	   76.9047	   14.0774	       2.4	9.87553e+07	   76.8257	   14.1394	       2.4	9.03961e+07	
         R10	   2030	   76.7115	   14.1606	       2.4	6.50257e+07	    76.726	   14.2426	       2.4	1.12683e+08	   76.8465	   14.2107	       2.4	1.07195e+08	    76.805	   14.0681	       2.4	8.67242e+07	   76.7188	   14.2016	       2.4	8.30557e+07	   76.7863	   14.2266	       2.4	  1.082e+08	   76.8257	   14.1394	       2.4	9.25169e+07	   76.7583	   14.1144	       2.4	7.11884e+07	
         R10	   2031	   77.0291	   14.3524	       2.4	7.78261e+07	    77.147	   14.3542	       2.4	7.61112e+07	   77.0892	   14.2294	       2.4	6.01049e+07	   77.0881	   14.3533	       2.4	7.67751e+07	   77.1181	   14.2918	       2.4	4.96014e+07	   77.0592	   14.2909	       2.4	5.33742e+07	       N/A	       N/A	       N/A	        N/A	       N/A	       N/A	       N/A	        N/A	
         R10	   2032	   76.6258	   14.2614	       2.4	4.95261e+07	   76.5729	   14.3725	       2.4	9.92501e+07	   76.6702	    14.361	       2.4	1.12131e+08	   76.5993	   14.3169	       2.4	7.15552e+07	   76.6215	   14.3667	       2.4	 1.0564e+08	    76.648	   14.3112	       2.4	7.80995e+07	       N/A	       N/A	       N/A	        N/A	       N/A	       N/A	       N/A	        N/A	
         R10	   2033	   76.9361	   14.2216	       2.4	9.51429e+07	   77.0892	   14.2294	       2.4	9.24028e+07	   77.0045	   14.0867	       2.4	1.03213e+08	   77.0126	   14.2255	       2.4	9.31507e+07	   77.0469	    14.158	       2.4	9.35527e+07	   76.9703	   14.1541	       2.4	9.11208e+07	       N/A	       N/A	       N/A	        N/A	       N/A	       N/A	       N/A	        N/A	
         R10	   2034	   77.7324	    13.795	       2.4	3.90475e+07	   77.7267	      13.6	       2.4	1.73325e+08	   77.5323	      13.6	       2.4	1.74844e+08	   77.5378	    13.781	       2.4	3.10311e+07	   77.7295	   13.6975	       2.4	6.92774e+07	   77.6295	      13.6	       2.4	1.74029e+08	   77.5351	   13.6905	       2.4	7.75924e+07	   77.6351	    13.788	       2.4	3.43989e+07	
         R10	   2035	   77.9391	   13.8087	       2.4	5.02021e+07	   77.9332	      13.6	       2.4	1.71765e+08	   77.7267	      13.6	       2.4	1.73468e+08	   77.7324	    13.795	       2.4	3.98698e+07	   77.9362	   13.7044	       2.4	6.21426e+07	     77.83	      13.6	       2.4	1.72597e+08	   77.7295	   13.6975	       2.4	6.97046e+07	   77.8358	   13.8018	       2.4	4.48256e+07	
         R10	   2036	   78.1576	     13.82	       2.4	5.52564e+07	   78.1517	      13.6	       2.4	1.66739e+08	   77.9332	      13.6	       2.4	  1.708e+08	   77.9391	   13.8087	       2.4	5.09244e+07	   78.1546	     13.71	       2.4	5.65049e+07	   78.0424	      13.6	       2.4	 1.6871e+08	   77.9362	   13.7044	       2.4	6.12203e+07	   78.0484	   13.8144	       2.4	5.29959e+07	
         R10	   2037	   78.3867	   13.8267	       2.4	6.43498e+07	   78.3823	      13.6	       2.4	1.68326e+08	   78.1517	      13.6	       2.4	1.67144e+08	   78.1576	     13.82	       2.4	5.52664e+07	   78.3845	   13.7134	       2.4	5.26826e+07	    78.267	      13.6	       2.4	1.67715e+08	   78.1546	     13.71	       2.4	5.68417e+07	   78.2722	   13.8234	       2.4	5.97342e+07	
         R10	   2038	    78.625	   13.8226	       2.4	6.08787e+07	    78.625	      13.6	       2.4	 1.6183e+08	   78.3823	      13.6	       2.4	1.67916e+08	   78.3867	   13.8267	       2.4	 6.5126e+07	    78.625	   13.7113	       2.4	5.16782e+07	   78.5037	      13.6	       2.4	1.64798e+08	   78.3845	   13.7134	       2.4	5.23303e+07	   78.5059	   13.8247	       2.4	6.29131e+07	
         R10	   2039	    78.625	   14.0385	       2.4	1.21269e+08	    78.625	   13.8226	       2.4	5.90853e+07	   78.3867	   13.8267	       2.4	 5.9852e+07	   78.3908	   14.0419	       2.4	1.28741e+08	    78.625	   13.9306	       2.4	 8.9989e+07	   78.5059	   13.8247	       2.4	 5.9374e+07	   78.3888	   13.9343	       2.4	9.42509e+07	   78.5079	   14.0402	       2.4	1.24997e+08	
         R10	   2040	   78.4121	   14.2448	       2.4	5.44203e+07	    78.625	   14.2476	       2.4	4.33315e+07	    78.625	   14.0385	       2.4	1.32432e+08	   78.3908	   14.0419	       2.4	1.22188e+08	   78.5185	   14.2462	       2.4	4.86466e+07	    78.625	   14.1431	       2.4	8.76515e+07	   78.5079	   14.0402	       2.4	 1.2725e+08	   78.4014	   14.1434	       2.4	 8.7921e+07	
         R10	   2041	   78.4076	     14.45	       2.4	1.59855e+08	    78.625	     14.45	       2.4	1.58703e+08	    78.625	   14.2476	       2.4	5.23515e+07	   78.4121	   14.2448	       2.4	5.12633e+07	   78.5163	     14.45	       2.4	1.59252e+08	    78.625	   14.3488	       2.4	5.45541e+07	   78.5185	   14.2462	       2.4	5.16468e+07	   78.4099	   14.3474	       2.4	5.57271e+07	
         R10	   2042	   78.2069	     14.45	       2.4	1.61285e+08	   78.4076	     14.45	       2.4	1.59737e+08	   78.4121	   14.2448	       2.4	5.09404e+07	   78.2039	   14.2448	       2.4	5.24658e+07	   78.3073	     14.45	       2.4	1.60434e+08	   78.4099	   14.3474	       2.4	 5.5588e+07	    78.308	   14.2448	       2.4	5.17025e+07	   78.2054	   14.3474	       2.4	 5.5901e+07	
         R10	   2043	   78.0317	   14.2621	       2.4	3.26665e+07	   78.0226	     14.45	       2.4	1.61343e+08	   78.2069	     14.45	       2.4	1.61445e+08	   78.2039	   14.2448	       2.4	 5.2631e+07	   78.0272	    14.356	       2.4	6.52394e+07	   78.1147	     14.45	       2.4	1.61375e+08	   78.2054	   14.3474	       2.4	5.55432e+07	   78.1178	   14.2534	       2.4	4.26179e+07	
         R10	   2044	    77.842	   14.2515	       2.4	4.00409e+07	    77.855	     14.45	       2.4	1.59923e+08	   78.0226	     14.45	       2.4	1.63185e+08	   78.0317	   14.2621	       2.4	4.53914e+07	   77.8485	   14.3507	       2.4	6.45449e+07	   77.9388	     14.45	       2.4	1.61505e+08	   78.0272	    14.356	       2.4	6.82782e+07	   77.9369	   14.2568	       2.4	3.85834e+07	
         R10	   2045	   77.7065	   14.3232	       2.4	3.05242e+07	   77.7039	     14.45	       2.4	1.68225e+08	    77.855	     14.45	       2.4	1.57591e+08	    77.842	   14.2515	       2.4	4.20136e+07	   77.7052	   14.3866	       2.4	9.40074e+07	   77.7794	     14.45	       2.4	1.62612e+08	   77.8485	   14.3507	       2.4	5.91735e+07	   77.7742	   14.2873	       2.4	1.05313e+07	
         R10	   2046	   77.5719	   14.3037	       2.4	2.57814e+07	   77.5694	     14.45	       2.4	1.69143e+08	   77.7039	     14.45	       2.4	1.69689e+08	   77.7065	   14.3232	       2.4	5.70889e+07	   77.5706	   14.3769	       2.4	9.14819e+07	   77.6366	     14.45	       2.4	1.69387e+08	   77.7052	   14.3866	       2.4	9.90963e+07	   77.6392	   14.3134	       2.4	  3.236e+07	
         R10	   2047	   77.4506	   14.3462	       2.4	 4.6886e+07	   77.4514	     14.45	       2.4	1.76806e+08	   77.5694	     14.45	       2.4	1.67382e+08	   77.5719	   14.3037	       2.4	8.98277e+06	    77.451	   14.3981	       2.4	1.09533e+08	   77.5104	     14.45	       2.4	1.71733e+08	   77.5706	   14.3769	       2.4	8.71725e+07	   77.5112	   14.3249	       2.4	2.61743e+07	
         R10	   2048	     77.35	   14.3478	       2.4	5.01951e+07	     77.35	     14.45	       2.4	1.77673e+08	   77.4514	     14.45	       2.4	1.75533e+08	   77.4506	   14.3462	       2.4	5.19773e+07	     77.35	   14.3989	       2.4	1.11689e+08	   77.4007	     14.45	       2.4	  1.766e+08	    77.451	   14.3981	       2.4	1.08271e+08	   77.4003	    14.347	       2.4	5.06153e+07	
         R10	   2049	   77.4742	   14.2171	       2.4	6.82901e+07	     77.35	   14.2298	       2.4	5.26744e+07	     77.35	   14.3478	       2.4	6.31043e+07	   77.4506	   14.3462	       2.4	6.73355e+07	   77.4121	   14.2234	       2.4	5.96706e+07	     77.35	   14.2888	       2.4	3.32104e+07	   77.4003	    14.347	       2.4	 6.5165e+07	   77.4624	   14.2816	       2.4	2.79091e+07	
         R10	   2050	   77.5014	   14.0957	       2.4	1.12415e+08	     77.35	    14.096	       2.4	1.10787e+08	     77.35	   14.2298	       2.4	7.38893e+07	   77.4742	   14.2171	       2.4	5.49965e+07	   77.4257	   14.0958	       2.4	1.11349e+08	     77.35	   14.1629	       2.4	8.93101e+07	   77.4121	   14.2234	       2.4	6.43296e+07	   77.4878	   14.1564	       2.4	8.13501e+07	
         R10	   2051	   77.5228	    13.943	       2.4	1.06402e+08	     77.35	   13.9464	       2.4	1.13252e+08	     77.35	    14.096	       2.4	1.18004e+08	   77.5014	   14.0957	       2.4	1.22292e+08	   77.4364	   13.9447	       2.4	1.09746e+08	     77.35	   14.0212	       2.4	1.12881e+08	   77.4257	   14.0958	       2.4	1.19766e+08	   77.5121	   14.0193	       2.4	1.13248e+08	
         R10	   2052	   77.5378	    13.781	       2.4	3.07891e+07	   77.5323	      13.6	       2.4	1.74728e+08	     77.35	      13.6	       2.4	 1.7566e+08	     77.35	   13.7811	       2.4	3.58384e+07	   77.5351	   13.6905	       2.4	7.74781e+07	   77.4412	      13.6	       2.4	 1.7516e+08	     77.35	   13.6906	       2.4	7.69338e+07	   77.4439	    13.781	       2.4	 3.3293e+07	
         R10	   2053	   77.9322	    14.026	       2.4	1.28453e+08	   77.9391	   13.8087	       2.4	5.23269e+07	   77.7324	    13.795	       2.4	4.52973e+07	   77.7216	   13.9815	       2.4	 1.2501e+08	   77.9357	   13.9173	       2.4	8.93458e+07	   77.8358	   13.8018	       2.4	4.85166e+07	    77.727	   13.8882	       2.4	8.16147e+07	   77.8269	   14.0037	       2.4	1.26518e+08	
         R10	   2054	   78.1608	   14.0342	       2.4	1.25061e+08	   78.1576	     13.82	       2.4	6.12125e+07	   77.9391	   13.8087	       2.4	5.04767e+07	   77.9322	    14.026	       2.4	1.27838e+08	   78.1592	   13.9271	       2.4	9.22876e+07	   78.0484	   13.8144	       2.4	5.57664e+07	   77.9357	   13.9173	       2.4	 8.7589e+07	   78.0465	   14.0301	       2.4	1.26414e+08	
         R10	   2055	   78.3908	   14.0419	       2.4	1.29061e+08	   78.3867	   13.8267	       2.4	6.08621e+07	   78.1576	     13.82	       2.4	5.98169e+07	   78.1608	   14.0342	       2.4	1.24428e+08	   78.3888	   13.9343	       2.4	9.46878e+07	   78.2722	   13.8234	       2.4	6.03063e+07	   78.1592	   13.9271	       2.4	9.15406e+07	   78.2758	   14.0381	       2.4	 1.2673e+08	
         R10	   2056	   78.2039	   14.2448	       2.4	5.70198e+07	   78.4121	   14.2448	       2.4	5.35379e+07	   78.3908	   14.0419	       2.4	1.20229e+08	   78.1608	   14.0342	       2.4	1.24025e+08	    78.308	   14.2448	       2.4	5.48064e+07	   78.4014	   14.1434	       2.4	8.67669e+07	   78.2758	   14.0381	       2.4	1.22034e+08	   78.1823	   14.1395	       2.4	 8.8978e+07	
         R10	   2057	   78.0317	   14.2621	       2.4	5.79276e+07	   78.2039	   14.2448	       2.4	5.65008e+07	   78.1608	   14.0342	       2.4	1.22693e+08	   77.9322	    14.026	       2.4	1.14407e+08	   78.1178	   14.2534	       2.4	5.70037e+07	   78.1823	   14.1395	       2.4	8.84015e+07	   78.0465	   14.0301	       2.4	1.18526e+08	    77.982	    14.144	       2.4	8.41124e+07	
         R10	   2058	   77.6666	   14.1227	       2.4	8.39686e+07	   77.5014	   14.0957	       2.4	1.12894e+08	   77.4742	   14.2171	       2.4	4.67482e+07	   77.5719	   14.3037	       2.4	3.72718e+07	    77.584	   14.1092	       2.4	9.70941e+07	   77.4878	   14.1564	       2.4	7.82139e+07	    77.523	   14.2604	       2.4	3.70907e+07	   77.6192	   14.2132	       2.4	5.65646e+07	
         R10	   2059	   77.5378	    13.781	       2.4	3.90595e+07	     77.35	   13.7811	       2.4	4.28956e+07	     77.35	   13.9464	       2.4	1.13631e+08	   77.5228	    13.943	       2.4	 1.1261e+08	   77.4439	    13.781	       2.4	4.09253e+07	     77.35	   13.8638	       2.4	6.99577e+07	   77.4364	   13.9447	       2.4	1.13021e+08	   77.5303	    13.862	       2.4	6.88998e+07	
         R10	   2060	   77.7216	   13.9815	       2.4	 1.2435e+08	   77.7324	    13.795	       2.4	4.27747e+07	   77.5378	    13.781	       2.4	4.20191e+07	   77.5228	    13.943	       2.4	1.14517e+08	    77.727	   13.8882	       2.4	 8.0992e+07	   77.6351	    13.788	       2.4	4.14623e+07	   77.5303	    13.862	       2.4	 7.0909e+07	   77.6222	   13.9622	       2.4	1.19242e+08	
         R10	   2061	   77.7216	   13.9815	       2.4	1.18608e+08	   77.5228	    13.943	       2.4	 1.1114e+08	   77.5014	   14.0957	       2.4	1.26543e+08	   77.6666	   14.1227	       2.4	9.95211e+07	   77.6222	   13.9622	       2.4	1.14689e+08	   77.5121	   14.0193	       2.4	1.16587e+08	    77.584	   14.1092	       2.4	 1.1204e+08	   77.6941	   14.0521	       2.4	1.08356e+08	
         R10	   2062	    77.842	   14.2515	       2.4	6.57624e+07	   77.9322	    14.026	       2.4	1.13556e+08	   77.7216	   13.9815	       2.4	 1.1917e+08	   77.6666	   14.1227	       2.4	9.59138e+07	   77.8871	   14.1387	       2.4	8.77643e+07	   77.8269	   14.0037	       2.4	1.16282e+08	   77.6941	   14.0521	       2.4	1.05848e+08	   77.7543	   14.1871	       2.4	7.67267e+07	
         R10	   2063	    77.842	   14.2515	       2.4	6.84432e+07	   78.0317	   14.2621	       2.4	 6.8208e+07	   77.9322	    14.026	       2.4	1.14709e+08	   77.9369	   14.2568	       2.4	6.63671e+07	    77.982	    14.144	       2.4	9.02462e+07	   77.8871	   14.1387	       2.4	8.99796e+07	       N/A	       N/A	       N/A	        N/A	       N/A	       N/A	       N/A	        N/A	
         R10	   2064	   77.4742	   14.2171	       2.4	6.96412e+07	   77.4506	   14.3462	       2.4	7.60382e+07	   77.5719	   14.3037	       2.4	3.81023e+07	   77.4624	   14.2816	       2.4	3.56462e+07	   77.5112	   14.3249	       2.4	5.17146e+07	    77.523	   14.2604	       2.4	4.18399e+07	       N/A	       N/A	       N/A	        N/A	       N/A	       N/A	       N/A	        N/A	
         R10	   2065	   77.7065	   14.3232	       2.4	5.17459e+07	    77.842	   14.2515	       2.4	5.38781e+07	   77.6666	   14.1227	       2.4	 9.1176e+07	   77.7742	   14.2873	       2.4	4.90858e+07	   77.7543	   14.1871	       2.4	6.66624e+07	   77.6865	    14.223	       2.4	5.23558e+07	       N/A	       N/A	       N/A	        N/A	       N/A	       N/A	       N/A	        N/A	
         R10	   2066	   77.5719	   14.3037	       2.4	4.00235e+07	   77.7065	   14.3232	       2.4	 4.4953e+07	   77.6666	   14.1227	       2.4	8.98115e+07	   77.6392	   14.3134	       2.4	3.97497e+07	   77.6865	    14.223	       2.4	5.32689e+07	   77.6192	   14.2132	       2.4	6.03089e+07	       N/A	       N/A	       N/A	        N/A	       N/A	       N/A	       N/A	        N/A	
         R10	   2067	   77.5823	   14.5733	       2.4	2.72734e+07	   77.5694	     14.45	       2.4	1.62225e+08	   77.4514	     14.45	       2.4	1.64393e+08	   77.4617	   14.5595	       2.4	3.95361e+07	   77.5758	   14.5117	       2.4	9.10428e+07	   77.5104	     14.45	       2.4	1.63274e+08	   77.4566	   14.5048	       2.4	9.82775e+07	    77.522	   14.5664	       2.4	3.32817e+07	
         R10	   2068	   77.7159	   14.5925	       2.4	1.94748e+07	   77.7039	     14.45	       2.4	1.56559e+08	   77.5694	     14.45	       2.4	1.62859e+08	   77.5823	   14.5733	       2.4	2.76821e+07	   77.7099	   14.5213	       2.4	8.09626e+07	   77.6366	     14.45	       2.4	1.59671e+08	   77.5758	   14.5117	       2.4	9.17879e+07	   77.6491	   14.5829	       2.4	2.25811e+07	
         R10	   2069	   77.8637	   14.6072	       2.4	1.99687e+07	    77.855	     14.45	       2.4	1.55401e+08	   77.7039	     14.45	       2.4	1.56165e+08	   77.7159	   14.5925	       2.4	 1.8131e+07	   77.8593	   14.5286	       2.4	7.13227e+07	   77.7794	     14.45	       2.4	1.55745e+08	   77.7099	   14.5213	       2.4	8.04981e+07	   77.7898	   14.5999	       2.4	1.67068e+07	
         R10	   2070	   78.0357	   14.6273	       2.4	2.63022e+07	   78.0226	     14.45	       2.4	1.49746e+08	    77.855	     14.45	       2.4	1.55635e+08	   77.8637	   14.6072	       2.4	2.09474e+07	   78.0292	   14.5387	       2.4	6.35733e+07	   77.9388	     14.45	       2.4	1.52661e+08	   77.8593	   14.5286	       2.4	7.19683e+07	   77.9497	   14.6173	       2.4	2.30815e+07	
         R10	   2071	   78.2183	   14.6491	       2.4	4.71437e+07	   78.2069	     14.45	       2.4	1.49643e+08	   78.0226	     14.45	       2.4	1.50329e+08	   78.0357	   14.6273	       2.4	2.85435e+07	   78.2126	   14.5496	       2.4	5.31493e+07	   78.1147	     14.45	       2.4	1.49936e+08	   78.0292	   14.5387	       2.4	6.43218e+07	    78.127	   14.6382	       2.4	3.73966e+07	
         R10	   2072	   78.4173	   14.6624	       2.4	5.67939e+07	   78.4076	     14.45	       2.4	1.47535e+08	   78.2069	     14.45	       2.4	1.49217e+08	   78.2183	   14.6491	       2.4	4.75082e+07	   78.4125	   14.5562	       2.4	4.71883e+07	   78.3073	     14.45	       2.4	1.48342e+08	   78.2126	   14.5496	       2.4	5.29012e+07	   78.3178	   14.6557	       2.4	5.21191e+07	
         R10	   2073	    78.625	   14.6726	       2.4	6.34864e+07	    78.625	     14.45	       2.4	1.46999e+08	   78.4076	     14.45	       2.4	1.47651e+08	   78.4173	   14.6624	       2.4	 5.7028e+07	    78.625	   14.5613	       2.4	4.36749e+07	   78.5163	     14.45	       2.4	1.47272e+08	   78.4125	   14.5562	       2.4	4.74111e+07	   78.5211	   14.6675	       2.4	6.02352e+07	
         R10	   2074	    78.625	   14.8885	       2.4	1.09901e+08	    78.625	   14.6726	       2.4	6.57523e+07	   78.4173	   14.6624	       2.4	5.80583e+07	   78.4138	   14.8738	       2.4	1.14697e+08	    78.625	   14.7806	       2.4	8.78057e+07	   78.5211	   14.6675	       2.4	6.16039e+07	   78.4155	   14.7681	       2.4	8.59424e+07	   78.5194	   14.8811	       2.4	1.12285e+08	
         R10	   2075	   78.4205	   15.0834	       2.4	3.31711e+07	    78.625	   15.0976	       2.4	3.09807e+07	    78.625	   14.8885	       2.4	1.15365e+08	   78.4138	   14.8738	       2.4	1.12361e+08	   78.5228	   15.0905	       2.4	3.10185e+07	    78.625	   14.9931	       2.4	6.90273e+07	   78.5194	   14.8811	       2.4	1.13807e+08	   78.4172	   14.9786	       2.4	7.16546e+07	
         R10	   2076	   78.4205	      15.3	       2.4	2.11253e+08	    78.625	      15.3	       2.4	2.03364e+08	    78.625	   15.0976	       2.4	2.83698e+07	   78.4205	   15.0834	       2.4	4.16505e+07	   78.5228	      15.3	       2.4	2.07114e+08	    78.625	   15.1988	       2.4	9.70936e+07	   78.5228	   15.0905	       2.4	3.20444e+07	   78.4205	   15.1917	       2.4	9.08882e+07	
         R10	   2077	   78.2317	      15.3	       2.4	 2.0934e+08	   78.4205	      15.3	       2.4	2.10862e+08	   78.4205	   15.0834	       2.4	3.91452e+07	   78.2398	   15.0914	       2.4	3.05386e+07	   78.3261	      15.3	       2.4	2.10048e+08	   78.4205	   15.1917	       2.4	9.03199e+07	   78.3301	   15.0874	       2.4	3.45574e+07	   78.2357	   15.1957	       2.4	9.43343e+07	
         R10	   2078	   78.0696	   15.1218	       2.4	2.82454e+07	   78.0586	      15.3	       2.4	2.10217e+08	   78.2317	      15.3	       2.4	 2.1099e+08	   78.2398	   15.0914	       2.4	3.14945e+07	   78.0641	   15.2109	       2.4	1.10625e+08	   78.1452	      15.3	       2.4	2.10592e+08	   78.2357	   15.1957	       2.4	9.53121e+07	   78.1547	   15.1066	       2.4	2.52576e+07	
         R10	   2079	   77.9102	   15.1444	       2.4	 3.5713e+07	   77.9013	      15.3	       2.4	 2.0817e+08	   78.0586	      15.3	       2.4	2.09293e+08	   78.0696	   15.1218	       2.4	1.94315e+07	   77.9057	   15.2222	       2.4	1.17829e+08	     77.98	      15.3	       2.4	2.08677e+08	   78.0641	   15.2109	       2.4	1.08672e+08	   77.9899	   15.1331	       2.4	2.48279e+07	
         R10	   2080	   77.7716	   15.1587	       2.4	4.18019e+07	   77.7596	      15.3	       2.4	2.11195e+08	   77.9013	      15.3	       2.4	2.09638e+08	   77.9102	   15.1444	       2.4	3.51138e+07	   77.7656	   15.2294	       2.4	1.24523e+08	   77.8304	      15.3	       2.4	2.10361e+08	   77.9057	   15.2222	       2.4	1.19017e+08	   77.8409	   15.1516	       2.4	3.80915e+07	
         R10	   2081	   77.6539	   15.1867	       2.4	7.00392e+07	   77.6336	      15.3	       2.4	2.06488e+08	   77.7596	      15.3	       2.4	2.11942e+08	   77.7716	   15.1587	       2.4	4.07605e+07	   77.6438	   15.2434	       2.4	1.37646e+08	   77.6966	      15.3	       2.4	2.09197e+08	   77.7656	   15.2294	       2.4	1.23954e+08	   77.7128	   15.1727	       2.4	5.44276e+07	
         R10	   2082	   77.5287	   15.1863	       2.4	7.01445e+07	   77.5234	      15.3	       2.4	2.02784e+08	   77.6336	      15.3	       2.4	2.07537e+08	   77.6539	   15.1867	       2.4	7.37528e+07	    77.526	   15.2432	       2.4	1.35704e+08	   77.5785	      15.3	       2.4	2.05149e+08	   77.6438	   15.2434	       2.4	1.39544e+08	   77.5913	   15.1865	       2.4	7.18434e+07	
         R10	   2083	   77.4291	   15.2228	       2.4	1.08522e+08	   77.4288	      15.3	       2.4	2.03662e+08	   77.5234	      15.3	       2.4	2.04443e+08	   77.5287	   15.1863	       2.4	6.71798e+07	    77.429	   15.2614	       2.4	1.54918e+08	   77.4761	      15.3	       2.4	2.03972e+08	    77.526	   15.2432	       2.4	1.35803e+08	   77.4789	   15.2046	       2.4	8.73096e+07	
         R10	   2084	     77.35	    15.219	       2.4	9.47554e+07	     77.35	      15.3	       2.4	2.01248e+08	   77.4288	      15.3	       2.4	  2.013e+08	   77.4291	   15.2228	       2.4	1.06424e+08	     77.35	   15.2595	       2.4	1.47756e+08	   77.3894	      15.3	       2.4	 2.0127e+08	    77.429	   15.2614	       2.4	1.53673e+08	   77.3895	   15.2209	       2.4	1.00585e+08	
         R10	   2085	     77.35	   15.1346	       2.4	2.54385e+07	     77.35	    15.219	       2.4	9.48533e+07	   77.4291	   15.2228	       2.4	1.01524e+08	   77.4489	   15.1257	       2.4	2.21069e+07	     77.35	   15.1768	       2.4	5.58935e+07	   77.3895	   15.2209	       2.4	9.81877e+07	    77.439	   15.1742	       2.4	5.44366e+07	   77.3994	   15.1301	       2.4	2.33229e+07	
         R10	   2086	   77.4697	    15.051	       2.4	5.84065e+07	     77.35	   15.0468	       2.4	6.41308e+07	     77.35	   15.1346	       2.4	2.74832e+07	   77.4489	   15.1257	       2.4	2.64014e+07	   77.4099	   15.0489	       2.4	6.12443e+07	     77.35	   15.0907	       2.4	 3.7467e+07	   77.3994	   15.1301	       2.4	2.60683e+07	   77.4593	   15.0883	       2.4	3.36461e+07	
         R10	   2087	   77.4662	   14.9585	       2.4	9.73342e+07	     77.35	   14.9557	       2.4	9.96969e+07	     77.35	   15.0468	       2.4	6.20483e+07	   77.4697	    15.051	       2.4	5.72298e+07	   77.4081	   14.9571	       2.4	9.84908e+07	     77.35	   15.0013	       2.4	  8.053e+07	   77.4099	   15.0489	       2.4	5.95756e+07	    77.468	   15.0047	       2.4	7.68638e+07	
         R10	   2088	   77.4524	   14.8633	       2.4	1.14481e+08	     77.35	   14.8613	       2.4	 1.1455e+08	     77.35	   14.9557	       2.4	1.00977e+08	   77.4662	   14.9585	       2.4	9.71194e+07	   77.4012	   14.8623	       2.4	1.14515e+08	     77.35	   14.9085	       2.4	1.07664e+08	   77.4081	   14.9571	       2.4	9.90269e+07	   77.4593	   14.9109	       2.4	1.05718e+08	
         R10	   2089	   77.4446	   14.7637	       2.4	  9.981e+07	     77.35	   14.7635	       2.4	1.00087e+08	     77.35	   14.8613	       2.4	1.14367e+08	   77.4524	   14.8633	       2.4	1.13083e+08	   77.3973	   14.7636	       2.4	9.98999e+07	     77.35	   14.8124	       2.4	1.06841e+08	   77.4012	   14.8623	       2.4	1.13721e+08	   77.4485	   14.8135	       2.4	1.06204e+08	
         R10	   2090	   77.4534	   14.6617	       2.4	5.68115e+07	     77.35	   14.6624	       2.4	5.88984e+07	     77.35	   14.7635	       2.4	9.99065e+07	   77.4446	   14.7637	       2.4	9.86035e+07	   77.4017	    14.662	       2.4	5.78436e+07	     77.35	   14.7129	       2.4	7.76554e+07	   77.3973	   14.7636	       2.4	9.92323e+07	    77.449	   14.7127	       2.4	7.59719e+07	
         R10	   2091	   77.4617	   14.5595	       2.4	4.07772e+07	   77.4514	     14.45	       2.4	1.64326e+08	     77.35	     14.45	       2.4	1.66837e+08	     77.35	   14.5579	       2.4	4.13228e+07	   77.4566	   14.5048	       2.4	9.84577e+07	   77.4007	     14.45	       2.4	1.65567e+08	     77.35	   14.5039	       2.4	9.94908e+07	   77.4059	   14.5587	       2.4	4.10416e+07	
         R10	   2092	   77.6869	   14.7465	       2.4	9.36242e+07	   77.7159	   14.5925	       2.4	2.65878e+07	   77.5823	   14.5733	       2.4	4.86952e+07	   77.5664	   14.6825	       2.4	6.99839e+07	   77.7014	   14.6695	       2.4	5.26488e+07	   77.6491	   14.5829	       2.4	3.60185e+07	   77.5743	   14.6279	       2.4	3.21203e+07	   77.6266	   14.7145	       2.4	 8.1303e+07	
         R10	   2093	   77.8458	   14.7537	       2.4	9.79206e+07	   77.8637	   14.6072	       2.4	2.57409e+07	   77.7159	   14.5925	       2.4	2.56125e+07	   77.6869	   14.7465	       2.4	9.19653e+07	   77.8548	   14.6805	       2.4	5.36459e+07	   77.7898	   14.5999	       2.4	 2.5559e+07	   77.7014	   14.6695	       2.4	4.91705e+07	   77.7664	   14.7501	       2.4	9.49031e+07	
         R10	   2094	   78.0041	   14.7897	       2.4	1.02231e+08	   78.0357	   14.6273	       2.4	4.06113e+07	   77.8637	   14.6072	       2.4	3.07255e+07	   77.8458	   14.7537	       2.4	9.76382e+07	   78.0199	   14.7085	       2.4	6.90553e+07	   77.9497	   14.6173	       2.4	3.30013e+07	   77.8548	   14.6805	       2.4	5.41808e+07	    77.925	   14.7717	       2.4	9.98374e+07	
         R10	   2095	   78.1953	   14.8716	       2.4	1.22116e+08	   78.2183	   14.6491	       2.4	5.13983e+07	   78.0357	   14.6273	       2.4	4.60689e+07	   78.0041	   14.7897	       2.4	1.02945e+08	   78.2068	   14.7603	       2.4	8.66031e+07	    78.127	   14.6382	       2.4	4.76536e+07	   78.0199	   14.7085	       2.4	 7.0014e+07	   78.0997	   14.8306	       2.4	1.11762e+08	
         R10	   2096	   78.4138	   14.8738	       2.4	1.15168e+08	   78.4173	   14.6624	       2.4	5.71644e+07	   78.2183	   14.6491	       2.4	4.88088e+07	   78.1953	   14.8716	       2.4	1.20085e+08	   78.4155	   14.7681	       2.4	8.59776e+07	   78.3178	   14.6557	       2.4	5.28782e+07	   78.2068	   14.7603	       2.4	8.38281e+07	   78.3046	   14.8727	       2.4	1.17621e+08	
         R10	   2097	   78.2398	   15.0914	       2.4	 3.5714e+07	   78.4205	   15.0834	       2.4	3.66845e+07	   78.4138	   14.8738	       2.4	1.12252e+08	   78.1953	   14.8716	       2.4	1.09566e+08	   78.3301	   15.0874	       2.4	3.49387e+07	   78.4172	   14.9786	       2.4	 7.1556e+07	   78.3046	   14.8727	       2.4	1.10877e+08	   78.2176	   14.9815	       2.4	 7.1389e+07	
         R10	   2098	   78.0552	   14.9869	       2.4	8.69142e+07	   78.0696	   15.1218	       2.4	3.55303e+07	   78.2398	   15.0914	       2.4	3.87882e+07	   78.1953	   14.8716	       2.4	1.12931e+08	   78.0624	   15.0543	       2.4	5.00445e+07	   78.1547	   15.1066	       2.4	3.43534e+07	   78.2176	   14.9815	       2.4	7.47703e+07	   78.1253	   14.9292	       2.4	9.86482e+07	
         R10	   2099	    77.915	   14.9645	       2.4	9.21084e+07	   77.9102	   15.1444	       2.4	 3.1092e+07	   78.0696	   15.1218	       2.4	2.40509e+07	   78.0552	   14.9869	       2.4	8.94921e+07	   77.9126	   15.0545	       2.4	3.86134e+07	   77.9899	   15.1331	       2.4	2.44394e+07	   78.0624	   15.0543	       2.4	4.41421e+07	   77.9851	   14.9757	       2.4	8.94177e+07	
         R10	   2100	    77.746	   15.0322	       2.4	6.41083e+07	   77.7716	   15.1587	       2.4	4.18456e+07	   77.9102	   15.1444	       2.4	3.56107e+07	    77.915	   14.9645	       2.4	 9.6979e+07	   77.7588	   15.0955	       2.4	2.55032e+07	   77.8409	   15.1516	       2.4	3.79079e+07	   77.9126	   15.0545	       2.4	4.54295e+07	   77.8305	   14.9984	       2.4	 8.0478e+07	
         R10	   2101	   77.6009	   15.0587	       2.4	4.24637e+07	   77.6539	   15.1867	       2.4	6.01339e+07	   77.7716	   15.1587	       2.4	4.27668e+07	    77.746	   15.0322	       2.4	6.71701e+07	   77.6274	   15.1227	       2.4	2.29566e+07	   77.7128	   15.1727	       2.4	5.11452e+07	   77.7588	   15.0955	       2.4	2.40626e+07	   77.6734	   15.0454	       2.4	5.37326e+07	
         R10	   2102	   77.5666	   14.8371	       2.4	1.14434e+08	   77.4524	   14.8633	       2.4	1.12019e+08	   77.4662	   14.9585	       2.4	9.90909e+07	   77.5896	   14.9381	       2.4	9.83696e+07	   77.5095	   14.8502	       2.4	 1.1318e+08	   77.4593	   14.9109	       2.4	1.05399e+08	   77.5279	   14.9483	       2.4	9.86082e+07	   77.5781	   14.8876	       2.4	1.06327e+08	
         R10	   2103	   77.4617	   14.5595	       2.4	 5.1425e+07	     77.35	   14.5579	       2.4	5.36809e+07	     77.35	   14.6624	       2.4	5.58979e+07	   77.4534	   14.6617	       2.4	5.42024e+07	   77.4059	   14.5587	       2.4	5.25371e+07	     77.35	   14.6101	       2.4	2.86451e+07	   77.4017	    14.662	       2.4	5.50409e+07	   77.4575	   14.6106	       2.4	2.60673e+07	
         R10	   2104	   77.5664	   14.6825	       2.4	6.93813e+07	   77.5823	   14.5733	       2.4	4.62449e+07	   77.4617	   14.5595	       2.4	5.19504e+07	   77.4534	   14.6617	       2.4	5.27947e+07	   77.5743	   14.6279	       2.4	3.00553e+07	    77.522	   14.5664	       2.4	4.87908e+07	   77.4575	   14.6106	       2.4	2.47153e+07	   77.5099	   14.6721	       2.4	6.09299e+07	
         R10	   2105	    77.915	   14.9645	       2.4	 1.0402e+08	   78.0552	   14.9869	       2.4	8.50844e+07	   78.1953	   14.8716	       2.4	9.38665e+07	   78.0041	   14.7897	       2.4	1.03878e+08	   77.9851	   14.9757	       2.4	9.41102e+07	   78.1253	   14.9292	       2.4	8.93893e+07	   78.0997	   14.8306	       2.4	9.86512e+07	   77.9596	   14.8771	       2.4	1.03816e+08	
         R10	   2106	    77.818	    14.869	       2.4	1.12471e+08	    77.915	   14.9645	       2.4	1.01185e+08	   78.0041	   14.7897	       2.4	 1.0481e+08	   77.8458	   14.7537	       2.4	9.64342e+07	   77.8665	   14.9168	       2.4	1.04637e+08	   77.9596	   14.8771	       2.4	1.02867e+08	    77.925	   14.7717	       2.4	1.00563e+08	   77.8319	   14.8113	       2.4	1.03002e+08	
         R10	   2107	   77.7082	   14.9019	       2.4	1.09605e+08	    77.746	   15.0322	       2.4	5.84661e+07	    77.915	   14.9645	       2.4	8.61558e+07	    77.818	    14.869	       2.4	1.14017e+08	   77.7271	   14.9671	       2.4	8.35751e+07	   77.8305	   14.9984	       2.4	7.22547e+07	   77.8665	   14.9168	       2.4	9.89884e+07	   77.7631	   14.8854	       2.4	1.11599e+08	
         R10	   2108	   77.4697	    15.051	       2.4	5.69442e+07	   77.4489	   15.1257	       2.4	2.82672e+07	   77.5287	   15.1863	       2.4	5.56567e+07	   77.6009	   15.0587	       2.4	4.25485e+07	   77.4593	   15.0883	       2.4	2.56955e+07	   77.4888	    15.156	       2.4	4.01415e+07	   77.5648	   15.1225	       2.4	2.89826e+07	   77.5353	   15.0548	       2.4	4.64714e+07	
         R10	   2109	   77.5896	   14.9381	       2.4	1.02628e+08	   77.4662	   14.9585	       2.4	1.02514e+08	   77.4697	    15.051	       2.4	5.69361e+07	   77.6009	   15.0587	       2.4	6.17095e+07	   77.5279	   14.9483	       2.4	1.02388e+08	    77.468	   15.0047	       2.4	7.90844e+07	   77.5353	   15.0548	       2.4	 5.7813e+07	   77.5953	   14.9984	       2.4	8.05357e+07	
         R10	   2110	   77.7082	   14.9019	       2.4	1.11283e+08	    77.818	    14.869	       2.4	1.17059e+08	   77.8458	   14.7537	       2.4	9.19862e+07	   77.6869	   14.7465	       2.4	9.52542e+07	   77.7631	   14.8854	       2.4	1.14033e+08	   77.8319	   14.8113	       2.4	1.03507e+08	   77.7664	   14.7501	       2.4	9.35585e+07	   77.6976	   14.8242	       2.4	1.02954e+08	
         R10	   2111	   77.5896	   14.9381	       2.4	1.04618e+08	   77.6009	   15.0587	       2.4	  5.218e+07	    77.746	   15.0322	       2.4	6.46201e+07	   77.7082	   14.9019	       2.4	1.11324e+08	   77.5953	   14.9984	       2.4	 7.8085e+07	   77.6734	   15.0454	       2.4	5.80492e+07	   77.7271	   14.9671	       2.4	8.73997e+07	   77.6489	     14.92	       2.4	  1.078e+08	
         R10	   2112	   77.5666	   14.8371	       2.4	1.10772e+08	   77.5896	   14.9381	       2.4	1.05677e+08	   77.7082	   14.9019	       2.4	1.13956e+08	   77.6869	   14.7465	       2.4	9.92409e+07	   77.5781	   14.8876	       2.4	1.07725e+08	   77.6489	     14.92	       2.4	1.09671e+08	   77.6976	   14.8242	       2.4	1.06056e+08	   77.6267	   14.7918	       2.4	1.04074e+08	
         R10	   2113	   77.5664	   14.6825	       2.4	6.05735e+07	   77.4534	   14.6617	       2.4	5.73221e+07	   77.4446	   14.7637	       2.4	9.65881e+07	   77.5316	   14.7645	       2.4	 1.1009e+08	   77.5099	   14.6721	       2.4	5.89163e+07	    77.449	   14.7127	       2.4	7.54975e+07	   77.4881	   14.7641	       2.4	 1.0306e+08	    77.549	   14.7235	       2.4	8.20622e+07	
         R10	   2114	   77.5666	   14.8371	       2.4	1.09267e+08	   77.6869	   14.7465	       2.4	9.13025e+07	   77.5664	   14.6825	       2.4	6.71124e+07	   77.5316	   14.7645	       2.4	9.69468e+07	   77.6267	   14.7918	       2.4	9.91968e+07	   77.6266	   14.7145	       2.4	 7.8955e+07	    77.549	   14.7235	       2.4	7.93844e+07	   77.5491	   14.8008	       2.4	 1.0291e+08	
         R10	   2115	   77.4446	   14.7637	       2.4	1.02443e+08	   77.4524	   14.8633	       2.4	1.12784e+08	   77.5666	   14.8371	       2.4	1.14068e+08	   77.5316	   14.7645	       2.4	9.09472e+07	   77.4485	   14.8135	       2.4	 1.0724e+08	   77.5095	   14.8502	       2.4	1.13294e+08	   77.5491	   14.8008	       2.4	1.02419e+08	   77.4881	   14.7641	       2.4	9.65413e+07	
         R10	   2116	   77.4489	   15.1257	       2.4	2.31034e+07	   77.4291	   15.2228	       2.4	1.04039e+08	   77.5287	   15.1863	       2.4	4.77208e+07	    77.439	   15.1742	       2.4	 5.7828e+07	   77.4789	   15.2046	       2.4	7.53801e+07	   77.4888	    15.156	       2.4	2.86927e+07	       N/A	       N/A	       N/A	        N/A	       N/A	       N/A	       N/A	        N/A	
         R10	   2117	   77.5287	   15.1863	       2.4	5.26276e+07	   77.6539	   15.1867	       2.4	6.01921e+07	   77.6009	   15.0587	       2.4	4.79801e+07	   77.5913	   15.1865	       2.4	5.63658e+07	   77.6274	   15.1227	       2.4	2.74051e+07	   77.5648	   15.1225	       2.4	2.46234e+07	       N/A	       N/A	       N/A	        N/A	       N/A	       N/A	       N/A	        N/A	
         R10	   2118	   75.8605	   14.5518	       2.4	4.43263e+07	   75.8624	     14.45	       2.4	1.62981e+08	   75.7579	     14.45	       2.4	1.65852e+08	   75.7569	   14.5556	       2.4	 4.2147e+07	   75.8614	   14.5009	       2.4	9.84222e+07	   75.8101	     14.45	       2.4	1.64379e+08	   75.7574	   14.5028	       2.4	9.93064e+07	   75.8087	   14.5537	       2.4	4.32256e+07	
         R10	   2119	   75.9624	    14.547	       2.4	4.43225e+07	   75.9635	     14.45	       2.4	1.57699e+08	   75.8624	     14.45	       2.4	 1.6329e+08	   75.8605	   14.5518	       2.4	4.38172e+07	    75.963	   14.4985	       2.4	9.57609e+07	   75.9129	     14.45	       2.4	1.60413e+08	   75.8614	   14.5009	       2.4	9.89115e+07	   75.9115	   14.5494	       2.4	4.40505e+07	
         R10	   2120	   76.0607	   14.5438	       2.4	4.22936e+07	   76.0613	     14.45	       2.4	1.46806e+08	   75.9635	     14.45	       2.4	1.57803e+08	   75.9624	    14.547	       2.4	4.47524e+07	    76.061	   14.4969	       2.4	 8.8837e+07	   76.0124	     14.45	       2.4	1.52168e+08	    75.963	   14.4985	       2.4	9.61304e+07	   76.0116	   14.5454	       2.4	4.33599e+07	
         R10	   2121	   76.1548	    14.541	       2.4	4.04312e+07	   76.1557	     14.45	       2.4	1.30239e+08	   76.0613	     14.45	       2.4	1.47116e+08	   76.0607	   14.5438	       2.4	4.24345e+07	   76.1553	   14.4955	       2.4	7.92147e+07	   76.1085	     14.45	       2.4	1.38352e+08	    76.061	   14.4969	       2.4	8.92067e+07	   76.1077	   14.5424	       2.4	4.11175e+07	
         R10	   2122	   76.2458	   14.5373	       2.4	3.99826e+07	   76.2468	     14.45	       2.4	1.09729e+08	   76.1557	     14.45	       2.4	  1.304e+08	   76.1548	    14.541	       2.4	4.00651e+07	   76.2463	   14.4937	       2.4	6.87166e+07	   76.2013	     14.45	       2.4	1.19207e+08	   76.1553	   14.4955	       2.4	7.93462e+07	   76.2003	   14.5392	       2.4	3.95778e+07	
         R10	   2123	   76.3339	   14.5342	       2.4	4.72443e+07	   76.3346	     14.45	       2.4	9.49779e+07	   76.2468	     14.45	       2.4	1.09557e+08	   76.2458	   14.5373	       2.4	4.02635e+07	   76.3343	   14.4921	       2.4	6.46437e+07	   76.2907	     14.45	       2.4	1.00291e+08	   76.2463	   14.4937	       2.4	 6.8921e+07	   76.2899	   14.5358	       2.4	4.30347e+07	
         R10	   2124	    76.418	   14.5316	       2.4	5.81059e+07	    76.419	     14.45	       2.4	1.27865e+08	   76.3346	     14.45	       2.4	1.01677e+08	   76.3339	   14.5342	       2.4	 4.7657e+07	   76.4185	   14.4908	       2.4	 6.3496e+07	   76.3768	     14.45	       2.4	1.09352e+08	   76.3343	   14.4921	       2.4	6.87262e+07	    76.376	   14.5329	       2.4	4.54405e+07	
         R10	   2125	      76.5	   14.5298	       2.4	1.14962e+08	      76.5	     14.45	       2.4	1.00908e+08	    76.419	     14.45	       2.4	1.26435e+08	    76.418	   14.5316	       2.4	7.73905e+07	      76.5	   14.4899	       2.4	1.68109e+07	   76.4595	     14.45	       2.4	1.00934e+08	   76.4185	   14.4908	       2.4	 7.2106e+07	    76.459	   14.5307	       2.4	6.36805e+07	
         R10	   2126	      76.5	   14.6048	       2.4	6.00447e+07	      76.5	   14.5298	       2.4	7.47632e+07	    76.418	   14.5316	       2.4	 9.9893e+07	   76.4202	   14.6093	       2.4	2.60311e+07	      76.5	   14.5673	       2.4	6.59752e+07	    76.459	   14.5307	       2.4	1.47745e+07	   76.4191	   14.5705	       2.4	4.31969e+07	   76.4601	   14.6071	       2.4	3.85349e+07	
         R10	   2127	   76.4282	   14.6747	       2.4	3.33739e+07	      76.5	   14.6749	       2.4	8.29811e+07	      76.5	   14.6048	       2.4	 5.4796e+07	   76.4202	   14.6093	       2.4	2.62128e+07	   76.4641	   14.6748	       2.4	5.55866e+07	      76.5	   14.6398	       2.4	6.86107e+07	   76.4601	   14.6071	       2.4	2.58633e+07	   76.4242	    14.642	       2.4	2.07946e+07	
         R10	   2128	    76.436	   14.7385	       2.4	4.92694e+07	      76.5	   14.7403	       2.4	1.04571e+08	      76.5	   14.6749	       2.4	8.17476e+07	   76.4282	   14.6747	       2.4	3.30877e+07	    76.468	   14.7394	       2.4	7.55477e+07	      76.5	   14.7076	       2.4	9.30939e+07	   76.4641	   14.6748	       2.4	 5.2078e+07	   76.4321	   14.7066	       2.4	3.88488e+07	
         R10	   2129	   76.4423	   14.7999	       2.4	6.25609e+07	      76.5	   14.8009	       2.4	1.17612e+08	      76.5	   14.7403	       2.4	1.03168e+08	    76.436	   14.7385	       2.4	4.76258e+07	   76.4712	   14.8004	       2.4	8.90862e+07	      76.5	   14.7706	       2.4	1.10385e+08	    76.468	   14.7394	       2.4	7.36374e+07	   76.4392	   14.7692	       2.4	5.47365e+07	
         R10	   2130	   76.4465	   14.8556	       2.4	7.15702e+07	      76.5	   14.8567	       2.4	1.23164e+08	      76.5	   14.8009	       2.4	1.17006e+08	   76.4423	   14.7999	       2.4	6.18555e+07	   76.4732	   14.8561	       2.4	9.64166e+07	      76.5	   14.8288	       2.4	1.20079e+08	   76.4712	   14.8004	       2.4	8.83625e+07	   76.4444	   14.8277	       2.4	6.65744e+07	
         R10	   2131	    76.451	   14.9065	       2.4	7.73198e+07	      76.5	   14.9076	       2.4	1.22251e+08	      76.5	   14.8567	       2.4	1.22827e+08	   76.4465	   14.8556	       2.4	7.11421e+07	   76.4755	   14.9071	       2.4	9.87709e+07	      76.5	   14.8821	       2.4	1.22527e+08	   76.4732	   14.8561	       2.4	9.60328e+07	   76.4487	    14.881	       2.4	7.41783e+07	
         R10	   2132	   76.4561	   14.9524	       2.4	8.03606e+07	      76.5	   14.9538	       2.4	1.16546e+08	      76.5	   14.9076	       2.4	 1.2202e+08	    76.451	   14.9065	       2.4	 7.7069e+07	   76.4781	   14.9531	       2.4	  9.739e+07	      76.5	   14.9307	       2.4	1.19255e+08	   76.4755	   14.9071	       2.4	9.85292e+07	   76.4536	   14.9294	       2.4	7.86873e+07	
         R10	   2133	   76.4616	   14.9937	       2.4	8.08777e+07	      76.5	   14.9952	       2.4	1.07987e+08	      76.5	   14.9538	       2.4	1.16349e+08	   76.4561	   14.9524	       2.4	8.02445e+07	   76.4808	   14.9944	       2.4	9.34199e+07	      76.5	   14.9745	       2.4	1.12115e+08	   76.4781	   14.9531	       2.4	 9.7217e+07	   76.4589	    14.973	       2.4	8.05406e+07	
         R10	   2134	   76.4668	   15.0305	       2.4	7.93067e+07	      76.5	   15.0317	       2.4	9.81342e+07	      76.5	   14.9952	       2.4	1.07861e+08	   76.4616	   14.9937	       2.4	8.08217e+07	   76.4834	   15.0311	       2.4	8.78176e+07	      76.5	   15.0135	       2.4	1.02912e+08	   76.4808	   14.9944	       2.4	9.33174e+07	   76.4642	   15.0121	       2.4	8.00273e+07	
         R10	   2135	   76.4713	   15.0623	       2.4	7.67342e+07	      76.5	   15.0635	       2.4	8.85605e+07	      76.5	   15.0317	       2.4	9.80593e+07	   76.4668	   15.0305	       2.4	7.92154e+07	   76.4856	   15.0629	       2.4	8.18983e+07	      76.5	   15.0476	       2.4	9.31866e+07	   76.4834	   15.0311	       2.4	8.77376e+07	    76.469	   15.0464	       2.4	7.79144e+07	
         R10	   2136	   76.4753	   15.0894	       2.4	7.37563e+07	      76.5	   15.0905	       2.4	 8.0566e+07	      76.5	   15.0635	       2.4	 8.8495e+07	   76.4713	   15.0623	       2.4	7.67193e+07	   76.4877	   15.0899	       2.4	7.65844e+07	      76.5	    15.077	       2.4	8.43744e+07	   76.4856	   15.0629	       2.4	8.18488e+07	   76.4733	   15.0758	       2.4	7.51563e+07	
         R10	   2137	   76.4778	   15.1118	       2.4	7.16775e+07	      76.5	   15.1126	       2.4	7.46042e+07	      76.5	   15.0905	       2.4	8.06358e+07	   76.4753	   15.0894	       2.4	7.37099e+07	   76.4889	   15.1122	       2.4	7.27023e+07	      76.5	   15.1016	       2.4	7.74432e+07	   76.4877	   15.0899	       2.4	7.66032e+07	   76.4766	   15.1006	       2.4	7.25948e+07	
         R10	   2138	    76.483	     15.13	       2.4	7.03505e+07	      76.5	     15.13	       2.4	7.11151e+07	      76.5	   15.1126	       2.4	7.46014e+07	   76.4778	   15.1118	       2.4	 7.1461e+07	   76.4915	     15.13	       2.4	 7.0461e+07	      76.5	   15.1213	       2.4	7.27146e+07	   76.4889	   15.1122	       2.4	7.26055e+07	   76.4804	   15.1209	       2.4	7.08295e+07	
         R10	   2139	   76.4322	   15.1124	       2.4	6.98223e+07	    76.432	     15.13	       2.4	6.91928e+07	    76.449	     15.13	       2.4	7.00463e+07	   76.4519	   15.1123	       2.4	7.02714e+07	   76.4321	   15.1212	       2.4	6.94852e+07	   76.4405	     15.13	       2.4	6.95592e+07	   76.4504	   15.1211	       2.4	7.00981e+07	    76.442	   15.1124	       2.4	6.99091e+07	
         R10	   2140	   76.4152	   15.1121	       2.4	6.88544e+07	    76.415	     15.13	       2.4	6.78316e+07	    76.432	     15.13	       2.4	6.91361e+07	   76.4322	   15.1124	       2.4	6.96652e+07	   76.4151	   15.1211	       2.4	6.83326e+07	   76.4235	     15.13	       2.4	6.84307e+07	   76.4321	   15.1212	       2.4	6.93793e+07	   76.4237	   15.1123	       2.4	6.91922e+07	
         R10	   2141	   76.3991	   15.1133	       2.4	6.77781e+07	    76.398	     15.13	       2.4	6.62269e+07	    76.415	     15.13	       2.4	6.77597e+07	   76.4152	   15.1121	       2.4	6.89447e+07	   76.3985	   15.1217	       2.4	6.69978e+07	   76.4065	     15.13	       2.4	6.69451e+07	   76.4151	   15.1211	       2.4	6.83394e+07	   76.4072	   15.1127	       2.4	6.83037e+07	
         R10	   2142	   76.3812	   15.1108	       2.4	6.70429e+07	    76.381	     15.13	       2.4	6.44511e+07	    76.398	     15.13	       2.4	6.61842e+07	   76.3991	   15.1133	       2.4	6.79221e+07	   76.3811	   15.1204	       2.4	6.57456e+07	   76.3895	     15.13	       2.4	6.52686e+07	   76.3985	   15.1217	       2.4	6.70469e+07	   76.3901	   15.1121	       2.4	6.74253e+07	
         R10	   2143	   76.3644	   15.1138	       2.4	6.57425e+07	    76.364	     15.13	       2.4	6.28395e+07	    76.381	     15.13	       2.4	 6.4463e+07	   76.3812	   15.1108	       2.4	6.70487e+07	   76.3642	   15.1219	       2.4	6.42901e+07	   76.3725	     15.13	       2.4	6.36063e+07	   76.3811	   15.1204	       2.4	6.57535e+07	   76.3728	   15.1123	       2.4	6.63446e+07	
         R10	   2144	   76.3467	   15.1123	       2.4	6.49864e+07	    76.347	     15.13	       2.4	6.14517e+07	    76.364	     15.13	       2.4	6.28154e+07	   76.3644	   15.1138	       2.4	6.56519e+07	   76.3469	   15.1211	       2.4	6.32167e+07	   76.3555	     15.13	       2.4	6.20905e+07	   76.3642	   15.1219	       2.4	6.42328e+07	   76.3556	    15.113	       2.4	6.52779e+07	
         R10	   2145	   76.3303	   15.1113	       2.4	6.44465e+07	     76.33	     15.13	       2.4	 6.0306e+07	    76.347	     15.13	       2.4	6.14148e+07	   76.3467	   15.1123	       2.4	6.49795e+07	   76.3301	   15.1207	       2.4	6.23686e+07	   76.3385	     15.13	       2.4	6.08215e+07	   76.3469	   15.1211	       2.4	 6.3195e+07	   76.3385	   15.1118	       2.4	6.46832e+07	
         R10	   2146	   76.3136	   15.1461	       2.4	5.47526e+07	     76.33	    15.147	       2.4	5.53946e+07	     76.33	     15.13	       2.4	6.03614e+07	   76.3134	   15.1309	       2.4	5.89918e+07	   76.3218	   15.1466	       2.4	 5.5037e+07	     76.33	   15.1385	       2.4	5.78701e+07	   76.3217	   15.1304	       2.4	5.96453e+07	   76.3135	   15.1385	       2.4	5.68561e+07	
         R10	   2147	   76.3101	   15.1638	       2.4	 4.8201e+07	     76.33	    15.164	       2.4	4.95714e+07	     76.33	    15.147	       2.4	5.54463e+07	   76.3136	   15.1461	       2.4	5.46736e+07	   76.3201	   15.1639	       2.4	4.88087e+07	     76.33	   15.1555	       2.4	5.24954e+07	   76.3218	   15.1466	       2.4	5.50251e+07	   76.3119	    15.155	       2.4	5.13872e+07	
         R10	   2148	   76.3128	   15.1815	       2.4	4.14955e+07	     76.33	    15.181	       2.4	 4.2658e+07	     76.33	    15.164	       2.4	4.95562e+07	   76.3101	   15.1638	       2.4	4.83297e+07	   76.3214	   15.1812	       2.4	4.19992e+07	     76.33	   15.1725	       2.4	4.60763e+07	   76.3201	   15.1639	       2.4	4.88722e+07	   76.3115	   15.1727	       2.4	4.48632e+07	
         R10	   2149	   76.3124	   15.1981	       2.4	3.48361e+07	     76.33	    15.198	       2.4	3.48213e+07	     76.33	    15.181	       2.4	4.26206e+07	   76.3128	   15.1815	       2.4	4.13893e+07	   76.3212	   15.1981	       2.4	3.47074e+07	     76.33	   15.1895	       2.4	3.86529e+07	   76.3214	   15.1812	       2.4	4.19244e+07	   76.3126	   15.1898	       2.4	3.79875e+07	
         R10	   2150	   76.3132	    15.214	       2.4	2.88251e+07	     76.33	    15.215	       2.4	2.72893e+07	     76.33	    15.198	       2.4	3.48298e+07	   76.3124	   15.1981	       2.4	3.49711e+07	   76.3216	   15.2145	       2.4	2.79371e+07	     76.33	   15.2065	       2.4	3.08722e+07	   76.3212	   15.1981	       2.4	3.47861e+07	   76.3128	   15.2061	       2.4	3.16623e+07	
         R10	   2151	   76.3111	   15.2321	       2.4	2.58093e+07	     76.33	    15.232	       2.4	2.17429e+07	     76.33	    15.215	       2.4	 2.7192e+07	   76.3132	    15.214	       2.4	2.89725e+07	   76.3206	    15.232	       2.4	2.36206e+07	     76.33	   15.2235	       2.4	2.39477e+07	   76.3216	   15.2145	       2.4	2.79655e+07	   76.3122	    15.223	       2.4	2.66704e+07	
         R10	   2152	   76.3153	   15.2492	       2.4	2.64555e+07	     76.33	    15.249	       2.4	2.17802e+07	     76.33	    15.232	       2.4	 2.1763e+07	   76.3111	   15.2321	       2.4	2.58226e+07	   76.3227	   15.2491	       2.4	2.40861e+07	     76.33	   15.2405	       2.4	2.08533e+07	   76.3206	    15.232	       2.4	2.36231e+07	   76.3132	   15.2407	       2.4	2.55261e+07	
         R10	   2153	   76.3131	   15.2662	       2.4	3.50638e+07	     76.33	    15.266	       2.4	2.84003e+07	     76.33	    15.249	       2.4	2.18333e+07	   76.3153	   15.2492	       2.4	2.64434e+07	   76.3216	   15.2661	       2.4	3.17237e+07	     76.33	   15.2575	       2.4	2.44859e+07	   76.3227	   15.2491	       2.4	2.41111e+07	   76.3142	   15.2577	       2.4	3.02107e+07	
         R10	   2154	   76.3115	   15.2822	       2.4	4.49358e+07	     76.33	    15.283	       2.4	3.87968e+07	     76.33	    15.266	       2.4	2.84529e+07	   76.3131	   15.2662	       2.4	3.50083e+07	   76.3207	   15.2826	       2.4	 4.1849e+07	     76.33	   15.2745	       2.4	3.33202e+07	   76.3216	   15.2661	       2.4	3.17231e+07	   76.3123	   15.2742	       2.4	 3.9731e+07	
         R10	   2155	   76.3126	      15.3	       2.4	5.77413e+07	     76.33	      15.3	       2.4	5.03327e+07	     76.33	    15.283	       2.4	3.86876e+07	   76.3115	   15.2822	       2.4	 4.5299e+07	   76.3213	      15.3	       2.4	5.40351e+07	     76.33	   15.2915	       2.4	4.43469e+07	   76.3207	   15.2826	       2.4	4.19739e+07	   76.3121	   15.2911	       2.4	5.12735e+07	
         R10	   2156	   76.2889	    15.276	       2.4	4.97395e+07	   76.2905	      15.3	       2.4	6.71783e+07	   76.3126	      15.3	       2.4	5.78362e+07	   76.3115	   15.2822	       2.4	4.53293e+07	   76.2897	    15.288	       2.4	5.80533e+07	   76.3016	      15.3	       2.4	6.24981e+07	   76.3121	   15.2911	       2.4	5.13575e+07	   76.3002	   15.2791	       2.4	4.74948e+07	
         R10	   2157	   76.2623	   15.2713	       2.4	5.59627e+07	   76.2635	      15.3	       2.4	7.89913e+07	   76.2905	      15.3	       2.4	6.70752e+07	   76.2889	    15.276	       2.4	4.97029e+07	   76.2629	   15.2856	       2.4	6.69195e+07	    76.277	      15.3	       2.4	7.30273e+07	   76.2897	    15.288	       2.4	5.80057e+07	   76.2756	   15.2736	       2.4	5.28169e+07	
         R10	   2158	   76.2305	   15.2668	       2.4	6.34544e+07	   76.2317	      15.3	       2.4	9.22931e+07	   76.2635	      15.3	       2.4	7.88756e+07	   76.2623	   15.2713	       2.4	5.59439e+07	   76.2311	   15.2834	       2.4	7.72277e+07	   76.2476	      15.3	       2.4	8.55808e+07	   76.2629	   15.2856	       2.4	6.68975e+07	   76.2464	    15.269	       2.4	5.96937e+07	
         R10	   2159	   76.1937	   15.2616	       2.4	7.06304e+07	   76.1952	      15.3	       2.4	1.06898e+08	   76.2317	      15.3	       2.4	9.23141e+07	   76.2305	   15.2668	       2.4	 6.3521e+07	   76.1944	   15.2808	       2.4	8.80938e+07	   76.2135	      15.3	       2.4	9.96038e+07	   76.2311	   15.2834	       2.4	7.73023e+07	   76.2121	   15.2642	       2.4	 6.7074e+07	
         R10	   2160	   76.1524	   15.2561	       2.4	7.70916e+07	   76.1538	      15.3	       2.4	1.21736e+08	   76.1952	      15.3	       2.4	1.06811e+08	   76.1937	   15.2616	       2.4	7.06192e+07	   76.1531	   15.2781	       2.4	9.86832e+07	   76.1745	      15.3	       2.4	1.14273e+08	   76.1944	   15.2808	       2.4	8.80601e+07	    76.173	   15.2589	       2.4	 7.3855e+07	
         R10	   2161	   76.1065	    15.251	       2.4	8.28573e+07	   76.1076	      15.3	       2.4	1.36538e+08	   76.1538	      15.3	       2.4	1.21753e+08	   76.1524	   15.2561	       2.4	7.71382e+07	   76.1071	   15.2755	       2.4	1.09043e+08	   76.1307	      15.3	       2.4	1.29144e+08	   76.1531	   15.2781	       2.4	9.87506e+07	   76.1294	   15.2536	       2.4	7.99946e+07	
         R10	   2162	   76.0556	   15.2465	       2.4	8.82836e+07	   76.0567	      15.3	       2.4	1.50336e+08	   76.1076	      15.3	       2.4	1.36569e+08	   76.1065	    15.251	       2.4	8.29301e+07	   76.0561	   15.2732	       2.4	 1.1876e+08	   76.0821	      15.3	       2.4	1.43451e+08	   76.1071	   15.2755	       2.4	1.09115e+08	    76.081	   15.2487	       2.4	8.56001e+07	
         R10	   2163	   75.9999	   15.2423	       2.4	9.31026e+07	   76.0009	      15.3	       2.4	1.62749e+08	   76.0567	      15.3	       2.4	 1.5035e+08	   76.0556	   15.2465	       2.4	8.83082e+07	   76.0004	   15.2712	       2.4	1.27478e+08	   76.0288	      15.3	       2.4	1.56549e+08	   76.0561	   15.2732	       2.4	 1.1879e+08	   76.0277	   15.2444	       2.4	9.06972e+07	
         R10	   2164	   75.9388	   15.2374	       2.4	9.58851e+07	   75.9403	      15.3	       2.4	1.73621e+08	   76.0009	      15.3	       2.4	1.62766e+08	   75.9999	   15.2423	       2.4	9.31328e+07	   75.9396	   15.2687	       2.4	1.34347e+08	   75.9706	      15.3	       2.4	1.68193e+08	   76.0004	   15.2712	       2.4	1.27496e+08	   75.9693	   15.2398	       2.4	9.45037e+07	
         R10	   2165	   75.8736	   15.2317	       2.4	9.62386e+07	   75.8749	      15.3	       2.4	1.82302e+08	   75.9403	      15.3	       2.4	1.73588e+08	   75.9388	   15.2374	       2.4	9.58483e+07	   75.8743	   15.2658	       2.4	1.38862e+08	   75.9076	      15.3	       2.4	1.77945e+08	   75.9396	   15.2687	       2.4	1.34324e+08	   75.9062	   15.2345	       2.4	9.60408e+07	
         R10	   2166	   75.8037	   15.2268	       2.4	9.61635e+07	   75.8048	      15.3	       2.4	1.89471e+08	   75.8749	      15.3	       2.4	1.82247e+08	   75.8736	   15.2317	       2.4	9.62118e+07	   75.8042	   15.2634	       2.4	1.42455e+08	   75.8399	      15.3	       2.4	1.85859e+08	   75.8743	   15.2658	       2.4	1.38833e+08	   75.8386	   15.2293	       2.4	9.61845e+07	
         R10	   2167	   75.7283	   15.2221	       2.4	9.58685e+07	   75.7298	      15.3	       2.4	1.94297e+08	   75.8048	      15.3	       2.4	 1.8951e+08	   75.8037	   15.2268	       2.4	9.62864e+07	    75.729	   15.2611	       2.4	1.44807e+08	   75.7673	      15.3	       2.4	1.91901e+08	   75.8042	   15.2634	       2.4	1.42527e+08	    75.766	   15.2245	       2.4	9.60542e+07	
         R10	   2168	     75.65	    15.219	       2.4	9.52902e+07	     75.65	      15.3	       2.4	2.00382e+08	   75.7298	      15.3	       2.4	1.94502e+08	   75.7283	   15.2221	       2.4	9.60498e+07	     75.65	   15.2595	       2.4	1.47579e+08	   75.6899	      15.3	       2.4	1.97441e+08	    75.729	   15.2611	       2.4	1.44994e+08	   75.6891	   15.2206	       2.4	9.56688e+07	
         R10	   2169	     75.65	   15.1346	       2.4	2.65074e+07	     75.65	    15.219	       2.4	9.46242e+07	   75.7283	   15.2221	       2.4	  9.566e+07	   75.7318	   15.1407	       2.4	2.65361e+07	     75.65	   15.1768	       2.4	5.54877e+07	   75.6891	   15.2206	       2.4	9.51076e+07	     75.73	   15.1814	       2.4	5.63017e+07	   75.6909	   15.1376	       2.4	2.65206e+07	
         R10	   2170	   75.7377	   15.0479	       2.4	6.50007e+07	     75.65	   15.0468	       2.4	6.25072e+07	     75.65	   15.1346	       2.4	2.61103e+07	   75.7318	   15.1407	       2.4	2.79795e+07	   75.6938	   15.0474	       2.4	6.36995e+07	     75.65	   15.0907	       2.4	3.56096e+07	   75.6909	   15.1376	       2.4	2.69745e+07	   75.7347	   15.0943	       2.4	3.58861e+07	
         R10	   2171	   75.7416	   14.9563	       2.4	1.00303e+08	     75.65	   14.9557	       2.4	9.95335e+07	     75.65	   15.0468	       2.4	6.10213e+07	   75.7377	   15.0479	       2.4	6.45792e+07	   75.6958	    14.956	       2.4	9.99084e+07	     75.65	   15.0013	       2.4	8.00419e+07	   75.6938	   15.0474	       2.4	6.26971e+07	   75.7397	   15.0021	       2.4	8.20399e+07	
         R10	   2172	   75.7439	   14.8607	       2.4	1.13841e+08	     75.65	   14.8613	       2.4	1.13486e+08	     75.65	   14.9557	       2.4	1.01478e+08	   75.7416	   14.9563	       2.4	1.00842e+08	   75.6969	    14.861	       2.4	1.13628e+08	     75.65	   14.9085	       2.4	 1.0728e+08	   75.6958	    14.956	       2.4	1.01147e+08	   75.7428	   14.9085	       2.4	 1.0726e+08	
         R10	   2173	   75.7483	   14.7612	       2.4	1.00838e+08	     75.65	   14.7635	       2.4	9.73695e+07	     75.65	   14.8613	       2.4	1.13759e+08	   75.7439	   14.8607	       2.4	1.13929e+08	   75.6992	   14.7623	       2.4	9.90437e+07	     75.65	   14.8124	       2.4	 1.0544e+08	   75.6969	    14.861	       2.4	1.13809e+08	   75.7461	   14.8109	       2.4	1.06849e+08	
         R10	   2174	   75.7534	   14.6603	       2.4	5.92424e+07	     75.65	   14.6624	       2.4	5.81985e+07	     75.65	   14.7635	       2.4	 9.9901e+07	   75.7483	   14.7612	       2.4	9.85874e+07	   75.7017	   14.6613	       2.4	5.86834e+07	     75.65	   14.7129	       2.4	7.69419e+07	   75.6992	   14.7623	       2.4	9.92052e+07	   75.7509	   14.7107	       2.4	7.67011e+07	
         R10	   2175	   75.7569	   14.5556	       2.4	4.30381e+07	   75.7579	     14.45	       2.4	1.65552e+08	     75.65	     14.45	       2.4	1.65087e+08	     75.65	   14.5579	       2.4	4.18445e+07	   75.7574	   14.5028	       2.4	9.87225e+07	   75.7039	     14.45	       2.4	1.65296e+08	     75.65	   14.5039	       2.4	9.89196e+07	   75.7034	   14.5567	       2.4	4.24241e+07	
         R10	   2176	   75.9682	   14.6323	       2.4	4.49236e+07	   75.9624	    14.547	       2.4	7.14242e+07	   75.8605	   14.5518	       2.4	6.10575e+07	   75.8613	   14.6542	       2.4	5.30431e+07	   75.9653	   14.5896	       2.4	4.25162e+07	   75.9115	   14.5494	       2.4	6.61352e+07	   75.8609	    14.603	       2.4	3.57763e+07	   75.9148	   14.6433	       2.4	4.86912e+07	
         R10	   2177	   76.0641	   14.6318	       2.4	5.23757e+07	   76.0607	   14.5438	       2.4	7.47271e+07	   75.9624	    14.547	       2.4	7.17717e+07	   75.9682	   14.6323	       2.4	4.71437e+07	   76.0624	   14.5878	       2.4	5.15568e+07	   76.0116	   14.5454	       2.4	7.31671e+07	   75.9653	   14.5896	       2.4	4.29285e+07	   76.0161	   14.6321	       2.4	4.94376e+07	
         R10	   2178	   76.1574	   14.6279	       2.4	5.58203e+07	   76.1548	    14.541	       2.4	8.12916e+07	   76.0607	   14.5438	       2.4	7.56132e+07	   76.0641	   14.6318	       2.4	5.16314e+07	   76.1561	   14.5844	       2.4	6.03001e+07	   76.1077	   14.5424	       2.4	7.82586e+07	   76.0624	   14.5878	       2.4	5.17257e+07	   76.1108	   14.6299	       2.4	5.35886e+07	
         R10	   2179	   76.2482	   14.6172	       2.4	5.25492e+07	   76.2458	   14.5373	       2.4	8.96942e+07	   76.1548	    14.541	       2.4	8.23731e+07	   76.1574	   14.6279	       2.4	5.45803e+07	    76.247	   14.5773	       2.4	6.65063e+07	   76.2003	   14.5392	       2.4	8.58227e+07	   76.1561	   14.5844	       2.4	  6.039e+07	   76.2029	   14.6226	       2.4	5.34139e+07	
         R10	   2180	   76.3372	   14.6114	       2.4	3.98794e+07	   76.3339	   14.5342	       2.4	9.18967e+07	   76.2458	   14.5373	       2.4	9.09027e+07	   76.2482	   14.6172	       2.4	5.51312e+07	   76.3356	   14.5728	       2.4	6.31221e+07	   76.2899	   14.5358	       2.4	9.12827e+07	    76.247	   14.5773	       2.4	6.81298e+07	   76.2927	   14.6143	       2.4	4.74787e+07	
         R10	   2181	   76.4202	   14.6093	       2.4	2.48664e+07	    76.418	   14.5316	       2.4	   7.25e+07	   76.3339	   14.5342	       2.4	8.55075e+07	   76.3372	   14.6114	       2.4	 4.5322e+07	   76.4191	   14.5705	       2.4	3.64675e+07	    76.376	   14.5329	       2.4	7.89843e+07	   76.3356	   14.5728	       2.4	6.24682e+07	   76.3787	   14.6104	       2.4	3.01371e+07	
         R10	   2182	   76.4282	   14.6747	       2.4	3.21233e+07	   76.4202	   14.6093	       2.4	3.33052e+07	   76.3372	   14.6114	       2.4	7.07106e+07	   76.3411	   14.6834	       2.4	4.21517e+07	   76.4242	    14.642	       2.4	1.98768e+07	   76.3787	   14.6104	       2.4	5.17455e+07	   76.3391	   14.6474	       2.4	5.39772e+07	   76.3846	   14.6791	       2.4	2.81508e+07	
         R10	   2183	   76.3828	   14.7456	       2.4	3.87682e+07	    76.436	   14.7385	       2.4	4.95983e+07	   76.4282	   14.6747	       2.4	3.34337e+07	   76.3411	   14.6834	       2.4	5.00929e+07	   76.4094	    14.742	       2.4	4.00817e+07	   76.4321	   14.7066	       2.4	3.88191e+07	   76.3846	   14.6791	       2.4	3.63744e+07	   76.3619	   14.7145	       2.4	4.03032e+07	
         R10	   2184	   76.3868	   14.8052	       2.4	4.35007e+07	   76.4423	   14.7999	       2.4	6.30866e+07	    76.436	   14.7385	       2.4	4.78309e+07	   76.3828	   14.7456	       2.4	3.72761e+07	   76.4145	   14.8025	       2.4	4.99869e+07	   76.4392	   14.7692	       2.4	5.51065e+07	   76.4094	    14.742	       2.4	 3.8891e+07	   76.3848	   14.7754	       2.4	3.92812e+07	
         R10	   2185	   76.3929	   14.8603	       2.4	4.96585e+07	   76.4465	   14.8556	       2.4	7.19126e+07	   76.4423	   14.7999	       2.4	6.26197e+07	   76.3868	   14.8052	       2.4	4.23923e+07	   76.4197	   14.8579	       2.4	5.81449e+07	   76.4444	   14.8277	       2.4	6.71407e+07	   76.4145	   14.8025	       2.4	 4.9365e+07	   76.3898	   14.8328	       2.4	4.56072e+07	
         R10	   2186	   76.4018	   14.9116	       2.4	5.69048e+07	    76.451	   14.9065	       2.4	7.73368e+07	   76.4465	   14.8556	       2.4	7.15015e+07	   76.3929	   14.8603	       2.4	 4.9261e+07	   76.4264	    14.909	       2.4	6.50034e+07	   76.4487	    14.881	       2.4	7.43684e+07	   76.4197	   14.8579	       2.4	5.77267e+07	   76.3974	    14.886	       2.4	5.28521e+07	
         R10	   2187	   76.4113	   14.9577	       2.4	6.28172e+07	   76.4561	   14.9524	       2.4	8.01326e+07	    76.451	   14.9065	       2.4	7.71667e+07	   76.4018	   14.9116	       2.4	5.67286e+07	   76.4337	    14.955	       2.4	6.97469e+07	   76.4536	   14.9294	       2.4	 7.8621e+07	   76.4264	    14.909	       2.4	6.48295e+07	   76.4065	   14.9346	       2.4	5.96963e+07	
         R10	   2188	   76.4252	   14.9983	       2.4	6.80177e+07	   76.4616	   14.9937	       2.4	8.07042e+07	   76.4561	   14.9524	       2.4	8.01254e+07	   76.4113	   14.9577	       2.4	6.27738e+07	   76.4434	    14.996	       2.4	7.32161e+07	   76.4589	    14.973	       2.4	 8.0393e+07	   76.4337	    14.955	       2.4	6.97028e+07	   76.4182	    14.978	       2.4	6.53565e+07	
         R10	   2189	   76.4352	   15.0348	       2.4	7.02882e+07	   76.4668	   15.0305	       2.4	7.92009e+07	   76.4616	   14.9937	       2.4	8.05943e+07	   76.4252	   14.9983	       2.4	6.80424e+07	    76.451	   15.0326	       2.4	7.39029e+07	   76.4642	   15.0121	       2.4	7.98599e+07	   76.4434	    14.996	       2.4	7.31816e+07	   76.4302	   15.0165	       2.4	6.91644e+07	
         R10	   2190	   76.4441	   15.0661	       2.4	7.09075e+07	   76.4713	   15.0623	       2.4	7.65545e+07	   76.4668	   15.0305	       2.4	7.91183e+07	   76.4352	   15.0348	       2.4	7.05094e+07	   76.4577	   15.0642	       2.4	7.31282e+07	    76.469	   15.0464	       2.4	7.77742e+07	    76.451	   15.0326	       2.4	7.39607e+07	   76.4397	   15.0505	       2.4	 7.0701e+07	
         R10	   2191	   76.4554	   15.0933	       2.4	7.12563e+07	   76.4753	   15.0894	       2.4	7.37803e+07	   76.4713	   15.0623	       2.4	7.66131e+07	   76.4441	   15.0661	       2.4	7.09092e+07	   76.4653	   15.0913	       2.4	 7.2177e+07	   76.4733	   15.0758	       2.4	7.51199e+07	   76.4577	   15.0642	       2.4	7.31525e+07	   76.4497	   15.0797	       2.4	7.10646e+07	
         R10	   2192	   76.4519	   15.1123	       2.4	7.00612e+07	    76.449	     15.13	       2.4	7.01449e+07	    76.466	     15.13	       2.4	7.03099e+07	   76.4778	   15.1118	       2.4	7.15884e+07	   76.4504	   15.1211	       2.4	7.00448e+07	   76.4575	     15.13	       2.4	7.01202e+07	   76.4719	   15.1209	       2.4	7.06927e+07	   76.4648	    15.112	       2.4	7.04675e+07	
         R10	   2193	    76.398	   15.0946	       2.4	6.92928e+07	   76.3991	   15.1133	       2.4	6.76705e+07	   76.4152	   15.1121	       2.4	6.90614e+07	    76.416	   15.0913	       2.4	6.88877e+07	   76.3985	    15.104	       2.4	6.84738e+07	   76.4072	   15.1127	       2.4	6.83085e+07	   76.4156	   15.1017	       2.4	6.89645e+07	    76.407	    15.093	       2.4	6.90237e+07	
         R10	   2194	   76.3589	   15.0907	       2.4	6.80956e+07	   76.3644	   15.1138	       2.4	6.55051e+07	   76.3812	   15.1108	       2.4	6.69576e+07	   76.3747	   15.0937	       2.4	6.83349e+07	   76.3617	   15.1022	       2.4	6.68001e+07	   76.3728	   15.1123	       2.4	6.61832e+07	    76.378	   15.1023	       2.4	6.76436e+07	   76.3668	   15.0922	       2.4	6.81787e+07	
         R10	   2195	   76.3328	    15.092	       2.4	6.76456e+07	   76.3303	   15.1113	       2.4	6.44413e+07	   76.3467	   15.1123	       2.4	6.52719e+07	   76.3589	   15.0907	       2.4	6.81072e+07	   76.3315	   15.1016	       2.4	6.60378e+07	   76.3385	   15.1118	       2.4	6.48228e+07	   76.3528	   15.1015	       2.4	6.66585e+07	   76.3459	   15.0913	       2.4	 6.7782e+07	
         R10	   2196	   76.3134	   15.1309	       2.4	5.92301e+07	     76.33	     15.13	       2.4	6.03625e+07	   76.3303	   15.1113	       2.4	6.44546e+07	   76.3068	   15.1131	       2.4	6.30731e+07	   76.3217	   15.1304	       2.4	5.97642e+07	   76.3301	   15.1207	       2.4	6.24011e+07	   76.3185	   15.1122	       2.4	6.37097e+07	   76.3101	    15.122	       2.4	 6.1144e+07	
         R10	   2197	   76.2936	   15.1476	       2.4	5.26395e+07	   76.3136	   15.1461	       2.4	5.47773e+07	   76.3134	   15.1309	       2.4	5.90607e+07	   76.2915	   15.1308	       2.4	5.83779e+07	   76.3036	   15.1468	       2.4	5.36544e+07	   76.3135	   15.1385	       2.4	5.69035e+07	   76.3024	   15.1309	       2.4	5.86713e+07	   76.2925	   15.1392	       2.4	5.54927e+07	
         R10	   2198	    76.286	   15.1842	       2.4	4.00648e+07	   76.3128	   15.1815	       2.4	4.15339e+07	   76.3101	   15.1638	       2.4	4.84224e+07	   76.2945	   15.1691	       2.4	4.57731e+07	   76.2994	   15.1828	       2.4	4.05967e+07	   76.3115	   15.1727	       2.4	4.49287e+07	   76.3023	   15.1665	       2.4	4.70099e+07	   76.2902	   15.1766	       2.4	4.27524e+07	
         R10	   2199	    76.291	      15.2	       2.4	3.46322e+07	   76.3124	   15.1981	       2.4	3.51992e+07	   76.3128	   15.1815	       2.4	4.14489e+07	    76.286	   15.1842	       2.4	4.04411e+07	   76.3017	    15.199	       2.4	3.47101e+07	   76.3126	   15.1898	       2.4	3.82012e+07	   76.2994	   15.1828	       2.4	4.07553e+07	   76.2885	   15.1921	       2.4	 3.7379e+07	
         R10	   2200	   76.2942	   15.2179	       2.4	 3.0316e+07	   76.3132	    15.214	       2.4	2.86423e+07	   76.3124	   15.1981	       2.4	3.51752e+07	    76.291	      15.2	       2.4	3.44021e+07	   76.3037	    15.216	       2.4	2.92692e+07	   76.3128	   15.2061	       2.4	3.16605e+07	   76.3017	    15.199	       2.4	3.45756e+07	   76.2926	    15.209	       2.4	3.20673e+07	
         R10	   2201	   76.2932	   15.2523	       2.4	 3.4709e+07	   76.2889	    15.276	       2.4	4.95578e+07	   76.3115	   15.2822	       2.4	4.53004e+07	   76.3131	   15.2662	       2.4	3.47901e+07	   76.2911	   15.2642	       2.4	4.14348e+07	   76.3002	   15.2791	       2.4	4.73874e+07	   76.3123	   15.2742	       2.4	3.97848e+07	   76.3032	   15.2593	       2.4	3.45379e+07	
         R10	   2202	   76.2654	   15.2448	       2.4	4.00369e+07	   76.2623	   15.2713	       2.4	5.58736e+07	   76.2889	    15.276	       2.4	4.94064e+07	   76.2932	   15.2523	       2.4	3.50335e+07	   76.2639	    15.258	       2.4	4.71117e+07	   76.2756	   15.2736	       2.4	5.26261e+07	   76.2911	   15.2642	       2.4	4.15199e+07	   76.2793	   15.2485	       2.4	3.75235e+07	
         R10	   2203	   76.2348	   15.2352	       2.4	4.37159e+07	   76.2305	   15.2668	       2.4	6.32653e+07	   76.2623	   15.2713	       2.4	5.58774e+07	   76.2654	   15.2448	       2.4	4.00358e+07	   76.2326	    15.251	       2.4	5.23667e+07	   76.2464	    15.269	       2.4	 5.9566e+07	   76.2639	    15.258	       2.4	4.70877e+07	   76.2501	     15.24	       2.4	4.18646e+07	
         R10	   2204	   76.1983	   15.2252	       2.4	4.65978e+07	   76.1937	   15.2616	       2.4	  7.019e+07	   76.2305	   15.2668	       2.4	6.32362e+07	   76.2348	   15.2352	       2.4	4.35832e+07	    76.196	   15.2434	       2.4	  5.704e+07	   76.2121	   15.2642	       2.4	6.67114e+07	   76.2326	    15.251	       2.4	5.22994e+07	   76.2165	   15.2302	       2.4	4.50866e+07	
         R10	   2205	   76.1577	   15.2113	       2.4	4.60505e+07	   76.1524	   15.2561	       2.4	7.68696e+07	   76.1937	   15.2616	       2.4	7.04129e+07	   76.1983	   15.2252	       2.4	4.66454e+07	    76.155	   15.2337	       2.4	5.95388e+07	    76.173	   15.2589	       2.4	7.36409e+07	    76.196	   15.2434	       2.4	5.71608e+07	    76.178	   15.2182	       2.4	4.63139e+07	
         R10	   2206	   76.1116	   15.2018	       2.4	4.66573e+07	   76.1065	    15.251	       2.4	8.26751e+07	   76.1524	   15.2561	       2.4	7.67037e+07	   76.1577	   15.2113	       2.4	4.61055e+07	    76.109	   15.2264	       2.4	6.26082e+07	   76.1294	   15.2536	       2.4	7.96865e+07	    76.155	   15.2337	       2.4	 5.9485e+07	   76.1346	   15.2065	       2.4	4.63734e+07	
         R10	   2207	   76.0603	   15.1929	       2.4	4.57686e+07	   76.0556	   15.2465	       2.4	8.83223e+07	   76.1065	    15.251	       2.4	8.26484e+07	   76.1116	   15.2018	       2.4	4.64704e+07	   76.0579	   15.2197	       2.4	 6.4945e+07	    76.081	   15.2487	       2.4	8.54799e+07	    76.109	   15.2264	       2.4	6.25239e+07	    76.086	   15.1974	       2.4	4.61018e+07	
         R10	   2208	   76.0047	   15.1864	       2.4	4.51143e+07	   75.9999	   15.2423	       2.4	9.31816e+07	   76.0556	   15.2465	       2.4	8.82953e+07	   76.0603	   15.1929	       2.4	4.54401e+07	   76.0023	   15.2144	       2.4	6.72383e+07	   76.0277	   15.2444	       2.4	9.07304e+07	   76.0579	   15.2197	       2.4	 6.4833e+07	   76.0325	   15.1896	       2.4	4.52507e+07	
         R10	   2209	   75.9432	   15.1789	       2.4	4.35037e+07	   75.9388	   15.2374	       2.4	 9.5295e+07	   75.9999	   15.2423	       2.4	9.31523e+07	   76.0047	   15.1864	       2.4	4.49914e+07	    75.941	   15.2081	       2.4	6.76603e+07	   75.9693	   15.2398	       2.4	 9.4218e+07	   76.0023	   15.2144	       2.4	6.71744e+07	    75.974	   15.1826	       2.4	4.42059e+07	
         R10	   2210	   75.8782	   15.1616	       2.4	3.54983e+07	   75.8736	   15.2317	       2.4	9.61446e+07	   75.9388	   15.2374	       2.4	9.54248e+07	   75.9432	   15.1789	       2.4	4.30087e+07	   75.8759	   15.1967	       2.4	6.26821e+07	   75.9062	   15.2345	       2.4	9.57721e+07	    75.941	   15.2081	       2.4	6.75218e+07	   75.9107	   15.1702	       2.4	3.90258e+07	
         R10	   2211	   75.8076	   15.1515	       2.4	 3.1831e+07	   75.8037	   15.2268	       2.4	9.57269e+07	   75.8736	   15.2317	       2.4	9.61446e+07	   75.8782	   15.1616	       2.4	3.49372e+07	   75.8057	   15.1892	       2.4	6.01694e+07	   75.8386	   15.2293	       2.4	9.59296e+07	   75.8759	   15.1967	       2.4	6.26281e+07	   75.8429	   15.1566	       2.4	3.33043e+07	
         R10	   2212	   75.7318	   15.1407	       2.4	2.68013e+07	   75.7283	   15.2221	       2.4	9.58894e+07	   75.8037	   15.2268	       2.4	9.56772e+07	   75.8076	   15.1515	       2.4	3.10288e+07	     75.73	   15.1814	       2.4	5.65414e+07	    75.766	   15.2245	       2.4	9.57828e+07	   75.8057	   15.1892	       2.4	5.99405e+07	   75.7697	   15.1461	       2.4	2.86631e+07	
         R10	   2213	   75.7377	   15.0479	       2.4	6.47737e+07	   75.7318	   15.1407	       2.4	2.88425e+07	   75.8076	   15.1515	       2.4	3.03764e+07	    75.814	   15.0694	       2.4	5.41851e+07	   75.7347	   15.0943	       2.4	3.58894e+07	   75.7697	   15.1461	       2.4	2.95219e+07	   75.8108	   15.1104	       2.4	3.21049e+07	   75.7758	   15.0586	       2.4	 5.9168e+07	
         R10	   2214	   75.8273	   14.9579	       2.4	9.97852e+07	   75.7416	   14.9563	       2.4	 9.9895e+07	   75.7377	   15.0479	       2.4	6.41688e+07	    75.814	   15.0694	       2.4	5.96386e+07	   75.7845	   14.9571	       2.4	9.98262e+07	   75.7397	   15.0021	       2.4	8.17386e+07	   75.7758	   15.0586	       2.4	6.17385e+07	   75.8206	   15.0136	       2.4	7.89529e+07	
         R10	   2215	    75.832	   14.8637	       2.4	1.13043e+08	   75.7439	   14.8607	       2.4	1.14461e+08	   75.7416	   14.9563	       2.4	 1.0157e+08	   75.8273	   14.9579	       2.4	1.01039e+08	   75.7879	   14.8622	       2.4	1.13722e+08	   75.7428	   14.9085	       2.4	1.07833e+08	   75.7845	   14.9571	       2.4	1.01289e+08	   75.8296	   14.9108	       2.4	 1.0685e+08	
         R10	   2216	   75.8333	   14.7656	       2.4	1.01063e+08	   75.7483	   14.7612	       2.4	1.00011e+08	   75.7439	   14.8607	       2.4	1.13407e+08	    75.832	   14.8637	       2.4	1.13503e+08	   75.7908	   14.7634	       2.4	1.00516e+08	   75.7461	   14.8109	       2.4	 1.0639e+08	   75.7879	   14.8622	       2.4	1.13425e+08	   75.8326	   14.8146	       2.4	1.06715e+08	
         R10	   2217	   75.7569	   14.5556	       2.4	5.47289e+07	     75.65	   14.5579	       2.4	5.38237e+07	     75.65	   14.6624	       2.4	5.41829e+07	   75.7534	   14.6603	       2.4	5.57446e+07	   75.7034	   14.5567	       2.4	5.42731e+07	     75.65	   14.6101	       2.4	2.78719e+07	   75.7017	   14.6613	       2.4	5.49456e+07	   75.7551	   14.6079	       2.4	2.94773e+07	
         R10	   2218	   75.8613	   14.6542	       2.4	5.44956e+07	   75.8605	   14.5518	       2.4	5.92977e+07	   75.7569	   14.5556	       2.4	5.72071e+07	   75.7534	   14.6603	       2.4	5.53855e+07	   75.8609	    14.603	       2.4	3.56288e+07	   75.8087	   14.5537	       2.4	5.82409e+07	   75.7551	   14.6079	       2.4	3.07818e+07	   75.8074	   14.6572	       2.4	5.47634e+07	
         R10	   2219	   76.0677	   14.7135	       2.4	8.10553e+07	   76.0641	   14.6318	       2.4	6.92752e+07	   75.9682	   14.6323	       2.4	6.01403e+07	   75.9804	   14.7134	       2.4	8.52287e+07	   76.0659	   14.6726	       2.4	7.15907e+07	   76.0161	   14.6321	       2.4	6.47069e+07	   75.9743	   14.6729	       2.4	6.77768e+07	   76.0241	   14.7134	       2.4	8.29314e+07	
         R10	   2220	   76.1629	   14.7089	       2.4	 7.6798e+07	   76.1574	   14.6279	       2.4	7.52996e+07	   76.0641	   14.6318	       2.4	6.90718e+07	   76.0677	   14.7135	       2.4	8.08366e+07	   76.1602	   14.6684	       2.4	7.22604e+07	   76.1108	   14.6299	       2.4	7.20763e+07	   76.0659	   14.6726	       2.4	7.14387e+07	   76.1153	   14.7112	       2.4	7.87299e+07	
         R10	   2221	   76.2531	   14.6882	       2.4	6.39422e+07	   76.2482	   14.6172	       2.4	7.89873e+07	   76.1574	   14.6279	       2.4	7.57823e+07	   76.1629	   14.7089	       2.4	7.61585e+07	   76.2507	   14.6527	       2.4	6.82247e+07	   76.2029	   14.6226	       2.4	7.72393e+07	   76.1602	   14.6684	       2.4	7.22948e+07	    76.208	   14.6985	       2.4	6.98827e+07	
         R10	   2222	   76.3411	   14.6834	       2.4	4.27296e+07	   76.3372	   14.6114	       2.4	 6.7197e+07	   76.2482	   14.6172	       2.4	7.93175e+07	   76.2531	   14.6882	       2.4	 6.5117e+07	   76.3391	   14.6474	       2.4	5.25957e+07	   76.2927	   14.6143	       2.4	7.32237e+07	   76.2507	   14.6527	       2.4	6.89664e+07	   76.2971	   14.6858	       2.4	5.38939e+07	
         R10	   2223	   76.3312	   14.8117	       2.4	5.17204e+07	   76.3868	   14.8052	       2.4	4.36042e+07	   76.3828	   14.7456	       2.4	3.69963e+07	   76.3218	   14.7583	       2.4	5.46714e+07	    76.359	   14.8085	       2.4	4.57598e+07	   76.3848	   14.7754	       2.4	 3.9398e+07	   76.3523	   14.7519	       2.4	4.43381e+07	   76.3265	    14.785	       2.4	5.19812e+07	
         R10	   2224	   76.3408	    14.868	       2.4	5.50271e+07	   76.3929	   14.8603	       2.4	5.01728e+07	   76.3868	   14.8052	       2.4	4.24335e+07	   76.3312	   14.8117	       2.4	5.23589e+07	   76.3668	   14.8642	       2.4	5.06603e+07	   76.3898	   14.8328	       2.4	4.58042e+07	    76.359	   14.8085	       2.4	4.54402e+07	    76.336	   14.8399	       2.4	5.30508e+07	
         R10	   2225	   76.3537	   14.9212	       2.4	5.86411e+07	   76.4018	   14.9116	       2.4	 5.7232e+07	   76.3929	   14.8603	       2.4	4.97072e+07	   76.3408	    14.868	       2.4	5.45379e+07	   76.3778	   14.9164	       2.4	5.62672e+07	   76.3974	    14.886	       2.4	5.32513e+07	   76.3668	   14.8642	       2.4	5.01723e+07	   76.3472	   14.8946	       2.4	5.61491e+07	
         R10	   2226	   76.3682	   14.9697	       2.4	6.28112e+07	   76.4113	   14.9577	       2.4	6.32306e+07	   76.4018	   14.9116	       2.4	5.70439e+07	   76.3537	   14.9212	       2.4	5.85652e+07	   76.3898	   14.9637	       2.4	6.17248e+07	   76.4065	   14.9346	       2.4	6.00593e+07	   76.3778	   14.9164	       2.4	5.61313e+07	    76.361	   14.9455	       2.4	 6.0457e+07	
         R10	   2227	   76.3884	   15.0075	       2.4	6.56034e+07	   76.4252	   14.9983	       2.4	  6.814e+07	   76.4113	   14.9577	       2.4	  6.318e+07	   76.3682	   14.9697	       2.4	6.29014e+07	   76.4068	   15.0029	       2.4	 6.5903e+07	   76.4182	    14.978	       2.4	6.56246e+07	   76.3898	   14.9637	       2.4	6.17507e+07	   76.3783	   14.9886	       2.4	6.41052e+07	
         R10	   2228	   76.4014	    15.044	       2.4	6.82487e+07	   76.4352	   15.0348	       2.4	7.05266e+07	   76.4252	   14.9983	       2.4	 6.8348e+07	   76.3884	   15.0075	       2.4	6.58346e+07	   76.4183	   15.0394	       2.4	6.86882e+07	   76.4302	   15.0165	       2.4	6.94351e+07	   76.4068	   15.0029	       2.4	6.61173e+07	   76.3949	   15.0257	       2.4	6.70038e+07	
         R10	   2229	   76.4207	   15.0714	       2.4	6.98352e+07	   76.4441	   15.0661	       2.4	7.09991e+07	   76.4352	   15.0348	       2.4	7.05257e+07	   76.4014	    15.044	       2.4	6.72241e+07	   76.4324	   15.0688	       2.4	  7.009e+07	   76.4397	   15.0505	       2.4	7.07571e+07	   76.4183	   15.0394	       2.4	6.81567e+07	   76.4111	   15.0577	       2.4	6.84684e+07	
         R10	   2230	   76.4519	   15.1123	       2.4	7.02948e+07	   76.4778	   15.1118	       2.4	7.16565e+07	   76.4753	   15.0894	       2.4	7.35017e+07	   76.4554	   15.0933	       2.4	7.13535e+07	   76.4648	    15.112	       2.4	7.06326e+07	   76.4766	   15.1006	       2.4	7.24746e+07	   76.4653	   15.0913	       2.4	7.21019e+07	   76.4536	   15.1028	       2.4	7.07418e+07	
         R10	   2231	   76.4343	   15.0948	       2.4	6.98031e+07	    76.416	   15.0913	       2.4	6.93706e+07	   76.4152	   15.1121	       2.4	6.88996e+07	   76.4322	   15.1124	       2.4	 6.9657e+07	   76.4251	   15.0931	       2.4	6.94822e+07	   76.4156	   15.1017	       2.4	6.91147e+07	   76.4237	   15.1123	       2.4	  6.921e+07	   76.4332	   15.1036	       2.4	6.96939e+07	
         R10	   2232	   76.3747	   15.0937	       2.4	6.79209e+07	   76.3812	   15.1108	       2.4	6.72112e+07	    76.398	   15.0946	       2.4	6.92638e+07	   76.3856	   15.0731	       2.4	6.89197e+07	    76.378	   15.1023	       2.4	6.75615e+07	   76.3896	   15.1027	       2.4	6.81544e+07	   76.3918	   15.0838	       2.4	6.90732e+07	   76.3802	   15.0834	       2.4	6.83693e+07	
         R10	   2233	   76.3068	   15.1131	       2.4	6.35491e+07	   76.3303	   15.1113	       2.4	6.42884e+07	   76.3328	    15.092	       2.4	  6.755e+07	   76.3017	   15.0857	       2.4	6.76767e+07	   76.3185	   15.1122	       2.4	6.38641e+07	   76.3315	   15.1016	       2.4	 6.5912e+07	   76.3173	   15.0888	       2.4	6.75244e+07	   76.3042	   15.0994	       2.4	6.55777e+07	
         R10	   2234	   76.2945	   15.1691	       2.4	 4.5555e+07	   76.3101	   15.1638	       2.4	4.85693e+07	   76.2936	   15.1476	       2.4	5.27225e+07	   76.2711	   15.1597	       2.4	4.83806e+07	   76.3023	   15.1665	       2.4	4.69667e+07	   76.3019	   15.1557	       2.4	5.06326e+07	   76.2824	   15.1537	       2.4	5.04377e+07	   76.2828	   15.1644	       2.4	4.69597e+07	
         R10	   2235	   76.2467	   15.2013	       2.4	3.72433e+07	   76.2348	   15.2352	       2.4	4.31949e+07	   76.2654	   15.2448	       2.4	4.02284e+07	   76.2726	   15.2202	       2.4	3.34016e+07	   76.2408	   15.2183	       2.4	3.78288e+07	   76.2501	     15.24	       2.4	4.16989e+07	    76.269	   15.2325	       2.4	3.54604e+07	   76.2597	   15.2108	       2.4	3.51493e+07	
         R10	   2236	   76.2089	   15.1879	       2.4	3.94272e+07	   76.1983	   15.2252	       2.4	 4.6917e+07	   76.2348	   15.2352	       2.4	4.32065e+07	   76.2467	   15.2013	       2.4	3.74982e+07	   76.2036	   15.2066	       2.4	4.05735e+07	   76.2165	   15.2302	       2.4	4.50566e+07	   76.2408	   15.2183	       2.4	3.80205e+07	   76.2278	   15.1946	       2.4	3.84361e+07	
         R10	   2237	   76.1697	   15.1683	       2.4	4.16853e+07	   76.1577	   15.2113	       2.4	4.63149e+07	   76.1983	   15.2252	       2.4	4.67438e+07	   76.2089	   15.1879	       2.4	3.95177e+07	   76.1637	   15.1898	       2.4	 4.0645e+07	    76.178	   15.2182	       2.4	4.64978e+07	   76.2036	   15.2066	       2.4	4.05216e+07	   76.1893	   15.1781	       2.4	4.04577e+07	
         R10	   2238	   76.1212	   15.1537	       2.4	4.14951e+07	   76.1116	   15.2018	       2.4	4.66285e+07	   76.1577	   15.2113	       2.4	4.63629e+07	   76.1697	   15.1683	       2.4	4.15588e+07	   76.1164	   15.1778	       2.4	3.98416e+07	   76.1346	   15.2065	       2.4	4.64866e+07	   76.1637	   15.1898	       2.4	 4.0605e+07	   76.1455	    15.161	       2.4	4.14514e+07	
         R10	   2239	   76.0681	   15.1408	       2.4	3.97828e+07	   76.0603	   15.1929	       2.4	4.62412e+07	   76.1116	   15.2018	       2.4	4.64432e+07	   76.1212	   15.1537	       2.4	4.18547e+07	   76.0642	   15.1668	       2.4	3.77962e+07	    76.086	   15.1974	       2.4	4.63289e+07	   76.1164	   15.1778	       2.4	3.99223e+07	   76.0946	   15.1472	       2.4	4.07155e+07	
         R10	   2240	    76.012	   15.1319	       2.4	3.80174e+07	   76.0047	   15.1864	       2.4	4.51027e+07	   76.0603	   15.1929	       2.4	4.59937e+07	   76.0681	   15.1408	       2.4	4.09617e+07	   76.0084	   15.1591	       2.4	3.52924e+07	   76.0325	   15.1896	       2.4	4.55033e+07	   76.0642	   15.1668	       2.4	3.82698e+07	   76.0401	   15.1364	       2.4	3.94065e+07	
         R10	   2241	   75.9538	    15.122	       2.4	  3.691e+07	   75.9432	   15.1789	       2.4	4.41027e+07	   76.0047	   15.1864	       2.4	4.46947e+07	    76.012	   15.1319	       2.4	3.81349e+07	   75.9485	   15.1504	       2.4	3.28493e+07	    75.974	   15.1826	       2.4	 4.4384e+07	   76.0084	   15.1591	       2.4	3.51095e+07	   75.9829	    15.127	       2.4	3.74026e+07	
         R10	   2242	   75.8902	   15.1012	       2.4	4.05757e+07	   75.8782	   15.1616	       2.4	3.63557e+07	   75.9432	   15.1789	       2.4	4.39182e+07	   75.9538	    15.122	       2.4	3.75191e+07	   75.8842	   15.1314	       2.4	2.96095e+07	   75.9107	   15.1702	       2.4	3.99192e+07	   75.9485	   15.1504	       2.4	3.31144e+07	    75.922	   15.1116	       2.4	3.83649e+07	
         R10	   2243	    75.814	   15.0694	       2.4	5.25679e+07	   75.8076	   15.1515	       2.4	3.06077e+07	   75.8782	   15.1616	       2.4	 3.5497e+07	   75.8902	   15.1012	       2.4	4.34162e+07	   75.8108	   15.1104	       2.4	3.08693e+07	   75.8429	   15.1566	       2.4	3.28984e+07	   75.8842	   15.1314	       2.4	3.09282e+07	   75.8521	   15.0853	       2.4	4.73031e+07	
         R10	   2244	   75.9112	    14.868	       2.4	1.11876e+08	    75.832	   14.8637	       2.4	1.13931e+08	   75.8273	   14.9579	       2.4	1.02645e+08	   75.9126	   14.9584	       2.4	9.88569e+07	   75.8716	   14.8658	       2.4	1.12863e+08	   75.8296	   14.9108	       2.4	 1.0811e+08	   75.8699	   14.9581	       2.4	1.00725e+08	   75.9119	   14.9132	       2.4	1.05186e+08	
         R10	   2245	   75.9115	   14.7756	       2.4	1.04438e+08	   75.8333	   14.7656	       2.4	9.90541e+07	    75.832	   14.8637	       2.4	1.12804e+08	   75.9112	    14.868	       2.4	1.11092e+08	   75.8724	   14.7706	       2.4	1.01537e+08	   75.8326	   14.8146	       2.4	1.05439e+08	   75.8716	   14.8658	       2.4	1.11904e+08	   75.9113	   14.8218	       2.4	1.07653e+08	
         R10	   2246	   75.8613	   14.6542	       2.4	5.98439e+07	   75.7534	   14.6603	       2.4	6.02837e+07	   75.7483	   14.7612	       2.4	9.91935e+07	   75.8333	   14.7656	       2.4	1.01363e+08	   75.8074	   14.6572	       2.4	6.00202e+07	   75.7509	   14.7107	       2.4	7.72429e+07	   75.7908	   14.7634	       2.4	1.00197e+08	   75.8473	   14.7099	       2.4	7.83468e+07	
         R10	   2247	   76.0699	   14.7893	       2.4	9.78426e+07	   76.0677	   14.7135	       2.4	8.65558e+07	   75.9804	   14.7134	       2.4	8.52432e+07	   75.9829	   14.7932	       2.4	1.03315e+08	   76.0688	   14.7514	       2.4	 9.1003e+07	   76.0241	   14.7134	       2.4	8.58323e+07	   75.9816	   14.7533	       2.4	9.32792e+07	   76.0264	   14.7913	       2.4	1.00497e+08	
         R10	   2248	   76.1709	   14.7841	       2.4	8.73418e+07	   76.1629	   14.7089	       2.4	8.04917e+07	   76.0677	   14.7135	       2.4	8.62548e+07	   76.0699	   14.7893	       2.4	9.68407e+07	   76.1669	   14.7465	       2.4	8.25507e+07	   76.1153	   14.7112	       2.4	8.32285e+07	   76.0688	   14.7514	       2.4	9.03503e+07	   76.1204	   14.7867	       2.4	9.20134e+07	
         R10	   2249	    76.261	   14.7508	       2.4	6.73888e+07	   76.2531	   14.6882	       2.4	7.35626e+07	   76.1629	   14.7089	       2.4	8.25798e+07	   76.1709	   14.7841	       2.4	8.74664e+07	   76.2571	   14.7195	       2.4	6.84949e+07	    76.208	   14.6985	       2.4	7.77066e+07	   76.1669	   14.7465	       2.4	8.37514e+07	    76.216	   14.7674	       2.4	7.73718e+07	
         R10	   2250	   76.2905	    14.878	       2.4	 6.8005e+07	   76.3408	    14.868	       2.4	  5.478e+07	   76.3312	   14.8117	       2.4	5.21209e+07	   76.2747	   14.8181	       2.4	6.76042e+07	   76.3156	    14.873	       2.4	6.09751e+07	    76.336	   14.8399	       2.4	 5.2816e+07	   76.3029	   14.8149	       2.4	5.95165e+07	   76.2826	   14.8481	       2.4	6.70234e+07	
         R10	   2251	    76.308	   14.9337	       2.4	6.83657e+07	   76.3537	   14.9212	       2.4	5.89693e+07	   76.3408	    14.868	       2.4	5.46522e+07	   76.2905	    14.878	       2.4	6.74207e+07	   76.3308	   14.9275	       2.4	6.31576e+07	   76.3472	   14.8946	       2.4	5.63614e+07	   76.3156	    14.873	       2.4	6.06023e+07	   76.2992	   14.9059	       2.4	6.74088e+07	
         R10	   2252	   76.3276	   14.9848	       2.4	6.89634e+07	   76.3682	   14.9697	       2.4	6.32845e+07	   76.3537	   14.9212	       2.4	5.88648e+07	    76.308	   14.9337	       2.4	6.78695e+07	   76.3479	   14.9772	       2.4	6.56371e+07	    76.361	   14.9455	       2.4	6.08432e+07	   76.3308	   14.9275	       2.4	6.28416e+07	   76.3178	   14.9592	       2.4	6.80903e+07	
         R10	   2253	   76.3519	   15.0276	       2.4	6.92325e+07	   76.3884	   15.0075	       2.4	6.61053e+07	   76.3682	   14.9697	       2.4	6.34491e+07	   76.3276	   14.9848	       2.4	6.87984e+07	   76.3701	   15.0175	       2.4	 6.7184e+07	   76.3783	   14.9886	       2.4	6.46353e+07	   76.3479	   14.9772	       2.4	6.56265e+07	   76.3398	   15.0062	       2.4	6.87989e+07	
         R10	   2254	   76.4343	   15.0948	       2.4	6.97073e+07	   76.4322	   15.1124	       2.4	6.97432e+07	   76.4519	   15.1123	       2.4	7.01428e+07	   76.4554	   15.0933	       2.4	7.14052e+07	   76.4332	   15.1036	       2.4	 6.9696e+07	    76.442	   15.1124	       2.4	6.98038e+07	   76.4536	   15.1028	       2.4	7.06882e+07	   76.4448	   15.0941	       2.4	7.03313e+07	
         R10	   2255	   76.3275	   15.0663	       2.4	6.93162e+07	   76.3328	    15.092	       2.4	6.78056e+07	   76.3589	   15.0907	       2.4	6.78144e+07	   76.3568	   15.0636	       2.4	7.02114e+07	   76.3301	   15.0791	       2.4	6.85311e+07	   76.3459	   15.0913	       2.4	6.77169e+07	   76.3579	   15.0771	       2.4	6.90125e+07	   76.3421	    15.065	       2.4	6.96106e+07	
         R10	   2256	   76.2711	   15.1597	       2.4	4.83932e+07	   76.2936	   15.1476	       2.4	5.24429e+07	   76.2915	   15.1308	       2.4	5.85787e+07	   76.2676	   15.1294	       2.4	5.63584e+07	   76.2824	   15.1537	       2.4	5.03001e+07	   76.2925	   15.1392	       2.4	5.54858e+07	   76.2795	   15.1301	       2.4	5.74254e+07	   76.2694	   15.1446	       2.4	5.22092e+07	
         R10	   2257	   76.1848	   15.1276	       2.4	5.32635e+07	   76.1697	   15.1683	       2.4	4.21243e+07	   76.2089	   15.1879	       2.4	3.98262e+07	   76.2276	   15.1492	       2.4	4.98676e+07	   76.1772	   15.1479	       2.4	4.63424e+07	   76.1893	   15.1781	       2.4	4.08277e+07	   76.2183	   15.1686	       2.4	4.31901e+07	   76.2062	   15.1384	       2.4	5.14674e+07	
         R10	   2258	   76.1337	    15.108	       2.4	5.65666e+07	   76.1212	   15.1537	       2.4	4.13249e+07	   76.1697	   15.1683	       2.4	4.21122e+07	   76.1848	   15.1276	       2.4	5.32458e+07	   76.1275	   15.1308	       2.4	4.75562e+07	   76.1455	    15.161	       2.4	4.16398e+07	   76.1772	   15.1479	       2.4	4.63048e+07	   76.1592	   15.1178	       2.4	5.47983e+07	
         R10	   2259	   76.0782	   15.0905	       2.4	5.88426e+07	   76.0681	   15.1408	       2.4	4.06006e+07	   76.1212	   15.1537	       2.4	4.18082e+07	   76.1337	    15.108	       2.4	5.58797e+07	   76.0731	   15.1157	       2.4	4.81033e+07	   76.0946	   15.1472	       2.4	 4.1126e+07	   76.1275	   15.1308	       2.4	4.73425e+07	    76.106	   15.0993	       2.4	5.71935e+07	
         R10	   2260	   76.0206	   15.0747	       2.4	6.26678e+07	    76.012	   15.1319	       2.4	 3.7892e+07	   76.0681	   15.1408	       2.4	  4.185e+07	   76.0782	   15.0905	       2.4	 5.7949e+07	   76.0163	   15.1033	       2.4	 4.8933e+07	   76.0401	   15.1364	       2.4	3.97151e+07	   76.0731	   15.1157	       2.4	4.80325e+07	   76.0494	   15.0826	       2.4	6.02656e+07	
         R10	   2261	   75.9668	   15.0584	       2.4	6.51291e+07	   75.9538	    15.122	       2.4	3.74198e+07	    76.012	   15.1319	       2.4	3.71488e+07	   76.0206	   15.0747	       2.4	6.09099e+07	   75.9603	   15.0902	       2.4	4.87961e+07	   75.9829	    15.127	       2.4	3.72526e+07	   76.0163	   15.1033	       2.4	4.75603e+07	   75.9937	   15.0666	       2.4	 6.2537e+07	
         R10	   2262	   75.9105	   15.0379	       2.4	7.48171e+07	   75.8902	   15.1012	       2.4	4.19872e+07	   75.9538	    15.122	       2.4	3.93745e+07	   75.9668	   15.0584	       2.4	 6.6475e+07	   75.9003	   15.0696	       2.4	5.73825e+07	    75.922	   15.1116	       2.4	4.00304e+07	   75.9603	   15.0902	       2.4	5.05732e+07	   75.9386	   15.0481	       2.4	 7.0534e+07	
         R10	   2263	   75.9889	   14.8719	       2.4	1.06522e+08	   75.9112	    14.868	       2.4	1.11652e+08	   75.9126	   14.9584	       2.4	9.98758e+07	   75.9864	   14.9649	       2.4	1.00493e+08	     75.95	   14.8699	       2.4	1.09042e+08	   75.9119	   14.9132	       2.4	1.05681e+08	   75.9495	   14.9616	       2.4	1.00051e+08	   75.9876	   14.9184	       2.4	1.03121e+08	
         R10	   2264	   76.3218	   14.7583	       2.4	5.00099e+07	   76.3411	   14.6834	       2.4	5.31138e+07	   76.2531	   14.6882	       2.4	7.15907e+07	    76.261	   14.7508	       2.4	6.77841e+07	   76.3314	   14.7208	       2.4	5.02724e+07	   76.2971	   14.6858	       2.4	6.22279e+07	   76.2571	   14.7195	       2.4	6.75338e+07	   76.2914	   14.7545	       2.4	5.87438e+07	
         R10	   2265	   76.2747	   14.8181	       2.4	6.89258e+07	   76.3312	   14.8117	       2.4	  5.291e+07	   76.3218	   14.7583	       2.4	5.51267e+07	    76.261	   14.7508	       2.4	6.89335e+07	   76.3029	   14.8149	       2.4	 6.0561e+07	   76.3265	    14.785	       2.4	5.28324e+07	   76.2914	   14.7545	       2.4	6.18063e+07	   76.2679	   14.7845	       2.4	6.82032e+07	
         R10	   2266	    76.224	   14.8322	       2.4	7.99569e+07	   76.2747	   14.8181	       2.4	6.81524e+07	    76.261	   14.7508	       2.4	6.83637e+07	   76.1709	   14.7841	       2.4	  8.533e+07	   76.2493	   14.8252	       2.4	  7.404e+07	   76.2679	   14.7845	       2.4	6.74143e+07	    76.216	   14.7674	       2.4	7.67034e+07	   76.1975	   14.8082	       2.4	8.21351e+07	
         R10	   2267	    76.241	   14.8924	       2.4	7.99802e+07	   76.2905	    14.878	       2.4	6.80232e+07	   76.2747	   14.8181	       2.4	6.83021e+07	    76.224	   14.8322	       2.4	8.05364e+07	   76.2657	   14.8852	       2.4	7.39306e+07	   76.2826	   14.8481	       2.4	6.74106e+07	   76.2493	   14.8252	       2.4	7.44121e+07	   76.2325	   14.8623	       2.4	7.97183e+07	
         R10	   2268	   76.2635	    14.949	       2.4	7.66011e+07	    76.308	   14.9337	       2.4	6.85488e+07	   76.2905	    14.878	       2.4	6.73667e+07	    76.241	   14.8924	       2.4	7.96813e+07	   76.2858	   14.9414	       2.4	7.24333e+07	   76.2992	   14.9059	       2.4	6.74544e+07	   76.2657	   14.8852	       2.4	7.34659e+07	   76.2523	   14.9207	       2.4	7.77332e+07	
         R10	   2269	   76.2893	   15.0011	       2.4	7.41576e+07	   76.3276	   14.9848	       2.4	6.94044e+07	    76.308	   14.9337	       2.4	6.79939e+07	   76.2635	    14.949	       2.4	7.70533e+07	   76.3085	   14.9929	       2.4	   7.16e+07	   76.3178	   14.9592	       2.4	6.83629e+07	   76.2858	   14.9414	       2.4	 7.2394e+07	   76.2764	   14.9751	       2.4	7.52537e+07	
         R10	   2270	    76.416	   15.0913	       2.4	6.88978e+07	   76.4343	   15.0948	       2.4	7.02771e+07	   76.4441	   15.0661	       2.4	7.07438e+07	   76.4207	   15.0714	       2.4	7.01658e+07	   76.4251	   15.0931	       2.4	6.94871e+07	   76.4392	   15.0805	       2.4	7.02866e+07	   76.4324	   15.0688	       2.4	7.01236e+07	   76.4184	   15.0813	       2.4	6.94885e+07	
         R10	   2271	   76.3856	   15.0731	       2.4	6.79703e+07	    76.398	   15.0946	       2.4	6.92688e+07	    76.416	   15.0913	       2.4	6.87925e+07	   76.4207	   15.0714	       2.4	7.01813e+07	   76.3918	   15.0838	       2.4	6.85978e+07	    76.407	    15.093	       2.4	6.89336e+07	   76.4184	   15.0813	       2.4	6.94493e+07	   76.4032	   15.0722	       2.4	6.86649e+07	
         R10	   2272	    76.274	   15.1015	       2.4	6.48452e+07	   76.2676	   15.1294	       2.4	5.71844e+07	   76.2915	   15.1308	       2.4	5.84026e+07	   76.3068	   15.1131	       2.4	 6.3268e+07	   76.2708	   15.1154	       2.4	 6.0943e+07	   76.2795	   15.1301	       2.4	 5.7756e+07	   76.2991	    15.122	       2.4	6.07672e+07	   76.2904	   15.1073	       2.4	6.39829e+07	
         R10	   2273	    76.149	   15.0635	       2.4	7.03987e+07	   76.1337	    15.108	       2.4	 5.6946e+07	   76.1848	   15.1276	       2.4	5.30046e+07	   76.2033	   15.0893	       2.4	6.57248e+07	   76.1414	   15.0857	       2.4	6.31956e+07	   76.1592	   15.1178	       2.4	5.48652e+07	    76.194	   15.1085	       2.4	5.90705e+07	   76.1761	   15.0764	       2.4	 6.7818e+07	
         R10	   2274	   76.0876	    15.038	       2.4	7.61238e+07	   76.0782	   15.0905	       2.4	5.98921e+07	   76.1337	    15.108	       2.4	5.59777e+07	    76.149	   15.0635	       2.4	  7.137e+07	   76.0829	   15.0643	       2.4	6.75667e+07	    76.106	   15.0993	       2.4	5.77776e+07	   76.1414	   15.0857	       2.4	6.33451e+07	   76.1183	   15.0508	       2.4	7.35317e+07	
         R10	   2275	   76.0301	   15.0268	       2.4	8.11302e+07	   76.0206	   15.0747	       2.4	 6.0574e+07	   76.0782	   15.0905	       2.4	5.77508e+07	   76.0876	    15.038	       2.4	7.87831e+07	   76.0253	   15.0508	       2.4	6.97085e+07	   76.0494	   15.0826	       2.4	5.91402e+07	   76.0829	   15.0643	       2.4	6.80866e+07	   76.0588	   15.0324	       2.4	7.94526e+07	
         R10	   2276	    75.814	   15.0694	       2.4	5.54294e+07	   75.8902	   15.1012	       2.4	4.31559e+07	   75.9105	   15.0379	       2.4	7.37425e+07	   75.8616	   15.0241	       2.4	8.08829e+07	   75.8521	   15.0853	       2.4	4.87705e+07	   75.9003	   15.0696	       2.4	5.71566e+07	    75.886	    15.031	       2.4	7.70712e+07	   75.8378	   15.0467	       2.4	6.74419e+07	
         R10	   2277	   76.0654	   14.8702	       2.4	1.02181e+08	   75.9889	   14.8719	       2.4	 1.0609e+08	   75.9864	   14.9649	       2.4	1.01596e+08	   76.0543	   14.9571	       2.4	9.39761e+07	   76.0271	   14.8711	       2.4	 1.0411e+08	   75.9876	   14.9184	       2.4	1.03544e+08	   76.0203	    14.961	       2.4	 9.7754e+07	   76.0599	   14.9137	       2.4	9.77487e+07	
         R10	   2278	   76.1698	   14.8669	       2.4	9.06819e+07	    76.224	   14.8322	       2.4	8.10645e+07	   76.1709	   14.7841	       2.4	8.59956e+07	    76.143	   14.8439	       2.4	9.81805e+07	   76.1969	   14.8496	       2.4	8.57947e+07	   76.1975	   14.8082	       2.4	8.29541e+07	   76.1569	    14.814	       2.4	9.15404e+07	   76.1564	   14.8554	       2.4	9.44047e+07	
         R10	   2279	    76.191	   14.9116	       2.4	8.98462e+07	    76.241	   14.8924	       2.4	7.89929e+07	    76.224	   14.8322	       2.4	8.06756e+07	   76.1698	   14.8669	       2.4	9.06987e+07	    76.216	    14.902	       2.4	8.44152e+07	   76.2325	   14.8623	       2.4	7.94118e+07	   76.1969	   14.8496	       2.4	8.56151e+07	   76.1804	   14.8893	       2.4	9.00978e+07	
         R10	   2280	   76.2182	   14.9669	       2.4	8.31204e+07	   76.2635	    14.949	       2.4	7.71026e+07	    76.241	   14.8924	       2.4	7.89646e+07	    76.191	   14.9116	       2.4	8.80555e+07	   76.2409	    14.958	       2.4	 8.0069e+07	   76.2523	   14.9207	       2.4	7.75414e+07	    76.216	    14.902	       2.4	8.34936e+07	   76.2046	   14.9393	       2.4	8.53494e+07	
         R10	   2281	   76.2467	   15.0165	       2.4	7.78265e+07	   76.2893	   15.0011	       2.4	7.44311e+07	   76.2635	    14.949	       2.4	7.74694e+07	   76.2182	   14.9669	       2.4	8.26167e+07	    76.268	   15.0088	       2.4	7.60244e+07	   76.2764	   14.9751	       2.4	7.56063e+07	   76.2409	    14.958	       2.4	8.00049e+07	   76.2325	   14.9917	       2.4	7.99899e+07	
         R10	   2282	   76.3519	   15.0276	       2.4	 6.9009e+07	   76.3276	   14.9848	       2.4	6.91533e+07	   76.2893	   15.0011	       2.4	 7.4114e+07	   76.3097	   15.0406	       2.4	7.21424e+07	   76.3398	   15.0062	       2.4	6.88838e+07	   76.3085	   14.9929	       2.4	7.14601e+07	   76.2995	   15.0208	       2.4	7.29806e+07	   76.3308	   15.0341	       2.4	7.03254e+07	
         R10	   2283	   76.2384	   15.1119	       2.4	6.08267e+07	   76.2033	   15.0893	       2.4	  6.583e+07	   76.1848	   15.1276	       2.4	 5.3579e+07	   76.2276	   15.1492	       2.4	5.02267e+07	   76.2209	   15.1006	       2.4	6.32372e+07	    76.194	   15.1085	       2.4	5.93694e+07	   76.2062	   15.1384	       2.4	5.17993e+07	    76.233	   15.1306	       2.4	5.51271e+07	
         R10	   2284	   76.1729	    15.019	       2.4	8.02898e+07	    76.149	   15.0635	       2.4	7.05344e+07	   76.2033	   15.0893	       2.4	6.63161e+07	   76.2177	   15.0544	       2.4	7.37175e+07	    76.161	   15.0413	       2.4	7.53224e+07	   76.1761	   15.0764	       2.4	6.82038e+07	   76.2105	   15.0718	       2.4	6.98819e+07	   76.1953	   15.0367	       2.4	7.68016e+07	
         R10	   2285	   76.1181	    14.993	       2.4	8.73661e+07	   76.0876	    15.038	       2.4	7.61374e+07	    76.149	   15.0635	       2.4	7.10353e+07	   76.1729	    15.019	       2.4	8.03737e+07	   76.1028	   15.0155	       2.4	 8.1607e+07	   76.1183	   15.0508	       2.4	7.33436e+07	    76.161	   15.0413	       2.4	7.55735e+07	   76.1455	    15.006	       2.4	8.35796e+07	
         R10	   2286	   76.1342	   14.9362	       2.4	 9.1554e+07	    76.191	   14.9116	       2.4	8.69077e+07	   76.1698	   14.8669	       2.4	9.30887e+07	   76.1185	   14.9012	       2.4	9.61872e+07	   76.1626	   14.9239	       2.4	8.88847e+07	   76.1804	   14.8893	       2.4	8.99777e+07	   76.1442	   14.8841	       2.4	9.45442e+07	   76.1264	   14.9187	       2.4	9.30159e+07	
         R10	   2287	   76.3097	   15.0406	       2.4	7.20721e+07	   76.2893	   15.0011	       2.4	7.44546e+07	   76.2467	   15.0165	       2.4	7.73358e+07	    76.268	   15.0572	       2.4	7.23985e+07	   76.2995	   15.0208	       2.4	7.31396e+07	    76.268	   15.0088	       2.4	7.57808e+07	   76.2573	   15.0369	       2.4	7.46461e+07	   76.2889	   15.0489	       2.4	7.21458e+07	
         R10	   2288	   76.3568	   15.0636	       2.4	6.97124e+07	   76.3856	   15.0731	       2.4	6.86547e+07	   76.4014	    15.044	       2.4	6.87001e+07	   76.3519	   15.0276	       2.4	6.82692e+07	   76.3712	   15.0683	       2.4	6.90054e+07	   76.3935	   15.0585	       2.4	6.85462e+07	   76.3766	   15.0358	       2.4	6.78462e+07	   76.3543	   15.0456	       2.4	6.89386e+07	
         R10	   2289	   76.3275	   15.0663	       2.4	6.94437e+07	   76.3568	   15.0636	       2.4	7.02295e+07	   76.3519	   15.0276	       2.4	6.85361e+07	   76.3097	   15.0406	       2.4	7.26423e+07	   76.3421	    15.065	       2.4	6.96775e+07	   76.3543	   15.0456	       2.4	6.93364e+07	   76.3308	   15.0341	       2.4	7.03665e+07	   76.3186	   15.0535	       2.4	7.10121e+07	
         R10	   2290	   76.3017	   15.0857	       2.4	6.83621e+07	   76.3275	   15.0663	       2.4	6.97766e+07	   76.3097	   15.0406	       2.4	7.22121e+07	    76.268	   15.0572	       2.4	7.21919e+07	   76.3146	    15.076	       2.4	6.89836e+07	   76.3186	   15.0535	       2.4	7.09468e+07	   76.2889	   15.0489	       2.4	7.20834e+07	   76.2849	   15.0714	       2.4	7.01352e+07	
         R10	   2291	    76.274	   15.1015	       2.4	6.48886e+07	   76.3017	   15.0857	       2.4	6.83716e+07	    76.268	   15.0572	       2.4	7.26277e+07	   76.2488	   15.0817	       2.4	6.81754e+07	   76.2878	   15.0936	       2.4	6.65607e+07	   76.2849	   15.0714	       2.4	7.03535e+07	   76.2584	   15.0695	       2.4	7.03612e+07	   76.2614	   15.0916	       2.4	6.64726e+07	
         R10	   2292	   75.9126	   14.9584	       2.4	9.90298e+07	   75.8273	   14.9579	       2.4	9.82096e+07	   75.8616	   15.0241	       2.4	7.48377e+07	   75.9105	   15.0379	       2.4	7.45055e+07	   75.8699	   14.9581	       2.4	 9.8594e+07	   75.8445	    14.991	       2.4	8.64706e+07	    75.886	    15.031	       2.4	7.44587e+07	   75.9115	   14.9981	       2.4	8.64302e+07	
         R10	   2293	   75.9864	   14.9649	       2.4	9.39876e+07	   75.9126	   14.9584	       2.4	 9.8759e+07	   75.9105	   15.0379	       2.4	 7.2591e+07	   75.9668	   15.0584	       2.4	 6.9779e+07	   75.9495	   14.9616	       2.4	9.62312e+07	   75.9115	   14.9981	       2.4	8.53638e+07	   75.9386	   15.0481	       2.4	7.11036e+07	   75.9766	   15.0116	       2.4	8.16167e+07	
         R10	   2294	   75.9668	   15.0584	       2.4	7.10262e+07	   76.0206	   15.0747	       2.4	6.33191e+07	   76.0301	   15.0268	       2.4	8.58483e+07	   75.9864	   14.9649	       2.4	9.56009e+07	   75.9937	   15.0666	       2.4	6.65774e+07	   76.0253	   15.0508	       2.4	7.38294e+07	   76.0082	   14.9958	       2.4	9.06546e+07	   75.9766	   15.0116	       2.4	 8.3213e+07	
         R10	   2295	   76.0543	   14.9571	       2.4	9.72146e+07	   75.9864	   14.9649	       2.4	 9.3503e+07	   76.0301	   15.0268	       2.4	7.84479e+07	   76.0876	    15.038	       2.4	8.06753e+07	   76.0203	    14.961	       2.4	 9.5272e+07	   76.0082	   14.9958	       2.4	8.59315e+07	   76.0588	   15.0324	       2.4	7.91402e+07	    76.071	   14.9976	       2.4	8.80416e+07	
         R10	   2296	   75.9804	   14.7134	       2.4	8.33053e+07	   75.9682	   14.6323	       2.4	6.21468e+07	   75.8613	   14.6542	       2.4	6.21247e+07	   75.9173	   14.7128	       2.4	8.12786e+07	   75.9743	   14.6729	       2.4	 6.7941e+07	   75.9148	   14.6433	       2.4	 6.1533e+07	   75.8893	   14.6835	       2.4	6.94659e+07	   75.9489	   14.7131	       2.4	8.22658e+07	
         R10	   2297	   75.9115	   14.7756	       2.4	9.64126e+07	   75.9829	   14.7932	       2.4	1.04414e+08	   75.9804	   14.7134	       2.4	8.53351e+07	   75.9173	   14.7128	       2.4	8.55695e+07	   75.9472	   14.7844	       2.4	1.00243e+08	   75.9816	   14.7533	       2.4	9.36367e+07	   75.9489	   14.7131	       2.4	8.49568e+07	   75.9144	   14.7442	       2.4	 9.0981e+07	
         R10	   2298	   75.8613	   14.6542	       2.4	6.49902e+07	   75.8333	   14.7656	       2.4	1.03047e+08	   75.9115	   14.7756	       2.4	9.98737e+07	   75.9173	   14.7128	       2.4	8.01411e+07	   75.8473	   14.7099	       2.4	8.08042e+07	   75.8724	   14.7706	       2.4	1.01213e+08	   75.9144	   14.7442	       2.4	8.98896e+07	   75.8893	   14.6835	       2.4	7.05656e+07	
         R10	   2299	   75.9829	   14.7932	       2.4	1.03477e+08	   75.9115	   14.7756	       2.4	1.03158e+08	   75.9112	    14.868	       2.4	1.11991e+08	   75.9889	   14.8719	       2.4	1.08537e+08	   75.9472	   14.7844	       2.4	1.03272e+08	   75.9113	   14.8218	       2.4	1.07486e+08	     75.95	   14.8699	       2.4	 1.1018e+08	   75.9859	   14.8326	       2.4	1.05564e+08	
         R10	   2300	   76.0699	   14.7893	       2.4	9.71491e+07	   75.9829	   14.7932	       2.4	1.04075e+08	   75.9889	   14.8719	       2.4	 1.0746e+08	   76.0654	   14.8702	       2.4	1.04694e+08	   76.0264	   14.7913	       2.4	1.00524e+08	   75.9859	   14.8326	       2.4	1.05355e+08	   76.0271	   14.8711	       2.4	1.06067e+08	   76.0677	   14.8298	       2.4	1.00403e+08	
         R10	   2301	    76.143	   14.8439	       2.4	 9.2052e+07	   76.1709	   14.7841	       2.4	8.75885e+07	   76.0699	   14.7893	       2.4	 9.7504e+07	   76.0654	   14.8702	       2.4	1.08803e+08	   76.1569	    14.814	       2.4	8.88305e+07	   76.1204	   14.7867	       2.4	9.24226e+07	   76.0677	   14.8298	       2.4	 1.0281e+08	   76.1042	   14.8571	       2.4	1.00399e+08	
         R10	   2302	   76.1185	   14.9012	       2.4	9.76779e+07	   76.1698	   14.8669	       2.4	9.26813e+07	    76.143	   14.8439	       2.4	9.56097e+07	   76.0654	   14.8702	       2.4	9.23541e+07	   76.1442	   14.8841	       2.4	 9.5079e+07	   76.1564	   14.8554	       2.4	9.39569e+07	   76.1042	   14.8571	       2.4	9.37164e+07	    76.092	   14.8857	       2.4	9.48583e+07	
         R10	   2303	   76.1185	   14.9012	       2.4	1.05053e+08	   76.0654	   14.8702	       2.4	1.04601e+08	   76.0543	   14.9571	       2.4	9.69425e+07	   76.1342	   14.9362	       2.4	9.72815e+07	    76.092	   14.8857	       2.4	1.04812e+08	   76.0599	   14.9137	       2.4	1.00764e+08	   76.0943	   14.9467	       2.4	9.67528e+07	   76.1264	   14.9187	       2.4	 1.0051e+08	
         R10	   2304	   76.2182	   14.9669	       2.4	8.50242e+07	    76.191	   14.9116	       2.4	8.60974e+07	   76.1342	   14.9362	       2.4	9.79535e+07	   76.1763	   14.9747	       2.4	8.58766e+07	   76.2046	   14.9393	       2.4	8.51012e+07	   76.1626	   14.9239	       2.4	9.19627e+07	   76.1552	   14.9555	       2.4	9.16193e+07	   76.1973	   14.9708	       2.4	8.54035e+07	
         R10	   2305	   76.1729	    15.019	       2.4	8.06815e+07	   76.2467	   15.0165	       2.4	 7.7523e+07	   76.2182	   14.9669	       2.4	8.33433e+07	   76.1763	   14.9747	       2.4	8.65676e+07	   76.2098	   15.0178	       2.4	7.90193e+07	   76.2325	   14.9917	       2.4	 8.0246e+07	   76.1973	   14.9708	       2.4	8.48351e+07	   76.1746	   14.9969	       2.4	8.33811e+07	
         R10	   2306	   76.1342	   14.9362	       2.4	9.55945e+07	   76.1181	    14.993	       2.4	8.53957e+07	   76.1729	    15.019	       2.4	8.19788e+07	   76.1763	   14.9747	       2.4	8.65187e+07	   76.1261	   14.9646	       2.4	9.04135e+07	   76.1455	    15.006	       2.4	8.33525e+07	   76.1746	   14.9969	       2.4	8.41219e+07	   76.1552	   14.9555	       2.4	9.07771e+07	
         R10	   2307	   76.2467	   15.0165	       2.4	7.73995e+07	   76.1729	    15.019	       2.4	8.09087e+07	   76.2177	   15.0544	       2.4	 7.3698e+07	    76.268	   15.0572	       2.4	7.30801e+07	   76.2098	   15.0178	       2.4	7.90643e+07	   76.1953	   15.0367	       2.4	7.71024e+07	   76.2428	   15.0558	       2.4	7.32384e+07	   76.2573	   15.0369	       2.4	7.50168e+07	
         R10	   2308	   76.2488	   15.0817	       2.4	6.82176e+07	    76.268	   15.0572	       2.4	 7.2612e+07	   76.2177	   15.0544	       2.4	7.36324e+07	   76.2033	   15.0893	       2.4	6.56782e+07	   76.2584	   15.0695	       2.4	7.03767e+07	   76.2428	   15.0558	       2.4	7.29334e+07	   76.2105	   15.0718	       2.4	6.95055e+07	    76.226	   15.0855	       2.4	6.68938e+07	
         R10	   2309	   76.2488	   15.0817	       2.4	6.81068e+07	   76.2033	   15.0893	       2.4	6.59264e+07	   76.2384	   15.1119	       2.4	6.07799e+07	    76.274	   15.1015	       2.4	6.53153e+07	    76.226	   15.0855	       2.4	6.69691e+07	   76.2209	   15.1006	       2.4	6.32568e+07	   76.2562	   15.1067	       2.4	6.29569e+07	   76.2614	   15.0916	       2.4	6.66541e+07	
         R10	   2310	   76.2676	   15.1294	       2.4	5.75118e+07	    76.274	   15.1015	       2.4	6.50764e+07	   76.2384	   15.1119	       2.4	6.09243e+07	   76.2276	   15.1492	       2.4	4.98728e+07	   76.2708	   15.1154	       2.4	6.12011e+07	   76.2562	   15.1067	       2.4	6.29231e+07	    76.233	   15.1306	       2.4	5.49935e+07	   76.2476	   15.1393	       2.4	5.33926e+07	
         R10	   2311	   76.2467	   15.2013	       2.4	3.75733e+07	    76.286	   15.1842	       2.4	3.97691e+07	   76.2711	   15.1597	       2.4	4.91513e+07	   76.2501	   15.1708	       2.4	4.27231e+07	   76.2663	   15.1927	       2.4	3.75997e+07	   76.2785	   15.1719	       2.4	 4.4346e+07	   76.2606	   15.1653	       2.4	4.57098e+07	   76.2484	   15.1861	       2.4	3.92103e+07	
         R10	   2312	   76.2276	   15.1492	       2.4	4.98991e+07	   76.2089	   15.1879	       2.4	3.96299e+07	   76.2467	   15.2013	       2.4	3.78864e+07	   76.2501	   15.1708	       2.4	4.34867e+07	   76.2183	   15.1686	       2.4	4.30852e+07	   76.2278	   15.1946	       2.4	3.87386e+07	   76.2484	   15.1861	       2.4	3.97242e+07	   76.2388	     15.16	       2.4	4.65808e+07	
         R10	   2313	   76.2711	   15.1597	       2.4	4.94782e+07	   76.2676	   15.1294	       2.4	5.74034e+07	   76.2276	   15.1492	       2.4	5.01507e+07	   76.2501	   15.1708	       2.4	4.32985e+07	   76.2694	   15.1446	       2.4	5.32928e+07	   76.2476	   15.1393	       2.4	5.34576e+07	   76.2388	     15.16	       2.4	4.66156e+07	   76.2606	   15.1653	       2.4	4.61233e+07	
         R10	   2314	    76.291	      15.2	       2.4	3.47533e+07	    76.286	   15.1842	       2.4	4.00056e+07	   76.2467	   15.2013	       2.4	3.75875e+07	   76.2726	   15.2202	       2.4	3.35633e+07	   76.2885	   15.1921	       2.4	3.72621e+07	   76.2663	   15.1927	       2.4	 3.7693e+07	   76.2597	   15.2108	       2.4	3.53762e+07	   76.2818	   15.2101	       2.4	3.29635e+07	
         R10	   2315	   76.2726	   15.2202	       2.4	3.27439e+07	   76.2654	   15.2448	       2.4	 4.0088e+07	   76.2932	   15.2523	       2.4	3.46013e+07	   76.2879	    15.231	       2.4	3.12325e+07	    76.269	   15.2325	       2.4	3.51191e+07	   76.2793	   15.2485	       2.4	3.73382e+07	   76.2906	   15.2416	       2.4	3.22076e+07	   76.2802	   15.2256	       2.4	3.18929e+07	
         R10	   2316	   76.2942	   15.2179	       2.4	 3.0363e+07	    76.291	      15.2	       2.4	3.51458e+07	   76.2726	   15.2202	       2.4	3.30295e+07	   76.2879	    15.231	       2.4	3.13759e+07	   76.2926	    15.209	       2.4	3.24131e+07	   76.2818	   15.2101	       2.4	3.29069e+07	   76.2802	   15.2256	       2.4	3.21168e+07	    76.291	   15.2244	       2.4	3.02999e+07	
         R10	   2317	   76.2932	   15.2523	       2.4	3.48036e+07	   76.3111	   15.2321	       2.4	 2.6093e+07	   76.2942	   15.2179	       2.4	3.02328e+07	   76.2879	    15.231	       2.4	3.09942e+07	   76.3022	   15.2422	       2.4	2.91277e+07	   76.3027	    15.225	       2.4	2.80056e+07	    76.291	   15.2244	       2.4	3.00414e+07	   76.2906	   15.2416	       2.4	3.21753e+07	
         R10	   2318	   76.3856	   15.0731	       2.4	6.86291e+07	   76.3568	   15.0636	       2.4	7.01661e+07	   76.3589	   15.0907	       2.4	6.82363e+07	   76.3747	   15.0937	       2.4	6.82214e+07	   76.3712	   15.0683	       2.4	6.92393e+07	   76.3579	   15.0771	       2.4	6.92008e+07	   76.3668	   15.0922	       2.4	6.81923e+07	   76.3802	   15.0834	       2.4	6.83717e+07	
         R10	   2319	    76.466	     15.13	       2.4	6.99671e+07	    76.483	     15.13	       2.4	7.02564e+07	   76.4778	   15.1118	       2.4	7.13387e+07	   76.4745	     15.13	       2.4	 6.9971e+07	   76.4804	   15.1209	       2.4	7.07308e+07	   76.4719	   15.1209	       2.4	7.04115e+07	       N/A	       N/A	       N/A	        N/A	       N/A	       N/A	       N/A	        N/A	
         R10	   2320	   76.3812	   15.1108	       2.4	6.70221e+07	   76.3991	   15.1133	       2.4	6.76343e+07	    76.398	   15.0946	       2.4	6.92622e+07	   76.3901	   15.1121	       2.4	6.72659e+07	   76.3985	    15.104	       2.4	6.84441e+07	   76.3896	   15.1027	       2.4	6.80558e+07	       N/A	       N/A	       N/A	        N/A	       N/A	       N/A	       N/A	        N/A	
         R10	   2321	   76.3467	   15.1123	       2.4	6.51404e+07	   76.3644	   15.1138	       2.4	6.54382e+07	   76.3589	   15.0907	       2.4	6.82137e+07	   76.3556	    15.113	       2.4	6.52479e+07	   76.3617	   15.1022	       2.4	6.68255e+07	   76.3528	   15.1015	       2.4	 6.6643e+07	       N/A	       N/A	       N/A	        N/A	       N/A	       N/A	       N/A	        N/A	
         R10	   2322	   76.3101	   15.1638	       2.4	4.82661e+07	   76.3136	   15.1461	       2.4	5.46342e+07	   76.2936	   15.1476	       2.4	 5.2798e+07	   76.3119	    15.155	       2.4	 5.1399e+07	   76.3036	   15.1468	       2.4	5.36552e+07	   76.3019	   15.1557	       2.4	5.05207e+07	       N/A	       N/A	       N/A	        N/A	       N/A	       N/A	       N/A	        N/A	
         R10	   2323	   76.3111	   15.2321	       2.4	2.60462e+07	   76.3132	    15.214	       2.4	 2.8728e+07	   76.2942	   15.2179	       2.4	3.04597e+07	   76.3122	    15.223	       2.4	2.66753e+07	   76.3037	    15.216	       2.4	2.93463e+07	   76.3027	    15.225	       2.4	2.81098e+07	       N/A	       N/A	       N/A	        N/A	       N/A	       N/A	       N/A	        N/A	
         R10	   2324	   76.2915	   15.1308	       2.4	5.82339e+07	   76.3134	   15.1309	       2.4	5.91819e+07	   76.3068	   15.1131	       2.4	6.31611e+07	   76.3024	   15.1309	       2.4	5.86642e+07	   76.3101	    15.122	       2.4	6.11647e+07	   76.2991	    15.122	       2.4	6.06384e+07	       N/A	       N/A	       N/A	        N/A	       N/A	       N/A	       N/A	        N/A	
         R10	   2325	    76.286	   15.1842	       2.4	3.96541e+07	   76.2945	   15.1691	       2.4	4.58275e+07	   76.2711	   15.1597	       2.4	4.84791e+07	   76.2902	   15.1766	       2.4	4.25792e+07	   76.2828	   15.1644	       2.4	4.71324e+07	   76.2785	   15.1719	       2.4	4.39799e+07	       N/A	       N/A	       N/A	        N/A	       N/A	       N/A	       N/A	        N/A	
         R10	   2326	   76.3218	   14.7583	       2.4	  4.973e+07	   76.3828	   14.7456	       2.4	4.00777e+07	   76.3411	   14.6834	       2.4	4.83489e+07	   76.3523	   14.7519	       2.4	 4.3213e+07	   76.3619	   14.7145	       2.4	4.06768e+07	   76.3314	   14.7208	       2.4	4.78885e+07	       N/A	       N/A	       N/A	        N/A	       N/A	       N/A	       N/A	        N/A	
         R10	   2327	   76.4343	   15.0948	       2.4	7.00117e+07	   76.4554	   15.0933	       2.4	7.13118e+07	   76.4441	   15.0661	       2.4	7.10621e+07	   76.4448	   15.0941	       2.4	7.04352e+07	   76.4497	   15.0797	       2.4	7.11677e+07	   76.4392	   15.0805	       2.4	7.02938e+07	       N/A	       N/A	       N/A	        N/A	       N/A	       N/A	       N/A	        N/A	
         R10	   2328	   76.3017	   15.0857	       2.4	6.84195e+07	   76.3328	    15.092	       2.4	6.78019e+07	   76.3275	   15.0663	       2.4	6.99828e+07	   76.3173	   15.0888	       2.4	6.80253e+07	   76.3301	   15.0791	       2.4	6.88729e+07	   76.3146	    15.076	       2.4	6.91186e+07	       N/A	       N/A	       N/A	        N/A	       N/A	       N/A	       N/A	        N/A	
         R10	   2329	   76.3856	   15.0731	       2.4	6.85953e+07	   76.4207	   15.0714	       2.4	7.04271e+07	   76.4014	    15.044	       2.4	6.87384e+07	   76.4032	   15.0722	       2.4	 6.9139e+07	   76.4111	   15.0577	       2.4	6.95179e+07	   76.3935	   15.0585	       2.4	6.85372e+07	       N/A	       N/A	       N/A	        N/A	       N/A	       N/A	       N/A	        N/A	
         R10	   2330	    76.274	   15.1015	       2.4	6.45801e+07	   76.3068	   15.1131	       2.4	6.37213e+07	   76.3017	   15.0857	       2.4	 6.8174e+07	   76.2904	   15.1073	       2.4	6.40815e+07	   76.3042	   15.0994	       2.4	6.59169e+07	   76.2878	   15.0936	       2.4	6.63055e+07	       N/A	       N/A	       N/A	        N/A	       N/A	       N/A	       N/A	        N/A	
         R10	   2331	   76.4014	    15.044	       2.4	6.85958e+07	   76.3884	   15.0075	       2.4	6.60456e+07	   76.3519	   15.0276	       2.4	6.93946e+07	   76.3949	   15.0257	       2.4	6.72904e+07	   76.3701	   15.0175	       2.4	6.72497e+07	   76.3766	   15.0358	       2.4	6.83705e+07	       N/A	       N/A	       N/A	        N/A	       N/A	       N/A	       N/A	        N/A	
         R10	   2332	   76.2932	   15.2523	       2.4	3.53112e+07	   76.3131	   15.2662	       2.4	3.50032e+07	   76.3153	   15.2492	       2.4	 2.6529e+07	   76.3032	   15.2593	       2.4	3.49379e+07	   76.3142	   15.2577	       2.4	3.02059e+07	   76.3043	   15.2508	       2.4	3.08098e+07	       N/A	       N/A	       N/A	        N/A	       N/A	       N/A	       N/A	        N/A	
         R10	   2333	   76.1342	   14.9362	       2.4	9.27647e+07	   76.0543	   14.9571	       2.4	 8.8723e+07	   76.1181	    14.993	       2.4	8.42256e+07	   76.0943	   14.9467	       2.4	9.05021e+07	   76.0862	   14.9751	       2.4	8.61088e+07	   76.1261	   14.9646	       2.4	8.84694e+07	       N/A	       N/A	       N/A	        N/A	       N/A	       N/A	       N/A	        N/A	
         R10	   2334	   76.0543	   14.9571	       2.4	1.00775e+08	   76.0876	    15.038	       2.4	7.68197e+07	   76.1181	    14.993	       2.4	8.61401e+07	    76.071	   14.9976	       2.4	8.83249e+07	   76.1028	   15.0155	       2.4	8.13388e+07	   76.0862	   14.9751	       2.4	9.32716e+07	       N/A	       N/A	       N/A	        N/A	       N/A	       N/A	       N/A	        N/A	
         R10	   2335	   76.3111	   15.2321	       2.4	2.58825e+07	   76.2932	   15.2523	       2.4	3.45251e+07	   76.3153	   15.2492	       2.4	2.65079e+07	   76.3022	   15.2422	       2.4	2.89224e+07	   76.3043	   15.2508	       2.4	3.04221e+07	   76.3132	   15.2407	       2.4	 2.5577e+07	       N/A	       N/A	       N/A	        N/A	       N/A	       N/A	       N/A	        N/A	
         R10	   2336	    75.814	   15.0694	       2.4	6.26284e+07	   75.8616	   15.0241	       2.4	7.68224e+07	   75.8273	   14.9579	       2.4	9.77011e+07	   75.8378	   15.0467	       2.4	6.92535e+07	   75.8445	    14.991	       2.4	8.71274e+07	   75.8206	   15.0136	       2.4	7.91037e+07	       N/A	       N/A	       N/A	        N/A	       N/A	       N/A	       N/A	        N/A	
         R10	   2337	   76.6688	   14.5306	       2.4	4.96148e+07	   76.6654	     14.45	       2.4	1.08064e+08	    76.581	     14.45	       2.4	1.31522e+08	    76.583	   14.5278	       2.4	6.42568e+07	   76.6671	   14.4903	       2.4	7.24631e+07	   76.6232	     14.45	       2.4	1.14987e+08	    76.582	   14.4889	       2.4	6.80371e+07	   76.6259	   14.5292	       2.4	5.03221e+07	
         R10	   2338	    76.756	   14.5333	       2.4	 4.3657e+07	   76.7532	     14.45	       2.4	1.16914e+08	   76.6654	     14.45	       2.4	1.01007e+08	   76.6688	   14.5306	       2.4	5.01561e+07	   76.7546	   14.4916	       2.4	7.31645e+07	   76.7093	     14.45	       2.4	1.07283e+08	   76.6671	   14.4903	       2.4	6.84802e+07	   76.7124	   14.5319	       2.4	4.60091e+07	
         R10	   2339	    76.848	   14.5367	       2.4	4.49686e+07	   76.8443	     14.45	       2.4	1.35824e+08	   76.7532	     14.45	       2.4	1.17634e+08	    76.756	   14.5333	       2.4	4.38371e+07	   76.8461	   14.4934	       2.4	 8.4024e+07	   76.7987	     14.45	       2.4	1.25887e+08	   76.7546	   14.4916	       2.4	7.35919e+07	    76.802	    14.535	       2.4	4.40034e+07	
         R10	   2340	   76.9416	   14.5403	       2.4	4.66269e+07	   76.9387	     14.45	       2.4	1.51004e+08	   76.8443	     14.45	       2.4	1.35586e+08	    76.848	   14.5367	       2.4	 4.4795e+07	   76.9402	   14.4951	       2.4	9.29725e+07	   76.8915	     14.45	       2.4	1.42967e+08	   76.8461	   14.4934	       2.4	8.38955e+07	   76.8948	   14.5385	       2.4	4.54424e+07	
         R10	   2341	     77.04	   14.5438	       2.4	4.85111e+07	   77.0365	     14.45	       2.4	1.60703e+08	   76.9387	     14.45	       2.4	1.50811e+08	   76.9416	   14.5403	       2.4	4.66742e+07	   77.0383	   14.4969	       2.4	9.92079e+07	   76.9876	     14.45	       2.4	1.55613e+08	   76.9402	   14.4951	       2.4	9.29191e+07	   76.9908	    14.542	       2.4	4.74539e+07	
         R10	   2342	   77.1416	   14.5484	       2.4	4.76696e+07	   77.1376	     14.45	       2.4	1.65579e+08	   77.0365	     14.45	       2.4	1.60582e+08	     77.04	   14.5438	       2.4	4.81172e+07	   77.1396	   14.4992	       2.4	1.01645e+08	   77.0871	     14.45	       2.4	1.63002e+08	   77.0383	   14.4969	       2.4	 9.9071e+07	   77.0908	   14.5461	       2.4	4.78572e+07	
         R10	   2343	   77.2456	   14.5528	       2.4	4.51978e+07	   77.2421	     14.45	       2.4	1.67413e+08	   77.1376	     14.45	       2.4	1.65394e+08	   77.1416	   14.5484	       2.4	4.74705e+07	   77.2439	   14.5014	       2.4	1.01683e+08	   77.1899	     14.45	       2.4	1.66362e+08	   77.1396	   14.4992	       2.4	1.01445e+08	   77.1936	   14.5506	       2.4	4.63211e+07	
         R10	   2344	     77.35	   14.5579	       2.4	4.11604e+07	     77.35	     14.45	       2.4	1.66972e+08	   77.2421	     14.45	       2.4	1.67354e+08	   77.2456	   14.5528	       2.4	4.53054e+07	     77.35	   14.5039	       2.4	9.96159e+07	   77.2961	     14.45	       2.4	 1.6713e+08	   77.2439	   14.5014	       2.4	1.01621e+08	   77.2978	   14.5553	       2.4	4.32281e+07	
         R10	   2345	     77.35	   14.6624	       2.4	5.48099e+07	     77.35	   14.5579	       2.4	5.42861e+07	   77.2456	   14.5528	       2.4	5.98471e+07	   77.2452	   14.6541	       2.4	5.29813e+07	     77.35	   14.6101	       2.4	2.87873e+07	   77.2978	   14.5553	       2.4	5.70665e+07	   77.2454	   14.6034	       2.4	3.21525e+07	   77.2976	   14.6582	       2.4	5.38251e+07	
         R10	   2346	   77.2398	   14.7588	       2.4	1.00157e+08	     77.35	   14.7635	       2.4	 9.9926e+07	     77.35	   14.6624	       2.4	5.96501e+07	   77.2452	   14.6541	       2.4	5.69688e+07	   77.2949	   14.7612	       2.4	9.99858e+07	     77.35	   14.7129	       2.4	7.76731e+07	   77.2976	   14.6582	       2.4	5.82181e+07	   77.2425	   14.7064	       2.4	7.63341e+07	
         R10	   2347	   77.2648	   14.8626	       2.4	1.15662e+08	     77.35	   14.8613	       2.4	1.14495e+08	     77.35	   14.7635	       2.4	9.96195e+07	   77.2398	   14.7588	       2.4	9.87855e+07	   77.3074	    14.862	       2.4	1.15052e+08	     77.35	   14.8124	       2.4	1.06712e+08	   77.2949	   14.7612	       2.4	9.91871e+07	   77.2523	   14.8107	       2.4	1.06945e+08	
         R10	   2348	   77.2651	   14.9563	       2.4	1.00862e+08	     77.35	   14.9557	       2.4	 1.0135e+08	     77.35	   14.8613	       2.4	1.14986e+08	   77.2648	   14.8626	       2.4	1.15225e+08	   77.3075	    14.956	       2.4	  1.011e+08	     77.35	   14.9085	       2.4	1.08067e+08	   77.3074	    14.862	       2.4	1.15092e+08	   77.2649	   14.9094	       2.4	 1.0787e+08	
         R10	   2349	   77.2667	   15.0442	       2.4	6.66284e+07	     77.35	   15.0468	       2.4	6.12485e+07	     77.35	   14.9557	       2.4	9.92887e+07	   77.2651	   14.9563	       2.4	1.01178e+08	   77.3083	   15.0455	       2.4	6.38251e+07	     77.35	   15.0013	       2.4	8.00761e+07	   77.3075	    14.956	       2.4	1.00232e+08	   77.2659	   15.0002	       2.4	8.35439e+07	
         R10	   2350	   77.2696	   15.1314	       2.4	2.49604e+07	     77.35	   15.1346	       2.4	2.62304e+07	     77.35	   15.0468	       2.4	6.27299e+07	   77.2667	   15.0442	       2.4	6.53806e+07	   77.3098	    15.133	       2.4	2.54921e+07	     77.35	   15.0907	       2.4	3.56521e+07	   77.3083	   15.0455	       2.4	6.38244e+07	   77.2682	   15.0878	       2.4	3.90173e+07	
         R10	   2351	   77.2718	   15.2169	       2.4	9.01102e+07	     77.35	    15.219	       2.4	9.45686e+07	     77.35	   15.1346	       2.4	 2.7321e+07	   77.2696	   15.1314	       2.4	 2.5497e+07	   77.3109	    15.218	       2.4	9.23329e+07	     77.35	   15.1768	       2.4	5.61691e+07	   77.3098	    15.133	       2.4	 2.6024e+07	   77.2707	   15.1741	       2.4	5.02775e+07	
         R10	   2352	   77.2702	      15.3	       2.4	1.95445e+08	     77.35	      15.3	       2.4	2.01231e+08	     77.35	    15.219	       2.4	9.49487e+07	   77.2718	   15.2169	       2.4	8.97453e+07	   77.3101	      15.3	       2.4	1.98338e+08	     77.35	   15.2595	       2.4	 1.4782e+08	   77.3109	    15.218	       2.4	9.23411e+07	    77.271	   15.2585	       2.4	1.42242e+08	
         R10	   2353	   77.1952	      15.3	       2.4	1.90176e+08	   77.2702	      15.3	       2.4	1.95446e+08	   77.2718	   15.2169	       2.4	8.96464e+07	   77.1965	   15.2182	       2.4	8.59832e+07	   77.2327	      15.3	       2.4	 1.9281e+08	    77.271	   15.2585	       2.4	1.42218e+08	   77.2341	   15.2176	       2.4	8.78093e+07	   77.1959	   15.2591	       2.4	1.37706e+08	
         R10	   2354	   77.1288	   15.2245	       2.4	 8.9144e+07	   77.1251	      15.3	       2.4	1.82167e+08	   77.1952	      15.3	       2.4	1.90229e+08	   77.1965	   15.2182	       2.4	8.59984e+07	    77.127	   15.2622	       2.4	1.35133e+08	   77.1601	      15.3	       2.4	1.86191e+08	   77.1959	   15.2591	       2.4	1.37699e+08	   77.1627	   15.2213	       2.4	8.75515e+07	
         R10	   2355	   77.0643	   15.2363	       2.4	9.60932e+07	   77.0597	      15.3	       2.4	1.74231e+08	   77.1251	      15.3	       2.4	1.82344e+08	   77.1288	   15.2245	       2.4	8.93924e+07	    77.062	   15.2682	       2.4	1.34772e+08	   77.0924	      15.3	       2.4	1.78286e+08	    77.127	   15.2622	       2.4	1.35243e+08	   77.0966	   15.2304	       2.4	9.27111e+07	
         R10	   2356	   77.0023	    15.244	       2.4	9.54956e+07	   76.9991	      15.3	       2.4	1.63202e+08	   77.0597	      15.3	       2.4	1.74007e+08	   77.0643	   15.2363	       2.4	9.61855e+07	   77.0007	    15.272	       2.4	1.28958e+08	   77.0294	      15.3	       2.4	1.68603e+08	    77.062	   15.2682	       2.4	1.34639e+08	   77.0333	   15.2402	       2.4	9.58399e+07	
         R10	   2357	   76.9467	   15.2467	       2.4	8.89036e+07	   76.9433	      15.3	       2.4	1.51088e+08	   76.9991	      15.3	       2.4	1.63164e+08	   77.0023	    15.244	       2.4	9.54824e+07	    76.945	   15.2733	       2.4	1.19543e+08	   76.9712	      15.3	       2.4	1.57125e+08	   77.0007	    15.272	       2.4	1.28954e+08	   76.9745	   15.2454	       2.4	9.21866e+07	
         R10	   2358	   76.8962	   15.2505	       2.4	8.30692e+07	   76.8924	      15.3	       2.4	1.37231e+08	   76.9433	      15.3	       2.4	1.51233e+08	   76.9467	   15.2467	       2.4	8.89882e+07	   76.8943	   15.2752	       2.4	1.09563e+08	   76.9179	      15.3	       2.4	 1.4423e+08	    76.945	   15.2733	       2.4	1.19612e+08	   76.9214	   15.2486	       2.4	8.60223e+07	
         R10	   2359	   76.8503	   15.2554	       2.4	7.71441e+07	   76.8462	      15.3	       2.4	1.22509e+08	   76.8924	      15.3	       2.4	1.37262e+08	   76.8962	   15.2505	       2.4	8.30174e+07	   76.8483	   15.2777	       2.4	9.91882e+07	   76.8693	      15.3	       2.4	1.29884e+08	   76.8943	   15.2752	       2.4	1.09518e+08	   76.8733	   15.2529	       2.4	 8.0079e+07	
         R10	   2360	   76.8092	   15.2609	       2.4	7.08854e+07	   76.8048	      15.3	       2.4	1.07474e+08	   76.8462	      15.3	       2.4	1.22611e+08	   76.8503	   15.2554	       2.4	7.71018e+07	    76.807	   15.2804	       2.4	 8.8572e+07	   76.8255	      15.3	       2.4	1.15041e+08	   76.8483	   15.2777	       2.4	9.91692e+07	   76.8297	   15.2581	       2.4	7.39931e+07	
         R10	   2361	   76.7727	   15.2663	       2.4	 6.4138e+07	   76.7683	      15.3	       2.4	9.30162e+07	   76.8048	      15.3	       2.4	1.07628e+08	   76.8092	   15.2609	       2.4	7.09031e+07	   76.7705	   15.2831	       2.4	7.80103e+07	   76.7865	      15.3	       2.4	1.00317e+08	    76.807	   15.2804	       2.4	8.86242e+07	   76.7909	   15.2636	       2.4	6.75188e+07	
         R10	   2362	   76.7408	   15.2715	       2.4	5.75518e+07	   76.7365	      15.3	       2.4	7.94999e+07	   76.7683	      15.3	       2.4	9.30995e+07	   76.7727	   15.2663	       2.4	 6.4088e+07	   76.7387	   15.2857	       2.4	6.80503e+07	   76.7524	      15.3	       2.4	 8.6295e+07	   76.7705	   15.2831	       2.4	7.80088e+07	   76.7567	   15.2689	       2.4	 6.0811e+07	
         R10	   2363	   76.7136	    15.276	       2.4	5.07004e+07	   76.7095	      15.3	       2.4	6.80092e+07	   76.7365	      15.3	       2.4	7.96307e+07	   76.7408	   15.2715	       2.4	 5.7498e+07	   76.7115	    15.288	       2.4	5.89908e+07	    76.723	      15.3	       2.4	7.38127e+07	   76.7387	   15.2857	       2.4	6.80749e+07	   76.7272	   15.2737	       2.4	5.40808e+07	
         R10	   2364	   76.6897	   15.2769	       2.4	4.24477e+07	   76.6874	      15.3	       2.4	5.83942e+07	   76.7095	      15.3	       2.4	6.81474e+07	   76.7136	    15.276	       2.4	5.06896e+07	   76.6885	   15.2884	       2.4	5.01019e+07	   76.6984	      15.3	       2.4	6.32632e+07	   76.7115	    15.288	       2.4	5.90536e+07	   76.7016	   15.2765	       2.4	4.65538e+07	
         R10	   2365	     76.67	    15.283	       2.4	3.93543e+07	     76.67	      15.3	       2.4	5.17005e+07	   76.6874	      15.3	       2.4	5.86344e+07	   76.6897	   15.2769	       2.4	4.24366e+07	     76.67	   15.2915	       2.4	4.53558e+07	   76.6787	      15.3	       2.4	5.51505e+07	   76.6885	   15.2884	       2.4	5.02201e+07	   76.6798	   15.2799	       2.4	4.08467e+07	
         R10	   2366	   76.6889	   15.2345	       2.4	2.43719e+07	     76.67	    15.232	       2.4	1.97021e+07	     76.67	    15.249	       2.4	2.07674e+07	   76.6896	   15.2534	       2.4	2.88853e+07	   76.6794	   15.2333	       2.4	2.17847e+07	     76.67	   15.2405	       2.4	1.92913e+07	   76.6798	   15.2512	       2.4	2.46726e+07	   76.6892	    15.244	       2.4	2.57034e+07	
         R10	   2367	   76.6886	   15.2158	       2.4	2.64439e+07	     76.67	    15.215	       2.4	2.52774e+07	     76.67	    15.232	       2.4	1.96766e+07	   76.6889	   15.2345	       2.4	2.43427e+07	   76.6793	   15.2154	       2.4	2.56536e+07	     76.67	   15.2235	       2.4	2.19033e+07	   76.6794	   15.2333	       2.4	2.17539e+07	   76.6888	   15.2252	       2.4	2.45892e+07	
         R10	   2368	   76.6865	   15.2003	       2.4	3.20385e+07	     76.67	    15.198	       2.4	3.29793e+07	     76.67	    15.215	       2.4	2.53039e+07	   76.6886	   15.2158	       2.4	2.66618e+07	   76.6782	   15.1991	       2.4	3.23701e+07	     76.67	   15.2065	       2.4	2.89492e+07	   76.6793	   15.2154	       2.4	2.57534e+07	   76.6875	    15.208	       2.4	2.89965e+07	
         R10	   2369	   76.6932	   15.1804	       2.4	3.98931e+07	     76.67	    15.181	       2.4	4.10507e+07	     76.67	    15.198	       2.4	3.29496e+07	   76.6865	   15.2003	       2.4	3.20753e+07	   76.6816	   15.1807	       2.4	4.03351e+07	     76.67	   15.1895	       2.4	3.69315e+07	   76.6782	   15.1991	       2.4	 3.2364e+07	   76.6898	   15.1904	       2.4	3.58824e+07	
         R10	   2370	   76.6876	   15.1648	       2.4	4.65596e+07	     76.67	    15.164	       2.4	4.79926e+07	     76.67	    15.181	       2.4	4.10737e+07	   76.6932	   15.1804	       2.4	3.98697e+07	   76.6788	   15.1644	       2.4	4.72091e+07	     76.67	   15.1725	       2.4	 4.4502e+07	   76.6816	   15.1807	       2.4	4.03418e+07	   76.6904	   15.1726	       2.4	4.31252e+07	
         R10	   2371	   76.6876	   15.1464	       2.4	5.31892e+07	     76.67	    15.147	       2.4	5.39973e+07	     76.67	    15.164	       2.4	4.80326e+07	   76.6876	   15.1648	       2.4	4.64603e+07	   76.6788	   15.1467	       2.4	 5.3553e+07	     76.67	   15.1555	       2.4	5.10015e+07	   76.6788	   15.1644	       2.4	4.71828e+07	   76.6876	   15.1556	       2.4	4.97901e+07	
         R10	   2372	   76.6921	   15.1262	       2.4	5.85356e+07	     76.67	     15.13	       2.4	5.90707e+07	     76.67	    15.147	       2.4	5.39139e+07	   76.6876	   15.1464	       2.4	5.31467e+07	   76.6811	   15.1281	       2.4	5.87566e+07	     76.67	   15.1385	       2.4	5.64864e+07	   76.6788	   15.1467	       2.4	5.34863e+07	   76.6898	   15.1363	       2.4	5.58251e+07	
         R10	   2373	   76.6545	    15.113	       2.4	6.38137e+07	    76.653	     15.13	       2.4	5.99686e+07	     76.67	     15.13	       2.4	5.90915e+07	   76.6693	   15.1129	       2.4	6.29047e+07	   76.6537	   15.1215	       2.4	6.18907e+07	   76.6615	     15.13	       2.4	5.94897e+07	   76.6697	   15.1214	       2.4	6.09901e+07	   76.6619	   15.1129	       2.4	6.33308e+07	
         R10	   2374	    76.635	   15.1034	       2.4	6.58517e+07	    76.636	     15.13	       2.4	6.19514e+07	    76.653	     15.13	       2.4	6.00427e+07	   76.6545	    15.113	       2.4	6.39884e+07	   76.6355	   15.1167	       2.4	6.38961e+07	   76.6445	     15.13	       2.4	6.09561e+07	   76.6537	   15.1215	       2.4	6.20149e+07	   76.6447	   15.1082	       2.4	6.48531e+07	
         R10	   2375	   76.6175	   15.1082	       2.4	6.62835e+07	    76.619	     15.13	       2.4	6.33577e+07	    76.636	     15.13	       2.4	6.18227e+07	    76.635	   15.1034	       2.4	6.59977e+07	   76.6182	   15.1191	       2.4	6.48159e+07	   76.6275	     15.13	       2.4	6.25429e+07	   76.6355	   15.1167	       2.4	6.39078e+07	   76.6262	   15.1058	       2.4	 6.6088e+07	
         R10	   2376	    76.601	   15.1096	       2.4	6.70836e+07	    76.602	     15.13	       2.4	6.50557e+07	    76.619	     15.13	       2.4	6.33322e+07	   76.6175	   15.1082	       2.4	6.62199e+07	   76.6015	   15.1198	       2.4	6.60618e+07	   76.6105	     15.13	       2.4	6.41462e+07	   76.6182	   15.1191	       2.4	6.47705e+07	   76.6092	   15.1089	       2.4	6.66061e+07	
         R10	   2377	   76.5864	   15.1134	       2.4	6.76241e+07	    76.585	     15.13	       2.4	6.68224e+07	    76.602	     15.13	       2.4	6.51108e+07	    76.601	   15.1096	       2.4	6.71157e+07	   76.5857	   15.1217	       2.4	6.72154e+07	   76.5935	     15.13	       2.4	 6.5919e+07	   76.6015	   15.1198	       2.4	6.61069e+07	   76.5937	   15.1115	       2.4	6.73255e+07	
         R10	   2378	   76.5671	   15.1111	       2.4	6.88302e+07	    76.568	     15.13	       2.4	6.81642e+07	    76.585	     15.13	       2.4	6.68257e+07	   76.5864	   15.1134	       2.4	6.76868e+07	   76.5676	   15.1206	       2.4	6.84717e+07	   76.5765	     15.13	       2.4	6.74425e+07	   76.5857	   15.1217	       2.4	 6.7248e+07	   76.5768	   15.1123	       2.4	6.81596e+07	
         R10	   2379	   76.5509	   15.1161	       2.4	6.89206e+07	    76.551	     15.13	       2.4	6.92694e+07	    76.568	     15.13	       2.4	6.81512e+07	   76.5671	   15.1111	       2.4	6.89648e+07	    76.551	   15.1231	       2.4	6.90684e+07	   76.5595	     15.13	       2.4	6.86444e+07	   76.5676	   15.1206	       2.4	6.85298e+07	   76.5591	   15.1136	       2.4	6.88749e+07	
         R10	   2380	    76.534	   15.1112	       2.4	 7.0422e+07	    76.534	     15.13	       2.4	6.92177e+07	    76.551	     15.13	       2.4	6.92828e+07	   76.5509	   15.1161	       2.4	6.88368e+07	    76.534	   15.1206	       2.4	 6.9734e+07	   76.5425	     15.13	       2.4	 6.9156e+07	    76.551	   15.1231	       2.4	6.90389e+07	   76.5425	   15.1137	       2.4	 6.9452e+07	
         R10	   2381	   76.5194	   15.1085	       2.4	7.10852e+07	    76.517	     15.13	       2.4	6.96458e+07	    76.534	     15.13	       2.4	6.92486e+07	    76.534	   15.1112	       2.4	7.03384e+07	   76.5182	   15.1193	       2.4	7.02407e+07	   76.5255	     15.13	       2.4	6.92944e+07	    76.534	   15.1206	       2.4	 6.9706e+07	   76.5267	   15.1098	       2.4	7.05529e+07	
         R10	   2382	      76.5	   15.1126	       2.4	7.42738e+07	      76.5	     15.13	       2.4	7.06929e+07	    76.517	     15.13	       2.4	 6.9586e+07	   76.5194	   15.1085	       2.4	7.14651e+07	      76.5	   15.1213	       2.4	7.23309e+07	   76.5085	     15.13	       2.4	6.98808e+07	   76.5182	   15.1193	       2.4	7.03832e+07	   76.5097	   15.1106	       2.4	7.25596e+07	
         R10	   2383	   76.5242	   15.0858	       2.4	 7.3874e+07	      76.5	   15.0905	       2.4	8.00121e+07	      76.5	   15.1126	       2.4	7.42283e+07	   76.5194	   15.1085	       2.4	7.14777e+07	   76.5121	   15.0881	       2.4	7.64389e+07	      76.5	   15.1016	       2.4	7.69511e+07	   76.5097	   15.1106	       2.4	7.25448e+07	   76.5218	   15.0972	       2.4	7.25963e+07	
         R10	   2384	   76.5286	   15.0591	       2.4	 7.6301e+07	      76.5	   15.0635	       2.4	8.81095e+07	      76.5	   15.0905	       2.4	8.00386e+07	   76.5242	   15.0858	       2.4	7.38379e+07	   76.5143	   15.0613	       2.4	8.15125e+07	      76.5	    15.077	       2.4	8.39138e+07	   76.5121	   15.0881	       2.4	7.64507e+07	   76.5264	   15.0725	       2.4	7.50032e+07	
         R10	   2385	   76.5336	   15.0271	       2.4	7.88637e+07	      76.5	   15.0317	       2.4	9.73964e+07	      76.5	   15.0635	       2.4	8.81004e+07	   76.5286	   15.0591	       2.4	 7.6379e+07	   76.5168	   15.0294	       2.4	8.72632e+07	      76.5	   15.0476	       2.4	9.26273e+07	   76.5143	   15.0613	       2.4	8.15502e+07	   76.5311	   15.0431	       2.4	7.75687e+07	
         R10	   2386	   76.5391	   14.9908	       2.4	7.97548e+07	      76.5	   14.9952	       2.4	1.07088e+08	      76.5	   15.0317	       2.4	9.74713e+07	   76.5336	   15.0271	       2.4	7.89136e+07	   76.5196	    14.993	       2.4	9.24137e+07	      76.5	   15.0135	       2.4	1.02196e+08	   76.5168	   15.0294	       2.4	8.73325e+07	   76.5363	    15.009	       2.4	7.93074e+07	
         R10	   2387	   76.5446	   14.9497	       2.4	7.88363e+07	      76.5	   14.9538	       2.4	1.15474e+08	      76.5	   14.9952	       2.4	1.07209e+08	   76.5391	   14.9908	       2.4	7.98254e+07	   76.5223	   14.9517	       2.4	9.60832e+07	      76.5	   14.9745	       2.4	1.11289e+08	   76.5196	    14.993	       2.4	9.25189e+07	   76.5419	   14.9703	       2.4	7.93122e+07	
         R10	   2388	   76.5495	   14.9038	       2.4	7.56186e+07	      76.5	   14.9076	       2.4	1.20831e+08	      76.5	   14.9538	       2.4	1.15629e+08	   76.5446	   14.9497	       2.4	7.89294e+07	   76.5247	   14.9057	       2.4	9.71963e+07	      76.5	   14.9307	       2.4	1.18202e+08	   76.5223	   14.9517	       2.4	 9.6225e+07	   76.5471	   14.9267	       2.4	7.72472e+07	
         R10	   2389	   76.5535	   14.8532	       2.4	6.99273e+07	      76.5	   14.8567	       2.4	1.21286e+08	      76.5	   14.9076	       2.4	1.21056e+08	   76.5495	   14.9038	       2.4	7.58056e+07	   76.5267	   14.8549	       2.4	 9.4631e+07	      76.5	   14.8821	       2.4	1.21159e+08	   76.5247	   14.9057	       2.4	9.74142e+07	   76.5515	   14.8785	       2.4	7.28134e+07	
         R10	   2390	   76.5569	   14.7973	       2.4	6.09333e+07	      76.5	   14.8009	       2.4	1.15213e+08	      76.5	   14.8567	       2.4	1.21678e+08	   76.5535	   14.8532	       2.4	7.02729e+07	   76.5285	   14.7991	       2.4	8.69744e+07	      76.5	   14.8288	       2.4	1.18441e+08	   76.5267	   14.8549	       2.4	9.50071e+07	   76.5552	   14.8253	       2.4	6.54664e+07	
         R10	   2391	   76.5606	   14.7368	       2.4	4.89114e+07	      76.5	   14.7403	       2.4	1.00714e+08	      76.5	   14.8009	       2.4	1.15859e+08	   76.5569	   14.7973	       2.4	6.16063e+07	   76.5303	   14.7386	       2.4	7.29902e+07	      76.5	   14.7706	       2.4	1.08282e+08	   76.5285	   14.7991	       2.4	8.76812e+07	   76.5588	   14.7671	       2.4	5.48572e+07	
         R10	   2392	   76.5687	   14.6702	       2.4	3.25896e+07	      76.5	   14.6749	       2.4	7.82698e+07	      76.5	   14.7403	       2.4	1.02041e+08	   76.5606	   14.7368	       2.4	4.89503e+07	   76.5344	   14.6726	       2.4	5.02503e+07	      76.5	   14.7076	       2.4	 9.0109e+07	   76.5303	   14.7386	       2.4	7.42024e+07	   76.5647	   14.7035	       2.4	 3.8645e+07	
         R10	   2393	   76.5786	   14.6007	       2.4	2.86298e+07	      76.5	   14.6048	       2.4	5.13394e+07	      76.5	   14.6749	       2.4	8.06897e+07	   76.5687	   14.6702	       2.4	3.31458e+07	   76.5393	   14.6027	       2.4	2.36062e+07	      76.5	   14.6398	       2.4	6.56616e+07	   76.5344	   14.6726	       2.4	5.39063e+07	   76.5737	   14.6355	       2.4	2.04534e+07	
         R10	   2394	    76.583	   14.5278	       2.4	8.37358e+07	    76.581	     14.45	       2.4	 1.2715e+08	      76.5	     14.45	       2.4	1.12931e+08	      76.5	   14.5298	       2.4	1.12459e+08	    76.582	   14.4889	       2.4	 7.5463e+07	   76.5405	     14.45	       2.4	1.00414e+08	      76.5	   14.4899	       2.4	2.60022e+07	   76.5415	   14.5288	       2.4	6.30733e+07	
         R10	   2395	   76.7597	    14.611	       2.4	5.67954e+07	    76.756	   14.5333	       2.4	9.24575e+07	   76.6688	   14.5306	       2.4	8.92092e+07	   76.6677	   14.6112	       2.4	4.45357e+07	   76.7578	   14.5721	       2.4	6.92463e+07	   76.7124	   14.5319	       2.4	9.06046e+07	   76.6683	   14.5709	       2.4	6.44563e+07	   76.7137	   14.6111	       2.4	 5.0628e+07	
         R10	   2396	   76.8478	   14.6216	       2.4	5.41613e+07	    76.848	   14.5367	       2.4	8.46631e+07	    76.756	   14.5333	       2.4	9.19843e+07	   76.7597	    14.611	       2.4	5.21546e+07	   76.8479	   14.5792	       2.4	6.15087e+07	    76.802	    14.535	       2.4	8.80654e+07	   76.7578	   14.5721	       2.4	6.71964e+07	   76.8037	   14.6163	       2.4	5.30688e+07	
         R10	   2397	    76.939	   14.6275	       2.4	5.10827e+07	   76.9416	   14.5403	       2.4	7.87526e+07	    76.848	   14.5367	       2.4	8.44147e+07	   76.8478	   14.6216	       2.4	5.45351e+07	   76.9403	   14.5839	       2.4	5.32383e+07	   76.8948	   14.5385	       2.4	8.14067e+07	   76.8479	   14.5792	       2.4	6.13067e+07	   76.8934	   14.6246	       2.4	5.26873e+07	
         R10	   2398	   77.0371	   14.6324	       2.4	4.79857e+07	     77.04	   14.5438	       2.4	7.32783e+07	   76.9416	   14.5403	       2.4	7.88498e+07	    76.939	   14.6275	       2.4	 5.0999e+07	   77.0386	   14.5881	       2.4	 4.5062e+07	   76.9908	    14.542	       2.4	7.59436e+07	   76.9403	   14.5839	       2.4	5.30425e+07	   76.9881	   14.6299	       2.4	4.93494e+07	
         R10	   2399	   77.1408	   14.6425	       2.4	4.78053e+07	   77.1416	   14.5484	       2.4	6.68188e+07	     77.04	   14.5438	       2.4	7.33946e+07	   77.0371	   14.6324	       2.4	4.74467e+07	   77.1412	   14.5954	       2.4	3.76408e+07	   77.0908	   14.5461	       2.4	7.00616e+07	   77.0386	   14.5881	       2.4	4.47961e+07	    77.089	   14.6374	       2.4	4.74392e+07	
         R10	   2400	   77.2452	   14.6541	       2.4	5.23486e+07	   77.2456	   14.5528	       2.4	6.03349e+07	   77.1416	   14.5484	       2.4	6.68514e+07	   77.1408	   14.6425	       2.4	4.77362e+07	   77.2454	   14.6034	       2.4	3.18982e+07	   77.1936	   14.5506	       2.4	6.35673e+07	   77.1412	   14.5954	       2.4	3.76336e+07	    77.193	   14.6483	       2.4	4.98708e+07	
         R10	   2401	   77.2398	   14.7588	       2.4	1.00853e+08	   77.2452	   14.6541	       2.4	5.82249e+07	   77.1408	   14.6425	       2.4	6.11963e+07	   77.1292	   14.7239	       2.4	8.71158e+07	   77.2425	   14.7064	       2.4	7.73734e+07	    77.193	   14.6483	       2.4	5.92953e+07	    77.135	   14.6832	       2.4	6.99275e+07	   77.1845	   14.7413	       2.4	 9.3938e+07	
         R10	   2402	   77.1789	   14.9612	       2.4	9.91588e+07	   77.2651	   14.9563	       2.4	1.00935e+08	   77.2648	   14.8626	       2.4	1.14007e+08	    77.177	   14.8792	       2.4	1.14173e+08	    77.222	   14.9587	       2.4	1.00043e+08	   77.2649	   14.9094	       2.4	1.07268e+08	   77.2209	   14.8709	       2.4	1.13965e+08	    77.178	   14.9202	       2.4	1.06634e+08	
         R10	   2403	   77.1855	   15.0468	       2.4	6.69898e+07	   77.2667	   15.0442	       2.4	 6.5458e+07	   77.2651	   14.9563	       2.4	1.01245e+08	   77.1789	   14.9612	       2.4	9.97554e+07	   77.2261	   15.0455	       2.4	6.61694e+07	   77.2659	   15.0002	       2.4	8.31567e+07	    77.222	   14.9587	       2.4	1.00478e+08	   77.1822	    15.004	       2.4	8.30903e+07	
         R10	   2404	    77.192	   15.1331	       2.4	2.71048e+07	   77.2696	   15.1314	       2.4	 2.5148e+07	   77.2667	   15.0442	       2.4	6.55605e+07	   77.1855	   15.0468	       2.4	6.73594e+07	   77.2308	   15.1322	       2.4	2.60724e+07	   77.2682	   15.0878	       2.4	 3.9212e+07	   77.2261	   15.0455	       2.4	 6.6389e+07	   77.1887	     15.09	       2.4	4.16299e+07	
         R10	   2405	   77.1965	   15.2182	       2.4	8.65671e+07	   77.2718	   15.2169	       2.4	9.03787e+07	   77.2696	   15.1314	       2.4	2.53443e+07	    77.192	   15.1331	       2.4	2.70701e+07	   77.2341	   15.2176	       2.4	8.84639e+07	   77.2707	   15.1741	       2.4	5.04996e+07	   77.2308	   15.1322	       2.4	2.61719e+07	   77.1942	   15.1757	       2.4	4.86154e+07	
         R10	   2406	   77.1288	   15.2245	       2.4	8.69791e+07	   77.1965	   15.2182	       2.4	8.68437e+07	    77.192	   15.1331	       2.4	2.64413e+07	   77.1201	   15.1387	       2.4	2.93179e+07	   77.1627	   15.2213	       2.4	8.69109e+07	   77.1942	   15.1757	       2.4	4.86929e+07	   77.1561	   15.1359	       2.4	 2.7723e+07	   77.1245	   15.1816	       2.4	5.01726e+07	
         R10	   2407	   77.0529	   15.1829	       2.4	4.47312e+07	   77.0643	   15.2363	       2.4	 9.4649e+07	   77.1288	   15.2245	       2.4	8.72137e+07	   77.1201	   15.1387	       2.4	2.63381e+07	   77.0586	   15.2096	       2.4	6.81904e+07	   77.0966	   15.2304	       2.4	9.08883e+07	   77.1245	   15.1816	       2.4	4.90214e+07	   77.0865	   15.1608	       2.4	3.26107e+07	
         R10	   2408	   76.9976	    15.186	       2.4	4.44688e+07	   77.0023	    15.244	       2.4	9.60039e+07	   77.0643	   15.2363	       2.4	9.42867e+07	   77.0529	   15.1829	       2.4	4.45258e+07	   76.9999	    15.215	       2.4	6.82142e+07	   77.0333	   15.2402	       2.4	9.51356e+07	   77.0586	   15.2096	       2.4	6.83336e+07	   77.0252	   15.1845	       2.4	4.42957e+07	
         R10	   2409	   76.9421	   15.1936	       2.4	4.57617e+07	   76.9467	   15.2467	       2.4	8.88778e+07	   77.0023	    15.244	       2.4	9.61307e+07	   76.9976	    15.186	       2.4	4.41657e+07	   76.9444	   15.2201	       2.4	6.54001e+07	   76.9745	   15.2454	       2.4	 9.2497e+07	   76.9999	    15.215	       2.4	6.81934e+07	   76.9699	   15.1898	       2.4	4.49496e+07	
         R10	   2410	   76.8917	   15.2015	       2.4	4.57297e+07	   76.8962	   15.2505	       2.4	 8.2897e+07	   76.9467	   15.2467	       2.4	8.88297e+07	   76.9421	   15.1936	       2.4	4.55451e+07	   76.8939	    15.226	       2.4	6.23933e+07	   76.9214	   15.2486	       2.4	 8.5858e+07	   76.9444	   15.2201	       2.4	6.53123e+07	   76.9169	   15.1976	       2.4	4.56152e+07	
         R10	   2411	   76.8462	   15.2119	       2.4	4.60941e+07	   76.8503	   15.2554	       2.4	 7.6739e+07	   76.8962	   15.2505	       2.4	8.29516e+07	   76.8917	   15.2015	       2.4	4.56957e+07	   76.8483	   15.2336	       2.4	5.97285e+07	   76.8733	   15.2529	       2.4	7.98434e+07	   76.8939	    15.226	       2.4	 6.2411e+07	    76.869	   15.2067	       2.4	4.58864e+07	
         R10	   2412	   76.8046	   15.2233	       2.4	4.52824e+07	   76.8092	   15.2609	       2.4	7.07217e+07	   76.8503	   15.2554	       2.4	 7.6785e+07	   76.8462	   15.2119	       2.4	4.60501e+07	   76.8069	   15.2421	       2.4	5.66022e+07	   76.8297	   15.2581	       2.4	 7.3753e+07	   76.8483	   15.2336	       2.4	5.97487e+07	   76.8254	   15.2176	       2.4	4.56583e+07	
         R10	   2413	   76.7697	   15.2334	       2.4	 4.2917e+07	   76.7727	   15.2663	       2.4	6.38939e+07	   76.8092	   15.2609	       2.4	7.06761e+07	   76.8046	   15.2233	       2.4	4.52656e+07	   76.7712	   15.2498	       2.4	5.22945e+07	   76.7909	   15.2636	       2.4	6.72828e+07	   76.8069	   15.2421	       2.4	5.65772e+07	   76.7872	   15.2283	       2.4	4.40808e+07	
         R10	   2414	   76.7375	   15.2429	       2.4	3.91488e+07	   76.7408	   15.2715	       2.4	5.71454e+07	   76.7727	   15.2663	       2.4	6.38764e+07	   76.7697	   15.2334	       2.4	4.31455e+07	   76.7392	   15.2572	       2.4	 4.7228e+07	   76.7567	   15.2689	       2.4	6.05013e+07	   76.7712	   15.2498	       2.4	 5.2376e+07	   76.7536	   15.2381	       2.4	4.11365e+07	
         R10	   2415	   76.7103	    15.256	       2.4	3.74317e+07	   76.7136	    15.276	       2.4	5.07509e+07	   76.7408	   15.2715	       2.4	5.72958e+07	   76.7375	   15.2429	       2.4	3.89773e+07	   76.7119	    15.266	       2.4	4.36441e+07	   76.7272	   15.2737	       2.4	5.40045e+07	   76.7392	   15.2572	       2.4	4.72216e+07	   76.7239	   15.2495	       2.4	3.80938e+07	
         R10	   2416	   76.6896	   15.2534	       2.4	2.88222e+07	     76.67	    15.249	       2.4	2.08587e+07	     76.67	    15.266	       2.4	2.85333e+07	   76.6897	   15.2769	       2.4	4.24669e+07	   76.6798	   15.2512	       2.4	2.46839e+07	     76.67	   15.2575	       2.4	2.40349e+07	   76.6798	   15.2714	       2.4	3.54041e+07	   76.6896	   15.2651	       2.4	3.50161e+07	
         R10	   2417	   76.7091	   15.1987	       2.4	3.31986e+07	   76.6865	   15.2003	       2.4	3.19415e+07	   76.6886	   15.2158	       2.4	2.67011e+07	   76.7114	   15.2154	       2.4	2.90469e+07	   76.6978	   15.1995	       2.4	3.23857e+07	   76.6875	    15.208	       2.4	2.89643e+07	      76.7	   15.2156	       2.4	2.77657e+07	   76.7103	    15.207	       2.4	3.08252e+07	
         R10	   2418	   76.7123	   15.1552	       2.4	4.84604e+07	   76.6876	   15.1648	       2.4	4.64929e+07	   76.6932	   15.1804	       2.4	4.00862e+07	   76.7113	   15.1734	       2.4	4.25405e+07	      76.7	     15.16	       2.4	4.74437e+07	   76.6904	   15.1726	       2.4	4.31921e+07	   76.7023	   15.1769	       2.4	 4.1291e+07	   76.7118	   15.1643	       2.4	4.54103e+07	
         R10	   2419	   76.7107	   15.1303	       2.4	5.73377e+07	   76.6921	   15.1262	       2.4	5.86215e+07	   76.6876	   15.1464	       2.4	5.32013e+07	   76.7123	   15.1552	       2.4	4.86723e+07	   76.7014	   15.1282	       2.4	5.79463e+07	   76.6898	   15.1363	       2.4	5.58933e+07	      76.7	   15.1508	       2.4	5.08112e+07	   76.7115	   15.1427	       2.4	 5.2916e+07	
         R10	   2420	   76.6693	   15.1129	       2.4	6.27797e+07	     76.67	     15.13	       2.4	5.91555e+07	   76.6921	   15.1262	       2.4	5.88274e+07	   76.6904	   15.1041	       2.4	6.40645e+07	   76.6697	   15.1214	       2.4	6.09568e+07	   76.6811	   15.1281	       2.4	5.89507e+07	   76.6913	   15.1151	       2.4	6.14311e+07	   76.6799	   15.1085	       2.4	6.33817e+07	
         R10	   2421	   76.6523	   15.0878	       2.4	 6.7119e+07	   76.6545	    15.113	       2.4	6.35838e+07	   76.6693	   15.1129	       2.4	6.32395e+07	   76.6693	   15.0868	       2.4	6.68216e+07	   76.6534	   15.1004	       2.4	6.53466e+07	   76.6619	   15.1129	       2.4	6.33812e+07	   76.6693	   15.0998	       2.4	6.50143e+07	   76.6608	   15.0873	       2.4	6.69443e+07	
         R10	   2422	   76.6127	   15.0814	       2.4	6.78693e+07	   76.6175	   15.1082	       2.4	6.61196e+07	    76.635	   15.1034	       2.4	 6.6203e+07	    76.627	   15.0821	       2.4	6.74853e+07	   76.6151	   15.0948	       2.4	6.69891e+07	   76.6262	   15.1058	       2.4	6.60916e+07	    76.631	   15.0928	       2.4	6.67852e+07	   76.6199	   15.0817	       2.4	6.76671e+07	
         R10	   2423	   76.5956	   15.0879	       2.4	6.81919e+07	    76.601	   15.1096	       2.4	6.71772e+07	   76.6175	   15.1082	       2.4	6.62435e+07	   76.6127	   15.0814	       2.4	 6.8168e+07	   76.5983	   15.0988	       2.4	6.76459e+07	   76.6092	   15.1089	       2.4	6.66722e+07	   76.6151	   15.0948	       2.4	6.71919e+07	   76.6042	   15.0846	       2.4	6.80934e+07	
         R10	   2424	   76.5803	    15.096	       2.4	6.82663e+07	   76.5864	   15.1134	       2.4	 6.7795e+07	    76.601	   15.1096	       2.4	 6.7066e+07	   76.5956	   15.0879	       2.4	6.81695e+07	   76.5833	   15.1047	       2.4	6.80032e+07	   76.5937	   15.1115	       2.4	6.73775e+07	   76.5983	   15.0988	       2.4	6.75782e+07	   76.5879	   15.0919	       2.4	6.81867e+07	
         R10	   2425	   76.5482	   15.0886	       2.4	6.98675e+07	   76.5242	   15.0858	       2.4	7.37422e+07	   76.5194	   15.1085	       2.4	7.13762e+07	    76.534	   15.1112	       2.4	7.01987e+07	   76.5362	   15.0872	       2.4	 7.1368e+07	   76.5218	   15.0972	       2.4	 7.2484e+07	   76.5267	   15.1098	       2.4	7.06067e+07	   76.5411	   15.0999	       2.4	6.99876e+07	
         R10	   2426	   76.5564	   15.0612	       2.4	7.04054e+07	   76.5286	   15.0591	       2.4	7.60708e+07	   76.5242	   15.0858	       2.4	7.36524e+07	   76.5482	   15.0886	       2.4	7.00642e+07	   76.5425	   15.0602	       2.4	7.26216e+07	   76.5264	   15.0725	       2.4	 7.4791e+07	   76.5362	   15.0872	       2.4	7.14305e+07	   76.5523	   15.0749	       2.4	7.02151e+07	
         R10	   2427	   76.5679	   15.0314	       2.4	6.89405e+07	   76.5336	   15.0271	       2.4	 7.8565e+07	   76.5286	   15.0591	       2.4	7.61802e+07	   76.5564	   15.0612	       2.4	7.03066e+07	   76.5507	   15.0293	       2.4	 7.2756e+07	   76.5311	   15.0431	       2.4	7.73222e+07	   76.5425	   15.0602	       2.4	7.26173e+07	   76.5621	   15.0463	       2.4	6.96212e+07	
         R10	   2428	   76.5782	   14.9966	       2.4	6.62527e+07	   76.5391	   14.9908	       2.4	7.96155e+07	   76.5336	   15.0271	       2.4	7.85324e+07	   76.5679	   15.0314	       2.4	6.88683e+07	   76.5587	   14.9937	       2.4	7.15972e+07	   76.5363	    15.009	       2.4	7.90448e+07	   76.5507	   15.0293	       2.4	7.27133e+07	    76.573	    15.014	       2.4	 6.7559e+07	
         R10	   2429	   76.5886	   14.9548	       2.4	 6.1902e+07	   76.5446	   14.9497	       2.4	7.87254e+07	   76.5391	   14.9908	       2.4	7.96537e+07	   76.5782	   14.9966	       2.4	6.62038e+07	   76.5666	   14.9523	       2.4	6.86312e+07	   76.5419	   14.9703	       2.4	7.91686e+07	   76.5587	   14.9937	       2.4	7.15974e+07	   76.5834	   14.9757	       2.4	6.40282e+07	
         R10	   2430	   76.5985	   14.9083	       2.4	  5.574e+07	   76.5495	   14.9038	       2.4	7.57632e+07	   76.5446	   14.9497	       2.4	7.88037e+07	   76.5886	   14.9548	       2.4	 6.1922e+07	    76.574	   14.9061	       2.4	6.36151e+07	   76.5471	   14.9267	       2.4	7.72542e+07	   76.5666	   14.9523	       2.4	6.86856e+07	   76.5935	   14.9316	       2.4	5.87362e+07	
         R10	   2431	   76.6062	   14.8578	       2.4	4.90704e+07	   76.5535	   14.8532	       2.4	7.02069e+07	   76.5495	   14.9038	       2.4	7.59005e+07	   76.5985	   14.9083	       2.4	5.58836e+07	   76.5798	   14.8555	       2.4	5.70058e+07	   76.5515	   14.8785	       2.4	 7.2995e+07	    76.574	   14.9061	       2.4	6.37648e+07	   76.6023	    14.883	       2.4	5.22604e+07	
         R10	   2432	   76.6114	    14.803	       2.4	4.26573e+07	   76.5569	   14.7973	       2.4	6.14006e+07	   76.5535	   14.8532	       2.4	7.05126e+07	   76.6062	   14.8578	       2.4	4.93974e+07	   76.5842	   14.8002	       2.4	  4.889e+07	   76.5552	   14.8253	       2.4	6.58379e+07	   76.5798	   14.8555	       2.4	 5.7322e+07	   76.6088	   14.8304	       2.4	4.55425e+07	
         R10	   2433	   76.6176	    14.744	       2.4	3.83068e+07	   76.5606	   14.7368	       2.4	4.89814e+07	   76.5569	   14.7973	       2.4	6.20304e+07	   76.6114	    14.803	       2.4	4.30612e+07	   76.5891	   14.7404	       2.4	3.97609e+07	   76.5588	   14.7671	       2.4	5.50874e+07	   76.5842	   14.8002	       2.4	 4.9341e+07	   76.6145	   14.7735	       2.4	3.97911e+07	
         R10	   2434	   76.6286	   14.6811	       2.4	4.15679e+07	   76.5687	   14.6702	       2.4	3.30371e+07	   76.5606	   14.7368	       2.4	4.97606e+07	   76.6176	    14.744	       2.4	3.91688e+07	   76.5986	   14.6756	       2.4	3.31497e+07	   76.5647	   14.7035	       2.4	3.95101e+07	   76.5891	   14.7404	       2.4	4.01175e+07	   76.6231	   14.7126	       2.4	3.76561e+07	
         R10	   2435	    76.583	   14.5278	       2.4	1.01664e+08	      76.5	   14.5298	       2.4	6.97453e+07	      76.5	   14.6048	       2.4	5.59786e+07	   76.5786	   14.6007	       2.4	2.84379e+07	   76.5415	   14.5288	       2.4	1.95635e+07	      76.5	   14.5673	       2.4	6.15628e+07	   76.5393	   14.6027	       2.4	3.48578e+07	   76.5808	   14.5643	       2.4	 4.8251e+07	
         R10	   2436	   76.6677	   14.6112	       2.4	4.84505e+07	   76.6688	   14.5306	       2.4	8.42479e+07	    76.583	   14.5278	       2.4	7.79985e+07	   76.5786	   14.6007	       2.4	2.47312e+07	   76.6683	   14.5709	       2.4	6.39469e+07	   76.6259	   14.5292	       2.4	8.11082e+07	   76.5808	   14.5643	       2.4	3.96816e+07	   76.6232	   14.6059	       2.4	3.13708e+07	
         R10	   2437	   76.8447	   14.7012	       2.4	7.62091e+07	   76.8478	   14.6216	       2.4	7.64519e+07	   76.7597	    14.611	       2.4	 7.9761e+07	   76.7659	    14.686	       2.4	6.71317e+07	   76.8462	   14.6614	       2.4	7.24499e+07	   76.8037	   14.6163	       2.4	7.80127e+07	   76.7628	   14.6485	       2.4	6.98449e+07	   76.8053	   14.6936	       2.4	7.15687e+07	
         R10	   2438	   76.9338	   14.7093	       2.4	8.12029e+07	    76.939	   14.6275	       2.4	6.96114e+07	   76.8478	   14.6216	       2.4	7.54864e+07	   76.8447	   14.7012	       2.4	7.68699e+07	   76.9364	   14.6684	       2.4	7.13357e+07	   76.8934	   14.6246	       2.4	7.24721e+07	   76.8462	   14.6614	       2.4	 7.2304e+07	   76.8893	   14.7053	       2.4	7.89043e+07	
         R10	   2439	   77.0285	   14.7151	       2.4	8.44439e+07	   77.0371	   14.6324	       2.4	6.14779e+07	    76.939	   14.6275	       2.4	6.89973e+07	   76.9338	   14.7093	       2.4	8.11832e+07	   77.0328	   14.6738	       2.4	6.89532e+07	   76.9881	   14.6299	       2.4	6.51773e+07	   76.9364	   14.6684	       2.4	7.10786e+07	   76.9811	   14.7122	       2.4	8.26877e+07	
         R10	   2440	   77.1292	   14.7239	       2.4	8.76465e+07	   77.1408	   14.6425	       2.4	 5.9517e+07	   77.0371	   14.6324	       2.4	 6.1427e+07	   77.0285	   14.7151	       2.4	8.37924e+07	    77.135	   14.6832	       2.4	6.94273e+07	    77.089	   14.6374	       2.4	6.03357e+07	   77.0328	   14.6738	       2.4	6.86299e+07	   77.0788	   14.7195	       2.4	8.55223e+07	
         R10	   2441	   77.1057	   14.8022	       2.4	1.09085e+08	   77.1292	   14.7239	       2.4	8.78407e+07	   77.0285	   14.7151	       2.4	8.71243e+07	   77.0172	    14.793	       2.4	1.03293e+08	   77.1175	   14.7631	       2.4	9.77026e+07	   77.0788	   14.7195	       2.4	8.74038e+07	   77.0228	   14.7541	       2.4	 9.4346e+07	   77.0615	   14.7976	       2.4	1.06112e+08	
         R10	   2442	   77.1158	   15.0527	       2.4	 6.7047e+07	   77.1855	   15.0468	       2.4	6.64487e+07	   77.1789	   14.9612	       2.4	9.97472e+07	   77.0921	   14.9639	       2.4	9.87336e+07	   77.1507	   15.0498	       2.4	6.66774e+07	   77.1822	    15.004	       2.4	8.28819e+07	   77.1355	   14.9625	       2.4	9.91977e+07	    77.104	   15.0083	       2.4	8.25961e+07	
         R10	   2443	   77.1201	   15.1387	       2.4	2.99083e+07	    77.192	   15.1331	       2.4	2.71841e+07	   77.1855	   15.0468	       2.4	6.73174e+07	   77.1158	   15.0527	       2.4	6.55983e+07	   77.1561	   15.1359	       2.4	 2.8414e+07	   77.1887	     15.09	       2.4	4.16329e+07	   77.1507	   15.0498	       2.4	6.64004e+07	    77.118	   15.0957	       2.4	4.22557e+07	
         R10	   2444	   76.9916	   15.1303	       2.4	3.72233e+07	   76.9976	    15.186	       2.4	4.45748e+07	   77.0529	   15.1829	       2.4	4.60621e+07	   77.0471	   15.1168	       2.4	3.89683e+07	   76.9946	   15.1582	       2.4	3.44685e+07	   77.0252	   15.1845	       2.4	4.52162e+07	     77.05	   15.1498	       2.4	3.19801e+07	   77.0194	   15.1236	       2.4	3.78387e+07	
         R10	   2445	   76.9343	   15.1412	       2.4	3.90443e+07	   76.9421	   15.1936	       2.4	4.58143e+07	   76.9976	    15.186	       2.4	4.37855e+07	   76.9916	   15.1303	       2.4	3.69575e+07	   76.9382	   15.1674	       2.4	3.69261e+07	   76.9699	   15.1898	       2.4	4.47741e+07	   76.9946	   15.1582	       2.4	3.38552e+07	    76.963	   15.1358	       2.4	3.78821e+07	
         R10	   2446	   76.8825	   15.1537	       2.4	3.97909e+07	   76.8917	   15.2015	       2.4	4.59406e+07	   76.9421	   15.1936	       2.4	4.57647e+07	   76.9343	   15.1412	       2.4	3.87546e+07	   76.8871	   15.1776	       2.4	3.85595e+07	   76.9169	   15.1976	       2.4	4.58317e+07	   76.9382	   15.1674	       2.4	3.67388e+07	   76.9084	   15.1475	       2.4	3.91757e+07	
         R10	   2447	   76.8353	    15.168	       2.4	3.99356e+07	   76.8462	   15.2119	       2.4	 4.6034e+07	   76.8917	   15.2015	       2.4	4.59224e+07	   76.8825	   15.1537	       2.4	3.97427e+07	   76.8408	   15.1899	       2.4	 3.9359e+07	    76.869	   15.2067	       2.4	4.59705e+07	   76.8871	   15.1776	       2.4	3.85305e+07	   76.8589	   15.1608	       2.4	3.97615e+07	
         R10	   2448	   76.7991	   15.1855	       2.4	3.79601e+07	   76.8046	   15.2233	       2.4	4.54237e+07	   76.8462	   15.2119	       2.4	4.59612e+07	   76.8353	    15.168	       2.4	4.02076e+07	   76.8018	   15.2044	       2.4	3.90436e+07	   76.8254	   15.2176	       2.4	4.56828e+07	   76.8408	   15.1899	       2.4	3.94425e+07	   76.8172	   15.1767	       2.4	3.89666e+07	
         R10	   2449	   76.7613	   15.1982	       2.4	3.67149e+07	   76.7697	   15.2334	       2.4	4.28771e+07	   76.8046	   15.2233	       2.4	4.57095e+07	   76.7991	   15.1855	       2.4	3.78616e+07	   76.7655	   15.2158	       2.4	3.74591e+07	   76.7872	   15.2283	       2.4	4.42893e+07	   76.8018	   15.2044	       2.4	3.91711e+07	   76.7802	   15.1918	       2.4	3.72449e+07	
         R10	   2450	   76.7326	   15.2166	       2.4	3.26645e+07	   76.7375	   15.2429	       2.4	3.93593e+07	   76.7697	   15.2334	       2.4	4.27883e+07	   76.7613	   15.1982	       2.4	3.51332e+07	    76.735	   15.2298	       2.4	3.45739e+07	   76.7536	   15.2381	       2.4	4.10557e+07	   76.7655	   15.2158	       2.4	3.66081e+07	   76.7469	   15.2074	       2.4	3.37365e+07	
         R10	   2451	   76.6896	   15.2534	       2.4	2.89124e+07	   76.6897	   15.2769	       2.4	4.22957e+07	   76.7136	    15.276	       2.4	5.02506e+07	   76.7103	    15.256	       2.4	 3.7543e+07	   76.6896	   15.2651	       2.4	3.49682e+07	   76.7016	   15.2765	       2.4	4.62623e+07	   76.7119	    15.266	       2.4	4.34544e+07	   76.6999	   15.2547	       2.4	 3.3186e+07	
         R10	   2452	   76.7084	   15.2345	       2.4	2.87249e+07	   76.7114	   15.2154	       2.4	2.98924e+07	   76.6886	   15.2158	       2.4	2.65745e+07	   76.6889	   15.2345	       2.4	2.43337e+07	   76.7099	   15.2249	       2.4	2.85584e+07	      76.7	   15.2156	       2.4	2.80641e+07	   76.6888	   15.2252	       2.4	2.46535e+07	   76.6986	   15.2345	       2.4	2.64346e+07	
         R10	   2453	   76.7113	   15.1734	       2.4	4.20234e+07	   76.6932	   15.1804	       2.4	4.03205e+07	   76.7091	   15.1987	       2.4	3.34601e+07	   76.7315	   15.1828	       2.4	3.88183e+07	   76.7023	   15.1769	       2.4	4.11633e+07	   76.7012	   15.1896	       2.4	3.63803e+07	   76.7203	   15.1907	       2.4	3.61228e+07	   76.7214	   15.1781	       2.4	 4.0111e+07	
         R10	   2454	   76.6904	   15.1041	       2.4	6.40224e+07	   76.6921	   15.1262	       2.4	5.85877e+07	   76.7107	   15.1303	       2.4	5.69458e+07	   76.7203	   15.0992	       2.4	 6.4068e+07	   76.6913	   15.1151	       2.4	6.12887e+07	   76.7014	   15.1282	       2.4	5.77229e+07	   76.7155	   15.1147	       2.4	6.04333e+07	   76.7053	   15.1017	       2.4	6.39748e+07	
         R10	   2455	    76.627	   15.0821	       2.4	6.76698e+07	    76.635	   15.1034	       2.4	6.61681e+07	   76.6523	   15.0878	       2.4	6.71618e+07	   76.6412	   15.0571	       2.4	6.88262e+07	    76.631	   15.0928	       2.4	 6.6892e+07	   76.6436	   15.0956	       2.4	6.66297e+07	   76.6468	   15.0724	       2.4	6.79386e+07	   76.6341	   15.0696	       2.4	6.82334e+07	
         R10	   2456	   76.6033	   15.0451	       2.4	6.74385e+07	   76.5679	   15.0314	       2.4	6.88324e+07	   76.5564	   15.0612	       2.4	7.05373e+07	   76.5799	   15.0691	       2.4	6.82304e+07	   76.5856	   15.0382	       2.4	6.73073e+07	   76.5621	   15.0463	       2.4	 6.9682e+07	   76.5681	   15.0652	       2.4	6.90016e+07	   76.5916	   15.0571	       2.4	6.77195e+07	
         R10	   2457	   76.6164	    15.008	       2.4	6.50845e+07	   76.5782	   14.9966	       2.4	6.66541e+07	   76.5679	   15.0314	       2.4	6.89004e+07	   76.6033	   15.0451	       2.4	6.73802e+07	   76.5973	   15.0023	       2.4	6.48816e+07	    76.573	    15.014	       2.4	6.77764e+07	   76.5856	   15.0382	       2.4	6.73353e+07	   76.6098	   15.0265	       2.4	6.62025e+07	
         R10	   2458	   76.6316	   14.9656	       2.4	6.19529e+07	   76.5886	   14.9548	       2.4	6.21807e+07	   76.5782	   14.9966	       2.4	6.65539e+07	   76.6164	    15.008	       2.4	6.50257e+07	   76.6101	   14.9602	       2.4	6.07638e+07	   76.5834	   14.9757	       2.4	6.43425e+07	   76.5973	   15.0023	       2.4	6.48019e+07	    76.624	   14.9868	       2.4	6.33808e+07	
         R10	   2459	   76.6473	   14.9172	       2.4	5.82706e+07	   76.5985	   14.9083	       2.4	5.59588e+07	   76.5886	   14.9548	       2.4	6.21684e+07	   76.6316	   14.9656	       2.4	6.16747e+07	   76.6229	   14.9128	       2.4	5.54247e+07	   76.5935	   14.9316	       2.4	5.89686e+07	   76.6101	   14.9602	       2.4	6.06109e+07	   76.6395	   14.9414	       2.4	 5.9722e+07	
         R10	   2460	   76.6615	   14.8663	       2.4	5.55634e+07	   76.6062	   14.8578	       2.4	4.90482e+07	   76.5985	   14.9083	       2.4	5.60966e+07	   76.6473	   14.9172	       2.4	5.80282e+07	   76.6338	    14.862	       2.4	 5.0209e+07	   76.6023	    14.883	       2.4	5.23385e+07	   76.6229	   14.9128	       2.4	5.53544e+07	   76.6544	   14.8918	       2.4	5.63841e+07	
         R10	   2461	   76.6748	    14.812	       2.4	5.48447e+07	   76.6114	    14.803	       2.4	4.27329e+07	   76.6062	   14.8578	       2.4	4.94348e+07	   76.6615	   14.8663	       2.4	 5.5869e+07	   76.6431	   14.8075	       2.4	4.66701e+07	   76.6088	   14.8304	       2.4	4.55909e+07	   76.6338	    14.862	       2.4	5.05296e+07	   76.6681	   14.8392	       2.4	5.48138e+07	
         R10	   2462	   76.6757	   14.7637	       2.4	5.34014e+07	   76.6176	    14.744	       2.4	3.79821e+07	   76.6114	    14.803	       2.4	4.28886e+07	   76.6748	    14.812	       2.4	 5.4548e+07	   76.6467	   14.7539	       2.4	 4.4211e+07	   76.6145	   14.7735	       2.4	3.96315e+07	   76.6431	   14.8075	       2.4	4.64227e+07	   76.6752	   14.7878	       2.4	5.35194e+07	
         R10	   2463	   76.6863	   14.7056	       2.4	5.54679e+07	   76.6286	   14.6811	       2.4	4.34104e+07	   76.6176	    14.744	       2.4	4.00951e+07	   76.6757	   14.7637	       2.4	5.39849e+07	   76.6574	   14.6933	       2.4	4.93091e+07	   76.6231	   14.7126	       2.4	3.85481e+07	   76.6467	   14.7539	       2.4	4.52406e+07	    76.681	   14.7346	       2.4	5.42111e+07	
         R10	   2464	   76.6677	   14.6112	       2.4	 6.9275e+07	   76.5786	   14.6007	       2.4	3.79179e+07	   76.5687	   14.6702	       2.4	3.44633e+07	   76.6286	   14.6811	       2.4	3.74684e+07	   76.6232	   14.6059	       2.4	5.34832e+07	   76.5737	   14.6355	       2.4	 2.0165e+07	   76.5986	   14.6756	       2.4	2.82586e+07	   76.6481	   14.6461	       2.4	5.09199e+07	
         R10	   2465	   76.9275	   14.7863	       2.4	9.78182e+07	   76.9338	   14.7093	       2.4	8.61202e+07	   76.8447	   14.7012	       2.4	 8.1952e+07	   76.8382	   14.7779	       2.4	8.89692e+07	   76.9307	   14.7478	       2.4	9.07617e+07	   76.8893	   14.7053	       2.4	8.38616e+07	   76.8414	   14.7395	       2.4	 8.3867e+07	   76.8828	   14.7821	       2.4	9.33333e+07	
         R10	   2466	   77.0172	    14.793	       2.4	1.03402e+08	   77.0285	   14.7151	       2.4	8.70505e+07	   76.9338	   14.7093	       2.4	8.57121e+07	   76.9275	   14.7863	       2.4	9.78448e+07	   77.0228	   14.7541	       2.4	9.43856e+07	   76.9811	   14.7122	       2.4	8.62312e+07	   76.9307	   14.7478	       2.4	9.05995e+07	   76.9724	   14.7897	       2.4	1.00558e+08	
         R10	   2467	   77.0111	   14.8643	       2.4	1.08913e+08	   77.0172	    14.793	       2.4	1.04295e+08	   76.9275	   14.7863	       2.4	9.83967e+07	   76.9239	   14.8531	       2.4	1.02798e+08	   77.0141	   14.8286	       2.4	1.06312e+08	   76.9724	   14.7897	       2.4	1.01259e+08	   76.9257	   14.8197	       2.4	1.00056e+08	   76.9675	   14.8587	       2.4	1.05802e+08	
         R10	   2468	   77.0952	   14.8803	       2.4	1.12925e+08	   77.1057	   14.8022	       2.4	1.06735e+08	   77.0172	    14.793	       2.4	1.03789e+08	   77.0111	   14.8643	       2.4	1.08649e+08	   77.1005	   14.8413	       2.4	1.09497e+08	   77.0615	   14.7976	       2.4	1.05216e+08	   77.0141	   14.8286	       2.4	1.05947e+08	   77.0531	   14.8723	       2.4	1.10724e+08	
         R10	   2469	   77.0485	   15.0634	       2.4	6.55313e+07	   77.1158	   15.0527	       2.4	6.70546e+07	   77.0921	   14.9639	       2.4	9.95187e+07	   77.0268	   15.0065	       2.4	 8.7251e+07	   77.0822	    15.058	       2.4	6.61096e+07	    77.104	   15.0083	       2.4	 8.3102e+07	   77.0595	   14.9852	       2.4	9.33049e+07	   77.0376	   15.0349	       2.4	7.60028e+07	
         R10	   2470	   76.9231	   15.0918	       2.4	5.69316e+07	   76.9343	   15.1412	       2.4	 3.9209e+07	   76.9916	   15.1303	       2.4	3.81267e+07	    76.983	   15.0773	       2.4	5.99718e+07	   76.9287	   15.1165	       2.4	 4.6394e+07	    76.963	   15.1358	       2.4	3.85726e+07	   76.9873	   15.1038	       2.4	4.72801e+07	    76.953	   15.0846	       2.4	5.83151e+07	
         R10	   2471	   76.8701	   15.1075	       2.4	  5.509e+07	   76.8825	   15.1537	       2.4	4.00896e+07	   76.9343	   15.1412	       2.4	3.89302e+07	   76.9231	   15.0918	       2.4	5.72935e+07	   76.8763	   15.1306	       2.4	4.60199e+07	   76.9084	   15.1475	       2.4	3.94213e+07	   76.9287	   15.1165	       2.4	4.65368e+07	   76.8966	   15.0996	       2.4	5.60702e+07	
         R10	   2472	   76.8208	   15.1271	       2.4	5.19344e+07	   76.8353	    15.168	       2.4	4.02767e+07	   76.8825	   15.1537	       2.4	4.00721e+07	   76.8701	   15.1075	       2.4	5.52271e+07	   76.8281	   15.1475	       2.4	4.46714e+07	   76.8589	   15.1608	       2.4	4.00947e+07	   76.8763	   15.1306	       2.4	4.61011e+07	   76.8454	   15.1173	       2.4	5.34464e+07	
         R10	   2473	   76.7787	   15.1479	       2.4	4.83594e+07	   76.7991	   15.1855	       2.4	3.85095e+07	   76.8353	    15.168	       2.4	4.04418e+07	   76.8208	   15.1271	       2.4	5.16238e+07	   76.7889	   15.1667	       2.4	4.19511e+07	   76.8172	   15.1767	       2.4	3.93786e+07	   76.8281	   15.1475	       2.4	4.45393e+07	   76.7997	   15.1375	       2.4	4.98543e+07	
         R10	   2474	   76.7084	   15.2345	       2.4	 2.8802e+07	   76.6889	   15.2345	       2.4	2.43189e+07	   76.6896	   15.2534	       2.4	2.89081e+07	   76.7103	    15.256	       2.4	3.76217e+07	   76.6986	   15.2345	       2.4	2.64836e+07	   76.6892	    15.244	       2.4	 2.5683e+07	   76.6999	   15.2547	       2.4	3.32286e+07	   76.7093	   15.2453	       2.4	3.23302e+07	
         R10	   2475	   76.7384	   15.1254	       2.4	5.63304e+07	   76.7107	   15.1303	       2.4	5.72917e+07	   76.7123	   15.1552	       2.4	4.80926e+07	   76.7404	   15.1548	       2.4	 4.8781e+07	   76.7245	   15.1278	       2.4	5.67632e+07	   76.7115	   15.1427	       2.4	5.26147e+07	   76.7264	    15.155	       2.4	4.83567e+07	   76.7394	   15.1401	       2.4	5.22785e+07	
         R10	   2476	   76.6412	   15.0571	       2.4	6.85966e+07	   76.6523	   15.0878	       2.4	 6.7429e+07	   76.6693	   15.0868	       2.4	 6.6803e+07	    76.675	   15.0633	       2.4	6.93856e+07	   76.6468	   15.0724	       2.4	6.79708e+07	   76.6608	   15.0873	       2.4	6.70746e+07	   76.6722	   15.0751	       2.4	6.80842e+07	   76.6581	   15.0602	       2.4	6.88185e+07	
         R10	   2477	   76.6721	   14.9788	       2.4	6.81146e+07	   76.6316	   14.9656	       2.4	6.21954e+07	   76.6164	    15.008	       2.4	6.53056e+07	   76.6535	   15.0194	       2.4	6.83174e+07	   76.6519	   14.9722	       2.4	6.46616e+07	    76.624	   14.9868	       2.4	6.36413e+07	   76.6349	   15.0137	       2.4	6.63484e+07	   76.6628	   14.9991	       2.4	6.80602e+07	
         R10	   2478	   76.6936	   14.9292	       2.4	6.77643e+07	   76.6473	   14.9172	       2.4	5.86274e+07	   76.6316	   14.9656	       2.4	6.19011e+07	   76.6721	   14.9788	       2.4	 6.8031e+07	   76.6705	   14.9232	       2.4	6.26605e+07	   76.6395	   14.9414	       2.4	 6.0019e+07	   76.6519	   14.9722	       2.4	6.44783e+07	   76.6829	    14.954	       2.4	6.75337e+07	
         R10	   2479	   76.7189	   14.8781	       2.4	 7.0703e+07	   76.6615	   14.8663	       2.4	5.54284e+07	   76.6473	   14.9172	       2.4	5.84799e+07	   76.6936	   14.9292	       2.4	6.82493e+07	   76.6902	   14.8722	       2.4	6.26193e+07	   76.6544	   14.8918	       2.4	 5.6507e+07	   76.6705	   14.9232	       2.4	6.28647e+07	   76.7063	   14.9036	       2.4	 6.8984e+07	
         R10	   2480	   76.7437	   14.8233	       2.4	7.37221e+07	   76.6748	    14.812	       2.4	5.52488e+07	   76.6615	   14.8663	       2.4	5.54009e+07	   76.7189	   14.8781	       2.4	7.08357e+07	   76.7092	   14.8177	       2.4	6.42003e+07	   76.6681	   14.8392	       2.4	5.47965e+07	   76.6902	   14.8722	       2.4	6.27062e+07	   76.7313	   14.8507	       2.4	7.15754e+07	
         R10	   2481	   76.7552	    14.762	       2.4	7.62935e+07	   76.6757	   14.7637	       2.4	5.32173e+07	   76.6748	    14.812	       2.4	5.57216e+07	   76.7437	   14.8233	       2.4	7.40158e+07	   76.7155	   14.7628	       2.4	6.43601e+07	   76.6752	   14.7878	       2.4	5.39838e+07	   76.7092	   14.8177	       2.4	6.46185e+07	   76.7495	   14.7926	       2.4	7.42859e+07	
         R10	   2482	   76.9239	   14.8531	       2.4	1.02476e+08	   76.9275	   14.7863	       2.4	9.82821e+07	   76.8382	   14.7779	       2.4	8.81633e+07	   76.8295	   14.8509	       2.4	9.30098e+07	   76.9257	   14.8197	       2.4	9.99042e+07	   76.8828	   14.7821	       2.4	 9.3151e+07	   76.8338	   14.8144	       2.4	8.98355e+07	   76.8767	    14.852	       2.4	9.77164e+07	
         R10	   2483	   77.0061	   14.9266	       2.4	1.04592e+08	   77.0111	   14.8643	       2.4	1.07359e+08	   76.9239	   14.8531	       2.4	1.02766e+08	   76.9271	   14.9155	       2.4	1.00431e+08	   77.0086	   14.8954	       2.4	1.05805e+08	   76.9675	   14.8587	       2.4	1.05018e+08	   76.9255	   14.8843	       2.4	1.01376e+08	   76.9666	   14.9211	       2.4	1.02495e+08	
         R10	   2484	   77.0471	   15.1168	       2.4	3.40178e+07	   77.1201	   15.1387	       2.4	3.18873e+07	   77.1158	   15.0527	       2.4	6.49699e+07	   77.0485	   15.0634	       2.4	6.29917e+07	   77.0836	   15.1278	       2.4	3.14929e+07	    77.118	   15.0957	       2.4	4.21027e+07	   77.0822	    15.058	       2.4	6.36391e+07	   77.0478	   15.0901	       2.4	4.77274e+07	
         R10	   2485	    76.983	   15.0773	       2.4	5.96667e+07	   76.9916	   15.1303	       2.4	3.87023e+07	   77.0471	   15.1168	       2.4	3.74457e+07	   77.0485	   15.0634	       2.4	6.27727e+07	   76.9873	   15.1038	       2.4	4.72904e+07	   77.0194	   15.1236	       2.4	3.76909e+07	   77.0478	   15.0901	       2.4	4.93914e+07	   77.0157	   15.0704	       2.4	6.12128e+07	
         R10	   2486	   76.9642	    15.027	       2.4	7.93527e+07	    76.983	   15.0773	       2.4	 5.8572e+07	   77.0485	   15.0634	       2.4	6.34793e+07	   77.0268	   15.0065	       2.4	8.58674e+07	   76.9736	   15.0522	       2.4	 6.8783e+07	   77.0157	   15.0704	       2.4	6.09767e+07	   77.0376	   15.0349	       2.4	 7.4245e+07	   76.9955	   15.0167	       2.4	8.23709e+07	
         R10	   2487	   76.9048	   15.0406	       2.4	7.61867e+07	   76.9231	   15.0918	       2.4	5.74629e+07	    76.983	   15.0773	       2.4	5.95492e+07	   76.9642	    15.027	       2.4	7.95799e+07	   76.9139	   15.0662	       2.4	6.65069e+07	    76.953	   15.0846	       2.4	5.83883e+07	   76.9736	   15.0522	       2.4	6.92941e+07	   76.9345	   15.0338	       2.4	7.77802e+07	
         R10	   2488	   76.8531	   15.0589	       2.4	7.19575e+07	   76.8701	   15.1075	       2.4	5.51609e+07	   76.9231	   15.0918	       2.4	5.77455e+07	   76.9048	   15.0406	       2.4	7.60839e+07	   76.8616	   15.0832	       2.4	6.31768e+07	   76.8966	   15.0996	       2.4	5.63346e+07	   76.9139	   15.0662	       2.4	6.65016e+07	   76.8789	   15.0498	       2.4	7.38605e+07	
         R10	   2489	   76.8054	    15.084	       2.4	6.59678e+07	   76.8208	   15.1271	       2.4	5.19602e+07	   76.8701	   15.1075	       2.4	5.54154e+07	   76.8531	   15.0589	       2.4	7.17599e+07	   76.8131	   15.1056	       2.4	5.85408e+07	   76.8454	   15.1173	       2.4	5.35514e+07	   76.8616	   15.0832	       2.4	 6.3152e+07	   76.8292	   15.0715	       2.4	6.86926e+07	
         R10	   2490	   76.7114	   15.2154	       2.4	2.93447e+07	   76.7084	   15.2345	       2.4	 2.9117e+07	   76.7375	   15.2429	       2.4	3.91944e+07	   76.7326	   15.2166	       2.4	3.29586e+07	   76.7099	   15.2249	       2.4	2.84638e+07	   76.7229	   15.2387	       2.4	3.37419e+07	    76.735	   15.2298	       2.4	3.45941e+07	    76.722	    15.216	       2.4	3.10034e+07	
         R10	   2491	   76.7315	   15.1828	       2.4	3.81773e+07	   76.7091	   15.1987	       2.4	3.35129e+07	   76.7114	   15.2154	       2.4	2.89652e+07	   76.7326	   15.2166	       2.4	3.31823e+07	   76.7203	   15.1907	       2.4	3.57939e+07	   76.7103	    15.207	       2.4	3.08014e+07	    76.722	    15.216	       2.4	3.09512e+07	   76.7321	   15.1997	       2.4	3.39804e+07	
         R10	   2492	    76.702	   15.0739	       2.4	6.83506e+07	    76.675	   15.0633	       2.4	 6.9792e+07	   76.6693	   15.0868	       2.4	6.69216e+07	   76.6904	   15.1041	       2.4	6.43491e+07	   76.6885	   15.0686	       2.4	6.89823e+07	   76.6722	   15.0751	       2.4	6.83496e+07	   76.6799	   15.0954	       2.4	6.55777e+07	   76.6962	    15.089	       2.4	6.62991e+07	
         R10	   2493	   76.7388	   14.9473	       2.4	7.73439e+07	   76.6936	   14.9292	       2.4	6.81625e+07	   76.6721	   14.9788	       2.4	6.83394e+07	   76.7118	   14.9952	       2.4	 7.3885e+07	   76.7162	   14.9382	       2.4	7.26365e+07	   76.6829	    14.954	       2.4	6.79101e+07	    76.692	    14.987	       2.4	7.09315e+07	   76.7253	   14.9713	       2.4	7.53081e+07	
         R10	   2494	   76.7723	   14.9025	       2.4	8.30869e+07	   76.7189	   14.8781	       2.4	7.07139e+07	   76.6936	   14.9292	       2.4	6.86956e+07	   76.7388	   14.9473	       2.4	7.69517e+07	   76.7456	   14.8903	       2.4	7.68751e+07	   76.7063	   14.9036	       2.4	6.91759e+07	   76.7162	   14.9382	       2.4	7.26787e+07	   76.7555	   14.9249	       2.4	 7.9727e+07	
         R10	   2495	   76.8631	   14.9233	       2.4	9.58671e+07	   76.9271	   14.9155	       2.4	1.01264e+08	   76.9239	   14.8531	       2.4	1.02547e+08	   76.8295	   14.8509	       2.4	9.14783e+07	   76.8951	   14.9194	       2.4	9.84896e+07	   76.9255	   14.8843	       2.4	1.01704e+08	   76.8767	    14.852	       2.4	9.69757e+07	   76.8463	   14.8871	       2.4	9.32705e+07	
         R10	   2496	   76.8306	   15.0076	       2.4	8.26444e+07	   76.8531	   15.0589	       2.4	7.22584e+07	   76.9048	   15.0406	       2.4	7.64191e+07	   76.8843	    14.987	       2.4	8.94071e+07	   76.8418	   15.0332	       2.4	7.72423e+07	   76.8789	   15.0498	       2.4	7.41973e+07	   76.8945	   15.0138	       2.4	8.27671e+07	   76.8574	   14.9973	       2.4	8.59149e+07	
         R10	   2497	   76.7846	   15.0466	       2.4	7.49128e+07	   76.8054	    15.084	       2.4	6.61852e+07	   76.8531	   15.0589	       2.4	7.19335e+07	   76.8306	   15.0076	       2.4	8.24601e+07	    76.795	   15.0653	       2.4	7.04126e+07	   76.8292	   15.0715	       2.4	6.88848e+07	   76.8418	   15.0332	       2.4	7.70567e+07	   76.8076	   15.0271	       2.4	7.84568e+07	
         R10	   2498	   76.7787	   15.1479	       2.4	4.84582e+07	   76.8208	   15.1271	       2.4	5.19974e+07	   76.8054	    15.084	       2.4	6.62895e+07	   76.7681	   15.1072	       2.4	6.10279e+07	   76.7997	   15.1375	       2.4	 5.0109e+07	   76.8131	   15.1056	       2.4	5.87532e+07	   76.7868	   15.0956	       2.4	6.35561e+07	   76.7734	   15.1275	       2.4	5.42755e+07	
         R10	   2499	   76.6919	   15.0303	       2.4	7.17516e+07	   76.7118	   14.9952	       2.4	7.37379e+07	   76.6721	   14.9788	       2.4	6.81746e+07	   76.6535	   15.0194	       2.4	6.82896e+07	   76.7019	   15.0128	       2.4	7.26062e+07	    76.692	    14.987	       2.4	7.07757e+07	   76.6628	   14.9991	       2.4	6.80785e+07	   76.6727	   15.0249	       2.4	6.98044e+07	
         R10	   2500	   76.7735	   14.9755	       2.4	8.14708e+07	   76.7388	   14.9473	       2.4	7.75307e+07	   76.7118	   14.9952	       2.4	7.38848e+07	    76.751	   15.0168	       2.4	7.70982e+07	   76.7561	   14.9614	       2.4	7.94789e+07	   76.7253	   14.9713	       2.4	7.54011e+07	   76.7314	    15.006	       2.4	7.54411e+07	   76.7622	   14.9962	       2.4	7.90797e+07	
         R10	   2501	   76.8126	   14.9392	       2.4	8.72588e+07	   76.7723	   14.9025	       2.4	8.26999e+07	   76.7388	   14.9473	       2.4	7.66919e+07	   76.7735	   14.9755	       2.4	8.16843e+07	   76.7924	   14.9209	       2.4	8.48949e+07	   76.7555	   14.9249	       2.4	7.93987e+07	   76.7561	   14.9614	       2.4	7.91812e+07	    76.793	   14.9574	       2.4	8.42404e+07	
         R10	   2502	   76.9409	   14.9756	       2.4	9.31572e+07	   76.8843	    14.987	       2.4	8.92518e+07	   76.9048	   15.0406	       2.4	 7.6392e+07	   76.9642	    15.027	       2.4	7.96685e+07	   76.9126	   14.9813	       2.4	9.11595e+07	   76.8945	   15.0138	       2.4	 8.2631e+07	   76.9345	   15.0338	       2.4	7.78793e+07	   76.9525	   15.0013	       2.4	 8.6353e+07	
         R10	   2503	   76.7681	   15.1072	       2.4	6.11389e+07	   76.8054	    15.084	       2.4	6.59662e+07	   76.7846	   15.0466	       2.4	7.45948e+07	   76.7508	   15.0732	       2.4	 6.9246e+07	   76.7868	   15.0956	       2.4	6.34574e+07	    76.795	   15.0653	       2.4	7.01437e+07	   76.7677	   15.0599	       2.4	7.18009e+07	   76.7595	   15.0902	       2.4	6.50759e+07	
         R10	   2504	   76.7404	   15.1548	       2.4	4.86141e+07	   76.7315	   15.1828	       2.4	3.73522e+07	   76.7613	   15.1982	       2.4	  3.721e+07	   76.7787	   15.1479	       2.4	4.66424e+07	    76.736	   15.1688	       2.4	4.27083e+07	   76.7464	   15.1905	       2.4	3.65795e+07	     76.77	    15.173	       2.4	4.01555e+07	   76.7595	   15.1513	       2.4	4.75391e+07	
         R10	   2505	   76.7384	   15.1254	       2.4	5.68742e+07	   76.7404	   15.1548	       2.4	4.87727e+07	   76.7787	   15.1479	       2.4	4.72509e+07	   76.7681	   15.1072	       2.4	6.16681e+07	   76.7394	   15.1401	       2.4	5.25489e+07	   76.7595	   15.1513	       2.4	4.79463e+07	   76.7734	   15.1275	       2.4	5.41047e+07	   76.7533	   15.1163	       2.4	5.92403e+07	
         R10	   2506	   76.7203	   15.0992	       2.4	6.44349e+07	   76.7384	   15.1254	       2.4	5.68969e+07	   76.7681	   15.1072	       2.4	6.12555e+07	   76.7508	   15.0732	       2.4	6.91615e+07	   76.7293	   15.1123	       2.4	6.05711e+07	   76.7533	   15.1163	       2.4	5.90456e+07	   76.7595	   15.0902	       2.4	6.50523e+07	   76.7355	   15.0862	       2.4	6.67028e+07	
         R10	   2507	    76.702	   15.0739	       2.4	6.89394e+07	   76.7203	   15.0992	       2.4	6.44425e+07	   76.7508	   15.0732	       2.4	 6.9203e+07	   76.7254	   15.0464	       2.4	7.27508e+07	   76.7111	   15.0865	       2.4	6.66287e+07	   76.7355	   15.0862	       2.4	6.67294e+07	   76.7381	   15.0598	       2.4	7.09226e+07	   76.7137	   15.0602	       2.4	 7.0766e+07	
         R10	   2508	   76.6677	   14.6112	       2.4	6.32646e+07	   76.6286	   14.6811	       2.4	3.42458e+07	   76.6863	   14.7056	       2.4	  5.602e+07	   76.7076	   14.6719	       2.4	6.30421e+07	   76.6481	   14.6461	       2.4	4.62582e+07	   76.6574	   14.6933	       2.4	4.48814e+07	    76.697	   14.6887	       2.4	5.88134e+07	   76.6877	   14.6415	       2.4	 6.1926e+07	
         R10	   2509	   76.7659	    14.686	       2.4	6.57153e+07	   76.7597	    14.611	       2.4	8.03741e+07	   76.6677	   14.6112	       2.4	6.80853e+07	   76.7076	   14.6719	       2.4	5.67441e+07	   76.7628	   14.6485	       2.4	  6.915e+07	   76.7137	   14.6111	       2.4	7.40884e+07	   76.6877	   14.6415	       2.4	6.13605e+07	   76.7368	   14.6789	       2.4	 6.0783e+07	
         R10	   2510	   76.6863	   14.7056	       2.4	6.11938e+07	   76.7552	    14.762	       2.4	7.21679e+07	   76.7659	    14.686	       2.4	 7.6103e+07	   76.7076	   14.6719	       2.4	6.23569e+07	   76.7208	   14.7338	       2.4	6.59068e+07	   76.7606	    14.724	       2.4	7.25011e+07	   76.7368	   14.6789	       2.4	6.92053e+07	    76.697	   14.6887	       2.4	6.14218e+07	
         R10	   2511	   76.8447	   14.7012	       2.4	 8.2367e+07	   76.7659	    14.686	       2.4	7.52684e+07	   76.7552	    14.762	       2.4	 7.2445e+07	   76.8382	   14.7779	       2.4	 8.8263e+07	   76.8053	   14.6936	       2.4	 7.8651e+07	   76.7606	    14.724	       2.4	7.21124e+07	   76.7967	   14.7699	       2.4	8.02609e+07	   76.8414	   14.7395	       2.4	8.36065e+07	
         R10	   2512	   76.8382	   14.7779	       2.4	8.90036e+07	   76.7552	    14.762	       2.4	7.59912e+07	   76.7437	   14.8233	       2.4	7.44325e+07	   76.8295	   14.8509	       2.4	9.32997e+07	   76.7967	   14.7699	       2.4	8.23419e+07	   76.7495	   14.7926	       2.4	7.40382e+07	   76.7866	   14.8371	       2.4	8.38548e+07	   76.8338	   14.8144	       2.4	9.06028e+07	
         R10	   2513	   76.7437	   14.8233	       2.4	7.47164e+07	   76.7189	   14.8781	       2.4	7.07237e+07	   76.7723	   14.9025	       2.4	8.32841e+07	   76.8295	   14.8509	       2.4	8.95048e+07	   76.7313	   14.8507	       2.4	7.21696e+07	   76.7456	   14.8903	       2.4	7.69715e+07	   76.8009	   14.8767	       2.4	8.59292e+07	   76.7866	   14.8371	       2.4	 8.2076e+07	
         R10	   2514	   76.8295	   14.8509	       2.4	9.17424e+07	   76.7723	   14.9025	       2.4	8.43944e+07	   76.8126	   14.9392	       2.4	 8.9429e+07	   76.8631	   14.9233	       2.4	9.70551e+07	   76.8009	   14.8767	       2.4	8.76366e+07	   76.7924	   14.9209	       2.4	8.67908e+07	   76.8378	   14.9313	       2.4	9.31138e+07	   76.8463	   14.8871	       2.4	9.40533e+07	
         R10	   2515	    77.177	   14.8792	       2.4	1.12743e+08	   77.2648	   14.8626	       2.4	1.17052e+08	   77.2398	   14.7588	       2.4	1.00165e+08	   77.1725	   14.8151	       2.4	 1.1141e+08	   77.2209	   14.8709	       2.4	1.14832e+08	   77.2523	   14.8107	       2.4	1.08268e+08	   77.2062	    14.787	       2.4	 1.0558e+08	   77.1748	   14.8472	       2.4	1.11944e+08	
         R10	   2516	   77.1057	   14.8022	       2.4	1.07246e+08	   77.0952	   14.8803	       2.4	1.12988e+08	    77.177	   14.8792	       2.4	1.09186e+08	   77.1725	   14.8151	       2.4	1.11992e+08	   77.1005	   14.8413	       2.4	1.09821e+08	   77.1361	   14.8797	       2.4	1.11065e+08	   77.1748	   14.8472	       2.4	1.10537e+08	   77.1391	   14.8087	       2.4	1.09492e+08	
         R10	   2517	   77.2398	   14.7588	       2.4	  9.441e+07	   77.1292	   14.7239	       2.4	8.78364e+07	   77.1057	   14.8022	       2.4	1.08203e+08	   77.1725	   14.8151	       2.4	1.11221e+08	   77.1845	   14.7413	       2.4	9.09829e+07	   77.1175	   14.7631	       2.4	9.73168e+07	   77.1391	   14.8087	       2.4	1.09671e+08	   77.2062	    14.787	       2.4	1.02493e+08	
         R10	   2518	   77.1789	   14.9612	       2.4	1.00348e+08	    77.177	   14.8792	       2.4	1.13651e+08	   77.0952	   14.8803	       2.4	1.10389e+08	   77.0921	   14.9639	       2.4	1.00306e+08	    77.178	   14.9202	       2.4	1.06946e+08	   77.1361	   14.8797	       2.4	1.11977e+08	   77.0937	   14.9221	       2.4	1.05124e+08	   77.1355	   14.9625	       2.4	1.00271e+08	
         R10	   2519	   77.0952	   14.8803	       2.4	1.11735e+08	   77.0111	   14.8643	       2.4	1.09351e+08	   77.0061	   14.9266	       2.4	1.04292e+08	   77.0921	   14.9639	       2.4	1.01111e+08	   77.0531	   14.8723	       2.4	1.10503e+08	   77.0086	   14.8954	       2.4	1.06561e+08	   77.0491	   14.9452	       2.4	1.02681e+08	   77.0937	   14.9221	       2.4	1.06336e+08	
         R10	   2520	   77.0268	   15.0065	       2.4	8.65337e+07	   77.0921	   14.9639	       2.4	9.51157e+07	   77.0061	   14.9266	       2.4	1.03944e+08	   76.9946	   14.9699	       2.4	9.43242e+07	   77.0595	   14.9852	       2.4	9.07218e+07	   77.0491	   14.9452	       2.4	9.95194e+07	   77.0003	   14.9483	       2.4	9.90884e+07	   77.0107	   14.9882	       2.4	9.04021e+07	
         R10	   2521	   76.9409	   14.9756	       2.4	  9.298e+07	   76.9642	    15.027	       2.4	7.92376e+07	   77.0268	   15.0065	       2.4	8.62103e+07	   76.9946	   14.9699	       2.4	9.56267e+07	   76.9525	   15.0013	       2.4	8.60433e+07	   76.9955	   15.0167	       2.4	8.25966e+07	   77.0107	   14.9882	       2.4	9.08685e+07	   76.9678	   14.9728	       2.4	 9.4189e+07	
         R10	   2522	   77.0061	   14.9266	       2.4	1.04639e+08	   76.9271	   14.9155	       2.4	1.00759e+08	   76.9409	   14.9756	       2.4	9.45815e+07	   76.9946	   14.9699	       2.4	 9.5784e+07	   76.9666	   14.9211	       2.4	1.02686e+08	    76.934	   14.9456	       2.4	9.75235e+07	   76.9678	   14.9728	       2.4	9.51187e+07	   77.0003	   14.9483	       2.4	1.00167e+08	
         R10	   2523	   76.8843	    14.987	       2.4	8.83595e+07	   76.9409	   14.9756	       2.4	9.35365e+07	   76.9271	   14.9155	       2.4	1.01125e+08	   76.8631	   14.9233	       2.4	 9.5572e+07	   76.9126	   14.9813	       2.4	9.08471e+07	    76.934	   14.9456	       2.4	9.71536e+07	   76.8951	   14.9194	       2.4	9.82808e+07	   76.8737	   14.9552	       2.4	9.17493e+07	
         R10	   2524	   76.8306	   15.0076	       2.4	8.32977e+07	   76.8843	    14.987	       2.4	8.82163e+07	   76.8631	   14.9233	       2.4	9.45389e+07	   76.8126	   14.9392	       2.4	8.83481e+07	   76.8574	   14.9973	       2.4	8.56684e+07	   76.8737	   14.9552	       2.4	9.10701e+07	   76.8378	   14.9313	       2.4	9.12609e+07	   76.8216	   14.9734	       2.4	8.56282e+07	
         R10	   2525	   76.8306	   15.0076	       2.4	8.22144e+07	   76.7735	   14.9755	       2.4	 8.2211e+07	    76.751	   15.0168	       2.4	7.73527e+07	   76.7846	   15.0466	       2.4	7.47305e+07	    76.802	   14.9916	       2.4	8.21925e+07	   76.7622	   14.9962	       2.4	7.95764e+07	   76.7678	   15.0317	       2.4	7.59897e+07	   76.8076	   15.0271	       2.4	7.82482e+07	
         R10	   2526	   76.7508	   15.0732	       2.4	 6.9197e+07	   76.7846	   15.0466	       2.4	7.43736e+07	    76.751	   15.0168	       2.4	7.70325e+07	   76.7254	   15.0464	       2.4	  7.279e+07	   76.7677	   15.0599	       2.4	7.16672e+07	   76.7678	   15.0317	       2.4	7.56558e+07	   76.7382	   15.0316	       2.4	7.47819e+07	   76.7381	   15.0598	       2.4	 7.0935e+07	
         R10	   2527	   76.7254	   15.0464	       2.4	7.26897e+07	    76.751	   15.0168	       2.4	 7.6881e+07	   76.7118	   14.9952	       2.4	7.39472e+07	   76.6919	   15.0303	       2.4	7.17971e+07	   76.7382	   15.0316	       2.4	7.46553e+07	   76.7314	    15.006	       2.4	7.53517e+07	   76.7019	   15.0128	       2.4	7.27336e+07	   76.7087	   15.0384	       2.4	7.21605e+07	
         R10	   2528	    76.702	   15.0739	       2.4	6.85588e+07	   76.7254	   15.0464	       2.4	7.26694e+07	   76.6919	   15.0303	       2.4	7.15967e+07	    76.675	   15.0633	       2.4	6.97371e+07	   76.7137	   15.0602	       2.4	7.05351e+07	   76.7087	   15.0384	       2.4	7.20532e+07	   76.6835	   15.0468	       2.4	7.05872e+07	   76.6885	   15.0686	       2.4	 6.9069e+07	
         R10	   2529	    76.675	   15.0633	       2.4	6.92287e+07	   76.6919	   15.0303	       2.4	7.16081e+07	   76.6535	   15.0194	       2.4	6.83335e+07	   76.6412	   15.0571	       2.4	6.87552e+07	   76.6835	   15.0468	       2.4	7.03363e+07	   76.6727	   15.0249	       2.4	6.97486e+07	   76.6473	   15.0383	       2.4	6.84978e+07	   76.6581	   15.0602	       2.4	6.88297e+07	
         R10	   2530	   76.6535	   15.0194	       2.4	6.83543e+07	   76.6164	    15.008	       2.4	6.54375e+07	   76.6033	   15.0451	       2.4	6.75258e+07	   76.6412	   15.0571	       2.4	6.85853e+07	   76.6349	   15.0137	       2.4	6.64332e+07	   76.6098	   15.0265	       2.4	6.64567e+07	   76.6222	   15.0511	       2.4	6.76402e+07	   76.6473	   15.0383	       2.4	6.84177e+07	
         R10	   2531	   76.6127	   15.0814	       2.4	6.83158e+07	    76.627	   15.0821	       2.4	6.74623e+07	   76.6412	   15.0571	       2.4	6.85776e+07	   76.6033	   15.0451	       2.4	6.73722e+07	   76.6199	   15.0817	       2.4	6.78373e+07	   76.6341	   15.0696	       2.4	6.79925e+07	   76.6222	   15.0511	       2.4	6.74986e+07	    76.608	   15.0632	       2.4	6.77449e+07	
         R10	   2532	   76.5956	   15.0879	       2.4	6.82369e+07	   76.6127	   15.0814	       2.4	6.76739e+07	   76.6033	   15.0451	       2.4	 6.7905e+07	   76.5799	   15.0691	       2.4	 6.8307e+07	   76.6042	   15.0846	       2.4	6.78895e+07	    76.608	   15.0632	       2.4	6.76887e+07	   76.5916	   15.0571	       2.4	6.79926e+07	   76.5877	   15.0785	       2.4	6.81131e+07	
         R10	   2533	   76.5799	   15.0691	       2.4	 6.7573e+07	   76.5564	   15.0612	       2.4	7.04812e+07	   76.5482	   15.0886	       2.4	6.98378e+07	     76.57	   15.0857	       2.4	6.93249e+07	   76.5681	   15.0652	       2.4	6.86725e+07	   76.5523	   15.0749	       2.4	7.01377e+07	   76.5591	   15.0872	       2.4	6.93974e+07	   76.5749	   15.0774	       2.4	6.84368e+07	
         R10	   2534	   76.5803	    15.096	       2.4	6.80901e+07	   76.5956	   15.0879	       2.4	6.84312e+07	   76.5799	   15.0691	       2.4	6.80641e+07	     76.57	   15.0857	       2.4	 6.9496e+07	   76.5879	   15.0919	       2.4	6.82087e+07	   76.5877	   15.0785	       2.4	6.80894e+07	   76.5749	   15.0774	       2.4	6.87692e+07	   76.5751	   15.0908	       2.4	 6.8722e+07	
         R10	   2535	   76.5482	   15.0886	       2.4	7.02154e+07	   76.5671	   15.1111	       2.4	 6.9031e+07	   76.5803	    15.096	       2.4	6.81192e+07	     76.57	   15.0857	       2.4	6.88162e+07	   76.5577	   15.0999	       2.4	6.92862e+07	   76.5737	   15.1036	       2.4	6.85504e+07	   76.5751	   15.0908	       2.4	6.83932e+07	   76.5591	   15.0872	       2.4	6.93251e+07	
         R10	   2536	   76.7315	   15.1828	       2.4	3.76358e+07	   76.7404	   15.1548	       2.4	4.88677e+07	   76.7123	   15.1552	       2.4	4.83676e+07	   76.7113	   15.1734	       2.4	4.23608e+07	    76.736	   15.1688	       2.4	 4.3041e+07	   76.7264	    15.155	       2.4	 4.8517e+07	   76.7118	   15.1643	       2.4	4.52777e+07	   76.7214	   15.1781	       2.4	3.97524e+07	
         R10	   2537	     76.67	    15.266	       2.4	2.82739e+07	     76.67	    15.283	       2.4	3.91737e+07	   76.6897	   15.2769	       2.4	4.18531e+07	     76.67	   15.2745	       2.4	3.34956e+07	   76.6798	   15.2799	       2.4	4.04516e+07	   76.6798	   15.2714	       2.4	3.49736e+07	       N/A	       N/A	       N/A	        N/A	       N/A	       N/A	       N/A	        N/A	
         R10	   2538	   76.6932	   15.1804	       2.4	4.01352e+07	   76.6865	   15.2003	       2.4	3.19324e+07	   76.7091	   15.1987	       2.4	3.35596e+07	   76.6898	   15.1904	       2.4	 3.5926e+07	   76.6978	   15.1995	       2.4	3.26052e+07	   76.7012	   15.1896	       2.4	3.63166e+07	       N/A	       N/A	       N/A	        N/A	       N/A	       N/A	       N/A	        N/A	
         R10	   2539	   76.6876	   15.1464	       2.4	5.30412e+07	   76.6876	   15.1648	       2.4	4.63657e+07	   76.7123	   15.1552	       2.4	4.86505e+07	   76.6876	   15.1556	       2.4	4.96692e+07	      76.7	     15.16	       2.4	4.74695e+07	      76.7	   15.1508	       2.4	5.07051e+07	       N/A	       N/A	       N/A	        N/A	       N/A	       N/A	       N/A	        N/A	
         R10	   2540	    76.635	   15.1034	       2.4	6.58539e+07	   76.6545	    15.113	       2.4	 6.3653e+07	   76.6523	   15.0878	       2.4	6.71759e+07	   76.6447	   15.1082	       2.4	6.46836e+07	   76.6534	   15.1004	       2.4	6.54093e+07	   76.6436	   15.0956	       2.4	6.64698e+07	       N/A	       N/A	       N/A	        N/A	       N/A	       N/A	       N/A	        N/A	
         R10	   2541	   76.5671	   15.1111	       2.4	6.87574e+07	   76.5864	   15.1134	       2.4	6.78001e+07	   76.5803	    15.096	       2.4	 6.8437e+07	   76.5768	   15.1123	       2.4	6.81841e+07	   76.5833	   15.1047	       2.4	 6.8081e+07	   76.5737	   15.1036	       2.4	6.85706e+07	       N/A	       N/A	       N/A	        N/A	       N/A	       N/A	       N/A	        N/A	
         R10	   2542	   76.6693	   15.0868	       2.4	6.70825e+07	   76.6693	   15.1129	       2.4	6.30801e+07	   76.6904	   15.1041	       2.4	6.41972e+07	   76.6693	   15.0998	       2.4	6.50698e+07	   76.6799	   15.1085	       2.4	6.36009e+07	   76.6799	   15.0954	       2.4	6.55734e+07	       N/A	       N/A	       N/A	        N/A	       N/A	       N/A	       N/A	        N/A	
         R10	   2543	   77.0471	   15.1168	       2.4	3.57239e+07	   77.0529	   15.1829	       2.4	4.76453e+07	   77.1201	   15.1387	       2.4	3.33682e+07	     77.05	   15.1498	       2.4	3.15573e+07	   77.0865	   15.1608	       2.4	3.78969e+07	   77.0836	   15.1278	       2.4	3.23995e+07	       N/A	       N/A	       N/A	        N/A	       N/A	       N/A	       N/A	        N/A	
         R10	   2544	   76.7084	   15.2345	       2.4	2.89275e+07	   76.7103	    15.256	       2.4	3.74673e+07	   76.7375	   15.2429	       2.4	3.93003e+07	   76.7093	   15.2453	       2.4	3.23006e+07	   76.7239	   15.2495	       2.4	3.82723e+07	   76.7229	   15.2387	       2.4	3.36843e+07	       N/A	       N/A	       N/A	        N/A	       N/A	       N/A	       N/A	        N/A	
         R10	   2545	   76.7203	   15.0992	       2.4	6.45664e+07	   76.7107	   15.1303	       2.4	5.72532e+07	   76.7384	   15.1254	       2.4	5.71006e+07	   76.7155	   15.1147	       2.4	 6.0846e+07	   76.7245	   15.1278	       2.4	5.71316e+07	   76.7293	   15.1123	       2.4	 6.0729e+07	       N/A	       N/A	       N/A	        N/A	       N/A	       N/A	       N/A	        N/A	
         R10	   2546	   76.6863	   14.7056	       2.4	5.62315e+07	   76.6757	   14.7637	       2.4	5.23342e+07	   76.7552	    14.762	       2.4	7.10834e+07	    76.681	   14.7346	       2.4	5.38326e+07	   76.7155	   14.7628	       2.4	 6.1212e+07	   76.7208	   14.7338	       2.4	6.32604e+07	       N/A	       N/A	       N/A	        N/A	       N/A	       N/A	       N/A	        N/A	
         R10	   2547	   76.7315	   15.1828	       2.4	3.75911e+07	   76.7326	   15.2166	       2.4	3.35862e+07	   76.7613	   15.1982	       2.4	3.73444e+07	   76.7321	   15.1997	       2.4	3.40424e+07	   76.7469	   15.2074	       2.4	3.52649e+07	   76.7464	   15.1905	       2.4	3.67846e+07	       N/A	       N/A	       N/A	        N/A	       N/A	       N/A	       N/A	        N/A	
         R10	   2548	    76.702	   15.0739	       2.4	6.88294e+07	   76.6904	   15.1041	       2.4	 6.4525e+07	   76.7203	   15.0992	       2.4	6.43358e+07	   76.6962	    15.089	       2.4	6.66337e+07	   76.7053	   15.1017	       2.4	6.43657e+07	   76.7111	   15.0865	       2.4	6.65338e+07	       N/A	       N/A	       N/A	        N/A	       N/A	       N/A	       N/A	        N/A	
         R10	   2549	   76.7613	   15.1982	       2.4	3.73755e+07	   76.7991	   15.1855	       2.4	3.82272e+07	   76.7787	   15.1479	       2.4	4.82203e+07	   76.7802	   15.1918	       2.4	3.77672e+07	   76.7889	   15.1667	       2.4	4.17455e+07	     76.77	    15.173	       2.4	4.11716e+07	       N/A	       N/A	       N/A	        N/A	       N/A	       N/A	       N/A	        N/A	
         R10	   2550	   76.5482	   15.0886	       2.4	7.03421e+07	    76.534	   15.1112	       2.4	7.03118e+07	   76.5509	   15.1161	       2.4	 6.8972e+07	   76.5411	   15.0999	       2.4	7.02793e+07	   76.5425	   15.1137	       2.4	 6.9464e+07	   76.5496	   15.1024	       2.4	6.95078e+07	       N/A	       N/A	       N/A	        N/A	       N/A	       N/A	       N/A	        N/A	
         R10	   2551	   76.8126	   14.9392	       2.4	8.83581e+07	   76.7735	   14.9755	       2.4	8.30381e+07	   76.8306	   15.0076	       2.4	 8.4041e+07	    76.793	   14.9574	       2.4	8.54783e+07	    76.802	   14.9916	       2.4	8.35163e+07	   76.8216	   14.9734	       2.4	 8.6053e+07	       N/A	       N/A	       N/A	        N/A	       N/A	       N/A	       N/A	        N/A	
         R10	   2552	   76.5671	   15.1111	       2.4	6.89147e+07	   76.5482	   15.0886	       2.4	6.99168e+07	   76.5509	   15.1161	       2.4	6.90619e+07	   76.5577	   15.0999	       2.4	 6.9114e+07	   76.5496	   15.1024	       2.4	6.93773e+07	   76.5591	   15.1136	       2.4	6.89172e+07	       N/A	       N/A	       N/A	        N/A	       N/A	       N/A	       N/A	        N/A	
         R10	   2553	      76.5	   14.5579	       1.6	7.00002e+07	      76.5	     14.45	       1.6	6.75417e+07	      76.5	     14.45	   1.70151	6.90079e+07	      76.5	   14.5531	   1.70068	7.21395e+07	      76.5	   14.5039	       1.6	6.87146e+07	      76.5	     14.45	   1.65076	6.82422e+07	      76.5	   14.5015	    1.7011	7.05067e+07	      76.5	   14.5555	   1.65034	7.10408e+07	
         R10	   2554	      76.5	   14.5531	   1.70068	7.22167e+07	      76.5	     14.45	   1.70151	6.90023e+07	      76.5	     14.45	   1.79987	7.08323e+07	      76.5	   14.5501	   1.79864	 7.4778e+07	      76.5	   14.5015	    1.7011	7.05426e+07	      76.5	     14.45	   1.75069	6.98715e+07	      76.5	   14.5001	   1.79925	7.27123e+07	      76.5	   14.5516	   1.74966	7.34646e+07	
         R10	   2555	      76.5	   14.5501	   1.79864	7.48137e+07	      76.5	     14.45	   1.79987	7.08193e+07	      76.5	     14.45	   1.89507	7.33898e+07	      76.5	   14.5449	   1.89329	7.81393e+07	      76.5	   14.5001	   1.79925	7.27241e+07	      76.5	     14.45	   1.84747	 7.2043e+07	      76.5	   14.4975	   1.89418	7.56259e+07	      76.5	   14.5475	   1.84597	7.64381e+07	
         R10	   2556	      76.5	   14.5449	   1.89329	7.81531e+07	      76.5	     14.45	   1.89507	7.33042e+07	      76.5	     14.45	   1.98711	7.76019e+07	      76.5	   14.5399	   1.98623	8.28502e+07	      76.5	   14.4975	   1.89418	7.55908e+07	      76.5	     14.45	   1.94109	7.53656e+07	      76.5	   14.4949	   1.98667	7.99814e+07	      76.5	   14.5424	   1.93976	8.04644e+07	
         R10	   2557	      76.5	   14.5399	   1.98623	 8.2858e+07	      76.5	     14.45	   1.98711	7.74223e+07	      76.5	     14.45	     2.076	8.50218e+07	      76.5	   14.5363	   2.07504	8.97868e+07	      76.5	   14.4949	   1.98667	7.99066e+07	      76.5	     14.45	   2.03156	8.11198e+07	      76.5	   14.4932	   2.07552	8.69351e+07	      76.5	   14.5381	   2.03063	8.62997e+07	
         R10	   2558	      76.5	   14.5363	   2.07504	8.98011e+07	      76.5	     14.45	     2.076	8.45482e+07	      76.5	     14.45	   2.16173	9.89011e+07	      76.5	    14.533	   2.16098	1.00582e+08	      76.5	   14.4932	   2.07552	8.67273e+07	      76.5	     14.45	   2.11887	9.16057e+07	      76.5	   14.4915	   2.16136	 9.8578e+07	      76.5	   14.5347	   2.11801	9.51869e+07	
         R10	   2559	      76.5	    14.533	   2.16098	1.00385e+08	      76.5	     14.45	   2.16173	9.89576e+07	      76.5	     14.45	   2.24431	1.21846e+08	      76.5	   14.5303	   2.24354	1.17816e+08	      76.5	   14.4915	   2.16136	9.86084e+07	      76.5	     14.45	   2.20302	1.10305e+08	      76.5	   14.4902	   2.24393	1.17238e+08	      76.5	   14.5317	   2.20226	1.09067e+08	
         R10	   2560	      76.5	   14.5303	   2.24354	 1.2445e+08	      76.5	     14.45	   2.24431	1.24618e+08	      76.5	     14.45	   2.32373	1.94763e+08	      76.5	   14.5279	   2.32291	1.42227e+08	      76.5	   14.4902	   2.24393	1.22251e+08	      76.5	     14.45	   2.28402	1.59674e+08	      76.5	   14.4889	   2.32332	1.53906e+08	      76.5	   14.5291	   2.28323	1.29539e+08	
         R10	   2561	      76.5	   14.5279	   2.32291	1.52991e+08	      76.5	     14.45	   2.32373	1.79027e+08	      76.5	     14.45	       2.4	3.37631e+08	      76.5	   14.5298	       2.4	8.46542e+07	      76.5	   14.4889	   2.32332	1.49214e+08	      76.5	     14.45	   2.36187	2.43541e+08	      76.5	   14.4899	       2.4	1.93649e+08	      76.5	   14.5288	   2.36146	1.13934e+08	
         R10	   2562	      76.5	   14.6033	   2.32376	6.37902e+07	      76.5	   14.5279	   2.32291	1.44138e+08	      76.5	   14.5298	       2.4	5.11173e+07	      76.5	   14.6048	       2.4	5.40518e+07	      76.5	   14.5656	   2.32334	1.02974e+08	      76.5	   14.5288	   2.36146	9.38963e+07	      76.5	   14.5673	       2.4	5.03281e+07	      76.5	    14.604	   2.36188	 5.7806e+07	
         R10	   2563	      76.5	   14.6033	   2.32376	6.13344e+07	      76.5	   14.6048	       2.4	6.08888e+07	      76.5	   14.6749	       2.4	5.18664e+07	      76.5	   14.6738	   2.32961	5.67916e+07	      76.5	    14.604	   2.36188	6.02119e+07	      76.5	   14.6398	       2.4	5.61897e+07	      76.5	   14.6744	   2.36481	5.39789e+07	      76.5	   14.6386	   2.32669	5.85908e+07	
         R10	   2564	      76.5	   14.6738	   2.32961	5.74008e+07	      76.5	   14.6749	       2.4	5.19174e+07	      76.5	   14.7403	       2.4	5.14976e+07	      76.5	    14.739	   2.33508	5.33254e+07	      76.5	   14.6744	   2.36481	5.42687e+07	      76.5	   14.7076	       2.4	5.16107e+07	      76.5	   14.7397	   2.36754	5.22304e+07	      76.5	   14.7064	   2.33235	 5.5152e+07	
         R10	   2565	      76.5	    14.739	   2.33508	5.27005e+07	      76.5	   14.7403	       2.4	5.35147e+07	      76.5	   14.8009	       2.4	5.23096e+07	      76.5	   14.7996	   2.34071	5.42817e+07	      76.5	   14.7397	   2.36754	5.29771e+07	      76.5	   14.7706	       2.4	5.28624e+07	      76.5	   14.8003	   2.37036	5.31856e+07	      76.5	   14.7693	    2.3379	 5.3426e+07	
         R10	   2566	      76.5	   14.7996	   2.34071	5.39313e+07	      76.5	   14.8009	       2.4	5.35398e+07	      76.5	   14.8567	       2.4	5.35837e+07	      76.5	   14.8554	   2.34606	5.56294e+07	      76.5	   14.8003	   2.37036	5.36657e+07	      76.5	   14.8288	       2.4	5.35317e+07	      76.5	    14.856	   2.37303	5.45369e+07	      76.5	   14.8275	   2.34339	5.47469e+07	
         R10	   2567	      76.5	   14.8554	   2.34606	5.54358e+07	      76.5	   14.8567	       2.4	5.44086e+07	      76.5	   14.9076	       2.4	5.50636e+07	      76.5	   14.9065	    2.3511	5.74103e+07	      76.5	    14.856	   2.37303	5.48773e+07	      76.5	   14.8821	       2.4	5.47174e+07	      76.5	   14.9071	   2.37555	5.61886e+07	      76.5	   14.8809	   2.34858	5.64042e+07	
         R10	   2568	      76.5	   14.9065	    2.3511	5.73948e+07	      76.5	   14.9076	       2.4	5.53429e+07	      76.5	   14.9538	       2.4	5.67161e+07	      76.5	   14.9524	    2.3561	5.92725e+07	      76.5	   14.9071	   2.37555	5.63276e+07	      76.5	   14.9307	       2.4	5.60191e+07	      76.5	   14.9531	   2.37805	5.79592e+07	      76.5	   14.9295	    2.3536	5.83184e+07	
         R10	   2569	      76.5	   14.9524	    2.3561	5.93871e+07	      76.5	   14.9538	       2.4	5.64946e+07	      76.5	   14.9952	       2.4	5.84728e+07	      76.5	   14.9937	   2.36165	6.12156e+07	      76.5	   14.9531	   2.37805	 5.7897e+07	      76.5	   14.9745	       2.4	5.74777e+07	      76.5	   14.9944	   2.38083	5.98183e+07	      76.5	    14.973	   2.35888	6.02866e+07	
         R10	   2570	      76.5	   14.9937	   2.36165	6.13719e+07	      76.5	   14.9952	       2.4	5.78933e+07	      76.5	   15.0317	       2.4	6.02004e+07	      76.5	   15.0305	   2.36678	6.32392e+07	      76.5	   14.9944	   2.38083	5.95874e+07	      76.5	   15.0135	       2.4	5.90425e+07	      76.5	   15.0311	   2.38339	6.16972e+07	      76.5	   15.0121	   2.36421	6.22913e+07	
         R10	   2571	      76.5	   15.0305	   2.36678	 6.3376e+07	      76.5	   15.0317	       2.4	 5.9582e+07	      76.5	   15.0635	       2.4	6.19539e+07	      76.5	   15.0623	    2.3713	6.53019e+07	      76.5	   15.0311	   2.38339	6.14356e+07	      76.5	   15.0476	       2.4	 6.0764e+07	      76.5	   15.0629	   2.38565	6.36046e+07	      76.5	   15.0464	   2.36904	6.43263e+07	
         R10	   2572	      76.5	   15.0623	    2.3713	6.54304e+07	      76.5	   15.0635	       2.4	6.14239e+07	      76.5	   15.0905	       2.4	6.37964e+07	      76.5	   15.0894	   2.37531	6.73702e+07	      76.5	   15.0629	   2.38565	6.33852e+07	      76.5	    15.077	       2.4	6.26066e+07	      76.5	   15.0899	   2.38766	6.55595e+07	      76.5	   15.0758	    2.3733	 6.6389e+07	
         R10	   2573	      76.5	   15.0894	   2.37531	 6.7398e+07	      76.5	   15.0905	       2.4	6.33741e+07	      76.5	   15.1126	       2.4	6.56227e+07	      76.5	   15.1118	   2.37781	6.95734e+07	      76.5	   15.0899	   2.38766	6.53454e+07	      76.5	   15.1016	       2.4	6.44952e+07	      76.5	   15.1122	    2.3889	6.75715e+07	      76.5	   15.1006	   2.37656	 6.8477e+07	
         R10	   2574	      76.5	   15.1118	   2.37781	 6.9597e+07	      76.5	   15.1126	       2.4	6.52533e+07	      76.5	     15.13	       2.4	6.73577e+07	      76.5	     15.13	     2.383	7.10381e+07	      76.5	   15.1122	    2.3889	6.73809e+07	      76.5	   15.1213	       2.4	6.63039e+07	      76.5	     15.13	    2.3915	6.91788e+07	      76.5	   15.1209	    2.3804	7.03065e+07	
         R10	   2575	      76.5	   15.1123	   2.35187	7.33078e+07	      76.5	     15.13	     2.349	7.63037e+07	      76.5	     15.13	     2.332	7.78302e+07	      76.5	   15.1124	   2.33216	7.52275e+07	      76.5	   15.1211	   2.35044	7.48022e+07	      76.5	     15.13	    2.3405	7.70273e+07	      76.5	   15.1212	   2.33208	7.65256e+07	      76.5	   15.1123	   2.34201	7.42255e+07	
         R10	   2576	      76.5	   15.1124	   2.33216	7.51958e+07	      76.5	     15.13	     2.332	7.78121e+07	      76.5	     15.13	     2.315	7.86651e+07	      76.5	   15.1121	    2.3152	7.61874e+07	      76.5	   15.1212	   2.33208	7.65007e+07	      76.5	     15.13	    2.3235	7.82016e+07	      76.5	   15.1211	    2.3151	7.74218e+07	      76.5	   15.1123	   2.32368	7.56605e+07	
         R10	   2577	      76.5	   15.1121	    2.3152	  7.615e+07	      76.5	     15.13	     2.315	7.86559e+07	      76.5	     15.13	     2.298	7.89844e+07	      76.5	   15.1133	   2.29909	7.68751e+07	      76.5	   15.1211	    2.3151	7.73984e+07	      76.5	     15.13	    2.3065	7.87864e+07	      76.5	   15.1217	   2.29855	 7.7924e+07	      76.5	   15.1127	   2.30715	7.64845e+07	
         R10	   2578	      76.5	   15.1133	   2.29909	 7.6862e+07	      76.5	     15.13	     2.298	7.89722e+07	      76.5	     15.13	     2.281	7.88684e+07	      76.5	   15.1108	   2.28118	7.67755e+07	      76.5	   15.1217	   2.29855	7.79114e+07	      76.5	     15.13	    2.2895	7.88901e+07	      76.5	   15.1204	   2.28109	7.78144e+07	      76.5	   15.1121	   2.29014	 7.6791e+07	
         R10	   2579	      76.5	   15.1108	   2.28118	7.67539e+07	      76.5	     15.13	     2.281	 7.8877e+07	      76.5	     15.13	     2.264	7.84766e+07	      76.5	   15.1138	   2.26445	7.69754e+07	      76.5	   15.1204	   2.28109	7.78083e+07	      76.5	     15.13	    2.2725	7.86507e+07	      76.5	   15.1219	   2.26422	7.77199e+07	      76.5	   15.1123	   2.27282	7.68383e+07	
         R10	   2580	      76.5	   15.1138	   2.26445	7.69976e+07	      76.5	     15.13	     2.264	7.84499e+07	      76.5	     15.13	     2.247	7.78803e+07	      76.5	   15.1123	   2.24672	7.64132e+07	      76.5	   15.1219	   2.26422	7.77177e+07	      76.5	     15.13	    2.2555	7.81422e+07	      76.5	   15.1211	   2.24686	7.71396e+07	      76.5	    15.113	   2.25558	7.66839e+07	
         R10	   2581	      76.5	   15.1123	   2.24672	7.65074e+07	      76.5	     15.13	     2.247	7.78599e+07	      76.5	     15.13	      2.23	7.71892e+07	      76.5	   15.1113	   2.23027	7.58956e+07	      76.5	   15.1211	   2.24686	7.71774e+07	      76.5	     15.13	    2.2385	7.75057e+07	      76.5	   15.1206	   2.23013	7.65344e+07	      76.5	   15.1118	   2.23849	7.61854e+07	
         R10	   2582	      76.5	   15.1309	   2.21336	 7.6428e+07	      76.5	     15.13	      2.23	7.71367e+07	      76.5	    15.147	      2.23	7.81017e+07	      76.5	   15.1461	   2.21359	7.69795e+07	      76.5	   15.1304	   2.22168	7.67663e+07	      76.5	   15.1385	      2.23	7.76114e+07	      76.5	   15.1465	   2.22179	7.75264e+07	      76.5	   15.1385	   2.21348	7.66977e+07	
         R10	   2583	      76.5	   15.1461	   2.21359	7.70815e+07	      76.5	    15.147	      2.23	7.80839e+07	      76.5	    15.164	      2.23	7.88643e+07	      76.5	   15.1633	   2.21037	7.73488e+07	      76.5	   15.1465	   2.22179	7.75682e+07	      76.5	   15.1555	      2.23	7.84641e+07	      76.5	   15.1636	   2.22018	7.80873e+07	      76.5	   15.1547	   2.21198	7.72027e+07	
         R10	   2584	      76.5	   15.1633	   2.21037	7.73818e+07	      76.5	    15.164	      2.23	7.88663e+07	      76.5	    15.181	      2.23	7.93869e+07	      76.5	   15.1818	   2.21267	7.78278e+07	      76.5	   15.1636	   2.22018	7.81047e+07	      76.5	   15.1725	      2.23	7.91151e+07	      76.5	   15.1814	   2.22133	7.85916e+07	      76.5	   15.1725	   2.21152	7.75947e+07	
         R10	   2585	      76.5	   15.1818	   2.21267	7.78146e+07	      76.5	    15.181	      2.23	7.93976e+07	      76.5	    15.198	      2.23	 7.9571e+07	      76.5	   15.1974	   2.21173	7.77271e+07	      76.5	   15.1814	   2.22133	7.85906e+07	      76.5	   15.1895	      2.23	7.94711e+07	      76.5	   15.1977	   2.22086	7.86349e+07	      76.5	   15.1896	    2.2122	7.77605e+07	
         R10	   2586	      76.5	   15.1974	   2.21173	7.76971e+07	      76.5	    15.198	      2.23	7.95845e+07	      76.5	    15.215	      2.23	7.93681e+07	      76.5	   15.2149	   2.21232	7.73967e+07	      76.5	   15.1977	   2.22086	7.86264e+07	      76.5	   15.2065	      2.23	7.94617e+07	      76.5	   15.2149	   2.22116	7.83703e+07	      76.5	   15.2061	   2.21202	7.75345e+07	
         R10	   2587	      76.5	   15.2149	   2.21232	7.73858e+07	      76.5	    15.215	      2.23	7.93754e+07	      76.5	    15.232	      2.23	7.87215e+07	      76.5	   15.2321	   2.21232	7.66039e+07	      76.5	   15.2149	   2.22116	7.83683e+07	      76.5	   15.2235	      2.23	7.90334e+07	      76.5	   15.2321	   2.22116	7.76518e+07	      76.5	   15.2235	   2.21232	7.69823e+07	
         R10	   2588	      76.5	   15.2321	   2.21232	7.66446e+07	      76.5	    15.232	      2.23	7.87105e+07	      76.5	    15.249	      2.23	7.76106e+07	      76.5	   15.2487	    2.2124	7.54493e+07	      76.5	   15.2321	   2.22116	7.76667e+07	      76.5	   15.2405	      2.23	7.81463e+07	      76.5	   15.2489	    2.2212	7.65205e+07	      76.5	   15.2404	   2.21236	7.60359e+07	
         R10	   2589	      76.5	   15.2487	    2.2124	7.54619e+07	      76.5	    15.249	      2.23	7.76033e+07	      76.5	    15.266	      2.23	7.60384e+07	      76.5	   15.2656	   2.21273	7.40505e+07	      76.5	   15.2489	    2.2212	 7.6523e+07	      76.5	   15.2575	      2.23	7.68081e+07	      76.5	   15.2658	   2.22137	7.50355e+07	      76.5	   15.2571	   2.21257	7.47463e+07	
         R10	   2590	      76.5	   15.2656	   2.21273	7.40265e+07	      76.5	    15.266	      2.23	 7.6028e+07	      76.5	    15.283	      2.23	7.41138e+07	      76.5	   15.2829	   2.21176	7.20335e+07	      76.5	   15.2658	   2.22137	7.50188e+07	      76.5	   15.2745	      2.23	7.50604e+07	      76.5	    15.283	   2.22088	7.30633e+07	      76.5	   15.2743	   2.21224	7.30212e+07	
         R10	   2591	      76.5	   15.2829	   2.21176	7.20484e+07	      76.5	    15.283	      2.23	7.40964e+07	      76.5	      15.3	      2.23	 7.1929e+07	      76.5	      15.3	   2.21268	 7.0086e+07	      76.5	    15.283	   2.22088	7.30623e+07	      76.5	   15.2915	      2.23	7.30047e+07	      76.5	      15.3	   2.22134	7.09977e+07	      76.5	   15.2915	   2.21222	7.10602e+07	
         R10	   2592	      76.5	   15.2829	   2.21176	7.20596e+07	      76.5	      15.3	   2.21268	7.00597e+07	      76.5	      15.3	   2.19016	6.80156e+07	      76.5	   15.2774	   2.18927	7.03897e+07	      76.5	   15.2915	   2.21222	7.10525e+07	      76.5	      15.3	   2.20142	 6.9023e+07	      76.5	   15.2887	   2.18971	6.91926e+07	      76.5	   15.2801	   2.20051	7.12092e+07	
         R10	   2593	      76.5	   15.2774	   2.18927	7.04753e+07	      76.5	      15.3	   2.19016	6.79591e+07	      76.5	      15.3	   2.16246	6.58162e+07	      76.5	   15.2691	   2.16218	6.88607e+07	      76.5	   15.2887	   2.18971	6.92073e+07	      76.5	      15.3	   2.17631	6.68695e+07	      76.5	   15.2846	   2.16232	6.73239e+07	      76.5	   15.2732	   2.17572	6.96493e+07	
         R10	   2594	      76.5	   15.2691	   2.16218	6.88724e+07	      76.5	      15.3	   2.16246	 6.5801e+07	      76.5	      15.3	   2.12957	6.36538e+07	      76.5	   15.2647	   2.12826	 6.6775e+07	      76.5	   15.2846	   2.16232	6.73226e+07	      76.5	      15.3	   2.14601	 6.4706e+07	      76.5	   15.2824	   2.12892	6.52006e+07	      76.5	   15.2669	   2.14522	6.78019e+07	
         R10	   2595	      76.5	   15.2647	   2.12826	6.67839e+07	      76.5	      15.3	   2.12957	6.36362e+07	      76.5	      15.3	   2.09149	6.16454e+07	      76.5	    15.259	   2.09001	6.49404e+07	      76.5	   15.2824	   2.12892	6.51962e+07	      76.5	      15.3	   2.11053	6.26169e+07	      76.5	   15.2795	   2.09075	6.32793e+07	      76.5	   15.2619	   2.10914	 6.5839e+07	
         R10	   2596	      76.5	    15.259	   2.09001	6.49398e+07	      76.5	      15.3	   2.09149	6.16248e+07	      76.5	      15.3	   2.04821	5.98429e+07	      76.5	   15.2536	     2.047	6.32768e+07	      76.5	   15.2795	   2.09075	6.32688e+07	      76.5	      15.3	   2.06985	6.07082e+07	      76.5	   15.2768	   2.04761	6.15476e+07	      76.5	   15.2563	   2.06851	6.40844e+07	
         R10	   2597	      76.5	   15.2536	     2.047	6.32727e+07	      76.5	      15.3	   2.04821	5.98217e+07	      76.5	      15.3	   1.99975	5.83016e+07	      76.5	   15.2487	   1.99859	 6.1761e+07	      76.5	   15.2768	   2.04761	 6.1535e+07	      76.5	      15.3	   2.02398	5.90352e+07	      76.5	   15.2744	   1.99917	6.00209e+07	      76.5	   15.2512	    2.0228	6.24925e+07	
         R10	   2598	      76.5	   15.2487	   1.99859	6.17533e+07	      76.5	      15.3	   1.99975	5.82758e+07	      76.5	      15.3	    1.9461	5.70311e+07	      76.5	   15.2443	     1.945	6.04512e+07	      76.5	   15.2744	   1.99917	6.00042e+07	      76.5	      15.3	   1.97293	5.76272e+07	      76.5	   15.2721	   1.94555	5.87325e+07	      76.5	   15.2465	   1.97179	6.10784e+07	
         R10	   2599	      76.5	   15.2443	     1.945	6.04156e+07	      76.5	      15.3	    1.9461	5.69853e+07	      76.5	      15.3	   1.88726	5.60314e+07	      76.5	   15.2389	   1.88567	5.93309e+07	      76.5	   15.2721	   1.94555	5.86917e+07	      76.5	      15.3	   1.91668	 5.6483e+07	      76.5	   15.2695	   1.88647	5.76738e+07	      76.5	   15.2416	   1.91533	5.98494e+07	
         R10	   2600	      76.5	   15.2389	   1.88567	5.93206e+07	      76.5	      15.3	   1.88726	5.58822e+07	      76.5	      15.3	   1.82323	5.50928e+07	      76.5	   15.2328	   1.82175	5.85536e+07	      76.5	   15.2695	   1.88647	5.75941e+07	      76.5	      15.3	   1.85525	5.54616e+07	      76.5	   15.2664	   1.82249	5.68154e+07	      76.5	   15.2359	   1.85371	 5.8918e+07	
         R10	   2601	      76.5	   15.2328	   1.82175	5.83591e+07	      76.5	      15.3	   1.82323	5.46615e+07	      76.5	      15.3	   1.75401	5.52332e+07	      76.5	   15.2276	   1.75287	5.70748e+07	      76.5	   15.2664	   1.82249	5.64972e+07	      76.5	      15.3	   1.78862	5.49143e+07	      76.5	   15.2638	   1.75344	5.61532e+07	      76.5	   15.2302	   1.78731	5.76959e+07	
         R10	   2602	      76.5	   15.2276	   1.75287	5.63419e+07	      76.5	      15.3	   1.75401	5.60368e+07	      76.5	      15.3	    1.6796	5.31659e+07	      76.5	   15.2225	   1.67799	5.44027e+07	      76.5	   15.2638	   1.75344	5.61857e+07	      76.5	      15.3	    1.7168	5.45395e+07	      76.5	   15.2612	    1.6788	5.36805e+07	      76.5	    15.225	   1.71543	5.53545e+07	
         R10	   2603	      76.5	   15.2225	   1.67799	5.44416e+07	      76.5	      15.3	    1.6796	5.57039e+07	      76.5	      15.3	       1.6	3.93354e+07	      76.5	    15.219	       1.6	6.13448e+07	      76.5	   15.2612	    1.6788	5.47689e+07	      76.5	      15.3	    1.6398	4.61102e+07	      76.5	   15.2595	       1.6	4.91436e+07	      76.5	   15.2207	     1.639	5.76375e+07	
         R10	   2604	      76.5	   15.1413	    1.6818	 5.8865e+07	      76.5	   15.2225	   1.67799	5.40153e+07	      76.5	    15.219	       1.6	5.48517e+07	      76.5	   15.1346	       1.6	6.11217e+07	      76.5	   15.1819	    1.6799	5.62909e+07	      76.5	   15.2207	     1.639	5.41824e+07	      76.5	   15.1768	       1.6	5.79657e+07	      76.5	   15.1379	    1.6409	 5.9985e+07	
         R10	   2605	      76.5	   15.1413	    1.6818	5.95283e+07	      76.5	   15.1346	       1.6	 5.7944e+07	      76.5	   15.0468	       1.6	6.31441e+07	      76.5	   15.0481	   1.68773	6.29132e+07	      76.5	   15.1379	    1.6409	5.87297e+07	      76.5	   15.0907	       1.6	 6.0506e+07	      76.5	   15.0475	   1.64387	6.30129e+07	      76.5	   15.0947	   1.68477	6.11953e+07	
         R10	   2606	      76.5	   15.0481	   1.68773	6.31965e+07	      76.5	   15.0468	       1.6	6.15486e+07	      76.5	   14.9557	       1.6	6.50182e+07	      76.5	   14.9566	   1.69136	6.58916e+07	      76.5	   15.0475	   1.64387	6.23568e+07	      76.5	   15.0013	       1.6	6.32551e+07	      76.5	   14.9562	   1.64568	6.54412e+07	      76.5	   15.0024	   1.68955	6.44969e+07	
         R10	   2607	      76.5	   14.9566	   1.69136	6.62641e+07	      76.5	   14.9557	       1.6	6.43725e+07	      76.5	   14.8613	       1.6	6.67822e+07	      76.5	   14.8605	   1.69349	6.83494e+07	      76.5	   14.9562	   1.64568	6.53042e+07	      76.5	   14.9085	       1.6	6.55348e+07	      76.5	   14.8609	   1.64674	6.75511e+07	      76.5	   14.9086	   1.69243	6.72529e+07	
         R10	   2608	      76.5	   14.8605	   1.69349	6.87583e+07	      76.5	   14.8613	       1.6	6.66896e+07	      76.5	   14.7635	       1.6	6.80693e+07	      76.5	   14.7622	   1.69713	7.01322e+07	      76.5	   14.8609	   1.64674	6.77097e+07	      76.5	   14.8124	       1.6	6.73295e+07	      76.5	   14.7629	   1.64856	6.90835e+07	      76.5	   14.8114	   1.69531	6.93801e+07	
         R10	   2609	      76.5	   14.7622	   1.69713	7.07421e+07	      76.5	   14.7635	       1.6	6.84237e+07	      76.5	   14.6624	       1.6	6.87417e+07	      76.5	   14.6597	   1.70105	7.11942e+07	      76.5	   14.7629	   1.64856	6.95677e+07	      76.5	   14.7129	       1.6	6.85275e+07	      76.5	    14.661	   1.65053	 6.9946e+07	      76.5	    14.711	   1.69909	7.08923e+07	
         R10	   2610	      76.5	   14.6597	   1.70105	7.20509e+07	      76.5	   14.6624	       1.6	6.95008e+07	      76.5	   14.5579	       1.6	6.86968e+07	      76.5	   14.5531	   1.70068	7.07748e+07	      76.5	    14.661	   1.65053	7.07551e+07	      76.5	   14.6101	       1.6	6.90408e+07	      76.5	   14.5555	   1.65034	6.97066e+07	      76.5	   14.6064	   1.70087	7.13324e+07	
         R10	   2611	      76.5	   14.6597	   1.79821	7.48309e+07	      76.5	   14.6597	   1.70105	 7.2063e+07	      76.5	   14.5531	   1.70068	7.08446e+07	      76.5	   14.5501	   1.79864	7.34571e+07	      76.5	   14.6597	   1.74963	7.34288e+07	      76.5	   14.6064	   1.70087	7.13761e+07	      76.5	   14.5516	   1.74966	7.21183e+07	      76.5	   14.6049	   1.79842	7.40274e+07	
         R10	   2612	      76.5	   14.6597	   1.79821	7.47871e+07	      76.5	   14.5501	   1.79864	7.35283e+07	      76.5	   14.5449	   1.89329	7.68197e+07	      76.5	   14.6441	   1.89462	7.79744e+07	      76.5	   14.6049	   1.79842	7.40394e+07	      76.5	   14.5475	   1.84597	7.51364e+07	      76.5	   14.5945	   1.89396	7.72538e+07	      76.5	   14.6519	   1.84641	7.63509e+07	
         R10	   2613	      76.5	   14.6441	   1.89462	7.78998e+07	      76.5	   14.5449	   1.89329	7.67948e+07	      76.5	   14.5399	   1.98623	8.14134e+07	      76.5	   14.6317	   1.98615	8.15791e+07	      76.5	   14.5945	   1.89396	7.72093e+07	      76.5	   14.5424	   1.93976	 7.9066e+07	      76.5	   14.5858	   1.98619	8.12886e+07	      76.5	   14.6379	   1.94038	 7.9724e+07	
         R10	   2614	      76.5	   14.6317	   1.98615	8.15687e+07	      76.5	   14.5399	   1.98623	8.13433e+07	      76.5	   14.5363	   2.07504	8.81906e+07	      76.5	   14.6211	   2.07811	8.54415e+07	      76.5	   14.5858	   1.98619	8.12571e+07	      76.5	   14.5381	   2.03063	8.47476e+07	      76.5	   14.5787	   2.07657	8.65242e+07	      76.5	   14.6264	   2.03213	8.35016e+07	
         R10	   2615	      76.5	   14.6211	   2.07811	 8.5704e+07	      76.5	   14.5363	   2.07504	8.80386e+07	      76.5	    14.533	   2.16098	9.75656e+07	      76.5	   14.6115	   2.16357	8.90889e+07	      76.5	   14.5787	   2.07657	8.65889e+07	      76.5	   14.5347	   2.11801	 9.2796e+07	      76.5	   14.5723	   2.16228	9.28519e+07	      76.5	   14.6163	   2.12084	8.73809e+07	
         R10	   2616	      76.5	   14.6115	   2.16357	8.97344e+07	      76.5	    14.533	   2.16098	9.68832e+07	      76.5	   14.5303	   2.24354	1.13575e+08	      76.5	   14.6092	   2.24623	8.57772e+07	      76.5	   14.5723	   2.16228	9.28452e+07	      76.5	   14.5317	   2.20226	1.05083e+08	      76.5	   14.5698	   2.24488	9.90898e+07	      76.5	   14.6104	    2.2049	8.76213e+07	
         R10	   2617	      76.5	   14.6092	   2.24623	8.42344e+07	      76.5	   14.5303	   2.24354	1.15972e+08	      76.5	   14.5279	   2.32291	1.07272e+08	      76.5	   14.6033	   2.32376	7.67435e+07	      76.5	   14.5698	   2.24488	 9.9538e+07	      76.5	   14.5291	   2.28323	1.11012e+08	      76.5	   14.5656	   2.32334	9.18559e+07	      76.5	   14.6063	     2.285	8.04251e+07	
         R10	   2618	      76.5	   14.6806	   2.24987	6.97108e+07	      76.5	   14.6092	   2.24623	8.31382e+07	      76.5	   14.6033	   2.32376	7.67055e+07	      76.5	   14.6738	   2.32961	5.46357e+07	      76.5	   14.6449	   2.24805	 7.6377e+07	      76.5	   14.6063	     2.285	 7.9655e+07	      76.5	   14.6386	   2.32669	6.50696e+07	      76.5	   14.6772	   2.28974	6.20684e+07	
         R10	   2619	      76.5	   14.6806	   2.24987	 6.9857e+07	      76.5	   14.6738	   2.32961	5.53577e+07	      76.5	    14.739	   2.33508	5.40548e+07	      76.5	   14.7448	    2.2646	6.01064e+07	      76.5	   14.6772	   2.28974	6.25309e+07	      76.5	   14.7064	   2.33235	5.45575e+07	      76.5	   14.7419	   2.29984	5.69636e+07	      76.5	   14.7127	   2.25723	6.48661e+07	
         R10	   2620	      76.5	   14.7448	    2.2646	6.02583e+07	      76.5	    14.739	   2.33508	5.38673e+07	      76.5	   14.7996	   2.34071	5.41532e+07	      76.5	    14.805	   2.27666	5.82893e+07	      76.5	   14.7419	   2.29984	5.69602e+07	      76.5	   14.7693	    2.3379	 5.3922e+07	      76.5	   14.8023	   2.30869	5.61092e+07	      76.5	   14.7749	   2.27063	5.91868e+07	
         R10	   2621	      76.5	    14.805	   2.27666	5.84459e+07	      76.5	   14.7996	   2.34071	5.38839e+07	      76.5	   14.8554	   2.34606	5.56644e+07	      76.5	     14.86	   2.29241	5.83865e+07	      76.5	   14.8023	   2.30869	5.60404e+07	      76.5	   14.8275	   2.34339	5.47431e+07	      76.5	   14.8577	   2.31923	5.69527e+07	      76.5	   14.8325	   2.28453	5.83425e+07	
         R10	   2622	      76.5	     14.86	   2.29241	5.84081e+07	      76.5	   14.8554	   2.34606	5.55327e+07	      76.5	   14.9065	    2.3511	5.74502e+07	      76.5	   14.9118	   2.30242	6.00713e+07	      76.5	   14.8577	   2.31923	5.68885e+07	      76.5	   14.8809	   2.34858	5.64715e+07	      76.5	   14.9091	   2.32676	5.86977e+07	      76.5	   14.8859	   2.29741	5.92053e+07	
         R10	   2623	      76.5	   14.9118	   2.30242	6.00695e+07	      76.5	   14.9065	    2.3511	5.73977e+07	      76.5	   14.9524	    2.3561	5.93328e+07	      76.5	   14.9576	   2.31146	 6.2176e+07	      76.5	   14.9091	   2.32676	5.86664e+07	      76.5	   14.9295	    2.3536	5.83506e+07	      76.5	    14.955	   2.33378	6.06939e+07	      76.5	   14.9347	   2.30694	6.11018e+07	
         R10	   2624	      76.5	   14.9576	   2.31146	6.21585e+07	      76.5	   14.9524	    2.3561	5.94017e+07	      76.5	   14.9937	   2.36165	6.12362e+07	      76.5	   14.9983	   2.32526	6.41617e+07	      76.5	    14.955	   2.33378	6.07205e+07	      76.5	    14.973	   2.35888	6.03046e+07	      76.5	    14.996	   2.34346	6.26503e+07	      76.5	    14.978	   2.31836	6.31379e+07	
         R10	   2625	      76.5	   14.9983	   2.32526	6.41039e+07	      76.5	   14.9937	   2.36165	6.13665e+07	      76.5	   15.0305	   2.36678	6.32569e+07	      76.5	   15.0348	   2.33522	6.63761e+07	      76.5	    14.996	   2.34346	6.26918e+07	      76.5	   15.0121	   2.36421	6.22978e+07	      76.5	   15.0326	     2.351	6.47704e+07	      76.5	   15.0165	   2.33024	6.52256e+07	
         R10	   2626	      76.5	   15.0348	   2.33522	6.63361e+07	      76.5	   15.0305	   2.36678	6.33896e+07	      76.5	   15.0623	    2.3713	6.53112e+07	      76.5	   15.0661	   2.34409	6.86174e+07	      76.5	   15.0326	     2.351	6.48235e+07	      76.5	   15.0464	   2.36904	6.43376e+07	      76.5	   15.0642	   2.35769	6.69197e+07	      76.5	   15.0505	   2.33965	6.74649e+07	
         R10	   2627	      76.5	   15.0661	   2.34409	6.86029e+07	      76.5	   15.0623	    2.3713	6.54193e+07	      76.5	   15.0894	   2.37531	6.73252e+07	      76.5	   15.0933	   2.35536	7.04786e+07	      76.5	   15.0642	   2.35769	6.69722e+07	      76.5	   15.0758	    2.3733	6.63618e+07	      76.5	   15.0913	   2.36534	6.88732e+07	      76.5	   15.0797	   2.34973	6.95233e+07	
         R10	   2628	      76.5	   15.1118	   2.37781	6.96402e+07	      76.5	     15.13	     2.366	7.40217e+07	      76.5	     15.13	     2.349	7.63208e+07	      76.5	   15.1123	   2.35187	7.34262e+07	      76.5	   15.1209	    2.3719	7.18196e+07	      76.5	     15.13	    2.3575	 7.5131e+07	      76.5	   15.1211	   2.35044	7.48696e+07	      76.5	    15.112	   2.36484	7.14686e+07	
         R10	   2629	      76.5	   15.0913	   2.31601	7.35247e+07	      76.5	   15.1121	    2.3152	7.61897e+07	      76.5	   15.1133	   2.29909	7.68465e+07	      76.5	   15.0946	   2.29801	7.46352e+07	      76.5	   15.1017	   2.31561	 7.4853e+07	      76.5	   15.1127	   2.30715	7.64904e+07	      76.5	    15.104	   2.29855	7.57374e+07	      76.5	    15.093	   2.30701	 7.4051e+07	
         R10	   2630	      76.5	   15.0937	   2.27473	7.50159e+07	      76.5	   15.1108	   2.28118	7.67238e+07	      76.5	   15.1138	   2.26445	7.69351e+07	      76.5	   15.0906	   2.25894	7.47555e+07	      76.5	   15.1023	   2.27796	 7.5867e+07	      76.5	   15.1123	   2.27282	7.68034e+07	      76.5	   15.1022	    2.2617	7.58403e+07	      76.5	   15.0922	   2.26684	 7.4869e+07	
         R10	   2631	      76.5	   15.0906	   2.25894	7.48428e+07	      76.5	   15.1123	   2.24672	7.64898e+07	      76.5	   15.1113	   2.23027	7.59484e+07	      76.5	   15.0919	   2.23276	7.47657e+07	      76.5	   15.1015	   2.25283	7.56368e+07	      76.5	   15.1118	   2.23849	7.62016e+07	      76.5	   15.1016	   2.23152	7.53482e+07	      76.5	   15.0913	   2.24585	7.47577e+07	
         R10	   2632	      76.5	   15.1131	   2.20651	7.52995e+07	      76.5	   15.1113	   2.23027	7.59956e+07	      76.5	     15.13	      2.23	7.71121e+07	      76.5	   15.1309	   2.21336	7.63384e+07	      76.5	   15.1122	   2.21839	7.56142e+07	      76.5	   15.1206	   2.23013	 7.6546e+07	      76.5	   15.1304	   2.22168	7.67086e+07	      76.5	    15.122	   2.20994	7.58152e+07	
         R10	   2633	      76.5	   15.1308	   2.19114	7.51192e+07	      76.5	   15.1309	   2.21336	7.64233e+07	      76.5	   15.1461	   2.21359	7.69939e+07	      76.5	   15.1476	   2.19343	7.60708e+07	      76.5	   15.1309	   2.20225	7.57478e+07	      76.5	   15.1385	   2.21348	7.67026e+07	      76.5	   15.1469	   2.20351	7.65134e+07	      76.5	   15.1392	   2.19229	7.55899e+07	
         R10	   2634	      76.5	   15.1954	   2.19232	7.59779e+07	      76.5	   15.1974	   2.21173	7.76957e+07	      76.5	   15.2149	   2.21232	7.73903e+07	      76.5	   15.2153	   2.19317	7.53791e+07	      76.5	   15.1964	   2.20202	 7.6825e+07	      76.5	   15.2061	   2.21202	7.75308e+07	      76.5	   15.2151	   2.20274	 7.6372e+07	      76.5	   15.2054	   2.19274	7.56646e+07	
         R10	   2635	      76.5	   15.2153	   2.19317	 7.5397e+07	      76.5	   15.2149	   2.21232	 7.7391e+07	      76.5	   15.2321	   2.21232	7.65879e+07	      76.5	   15.2333	   2.19208	7.44449e+07	      76.5	   15.2151	   2.20274	7.63818e+07	      76.5	   15.2235	   2.21232	 7.6977e+07	      76.5	   15.2327	    2.2022	7.55038e+07	      76.5	   15.2243	   2.19262	7.49096e+07	
         R10	   2636	      76.5	   15.2333	   2.19208	7.43069e+07	      76.5	   15.2321	   2.21232	7.66098e+07	      76.5	   15.2487	    2.2124	7.54907e+07	      76.5	   15.2507	   2.19032	7.30014e+07	      76.5	   15.2327	    2.2022	7.54464e+07	      76.5	   15.2404	   2.21236	 7.6039e+07	      76.5	   15.2497	   2.20136	7.42332e+07	      76.5	    15.242	    2.1912	7.36444e+07	
         R10	   2637	      76.5	   15.2319	    2.1331	6.94946e+07	      76.5	   15.2647	   2.12826	6.67718e+07	      76.5	    15.259	   2.09001	 6.4952e+07	      76.5	   15.2171	   2.09553	6.80258e+07	      76.5	   15.2483	   2.13068	6.81149e+07	      76.5	   15.2619	   2.10914	6.58386e+07	      76.5	   15.2381	   2.09277	6.64661e+07	      76.5	   15.2245	   2.11431	6.87372e+07	
         R10	   2638	      76.5	   15.2171	   2.09553	6.80085e+07	      76.5	    15.259	   2.09001	6.49568e+07	      76.5	   15.2536	     2.047	6.32937e+07	      76.5	    15.207	   2.05248	6.63248e+07	      76.5	   15.2381	   2.09277	  6.646e+07	      76.5	   15.2563	   2.06851	6.41014e+07	      76.5	   15.2303	   2.04974	6.47884e+07	      76.5	   15.2121	     2.074	6.71431e+07	
         R10	   2639	      76.5	    15.207	   2.05248	6.63346e+07	      76.5	   15.2536	     2.047	6.32881e+07	      76.5	   15.2487	   1.99859	6.17817e+07	      76.5	   15.1974	   2.00372	6.48202e+07	      76.5	   15.2303	   2.04974	6.47907e+07	      76.5	   15.2512	    2.0228	6.25106e+07	      76.5	   15.2231	   2.00115	6.32822e+07	      76.5	   15.2022	    2.0281	6.55533e+07	
         R10	   2640	      76.5	   15.1974	   2.00372	6.48373e+07	      76.5	   15.2487	   1.99859	 6.1769e+07	      76.5	   15.2443	     1.945	6.04524e+07	      76.5	   15.1905	   1.95018	6.34016e+07	      76.5	   15.2231	   2.00115	6.32845e+07	      76.5	   15.2465	   1.97179	6.10867e+07	      76.5	   15.2174	   1.94759	6.19112e+07	      76.5	    15.194	   1.97695	6.40969e+07	
         R10	   2641	      76.5	   15.1905	   1.95018	6.34452e+07	      76.5	   15.2443	     1.945	6.04186e+07	      76.5	   15.2389	   1.88567	5.94133e+07	      76.5	   15.1824	   1.89035	6.20951e+07	      76.5	   15.2174	   1.94759	6.19161e+07	      76.5	   15.2416	   1.91533	5.98932e+07	      76.5	   15.2107	   1.88801	6.07412e+07	      76.5	   15.1864	   1.92026	6.27481e+07	
         R10	   2642	      76.5	   15.1824	   1.89035	6.21296e+07	      76.5	   15.2389	   1.88567	5.94192e+07	      76.5	   15.2328	   1.82175	5.83798e+07	      76.5	    15.164	    1.8267	6.13149e+07	      76.5	   15.2107	   1.88801	 6.0761e+07	      76.5	   15.2359	   1.85371	5.88775e+07	      76.5	   15.1984	   1.82422	5.98269e+07	      76.5	   15.1732	   1.85853	6.17032e+07	
         R10	   2643	      76.5	    15.164	    1.8267	6.14923e+07	      76.5	   15.2328	   1.82175	5.82398e+07	      76.5	   15.2276	   1.75287	5.71278e+07	      76.5	    15.153	   1.75706	5.99113e+07	      76.5	   15.1984	   1.82422	5.98494e+07	      76.5	   15.2302	   1.78731	5.76666e+07	      76.5	   15.1903	   1.75496	5.84857e+07	      76.5	   15.1585	   1.79188	6.06857e+07	
         R10	   2644	      76.5	    15.153	   1.75706	6.01512e+07	      76.5	   15.2276	   1.75287	5.62419e+07	      76.5	   15.2225	   1.67799	 5.6565e+07	      76.5	   15.1413	    1.6818	5.88001e+07	      76.5	   15.1903	   1.75496	5.81665e+07	      76.5	    15.225	   1.71543	5.63781e+07	      76.5	   15.1819	    1.6799	5.76672e+07	      76.5	   15.1471	   1.71943	 5.9467e+07	
         R10	   2645	      76.5	   15.0711	   1.76391	6.34997e+07	      76.5	    15.153	   1.75706	6.04201e+07	      76.5	   15.1413	    1.6818	5.90567e+07	      76.5	   15.0481	   1.68773	6.29238e+07	      76.5	   15.1121	   1.76049	6.19275e+07	      76.5	   15.1471	   1.71943	 5.9729e+07	      76.5	   15.0947	   1.68477	6.09432e+07	      76.5	   15.0596	   1.72582	6.31973e+07	
         R10	   2646	      76.5	   15.0711	   1.76391	6.35394e+07	      76.5	   15.0481	   1.68773	6.32838e+07	      76.5	   14.9566	   1.69136	6.59413e+07	      76.5	   14.9593	    1.7763	6.76266e+07	      76.5	   15.0596	   1.72582	6.33969e+07	      76.5	   15.0024	   1.68955	6.45739e+07	      76.5	    14.958	   1.73383	 6.6771e+07	      76.5	   15.0152	   1.77011	6.55025e+07	
         R10	   2647	      76.5	   14.9593	    1.7763	6.77426e+07	      76.5	   14.9566	   1.69136	6.62367e+07	      76.5	   14.8605	   1.69349	6.84266e+07	      76.5	   14.8634	   1.77819	7.01076e+07	      76.5	    14.958	   1.73383	6.69765e+07	      76.5	   14.9086	   1.69243	6.72788e+07	      76.5	   14.8619	   1.73584	 6.9256e+07	      76.5	   14.9113	   1.77725	6.88636e+07	
         R10	   2648	      76.5	   14.8634	   1.77819	7.05198e+07	      76.5	   14.8605	   1.69349	6.88483e+07	      76.5	   14.7622	   1.69713	7.02306e+07	      76.5	   14.7621	    1.7898	7.23872e+07	      76.5	   14.8619	   1.73584	6.96723e+07	      76.5	   14.8114	   1.69531	6.94752e+07	      76.5	   14.7622	   1.74346	7.12951e+07	      76.5	   14.8128	     1.784	7.13725e+07	
         R10	   2649	      76.5	   14.7621	    1.7898	7.30792e+07	      76.5	   14.7622	   1.69713	7.08378e+07	      76.5	   14.6597	   1.70105	7.11663e+07	      76.5	   14.6597	   1.79821	7.38721e+07	      76.5	   14.7622	   1.74346	7.19449e+07	      76.5	    14.711	   1.69909	7.09268e+07	      76.5	   14.6597	   1.74963	7.25005e+07	      76.5	   14.7109	     1.794	7.33773e+07	
         R10	   2650	      76.5	   14.7634	   1.88522	7.51463e+07	      76.5	   14.7621	    1.7898	7.31752e+07	      76.5	   14.6597	   1.79821	7.38659e+07	      76.5	   14.6441	   1.89462	7.72394e+07	      76.5	   14.7628	   1.83751	7.41482e+07	      76.5	   14.7109	     1.794	7.34232e+07	      76.5	   14.6519	   1.84641	7.55258e+07	      76.5	   14.7038	   1.88992	7.60353e+07	
         R10	   2651	      76.5	   14.7634	   1.88522	7.51238e+07	      76.5	   14.6441	   1.89462	 7.7309e+07	      76.5	   14.6317	   1.98615	8.06267e+07	      76.5	   14.7145	   1.99244	7.81394e+07	      76.5	   14.7038	   1.88992	7.60532e+07	      76.5	   14.6379	   1.94038	7.89476e+07	      76.5	   14.6731	    1.9893	7.92743e+07	      76.5	   14.7389	   1.93883	7.65803e+07	
         R10	   2652	      76.5	   14.7145	   1.99244	7.85933e+07	      76.5	   14.6317	   1.98615	8.05158e+07	      76.5	   14.6211	   2.07811	8.43203e+07	      76.5	   14.7024	   2.08626	7.89573e+07	      76.5	   14.6731	    1.9893	 7.9452e+07	      76.5	   14.6264	   2.03213	8.24145e+07	      76.5	   14.6617	   2.08218	8.15248e+07	      76.5	   14.7084	   2.03935	7.87727e+07	
         R10	   2653	      76.5	   14.7024	   2.08626	7.90871e+07	      76.5	   14.6211	   2.07811	8.44459e+07	      76.5	   14.6115	   2.16357	8.69437e+07	      76.5	   14.6902	   2.16923	7.68207e+07	      76.5	   14.6617	   2.08218	8.16494e+07	      76.5	   14.6163	   2.12084	8.56879e+07	      76.5	   14.6509	    2.1664	8.17791e+07	      76.5	   14.6963	   2.12774	 7.7953e+07	
         R10	   2654	      76.5	   14.6902	   2.16923	7.71119e+07	      76.5	   14.6115	   2.16357	8.82656e+07	      76.5	   14.6092	   2.24623	8.47616e+07	      76.5	   14.6806	   2.24987	6.91452e+07	      76.5	   14.6509	    2.1664	8.25497e+07	      76.5	   14.6104	    2.2049	8.64032e+07	      76.5	   14.6449	   2.24805	7.69158e+07	      76.5	   14.6854	   2.20955	7.31195e+07	
         R10	   2655	      76.5	   14.7616	   2.18263	6.86941e+07	      76.5	   14.6902	   2.16923	7.63232e+07	      76.5	   14.6806	   2.24987	6.87152e+07	      76.5	   14.7448	    2.2646	6.12527e+07	      76.5	   14.7259	   2.17593	7.24709e+07	      76.5	   14.6854	   2.20955	7.25162e+07	      76.5	   14.7127	   2.25723	6.49031e+07	      76.5	   14.7532	   2.22361	 6.4948e+07	
         R10	   2656	      76.5	   14.7616	   2.18263	6.87201e+07	      76.5	   14.7448	    2.2646	6.12514e+07	      76.5	    14.805	   2.27666	5.83446e+07	      76.5	   14.8179	   2.21186	 6.4097e+07	      76.5	   14.7532	   2.22361	6.49665e+07	      76.5	   14.7749	   2.27063	5.96955e+07	      76.5	   14.8114	   2.24426	6.11497e+07	      76.5	   14.7897	   2.19725	6.63612e+07	
         R10	   2657	      76.5	   14.8179	   2.21186	6.41146e+07	      76.5	    14.805	   2.27666	5.84959e+07	      76.5	     14.86	   2.29241	5.84336e+07	      76.5	   14.8708	   2.24242	6.20042e+07	      76.5	   14.8114	   2.24426	6.12424e+07	      76.5	   14.8325	   2.28453	5.83942e+07	      76.5	   14.8654	   2.26741	6.01532e+07	      76.5	   14.8443	   2.22714	6.29847e+07	
         R10	   2658	      76.5	   14.8708	   2.24242	 6.2051e+07	      76.5	     14.86	   2.29241	5.85712e+07	      76.5	   14.9118	   2.30242	6.00801e+07	      76.5	   14.9218	    2.2558	6.30942e+07	      76.5	   14.8654	   2.26741	6.02549e+07	      76.5	   14.8859	   2.29741	5.92883e+07	      76.5	   14.9168	   2.27911	6.15177e+07	      76.5	   14.8963	   2.24911	6.25402e+07	
         R10	   2659	      76.5	   14.9218	    2.2558	6.31191e+07	      76.5	   14.9118	   2.30242	6.01002e+07	      76.5	   14.9576	   2.31146	6.21894e+07	      76.5	   14.9694	   2.26912	6.50179e+07	      76.5	   14.9168	   2.27911	6.15431e+07	      76.5	   14.9347	   2.30694	6.11238e+07	      76.5	   14.9635	   2.29029	6.35374e+07	      76.5	   14.9456	   2.26246	6.40432e+07	
         R10	   2660	      76.5	   14.9694	   2.26912	6.50671e+07	      76.5	   14.9576	   2.31146	6.21816e+07	      76.5	   14.9983	   2.32526	6.41562e+07	      76.5	   15.0074	   2.28863	 6.6797e+07	      76.5	   14.9635	   2.29029	6.35585e+07	      76.5	    14.978	   2.31836	6.31456e+07	      76.5	   15.0029	   2.30694	6.54149e+07	      76.5	   14.9884	   2.27887	6.59046e+07	
         R10	   2661	      76.5	   15.0074	   2.28863	6.68524e+07	      76.5	   14.9983	   2.32526	6.41224e+07	      76.5	   15.0348	   2.33522	6.63892e+07	      76.5	    15.044	    2.3014	6.93054e+07	      76.5	   15.0029	   2.30694	6.54247e+07	      76.5	   15.0165	   2.33024	6.52413e+07	      76.5	   15.0394	   2.31831	6.77862e+07	      76.5	   15.0257	   2.29501	6.80619e+07	
         R10	   2662	      76.5	    15.044	    2.3014	6.93257e+07	      76.5	   15.0348	   2.33522	6.64001e+07	      76.5	   15.0661	   2.34409	6.85675e+07	      76.5	   15.0714	   2.32072	 7.1023e+07	      76.5	   15.0394	   2.31831	6.77953e+07	      76.5	   15.0505	   2.33965	6.74719e+07	      76.5	   15.0688	    2.3324	6.97565e+07	      76.5	   15.0577	   2.31106	 7.0146e+07	
         R10	   2663	      76.5	   15.0933	   2.35536	7.04416e+07	      76.5	   15.0894	   2.37531	6.74673e+07	      76.5	   15.1118	   2.37781	6.95388e+07	      76.5	   15.1123	   2.35187	7.33557e+07	      76.5	   15.0913	   2.36534	6.89299e+07	      76.5	   15.1006	   2.37656	6.84953e+07	      76.5	    15.112	   2.36484	7.13799e+07	      76.5	   15.1028	   2.35362	7.18956e+07	
         R10	   2664	      76.5	   15.1124	   2.33216	7.51617e+07	      76.5	   15.1121	    2.3152	7.61805e+07	      76.5	   15.0913	   2.31601	7.34665e+07	      76.5	   15.0948	   2.33426	 7.2717e+07	      76.5	   15.1123	   2.32368	  7.564e+07	      76.5	   15.1017	   2.31561	7.48191e+07	      76.5	   15.0931	   2.32514	7.30618e+07	      76.5	   15.1036	   2.33321	7.39361e+07	
         R10	   2665	      76.5	    15.073	   2.28565	7.25436e+07	      76.5	   15.0946	   2.29801	7.48091e+07	      76.5	   15.1108	   2.28118	7.67594e+07	      76.5	   15.0937	   2.27473	7.50438e+07	      76.5	   15.0838	   2.29183	7.36656e+07	      76.5	   15.1027	    2.2896	7.57443e+07	      76.5	   15.1023	   2.27796	7.58988e+07	      76.5	   15.0834	   2.28019	7.37757e+07	
         R10	   2666	      76.5	   15.0869	   2.20514	7.39109e+07	      76.5	   15.0919	   2.23276	7.46056e+07	      76.5	   15.1113	   2.23027	7.60393e+07	      76.5	   15.1131	   2.20651	7.52079e+07	      76.5	   15.0894	   2.21895	7.42228e+07	      76.5	   15.1016	   2.23152	7.53142e+07	      76.5	   15.1122	   2.21839	7.55902e+07	      76.5	      15.1	   2.20582	7.45492e+07	
         R10	   2667	      76.5	   15.1244	    2.1682	7.41514e+07	      76.5	   15.1308	   2.19114	7.52929e+07	      76.5	   15.1476	   2.19343	7.58149e+07	      76.5	   15.1611	   2.16594	7.42517e+07	      76.5	   15.1276	   2.17967	7.47052e+07	      76.5	   15.1392	   2.19229	7.55474e+07	      76.5	   15.1544	   2.17968	7.49878e+07	      76.5	   15.1428	   2.16707	7.41683e+07	
         R10	   2668	      76.5	   15.1611	   2.16594	7.43308e+07	      76.5	   15.1476	   2.19343	7.57944e+07	      76.5	   15.1633	   2.21037	7.73889e+07	      76.5	   15.1738	   2.19361	7.61267e+07	      76.5	   15.1544	   2.17968	7.50198e+07	      76.5	   15.1555	    2.2019	7.65843e+07	      76.5	   15.1685	   2.20199	7.67325e+07	      76.5	   15.1675	   2.17977	7.52113e+07	
         R10	   2669	      76.5	   15.1738	   2.19361	7.62568e+07	      76.5	   15.1818	   2.21267	7.78111e+07	      76.5	   15.1974	   2.21173	7.76868e+07	      76.5	   15.1954	   2.19232	7.59115e+07	      76.5	   15.1778	   2.20314	7.70239e+07	      76.5	   15.1896	    2.2122	7.77382e+07	      76.5	   15.1964	   2.20202	7.67865e+07	      76.5	   15.1846	   2.19296	7.60674e+07	
         R10	   2670	      76.5	   15.2691	   2.16218	6.89186e+07	      76.5	   15.2647	   2.12826	6.67657e+07	      76.5	   15.2319	    2.1331	6.95367e+07	      76.5	   15.2384	   2.16571	7.15776e+07	      76.5	   15.2669	   2.14522	6.78203e+07	      76.5	   15.2483	   2.13068	6.81336e+07	      76.5	   15.2352	    2.1494	7.05372e+07	      76.5	   15.2537	   2.16395	7.02277e+07	
         R10	   2671	      76.5	   15.1969	   2.14345	7.20845e+07	      76.5	   15.2319	    2.1331	6.95134e+07	      76.5	   15.2171	   2.09553	6.80328e+07	      76.5	   15.1773	   2.10902	7.04746e+07	      76.5	   15.2144	   2.13827	 7.0767e+07	      76.5	   15.2245	   2.11431	6.87505e+07	      76.5	   15.1972	   2.10227	6.92191e+07	      76.5	   15.1871	   2.12623	7.12592e+07	
         R10	   2672	      76.5	   15.1773	   2.10902	7.04917e+07	      76.5	   15.2171	   2.09553	6.80099e+07	      76.5	    15.207	   2.05248	6.63422e+07	      76.5	   15.1616	   2.06269	6.86924e+07	      76.5	   15.1972	   2.10227	6.92167e+07	      76.5	   15.2121	     2.074	6.71526e+07	      76.5	   15.1843	   2.05758	6.74879e+07	      76.5	   15.1695	   2.08585	6.95633e+07	
         R10	   2673	      76.5	   15.1616	   2.06269	 6.8705e+07	      76.5	    15.207	   2.05248	6.63443e+07	      76.5	   15.1974	   2.00372	6.48344e+07	      76.5	   15.1479	   2.01192	6.71831e+07	      76.5	   15.1843	   2.05758	6.74954e+07	      76.5	   15.2022	    2.0281	6.55654e+07	      76.5	   15.1727	   2.00782	6.59837e+07	      76.5	   15.1548	    2.0373	6.79174e+07	
         R10	   2674	      76.5	   15.1479	   2.01192	6.71974e+07	      76.5	   15.1974	   2.00372	6.48491e+07	      76.5	   15.1905	   1.95018	6.34126e+07	      76.5	   15.1384	   1.95792	6.58098e+07	      76.5	   15.1727	   2.00782	6.59982e+07	      76.5	    15.194	   1.97695	6.41082e+07	      76.5	   15.1644	   1.95405	6.45895e+07	      76.5	   15.1432	   1.98492	 6.6481e+07	
         R10	   2675	      76.5	   15.1384	   1.95792	6.57523e+07	      76.5	   15.1905	   1.95018	6.34559e+07	      76.5	   15.1824	   1.89035	6.21186e+07	      76.5	   15.1278	   1.90144	6.47031e+07	      76.5	   15.1644	   1.95405	6.45829e+07	      76.5	   15.1864	   1.92026	6.27657e+07	      76.5	   15.1551	   1.89589	6.33899e+07	      76.5	   15.1331	   1.92968	6.52095e+07	
         R10	   2676	      76.5	   15.1278	   1.90144	6.46186e+07	      76.5	   15.1824	   1.89035	6.21496e+07	      76.5	    15.164	    1.8267	6.12851e+07	      76.5	   15.1058	   1.83945	6.40221e+07	      76.5	   15.1551	   1.89589	6.33634e+07	      76.5	   15.1732	   1.85853	6.16995e+07	      76.5	   15.1349	   1.83307	6.26316e+07	      76.5	   15.1168	   1.87044	6.43053e+07	
         R10	   2677	      76.5	   15.1058	   1.83945	6.38075e+07	      76.5	    15.164	    1.8267	6.14473e+07	      76.5	    15.153	   1.75706	6.00278e+07	      76.5	   15.0711	   1.76391	 6.3598e+07	      76.5	   15.1349	   1.83307	6.26034e+07	      76.5	   15.1585	   1.79188	6.07213e+07	      76.5	   15.1121	   1.76049	6.17778e+07	      76.5	   15.0884	   1.80168	6.36845e+07	
         R10	   2678	      76.5	   14.9596	   1.85831	6.93069e+07	      76.5	   14.9593	    1.7763	6.77129e+07	      76.5	   14.8634	   1.77819	7.01737e+07	      76.5	   14.8687	   1.85117	7.14246e+07	      76.5	   14.9595	   1.81731	6.84945e+07	      76.5	   14.9113	   1.77725	 6.8881e+07	      76.5	    14.866	   1.81468	7.07898e+07	      76.5	   14.9142	   1.85474	7.03062e+07	
         R10	   2679	      76.5	   14.8687	   1.85117	7.15869e+07	      76.5	   14.8634	   1.77819	7.05842e+07	      76.5	   14.7621	    1.7898	7.25408e+07	      76.5	   14.7634	   1.88522	7.46991e+07	      76.5	    14.866	   1.81468	7.10767e+07	      76.5	   14.8128	     1.784	7.14785e+07	      76.5	   14.7628	   1.83751	7.36068e+07	      76.5	    14.816	    1.8682	7.30392e+07	
         R10	   2680	      76.5	   14.8766	   1.91355	7.21785e+07	      76.5	   14.8687	   1.85117	 7.1728e+07	      76.5	   14.7634	   1.88522	7.47906e+07	      76.5	   14.8284	   1.94764	7.38594e+07	      76.5	   14.8727	   1.88236	7.19441e+07	      76.5	    14.816	    1.8682	7.31437e+07	      76.5	   14.7959	   1.91643	7.42948e+07	      76.5	   14.8525	   1.93059	7.29981e+07	
         R10	   2681	      76.5	   14.8284	   1.94764	7.39788e+07	      76.5	   14.7634	   1.88522	7.48135e+07	      76.5	   14.7145	   1.99244	7.79134e+07	      76.5	   14.7913	   2.01569	7.50303e+07	      76.5	   14.7959	   1.91643	7.43676e+07	      76.5	   14.7389	   1.93883	7.63092e+07	      76.5	   14.7529	   2.00406	7.64214e+07	      76.5	   14.8098	   1.98166	7.44801e+07	
         R10	   2682	      76.5	   14.7913	   2.01569	7.52634e+07	      76.5	   14.7145	   1.99244	7.78739e+07	      76.5	   14.7024	   2.08626	7.84218e+07	      76.5	    14.782	   2.10044	7.33522e+07	      76.5	   14.7529	   2.00406	7.65154e+07	      76.5	   14.7084	   2.03935	7.81449e+07	      76.5	   14.7422	   2.09335	7.58435e+07	      76.5	   14.7866	   2.05806	7.42946e+07	
         R10	   2683	      76.5	    14.782	   2.10044	7.31793e+07	      76.5	   14.7024	   2.08626	7.85552e+07	      76.5	   14.6902	   2.16923	7.61959e+07	      76.5	   14.7616	   2.18263	6.89966e+07	      76.5	   14.7422	   2.09335	7.58205e+07	      76.5	   14.6963	   2.12774	7.73747e+07	      76.5	   14.7259	   2.17593	7.25595e+07	      76.5	   14.7718	   2.14154	7.10772e+07	
         R10	   2684	      76.5	    14.782	   2.10044	7.32744e+07	      76.5	   14.7616	   2.18263	6.89409e+07	      76.5	   14.8179	   2.21186	6.39948e+07	      76.5	   14.8422	   2.16452	6.75023e+07	      76.5	   14.7718	   2.14154	7.10932e+07	      76.5	   14.7897	   2.19725	6.64164e+07	      76.5	     14.83	   2.18819	6.57292e+07	      76.5	   14.8121	   2.13248	 7.0334e+07	
         R10	   2685	      76.5	   14.8422	   2.16452	6.72867e+07	      76.5	   14.8179	   2.21186	6.41263e+07	      76.5	   14.8708	   2.24242	6.20949e+07	      76.5	   14.8892	   2.19668	 6.5462e+07	      76.5	     14.83	   2.18819	6.56886e+07	      76.5	   14.8443	   2.22714	6.30365e+07	      76.5	     14.88	   2.21955	6.37398e+07	      76.5	   14.8657	    2.1806	6.63292e+07	
         R10	   2686	      76.5	   14.8892	   2.19668	6.54859e+07	      76.5	   14.8708	   2.24242	6.21104e+07	      76.5	   14.9218	    2.2558	6.31108e+07	      76.5	   14.9354	    2.2119	 6.5931e+07	      76.5	     14.88	   2.21955	6.37591e+07	      76.5	   14.8963	   2.24911	6.25771e+07	      76.5	   14.9286	   2.23385	6.44649e+07	      76.5	   14.9123	   2.20429	6.56838e+07	
         R10	   2687	      76.5	   14.9354	    2.2119	6.59275e+07	      76.5	   14.9218	    2.2558	6.31334e+07	      76.5	   14.9694	   2.26912	6.50569e+07	      76.5	   14.9834	   2.22896	6.74987e+07	      76.5	   14.9286	   2.23385	6.44735e+07	      76.5	   14.9456	   2.26246	6.40704e+07	      76.5	   14.9764	   2.24904	6.62131e+07	      76.5	   14.9594	   2.22043	6.66882e+07	
         R10	   2688	      76.5	   14.9834	   2.22896	6.75039e+07	      76.5	   14.9694	   2.26912	6.50863e+07	      76.5	   15.0074	   2.28863	6.68265e+07	      76.5	   15.0271	    2.2523	6.96938e+07	      76.5	   14.9764	   2.24904	6.62306e+07	      76.5	   14.9884	   2.27887	6.59265e+07	      76.5	   15.0172	   2.27046	6.81885e+07	      76.5	   15.0052	   2.24063	6.85675e+07	
         R10	   2689	      76.5	   15.0933	   2.35536	7.03677e+07	      76.5	   15.1123	   2.35187	7.34075e+07	      76.5	   15.1124	   2.33216	7.52133e+07	      76.5	   15.0948	   2.33426	7.27481e+07	      76.5	   15.1028	   2.35362	7.18848e+07	      76.5	   15.1123	   2.34201	7.42678e+07	      76.5	   15.1036	   2.33321	7.39776e+07	      76.5	   15.0941	   2.34481	7.15198e+07	
         R10	   2690	      76.5	   15.0633	   2.25669	7.24221e+07	      76.5	   15.0906	   2.25894	 7.4834e+07	      76.5	   15.0919	   2.23276	7.46444e+07	      76.5	    15.066	   2.22964	7.28501e+07	      76.5	    15.077	   2.25782	7.36214e+07	      76.5	   15.0913	   2.24585	7.46936e+07	      76.5	   15.0789	    2.2312	7.37413e+07	      76.5	   15.0646	   2.24316	7.25933e+07	
         R10	   2691	      76.5	   15.1131	   2.20651	7.52289e+07	      76.5	   15.1308	   2.19114	7.53587e+07	      76.5	   15.1244	    2.1682	7.39429e+07	      76.5	   15.1012	   2.18021	7.38601e+07	      76.5	    15.122	   2.19883	7.52622e+07	      76.5	   15.1276	   2.17967	 7.4637e+07	      76.5	   15.1128	   2.17421	7.38801e+07	      76.5	   15.1071	   2.19336	7.45218e+07	
         R10	   2692	      76.5	     15.21	   2.17099	7.37558e+07	      76.5	   15.2384	   2.16571	7.16269e+07	      76.5	   15.2319	    2.1331	6.95651e+07	      76.5	   15.1969	   2.14345	7.19219e+07	      76.5	   15.2242	   2.16835	7.26679e+07	      76.5	   15.2352	    2.1494	7.05756e+07	      76.5	   15.2144	   2.13827	 7.0709e+07	      76.5	   15.2034	   2.15722	 7.2824e+07	
         R10	   2693	      76.5	   15.1429	    2.1235	7.19166e+07	      76.5	   15.1773	   2.10902	 7.0504e+07	      76.5	   15.1616	   2.06269	6.86843e+07	      76.5	   15.1199	   2.07511	7.01554e+07	      76.5	   15.1601	   2.11626	 7.1177e+07	      76.5	   15.1695	   2.08585	6.95653e+07	      76.5	   15.1408	    2.0689	6.93885e+07	      76.5	   15.1314	    2.0993	7.10025e+07	
         R10	   2694	      76.5	   15.1199	   2.07511	7.01642e+07	      76.5	   15.1616	   2.06269	6.87026e+07	      76.5	   15.1479	   2.01192	6.71885e+07	      76.5	   15.1006	   2.02256	6.88503e+07	      76.5	   15.1408	    2.0689	6.94026e+07	      76.5	   15.1548	    2.0373	6.79191e+07	      76.5	   15.1243	   2.01724	6.79918e+07	      76.5	   15.1102	   2.04883	6.94769e+07	
         R10	   2695	      76.5	   15.1006	   2.02256	6.88236e+07	      76.5	   15.1479	   2.01192	6.71921e+07	      76.5	   15.1384	   1.95792	6.58254e+07	      76.5	   15.0818	   1.96592	6.78417e+07	      76.5	   15.1243	   2.01724	6.79797e+07	      76.5	   15.1432	   1.98492	6.64854e+07	      76.5	   15.1101	   1.96192	6.68042e+07	      76.5	   15.0912	   1.99424	6.83083e+07	
         R10	   2696	      76.5	   15.0818	   1.96592	6.79576e+07	      76.5	   15.1384	   1.95792	6.57837e+07	      76.5	   15.1278	   1.90144	6.47736e+07	      76.5	   15.0639	   1.91478	6.70559e+07	      76.5	   15.1101	   1.96192	6.68412e+07	      76.5	   15.1331	   1.92968	 6.5261e+07	      76.5	   15.0958	   1.90811	6.58797e+07	      76.5	   15.0728	   1.94035	 6.7492e+07	
         R10	   2697	      76.5	   15.0639	   1.91478	6.71706e+07	      76.5	   15.1278	   1.90144	6.46799e+07	      76.5	   15.1058	   1.83945	6.40251e+07	      76.5	   15.0422	   1.85988	6.65992e+07	      76.5	   15.0958	   1.90811	6.58937e+07	      76.5	   15.1168	   1.87044	6.43362e+07	      76.5	    15.074	   1.84966	6.52776e+07	      76.5	   15.0531	   1.88733	6.68716e+07	
         R10	   2698	      76.5	    14.958	   1.92774	7.02983e+07	      76.5	   14.9596	   1.85831	  6.927e+07	      76.5	   14.8687	   1.85117	7.13793e+07	      76.5	   14.8766	   1.91355	7.21965e+07	      76.5	   14.9588	   1.89303	6.97659e+07	      76.5	   14.9142	   1.85474	7.02674e+07	      76.5	   14.8727	   1.88236	7.17821e+07	      76.5	   14.9173	   1.92064	7.12035e+07	
         R10	   2699	      76.5	    14.896	   1.99215	7.21288e+07	      76.5	   14.8284	   1.94764	7.36883e+07	      76.5	   14.7913	   2.01569	7.47658e+07	      76.5	   14.8618	   2.04206	7.22644e+07	      76.5	   14.8622	   1.96989	7.28812e+07	      76.5	   14.8098	   1.98166	7.41986e+07	      76.5	   14.8265	   2.02887	7.34858e+07	      76.5	   14.8789	    2.0171	7.21756e+07	
         R10	   2700	      76.5	   14.8758	   2.12489	6.92188e+07	      76.5	   14.8422	   2.16452	6.74249e+07	      76.5	   14.8892	   2.19668	6.54876e+07	      76.5	   14.9105	   2.15303	6.80804e+07	      76.5	    14.859	    2.1447	6.83093e+07	      76.5	   14.8657	    2.1806	6.64066e+07	      76.5	   14.8999	   2.17486	6.67509e+07	      76.5	   14.8932	   2.13896	6.86323e+07	
         R10	   2701	      76.5	   14.9105	   2.15303	6.81283e+07	      76.5	   14.8892	   2.19668	6.54068e+07	      76.5	   14.9354	    2.2119	 6.5957e+07	      76.5	   14.9515	   2.17036	6.81617e+07	      76.5	   14.8999	   2.17486	6.67331e+07	      76.5	   14.9123	   2.20429	6.56589e+07	      76.5	   14.9435	   2.19113	6.70129e+07	      76.5	    14.931	   2.16169	 6.8128e+07	
         R10	   2702	      76.5	   14.9515	   2.17036	6.81721e+07	      76.5	   14.9354	    2.2119	6.59473e+07	      76.5	   14.9834	   2.22896	6.75137e+07	      76.5	   15.0004	    2.1907	6.94054e+07	      76.5	   14.9435	   2.19113	6.70133e+07	      76.5	   14.9594	   2.22043	6.67055e+07	      76.5	   14.9919	   2.20983	6.84006e+07	      76.5	    14.976	   2.18053	6.87665e+07	
         R10	   2703	      76.5	   15.0714	   2.32072	7.08181e+07	      76.5	   15.0661	   2.34409	6.85512e+07	      76.5	   15.0948	   2.33426	7.26714e+07	      76.5	   15.0913	   2.31601	7.36599e+07	      76.5	   15.0688	    2.3324	6.96438e+07	      76.5	   15.0805	   2.33918	7.06001e+07	      76.5	   15.0931	   2.32514	7.31367e+07	      76.5	   15.0813	   2.31836	7.22339e+07	
         R10	   2704	      76.5	   15.0714	   2.32072	  7.117e+07	      76.5	   15.0913	   2.31601	 7.3386e+07	      76.5	   15.0946	   2.29801	 7.4627e+07	      76.5	    15.073	   2.28565	7.28421e+07	      76.5	   15.0813	   2.31836	 7.2273e+07	      76.5	    15.093	   2.30701	7.39741e+07	      76.5	   15.0838	   2.29183	 7.3725e+07	      76.5	   15.0722	   2.30318	7.19106e+07	
         R10	   2705	      76.5	   15.0775	   2.09398	7.10113e+07	      76.5	   15.1199	   2.07511	7.01915e+07	      76.5	   15.1006	   2.02256	6.88294e+07	      76.5	   15.0505	     2.037	6.99445e+07	      76.5	   15.0987	   2.08454	7.05615e+07	      76.5	   15.1102	   2.04883	6.94805e+07	      76.5	   15.0755	   2.02978	 6.9354e+07	      76.5	    15.064	   2.06549	 7.0438e+07	
         R10	   2706	      76.5	   15.0505	     2.037	7.00712e+07	      76.5	   15.1006	   2.02256	6.88465e+07	      76.5	   15.0818	   1.96592	6.79228e+07	      76.5	   15.0209	   1.98149	 6.9483e+07	      76.5	   15.0755	   2.02978	6.94276e+07	      76.5	   15.0912	   1.99424	6.83613e+07	      76.5	   15.0513	    1.9737	6.86635e+07	      76.5	   15.0357	   2.00924	6.97518e+07	
         R10	   2707	      76.5	    15.028	   1.81319	6.61209e+07	      76.5	   15.0422	   1.85988	6.66704e+07	      76.5	   15.1058	   1.83945	6.38504e+07	      76.5	   15.0711	   1.76391	6.35698e+07	      76.5	   15.0351	   1.83654	 6.6388e+07	      76.5	    15.074	   1.84966	6.52297e+07	      76.5	   15.0884	   1.80168	6.36923e+07	      76.5	   15.0496	   1.78855	6.48251e+07	
         R10	   2708	      76.5	   14.9494	   2.02135	7.09259e+07	      76.5	    14.896	   1.99215	7.20499e+07	      76.5	   14.8618	   2.04206	7.22273e+07	      76.5	   14.9054	    2.0767	7.07533e+07	      76.5	   14.9227	   2.00675	7.14723e+07	      76.5	   14.8789	    2.0171	7.21148e+07	      76.5	   14.8836	   2.05938	7.14754e+07	      76.5	   14.9274	   2.04902	7.07969e+07	
         R10	   2709	      76.5	    14.782	   2.10044	7.29916e+07	      76.5	   14.8422	   2.16452	6.73485e+07	      76.5	   14.8758	   2.12489	6.93431e+07	      76.5	   14.8424	   2.09177	7.11661e+07	      76.5	   14.8121	   2.13248	7.01178e+07	      76.5	    14.859	    2.1447	6.83354e+07	      76.5	   14.8591	   2.10833	7.02392e+07	      76.5	   14.8122	   2.09611	7.20623e+07	
         R10	   2710	      76.5	   14.9333	   2.11033	6.97931e+07	      76.5	   14.9105	   2.15303	6.80732e+07	      76.5	   14.9515	   2.17036	6.81799e+07	      76.5	   14.9699	   2.12938	6.97216e+07	      76.5	   14.9219	   2.13168	6.89015e+07	      76.5	    14.931	   2.16169	6.81107e+07	      76.5	   14.9607	   2.14987	 6.8909e+07	      76.5	   14.9516	   2.11985	6.97454e+07	
         R10	   2711	      76.5	   14.9699	   2.12938	6.96799e+07	      76.5	   14.9515	   2.17036	6.81779e+07	      76.5	   15.0004	    2.1907	 6.9408e+07	      76.5	   15.0133	   2.14932	7.05054e+07	      76.5	   14.9607	   2.14987	6.88873e+07	      76.5	    14.976	   2.18053	6.87704e+07	      76.5	   15.0069	   2.17001	6.98967e+07	      76.5	   14.9916	   2.13935	 7.0077e+07	
         R10	   2712	      76.5	   15.0385	   2.21271	7.11161e+07	      76.5	   15.0004	    2.1907	 6.9474e+07	      76.5	   14.9834	   2.22896	6.75217e+07	      76.5	   15.0271	    2.2523	6.96731e+07	      76.5	   15.0195	    2.2017	7.02755e+07	      76.5	   14.9919	   2.20983	6.84398e+07	      76.5	   15.0052	   2.24063	6.85662e+07	      76.5	   15.0328	    2.2325	7.03117e+07	
         R10	   2713	      76.5	   15.0647	   2.19087	7.25656e+07	      76.5	   15.0869	   2.20514	7.38501e+07	      76.5	   15.1012	   2.18021	7.38934e+07	      76.5	    15.081	   2.15874	7.25667e+07	      76.5	   15.0758	     2.198	7.32014e+07	      76.5	    15.094	   2.19267	7.38288e+07	      76.5	   15.0911	   2.16947	7.32188e+07	      76.5	   15.0729	    2.1748	7.25102e+07	
         R10	   2714	      76.5	    15.081	   2.15874	7.26758e+07	      76.5	   15.1012	   2.18021	7.38253e+07	      76.5	   15.1244	    2.1682	7.39506e+07	      76.5	   15.1125	    2.1369	 7.2619e+07	      76.5	   15.0911	   2.16947	7.32394e+07	      76.5	   15.1128	   2.17421	7.38632e+07	      76.5	   15.1185	   2.15255	 7.3262e+07	      76.5	   15.0968	   2.14782	7.26005e+07	
         R10	   2715	      76.5	   15.0326	   2.10637	7.07884e+07	      76.5	   15.0775	   2.09398	7.10034e+07	      76.5	   15.0505	     2.037	 6.9954e+07	      76.5	   15.0086	   2.05308	7.04442e+07	      76.5	   15.0551	   2.10017	7.08662e+07	      76.5	    15.064	   2.06549	7.04398e+07	      76.5	   15.0295	   2.04504	7.01755e+07	      76.5	   15.0206	   2.07972	7.05773e+07	
         R10	   2716	      76.5	    14.953	   2.07287	7.04042e+07	      76.5	   14.9333	   2.11033	6.97323e+07	      76.5	   14.9699	   2.12938	6.97291e+07	      76.5	   14.9835	   2.09094	7.03724e+07	      76.5	   14.9431	    2.0916	7.00469e+07	      76.5	   14.9516	   2.11985	6.97194e+07	      76.5	   14.9767	   2.11016	7.00185e+07	      76.5	   14.9682	   2.08191	7.03813e+07	
         R10	   2717	      76.5	   15.0271	    2.2523	6.97868e+07	      76.5	    15.044	    2.3014	6.93946e+07	      76.5	    15.073	   2.28565	7.27896e+07	      76.5	   15.0633	   2.25669	7.23518e+07	      76.5	   15.0355	   2.27685	6.94508e+07	      76.5	   15.0585	   2.29353	 7.1066e+07	      76.5	   15.0681	   2.27117	7.25173e+07	      76.5	   15.0452	    2.2545	7.10617e+07	
         R10	   2718	      76.5	   15.0385	   2.21271	7.12039e+07	      76.5	   15.0271	    2.2523	6.97036e+07	      76.5	   15.0633	   2.25669	7.24227e+07	      76.5	    15.066	   2.22964	7.27715e+07	      76.5	   15.0328	    2.2325	7.03692e+07	      76.5	   15.0452	    2.2545	7.10554e+07	      76.5	   15.0646	   2.24316	7.25494e+07	      76.5	   15.0523	   2.22117	7.19767e+07	
         R10	   2719	      76.5	   15.0385	   2.21271	7.10524e+07	      76.5	    15.066	   2.22964	7.28962e+07	      76.5	   15.0869	   2.20514	7.38906e+07	      76.5	   15.0647	   2.19087	7.25631e+07	      76.5	   15.0523	   2.22117	7.19628e+07	      76.5	   15.0764	   2.21739	7.33414e+07	      76.5	   15.0758	     2.198	7.32202e+07	      76.5	   15.0516	   2.20179	7.17697e+07	
         R10	   2720	      76.5	   15.0441	    2.1749	7.15167e+07	      76.5	   15.0647	   2.19087	7.25334e+07	      76.5	    15.081	   2.15874	 7.2578e+07	      76.5	   15.0573	   2.14375	7.16641e+07	      76.5	   15.0544	   2.18288	7.20174e+07	      76.5	   15.0729	    2.1748	7.25011e+07	      76.5	   15.0692	   2.15124	7.21151e+07	      76.5	   15.0507	   2.15932	7.15516e+07	
         R10	   2721	      76.5	   14.9054	    2.0767	7.07783e+07	      76.5	   14.8618	   2.04206	7.20951e+07	      76.5	   14.8424	   2.09177	7.12737e+07	      76.5	   14.8758	   2.12489	6.94633e+07	      76.5	   14.8836	   2.05938	7.14226e+07	      76.5	   14.8521	   2.06691	7.16724e+07	      76.5	   14.8591	   2.10833	7.03478e+07	      76.5	   14.8906	   2.10079	7.00898e+07	
         R10	   2722	      76.5	   14.9054	    2.0767	7.06723e+07	      76.5	   14.8758	   2.12489	 6.9364e+07	      76.5	   14.9105	   2.15303	6.80257e+07	      76.5	   14.9333	   2.11033	6.98707e+07	      76.5	   14.8906	   2.10079	 6.9994e+07	      76.5	   14.8932	   2.13896	 6.8673e+07	      76.5	   14.9219	   2.13168	6.89148e+07	      76.5	   14.9193	   2.09351	7.02563e+07	
         R10	   2723	      76.5	   14.9494	   2.02135	7.11442e+07	      76.5	   14.9054	    2.0767	7.08662e+07	      76.5	   14.9333	   2.11033	6.98006e+07	      76.5	    14.953	   2.07287	7.04247e+07	      76.5	   14.9274	   2.04902	7.09565e+07	      76.5	   14.9193	   2.09351	7.03196e+07	      76.5	   14.9431	    2.0916	7.00896e+07	      76.5	   14.9512	   2.04711	7.07597e+07	
         R10	   2724	      76.5	   15.0004	    2.1907	6.94012e+07	      76.5	   15.0385	   2.21271	7.10876e+07	      76.5	   15.0647	   2.19087	7.25872e+07	      76.5	   15.0441	    2.1749	7.14422e+07	      76.5	   15.0195	    2.2017	7.02249e+07	      76.5	   15.0516	   2.20179	7.18004e+07	      76.5	   15.0544	   2.18288	7.20072e+07	      76.5	   15.0223	    2.1828	7.03918e+07	
         R10	   2725	      76.5	   15.0133	   2.14932	7.05794e+07	      76.5	   15.0004	    2.1907	6.95482e+07	      76.5	   15.0441	    2.1749	7.15843e+07	      76.5	   15.0573	   2.14375	 7.1701e+07	      76.5	   15.0069	   2.17001	7.00027e+07	      76.5	   15.0223	    2.1828	7.05344e+07	      76.5	   15.0507	   2.15932	7.16035e+07	      76.5	   15.0353	   2.14653	7.11197e+07	
         R10	   2726	      76.5	   15.0937	   2.27473	7.50129e+07	      76.5	   15.0906	   2.25894	7.47469e+07	      76.5	   15.0633	   2.25669	7.23741e+07	      76.5	    15.073	   2.28565	7.28136e+07	      76.5	   15.0922	   2.26684	7.48623e+07	      76.5	    15.077	   2.25782	7.35542e+07	      76.5	   15.0681	   2.27117	7.25432e+07	      76.5	   15.0834	   2.28019	7.38949e+07	
         R10	   2727	      76.5	   14.7913	   2.01569	7.49485e+07	      76.5	    14.782	   2.10044	7.31222e+07	      76.5	   14.8424	   2.09177	7.10896e+07	      76.5	   14.8618	   2.04206	7.22814e+07	      76.5	   14.7866	   2.05806	7.40228e+07	      76.5	   14.8122	   2.09611	7.20887e+07	      76.5	   14.8521	   2.06691	7.16654e+07	      76.5	   14.8265	   2.02887	7.35851e+07	
         R10	   2728	      76.5	   15.0422	   1.85988	6.65919e+07	      76.5	    15.028	   1.81319	6.62525e+07	      76.5	   14.9593	    1.7763	6.75345e+07	      76.5	   14.9596	   1.85831	6.90546e+07	      76.5	   15.0351	   1.83654	6.64151e+07	      76.5	   14.9937	   1.79475	6.68666e+07	      76.5	   14.9595	   1.81731	6.82776e+07	      76.5	   15.0009	    1.8591	6.77771e+07	
         R10	   2729	      76.5	   15.0639	   1.91478	6.71885e+07	      76.5	   15.0422	   1.85988	6.67845e+07	      76.5	   14.9596	   1.85831	6.91352e+07	      76.5	    14.958	   1.92774	7.03787e+07	      76.5	   15.0531	   1.88733	6.69753e+07	      76.5	   15.0009	    1.8591	 6.7914e+07	      76.5	   14.9588	   1.89303	 6.9738e+07	      76.5	   15.0109	   1.92126	6.86923e+07	
         R10	   2730	      76.5	    14.958	   1.92774	7.03305e+07	      76.5	   14.8766	   1.91355	7.21401e+07	      76.5	   14.8284	   1.94764	7.38529e+07	      76.5	    14.896	   1.99215	7.20056e+07	      76.5	   14.9173	   1.92064	7.11926e+07	      76.5	   14.8525	   1.93059	7.29705e+07	      76.5	   14.8622	   1.96989	 7.2903e+07	      76.5	    14.927	   1.95994	7.11062e+07	
         R10	   2731	      76.5	   15.2638	   2.19664	7.26044e+07	      76.5	   15.2507	   2.19032	7.27515e+07	      76.5	   15.2487	    2.2124	7.55826e+07	      76.5	   15.2656	   2.21273	7.39376e+07	      76.5	   15.2573	   2.19348	7.26722e+07	      76.5	   15.2497	   2.20136	7.41527e+07	      76.5	   15.2571	   2.21257	7.47497e+07	      76.5	   15.2647	   2.20469	7.32637e+07	
         R10	   2732	      76.5	   15.2638	   2.19664	7.24634e+07	      76.5	   15.2656	   2.21273	7.40192e+07	      76.5	   15.2829	   2.21176	7.20738e+07	      76.5	   15.2774	   2.18927	7.03967e+07	      76.5	   15.2647	   2.20469	7.32337e+07	      76.5	   15.2743	   2.21224	7.30382e+07	      76.5	   15.2801	   2.20051	7.12214e+07	      76.5	   15.2706	   2.19295	7.14254e+07	
         R10	   2733	      76.5	   15.2638	   2.19664	7.24653e+07	      76.5	   15.2774	   2.18927	7.03502e+07	      76.5	   15.2691	   2.16218	6.88638e+07	      76.5	   15.2507	   2.19032	7.30088e+07	      76.5	   15.2706	   2.19295	7.14019e+07	      76.5	   15.2732	   2.17572	6.95886e+07	      76.5	   15.2599	   2.17625	7.09119e+07	      76.5	   15.2573	   2.19348	7.27318e+07	
         R10	   2734	      76.5	   15.2333	   2.19208	7.43941e+07	      76.5	   15.2507	   2.19032	7.30091e+07	      76.5	   15.2691	   2.16218	6.87997e+07	      76.5	   15.2384	   2.16571	 7.1731e+07	      76.5	    15.242	    2.1912	7.36914e+07	      76.5	   15.2599	   2.17625	 7.0879e+07	      76.5	   15.2537	   2.16395	7.02437e+07	      76.5	   15.2359	   2.17889	7.30429e+07	
         R10	   2735	      76.5	   15.2153	   2.19317	7.54452e+07	      76.5	   15.2333	   2.19208	7.42857e+07	      76.5	   15.2384	   2.16571	7.16646e+07	      76.5	     15.21	   2.17099	7.36369e+07	      76.5	   15.2243	   2.19262	7.48522e+07	      76.5	   15.2359	   2.17889	7.29563e+07	      76.5	   15.2242	   2.16835	7.26267e+07	      76.5	   15.2127	   2.18208	 7.4529e+07	
         R10	   2736	      76.5	   15.1893	   2.17712	 7.4661e+07	      76.5	   15.1954	   2.19232	7.59135e+07	      76.5	   15.2153	   2.19317	7.54222e+07	      76.5	     15.21	   2.17099	 7.3662e+07	      76.5	   15.1923	   2.18472	7.52809e+07	      76.5	   15.2054	   2.19274	7.56531e+07	      76.5	   15.2127	   2.18208	7.45324e+07	      76.5	   15.1996	   2.17406	7.41466e+07	
         R10	   2737	      76.5	   15.1893	   2.17712	7.47309e+07	      76.5	     15.21	   2.17099	7.34906e+07	      76.5	   15.1969	   2.14345	7.21501e+07	      76.5	   15.1611	   2.16594	7.44674e+07	      76.5	   15.1996	   2.17406	7.40913e+07	      76.5	   15.2034	   2.15722	7.28058e+07	      76.5	    15.179	   2.15469	7.32402e+07	      76.5	   15.1752	   2.17153	7.45848e+07	
         R10	   2738	      76.5	   15.1893	   2.17712	7.50016e+07	      76.5	   15.1611	   2.16594	7.40022e+07	      76.5	   15.1738	   2.19361	7.62743e+07	      76.5	   15.1954	   2.19232	7.59184e+07	      76.5	   15.1752	   2.17153	7.44883e+07	      76.5	   15.1675	   2.17977	7.51194e+07	      76.5	   15.1846	   2.19296	7.60798e+07	      76.5	   15.1923	   2.18472	 7.5455e+07	
         R10	   2739	      76.5	   15.1429	    2.1235	7.19752e+07	      76.5	   15.1611	   2.16594	7.42273e+07	      76.5	   15.1969	   2.14345	7.20793e+07	      76.5	   15.1773	   2.10902	7.05002e+07	      76.5	    15.152	   2.14472	 7.3068e+07	      76.5	    15.179	   2.15469	7.30914e+07	      76.5	   15.1871	   2.12623	7.12695e+07	      76.5	   15.1601	   2.11626	7.12038e+07	
         R10	   2740	      76.5	   15.1125	    2.1369	7.25158e+07	      76.5	   15.1244	    2.1682	7.39936e+07	      76.5	   15.1611	   2.16594	7.43576e+07	      76.5	   15.1429	    2.1235	7.18576e+07	      76.5	   15.1185	   2.15255	7.32333e+07	      76.5	   15.1428	   2.16707	7.41447e+07	      76.5	    15.152	   2.14472	7.30722e+07	      76.5	   15.1277	    2.1302	7.21575e+07	
         R10	   2741	      76.5	   15.0775	   2.09398	7.10288e+07	      76.5	   15.1125	    2.1369	7.24758e+07	      76.5	   15.1429	    2.1235	 7.1882e+07	      76.5	   15.1199	   2.07511	7.01994e+07	      76.5	    15.095	   2.11544	7.17214e+07	      76.5	   15.1277	    2.1302	7.21478e+07	      76.5	   15.1314	    2.0993	7.10069e+07	      76.5	   15.0987	   2.08454	7.05745e+07	
         R10	   2742	      76.5	   15.0573	   2.14375	7.17579e+07	      76.5	    15.081	   2.15874	7.26664e+07	      76.5	   15.1125	    2.1369	 7.2502e+07	      76.5	   15.0775	   2.09398	  7.097e+07	      76.5	   15.0692	   2.15124	7.22057e+07	      76.5	   15.0968	   2.14782	7.25388e+07	      76.5	    15.095	   2.11544	7.17046e+07	      76.5	   15.0674	   2.11886	7.12815e+07	
         R10	   2743	      76.5	   15.0133	   2.14932	7.05559e+07	      76.5	   15.0573	   2.14375	7.18542e+07	      76.5	   15.0775	   2.09398	7.11244e+07	      76.5	   15.0326	   2.10637	7.09928e+07	      76.5	   15.0353	   2.14653	7.11848e+07	      76.5	   15.0674	   2.11886	7.14066e+07	      76.5	   15.0551	   2.10017	7.10255e+07	      76.5	    15.023	   2.12785	7.07191e+07	
         R10	   2744	      76.5	   14.9835	   2.09094	7.04242e+07	      76.5	   14.9699	   2.12938	6.96964e+07	      76.5	   15.0133	   2.14932	 7.0452e+07	      76.5	   15.0326	   2.10637	7.08449e+07	      76.5	   14.9767	   2.11016	 7.0029e+07	      76.5	   14.9916	   2.13935	7.00588e+07	      76.5	    15.023	   2.12785	7.05922e+07	      76.5	   15.0081	   2.09865	7.06204e+07	
         R10	   2745	      76.5	   14.9494	   2.02135	7.08837e+07	      76.5	    14.953	   2.07287	 7.0438e+07	      76.5	   14.9835	   2.09094	 7.0442e+07	      76.5	   15.0086	   2.05308	7.05424e+07	      76.5	   14.9512	   2.04711	7.06353e+07	      76.5	   14.9682	   2.08191	7.04328e+07	      76.5	   14.9961	   2.07201	7.04619e+07	      76.5	    14.979	   2.03721	7.06883e+07	
         R10	   2746	      76.5	   14.9494	   2.02135	7.10118e+07	      76.5	   15.0086	   2.05308	7.03096e+07	      76.5	   15.0505	     2.037	6.98163e+07	      76.5	   15.0209	   1.98149	 6.9716e+07	      76.5	    14.979	   2.03721	7.06399e+07	      76.5	   15.0295	   2.04504	7.00348e+07	      76.5	   15.0357	   2.00924	 6.9743e+07	      76.5	   14.9852	   2.00142	7.02958e+07	
         R10	   2747	      76.5	   15.0209	   1.98149	6.96403e+07	      76.5	    14.958	   1.92774	7.02893e+07	      76.5	    14.896	   1.99215	7.20846e+07	      76.5	   14.9494	   2.02135	7.09725e+07	      76.5	   14.9894	   1.95461	6.99371e+07	      76.5	    14.927	   1.95994	7.11283e+07	      76.5	   14.9227	   2.00675	 7.1512e+07	      76.5	   14.9852	   2.00142	7.02411e+07	
         R10	   2748	      76.5	   15.0818	   1.96592	6.78618e+07	      76.5	   15.0639	   1.91478	6.72675e+07	      76.5	    14.958	   1.92774	7.03621e+07	      76.5	   15.0209	   1.98149	6.94608e+07	      76.5	   15.0728	   1.94035	6.75511e+07	      76.5	   15.0109	   1.92126	6.87216e+07	      76.5	   14.9894	   1.95461	 6.9885e+07	      76.5	   15.0513	    1.9737	6.86233e+07	
         R10	   2749	      76.5	   15.1118	   2.37781	6.94446e+07	      76.5	     15.13	     2.383	 7.0963e+07	      76.5	     15.13	     2.366	7.40505e+07	      76.5	   15.1209	    2.3804	7.01934e+07	      76.5	     15.13	    2.3745	7.24745e+07	      76.5	   15.1209	    2.3719	7.17382e+07	       N/A	       N/A	       N/A	        N/A	       N/A	       N/A	       N/A	        N/A	
         R10	   2750	      76.5	   15.0946	   2.29801	7.46279e+07	      76.5	   15.1133	   2.29909	7.67893e+07	      76.5	   15.1108	   2.28118	7.68715e+07	      76.5	    15.104	   2.29855	7.57046e+07	      76.5	   15.1121	   2.29014	7.68029e+07	      76.5	   15.1027	    2.2896	7.57105e+07	       N/A	       N/A	       N/A	        N/A	       N/A	       N/A	       N/A	        N/A	
         R10	   2751	      76.5	   15.0906	   2.25894	7.47398e+07	      76.5	   15.1138	   2.26445	7.69276e+07	      76.5	   15.1123	   2.24672	7.65753e+07	      76.5	   15.1022	    2.2617	7.58282e+07	      76.5	    15.113	   2.25558	7.67307e+07	      76.5	   15.1015	   2.25283	7.56288e+07	       N/A	       N/A	       N/A	        N/A	       N/A	       N/A	       N/A	        N/A	
         R10	   2752	      76.5	   15.1476	   2.19343	7.57284e+07	      76.5	   15.1461	   2.21359	7.71314e+07	      76.5	   15.1633	   2.21037	7.72994e+07	      76.5	   15.1469	   2.20351	7.64105e+07	      76.5	   15.1547	   2.21198	7.72035e+07	      76.5	   15.1555	    2.2019	7.65063e+07	       N/A	       N/A	       N/A	        N/A	       N/A	       N/A	       N/A	        N/A	
         R10	   2753	      76.5	   15.1131	   2.20651	7.52148e+07	      76.5	   15.1309	   2.21336	7.63691e+07	      76.5	   15.1308	   2.19114	7.53544e+07	      76.5	    15.122	   2.20994	7.57878e+07	      76.5	   15.1309	   2.20225	7.58375e+07	      76.5	    15.122	   2.19883	7.52546e+07	       N/A	       N/A	       N/A	        N/A	       N/A	       N/A	       N/A	        N/A	
         R10	   2754	      76.5	   15.1738	   2.19361	7.61062e+07	      76.5	   15.1633	   2.21037	7.73993e+07	      76.5	   15.1818	   2.21267	7.78344e+07	      76.5	   15.1685	   2.20199	 7.6728e+07	      76.5	   15.1725	   2.21152	7.76066e+07	      76.5	   15.1778	   2.20314	  7.696e+07	       N/A	       N/A	       N/A	        N/A	       N/A	       N/A	       N/A	        N/A	
         R10	   2755	      76.5	   15.0661	   2.34409	6.85254e+07	      76.5	   15.0933	   2.35536	7.04412e+07	      76.5	   15.0948	   2.33426	 7.2643e+07	      76.5	   15.0797	   2.34973	6.94672e+07	      76.5	   15.0941	   2.34481	7.15048e+07	      76.5	   15.0805	   2.33918	7.05727e+07	       N/A	       N/A	       N/A	        N/A	       N/A	       N/A	       N/A	        N/A	
         R10	   2756	      76.5	    15.066	   2.22964	7.28399e+07	      76.5	   15.0919	   2.23276	7.46235e+07	      76.5	   15.0869	   2.20514	7.39431e+07	      76.5	   15.0789	    2.2312	7.37246e+07	      76.5	   15.0894	   2.21895	7.42473e+07	      76.5	   15.0764	   2.21739	7.33391e+07	       N/A	       N/A	       N/A	        N/A	       N/A	       N/A	       N/A	        N/A	
         R10	   2757	      76.5	   15.0869	   2.20514	 7.3911e+07	      76.5	   15.1131	   2.20651	7.51996e+07	      76.5	   15.1012	   2.18021	7.38646e+07	      76.5	      15.1	   2.20582	7.45453e+07	      76.5	   15.1071	   2.19336	7.45094e+07	      76.5	    15.094	   2.19267	7.38451e+07	       N/A	       N/A	       N/A	        N/A	       N/A	       N/A	       N/A	        N/A	
         R10	   2758	      76.5	    15.044	    2.3014	6.91363e+07	      76.5	   15.0714	   2.32072	7.09975e+07	      76.5	    15.073	   2.28565	7.29303e+07	      76.5	   15.0577	   2.31106	7.00388e+07	      76.5	   15.0722	   2.30318	7.18766e+07	      76.5	   15.0585	   2.29353	7.10094e+07	       N/A	       N/A	       N/A	        N/A	       N/A	       N/A	       N/A	        N/A	
         R10	   2759	      76.5	   15.0271	    2.2523	6.98966e+07	      76.5	   15.0074	   2.28863	6.67542e+07	      76.5	    15.044	    2.3014	6.92575e+07	      76.5	   15.0172	   2.27046	6.82535e+07	      76.5	   15.0257	   2.29501	6.79918e+07	      76.5	   15.0355	   2.27685	6.94491e+07	       N/A	       N/A	       N/A	        N/A	       N/A	       N/A	       N/A	        N/A	
         R10	   2760	      76.5	   14.9593	    1.7763	 6.7468e+07	      76.5	    15.028	   1.81319	6.62671e+07	      76.5	   15.0711	   1.76391	6.36861e+07	      76.5	   14.9937	   1.79475	6.68341e+07	      76.5	   15.0496	   1.78855	 6.4954e+07	      76.5	   15.0152	   1.77011	6.54867e+07	       N/A	       N/A	       N/A	        N/A	       N/A	       N/A	       N/A	        N/A	
         R10	   2761	      76.5	   14.9835	   2.09094	7.03946e+07	      76.5	   15.0326	   2.10637	7.06845e+07	      76.5	   15.0086	   2.05308	7.05639e+07	      76.5	   15.0081	   2.09865	7.05229e+07	      76.5	   15.0206	   2.07972	7.05853e+07	      76.5	   14.9961	   2.07201	7.04491e+07	       N/A	       N/A	       N/A	        N/A	       N/A	       N/A	       N/A	        N/A	
         R10	   2762	    74.375	   16.1121	   3.19011	8.42378e+07	    74.375	   15.9164	   2.99973	7.69533e+07	   74.0696	   15.9164	   2.99973	2.56416e+07	   74.0696	   16.1892	   3.26518	4.90682e+07	    74.375	   16.0142	   3.09492	2.41869e+07	   74.2223	   15.9164	   2.99973	4.35159e+07	   74.0696	   16.0528	   3.13245	 3.0156e+07	   74.2223	   16.1506	   3.22765	6.47016e+07	
         R10	   2763	   74.0485	   16.5328	   3.59945	1.93045e+07	    74.375	   16.5328	   3.59945	 6.5792e+07	    74.375	   16.3175	   3.39002	7.85242e+07	   74.0696	   16.1892	   3.26518	5.78632e+07	   74.2117	   16.5328	   3.59945	  3.799e+07	    74.375	   16.4251	   3.49474	3.15142e+07	   74.2223	   16.2534	    3.3276	6.25077e+07	   74.0591	    16.361	   3.43232	3.07919e+07	
         R10	   2764	   73.0071	   15.9164	   2.99973	4.15836e+07	     72.25	   15.9164	   2.99973	4.56547e+07	     72.25	   16.5328	   3.59945	4.94476e+07	    72.986	   16.5328	   3.59945	4.21383e+07	   72.6286	   15.9164	   2.99973	4.18382e+07	     72.25	   16.2246	   3.29959	 4.7537e+07	    72.618	   16.5328	   3.59945	3.57883e+07	   72.9966	   16.2246	   3.29959	2.45953e+07	
         R10	   2765	   73.6137	   15.9164	   2.99973	3.33454e+07	   73.0071	   15.9164	   2.99973	5.76539e+07	    72.986	   16.5328	   3.59945	 4.7257e+07	   73.5855	   16.5328	   3.59945	2.61732e+07	   73.3104	   15.9164	   2.99973	4.38399e+07	   72.9966	   16.2246	   3.29959	3.12912e+07	   73.2857	   16.5328	   3.59945	3.61221e+07	   73.5996	   16.2246	   3.29959	2.53076e+07	
         R10	   2766	   74.0696	   16.1892	   3.26518	4.20374e+07	   74.0696	   15.9164	   2.99973	2.51035e+07	   73.6137	   15.9164	   2.99973	  3.479e+07	   73.5855	   16.5328	   3.59945	2.44386e+07	   74.0696	   16.0528	   3.13245	2.49462e+07	   73.8416	   15.9164	   2.99973	 2.6891e+07	   73.5996	   16.2246	   3.29959	 2.3632e+07	   73.8275	    16.361	   3.43232	2.96387e+07	
         R10	   2767	    74.375	   16.3175	   3.39002	7.93153e+07	    74.375	   16.1121	   3.19011	6.62649e+07	   74.0696	   16.1892	   3.26518	5.50825e+07	    74.375	   16.2148	   3.29007	 7.0625e+07	   74.2223	   16.1506	   3.22765	5.88168e+07	   74.2223	   16.2534	    3.3276	6.30064e+07	       N/A	       N/A	       N/A	        N/A	       N/A	       N/A	       N/A	        N/A	
         R10	   2768	   74.0696	   16.1892	   3.26518	5.65759e+07	   73.5855	   16.5328	   3.59945	1.95674e+07	   74.0485	   16.5328	   3.59945	 1.3653e+07	   73.8275	    16.361	   3.43232	3.63522e+07	    73.817	   16.5328	   3.59945	1.35464e+07	   74.0591	    16.361	   3.43232	2.74789e+07	       N/A	       N/A	       N/A	        N/A	       N/A	       N/A	       N/A	        N/A	
         R10	   2769	   74.3446	    16.797	   3.85656	9.94488e+07	    74.375	   16.5328	   3.59945	1.17114e+08	   74.0485	   16.5328	   3.59945	6.40111e+07	   74.0184	   16.8145	   3.87357	8.22894e+07	   74.3598	   16.6649	   3.72801	1.01728e+07	   74.2117	   16.5328	   3.59945	9.00496e+07	   74.0334	   16.6736	   3.73651	3.56635e+07	   74.1815	   16.8058	   3.86507	 8.4335e+07	
         R10	   2770	   74.6753	   16.7879	   3.84768	1.05985e+08	   74.6785	   16.5328	   3.59945	1.21262e+08	    74.375	   16.5328	   3.59945	1.15553e+08	   74.3446	    16.797	   3.85656	1.08928e+08	   74.6769	   16.6603	   3.72356	1.61511e+07	   74.5267	   16.5328	   3.59945	1.18298e+08	   74.3598	   16.6649	   3.72801	2.15373e+07	   74.5099	   16.7925	   3.85212	1.04261e+08	
         R10	   2771	   74.9673	   16.7688	   3.82913	1.07566e+08	   74.9651	   16.5328	   3.59945	 1.1257e+08	   74.6785	   16.5328	   3.59945	1.21413e+08	   74.6753	   16.7879	   3.84768	1.12304e+08	   74.9662	   16.6508	   3.71429	2.63627e+07	   74.8218	   16.5328	   3.59945	1.16746e+08	   74.6769	   16.6603	   3.72356	2.25054e+07	   74.8213	   16.7784	    3.8384	1.06432e+08	
         R10	   2772	   75.2379	   16.7333	    3.7946	9.19031e+07	   75.2349	   16.5328	   3.59945	1.16518e+08	   74.9651	   16.5328	   3.59945	1.09706e+08	   74.9673	   16.7688	   3.82913	1.05132e+08	   75.2364	   16.6331	   3.69702	1.78326e+07	      75.1	   16.5328	   3.59945	1.12941e+08	   74.9662	   16.6508	   3.71429	1.09542e+07	   75.1026	   16.7511	   3.81186	9.82713e+07	
         R10	   2773	   75.4796	   16.7024	   3.76446	6.61588e+07	   75.4879	   16.5328	   3.59945	1.35688e+08	   75.2349	   16.5328	   3.59945	1.18559e+08	   75.2379	   16.7333	    3.7946	9.69246e+07	   75.4838	   16.6176	   3.68196	4.82931e+07	   75.3614	   16.5328	   3.59945	1.27112e+08	   75.2364	   16.6331	   3.69702	1.41237e+07	   75.3588	   16.7178	   3.77953	7.52274e+07	
         R10	   2774	    75.733	   16.7007	   3.76283	5.95698e+07	    75.724	   16.5328	   3.59945	1.46053e+08	   75.4879	   16.5328	   3.59945	1.36428e+08	   75.4796	   16.7024	   3.76446	5.70299e+07	   75.7285	   16.6167	   3.68114	5.78666e+07	   75.6059	   16.5328	   3.59945	1.41147e+08	   75.4838	   16.6176	   3.68196	4.15485e+07	   75.6063	   16.7015	   3.76364	5.45836e+07	
         R10	   2775	   75.9241	   16.6955	   3.75775	 7.0875e+07	   75.9433	   16.5328	   3.59945	1.44502e+08	    75.724	   16.5328	   3.59945	1.45624e+08	    75.733	   16.7007	   3.76283	5.68791e+07	   75.9337	   16.6141	    3.6786	6.45929e+07	   75.8336	   16.5328	   3.59945	1.44938e+08	   75.7285	   16.6167	   3.68114	5.07539e+07	   75.8286	   16.6981	   3.76029	5.99712e+07	
         R10	   2776	   76.1481	   16.6929	   3.75529	7.19554e+07	   76.1457	   16.5328	   3.59945	1.16024e+08	   75.9433	   16.5328	   3.59945	1.45813e+08	   75.9241	   16.6955	   3.75775	6.89483e+07	   76.1469	   16.6129	   3.67737	 7.5305e+07	   76.0445	   16.5328	   3.59945	1.29649e+08	   75.9337	   16.6141	    3.6786	6.11046e+07	   76.0361	   16.6942	   3.75652	6.65956e+07	
         R10	   2777	   76.3357	   16.6565	   3.71986	4.50241e+07	   76.3313	   16.5328	   3.59945	1.10964e+08	   76.1457	   16.5328	   3.59945	 1.1932e+08	   76.1481	   16.6929	   3.75529	8.75583e+07	   76.3335	   16.5946	   3.65965	 7.4168e+07	   76.2385	   16.5328	   3.59945	1.05525e+08	   76.1469	   16.6129	   3.67737	8.25315e+07	   76.2419	   16.6747	   3.73757	5.51596e+07	
         R10	   2778	      76.5	   16.6578	   3.72114	8.28979e+07	      76.5	   16.5328	   3.59945	9.34668e+07	   76.3313	   16.5328	   3.59945	1.04967e+08	   76.3357	   16.6565	   3.71986	8.20174e+07	      76.5	   16.5953	    3.6603	2.95547e+07	   76.4156	   16.5328	   3.59945	9.08971e+07	   76.3335	   16.5946	   3.65965	8.85796e+07	   76.4179	   16.6572	    3.7205	5.25505e+07	
         R10	   2779	      76.5	   16.8023	   3.86166	1.08958e+08	      76.5	   16.6578	   3.72114	6.85362e+07	   76.3357	   16.6565	   3.71986	1.26527e+08	   76.3234	   16.8088	   3.86804	5.02906e+07	      76.5	   16.7301	    3.7914	 8.7073e+07	   76.4179	   16.6572	    3.7205	6.71407e+07	   76.3296	   16.7327	   3.79395	8.05482e+07	   76.4117	   16.8055	   3.86485	 4.2651e+07	
         R10	   2780	   76.2556	   16.9647	   4.01974	9.57344e+07	      76.5	    16.966	   4.02101	9.50842e+07	      76.5	   16.8023	   3.86166	1.06785e+08	   76.3234	   16.8088	   3.86804	7.12177e+07	   76.3778	   16.9654	   4.02037	3.96348e+07	      76.5	   16.8841	   3.94133	9.45079e+07	   76.4117	   16.8055	   3.86485	4.95832e+07	   76.2895	   16.8868	   3.94389	6.32861e+07	
         R10	   2781	   76.2494	   17.1492	   4.19918	 7.5114e+07	      76.5	   17.1492	   4.19918	7.78969e+07	      76.5	    16.966	   4.02101	9.85665e+07	   76.2556	   16.9647	   4.01974	7.81289e+07	   76.3747	   17.1492	   4.19918	5.44479e+07	      76.5	   17.0576	   4.11009	1.82803e+07	   76.3778	   16.9654	   4.02037	2.18523e+07	   76.2525	   17.0569	   4.10946	6.55695e+07	
         R10	   2782	   75.9434	   17.1492	   4.19918	1.22118e+08	   76.2494	   17.1492	   4.19918	7.58902e+07	   76.2556	   16.9647	   4.01974	3.83663e+07	   75.9919	   16.9323	   3.98814	1.05601e+08	   76.0964	   17.1492	   4.19918	9.31339e+07	   76.2525	   17.0569	   4.10946	 4.6102e+07	   76.1238	   16.9485	   4.00394	6.81533e+07	   75.9677	   17.0407	   4.09366	4.04762e+07	
         R10	   2783	   75.5991	   16.8917	   3.94867	1.08579e+08	    75.582	   17.1492	   4.19918	9.44433e+07	   75.9434	   17.1492	   4.19918	1.16306e+08	   75.9919	   16.9323	   3.98814	1.03281e+08	   75.5905	   17.0204	   4.07392	2.28621e+07	   75.7627	   17.1492	   4.19918	1.05156e+08	   75.9677	   17.0407	   4.09366	3.44271e+07	   75.7955	    16.912	    3.9684	 1.0546e+08	
         R10	   2784	    72.986	   16.5328	   3.59945	4.62182e+07	     72.25	   16.5328	   3.59945	4.34443e+07	     72.25	   17.1492	   4.19918	4.77994e+07	   72.9439	   17.1492	   4.19918	4.11039e+07	    72.618	   16.5328	   3.59945	4.16084e+07	     72.25	    16.841	   3.89931	4.56129e+07	   72.5969	   17.1492	   4.19918	 3.2916e+07	   72.9649	    16.841	   3.89931	2.05617e+07	
         R10	   2785	   73.5855	   16.5328	   3.59945	1.64028e+07	    72.986	   16.5328	   3.59945	4.75561e+07	   72.9439	   17.1492	   4.19918	4.03315e+07	   73.5823	   17.1492	   4.19918	2.26684e+07	   73.2857	   16.5328	   3.59945	3.17391e+07	   72.9649	    16.841	   3.89931	2.61909e+07	   73.2631	   17.1492	   4.19918	3.04952e+07	   73.5839	    16.841	   3.89931	1.40815e+07	
         R10	   2786	   74.0184	   16.8145	   3.87357	6.17849e+07	   74.0485	   16.5328	   3.59945	5.70697e+07	   73.5855	   16.5328	   3.59945	2.28502e+07	   73.5823	   17.1492	   4.19918	2.79422e+07	   74.0334	   16.6736	   3.73651	2.36294e+07	    73.817	   16.5328	   3.59945	 3.3278e+07	   73.5839	    16.841	   3.89931	1.05659e+07	   73.8004	   16.9818	   4.03637	4.01929e+07	
         R10	   2787	   74.3446	    16.797	   3.85656	1.38964e+08	   74.0184	   16.8145	   3.87357	6.05368e+07	   73.5823	   17.1492	   4.19918	3.65027e+07	   74.1653	   17.1492	   4.19918	7.66002e+07	   74.1815	   16.8058	   3.86507	9.09988e+07	   73.8004	   16.9818	   4.03637	4.42187e+07	   73.8738	   17.1492	   4.19918	3.96986e+07	    74.255	   16.9731	   4.02787	3.70576e+07	
         R10	   2788	   74.6753	   16.7879	   3.84768	1.19994e+08	   74.3446	    16.797	   3.85656	1.25641e+08	   74.1653	   17.1492	   4.19918	 7.8049e+07	    74.693	   17.1492	   4.19918	7.00631e+07	   74.5099	   16.7925	   3.85212	1.21203e+08	    74.255	   16.9731	   4.02787	2.80722e+07	   74.4292	   17.1492	   4.19918	7.37067e+07	   74.6841	   16.9685	   4.02343	2.50965e+07	
         R10	   2789	   75.9919	   16.9323	   3.98814	 7.9581e+07	   76.2556	   16.9647	   4.01974	7.93789e+07	   76.3234	   16.8088	   3.86804	6.15708e+07	   76.1481	   16.6929	   3.75529	1.04274e+08	   76.1238	   16.9485	   4.00394	7.79655e+07	   76.2895	   16.8868	   3.94389	4.50237e+07	   76.2357	   16.7509	   3.81166	7.72314e+07	     76.07	   16.8126	   3.87171	8.39886e+07	
         R10	   2790	   75.9919	   16.9323	   3.98814	 8.5391e+07	   75.9241	   16.6955	   3.75775	9.84219e+07	    75.733	   16.7007	   3.76283	7.21105e+07	   75.5991	   16.8917	   3.94867	9.71419e+07	    75.958	   16.8139	   3.87295	 7.9017e+07	   75.8286	   16.6981	   3.76029	8.38325e+07	   75.6661	   16.7962	   3.85575	8.13363e+07	   75.7955	    16.912	    3.9684	9.07632e+07	
         R10	   2791	   75.1652	   17.1492	   4.19918	2.07239e+07	    75.582	   17.1492	   4.19918	9.49863e+07	   75.5991	   16.8917	   3.94867	1.03135e+08	   75.3243	   16.9148	   3.97114	6.87702e+07	   75.3736	   17.1492	   4.19918	5.78371e+07	   75.5905	   17.0204	   4.07392	1.10989e+07	   75.4617	   16.9032	    3.9599	7.90657e+07	   75.2448	    17.032	   4.08516	3.04443e+07	
         R10	   2792	   75.2379	   16.7333	    3.7946	6.19453e+07	   74.9673	   16.7688	   3.82913	6.81917e+07	   75.1652	   17.1492	   4.19918	 2.9766e+07	   75.3243	   16.9148	   3.97114	5.43067e+07	   75.1026	   16.7511	   3.81186	6.48583e+07	   75.0662	    16.959	   4.01415	2.04683e+07	   75.2448	    17.032	   4.08516	   2.31e+07	   75.2811	   16.8241	   3.88287	5.21696e+07	
         R10	   2793	   75.5991	   16.8917	   3.94867	7.95243e+07	   75.4796	   16.7024	   3.76446	7.54931e+07	   75.2379	   16.7333	    3.7946	7.25376e+07	   75.3243	   16.9148	   3.97114	6.47799e+07	   75.5394	    16.797	   3.85656	7.37613e+07	   75.3588	   16.7178	   3.77953	6.91414e+07	   75.2811	   16.8241	   3.88287	6.50624e+07	   75.4617	   16.9032	    3.9599	6.90382e+07	
         R10	   2794	    74.693	   17.1492	   4.19918	6.98195e+07	   75.1652	   17.1492	   4.19918	2.95516e+07	   74.9673	   16.7688	   3.82913	6.43224e+07	   74.6753	   16.7879	   3.84768	1.28025e+08	   74.9291	   17.1492	   4.19918	4.66265e+07	   75.0662	    16.959	   4.01415	2.09768e+07	   74.8213	   16.7784	    3.8384	9.23048e+07	   74.6841	   16.9685	   4.02343	3.37012e+07	
         R10	   2795	   76.3234	   16.8088	   3.86804	5.13855e+07	   76.3357	   16.6565	   3.71986	1.03728e+08	   76.1481	   16.6929	   3.75529	9.97574e+07	   76.3296	   16.7327	   3.79395	6.90088e+07	   76.2419	   16.6747	   3.73757	 9.8678e+07	   76.2357	   16.7509	   3.81166	7.26537e+07	       N/A	       N/A	       N/A	        N/A	       N/A	       N/A	       N/A	        N/A	
         R10	   2796	   76.1481	   16.6929	   3.75529	1.00245e+08	   75.9241	   16.6955	   3.75775	8.52475e+07	   75.9919	   16.9323	   3.98814	7.27331e+07	   76.0361	   16.6942	   3.75652	9.20023e+07	    75.958	   16.8139	   3.87295	7.43191e+07	     76.07	   16.8126	   3.87171	7.73112e+07	       N/A	       N/A	       N/A	        N/A	       N/A	       N/A	       N/A	        N/A	
         R10	   2797	   75.4796	   16.7024	   3.76446	6.97522e+07	   75.5991	   16.8917	   3.94867	9.28919e+07	    75.733	   16.7007	   3.76283	8.87218e+07	   75.5394	    16.797	   3.85656	7.92596e+07	   75.6661	   16.7962	   3.85575	8.24052e+07	   75.6063	   16.7015	   3.76364	7.44537e+07	       N/A	       N/A	       N/A	        N/A	       N/A	       N/A	       N/A	        N/A	
         R10	   2798	   76.6767	   15.9793	   3.06093	6.15176e+07	   76.6732	   15.9164	   2.99973	1.06463e+08	   76.5855	   15.9164	   2.99973	1.55903e+08	   76.5806	   15.9761	    3.0578	4.43335e+07	   76.6749	   15.9478	   3.03033	8.13786e+07	   76.6293	   15.9164	   2.99973	1.26095e+08	   76.5831	   15.9462	   3.02876	8.75565e+07	   76.6287	   15.9777	   3.05936	4.87071e+07	
         R10	   2799	   76.7578	   15.9845	   3.06595	4.65923e+07	   76.7631	   15.9164	   2.99973	1.05701e+08	   76.6732	   15.9164	   2.99973	1.00319e+08	   76.6767	   15.9793	   3.06093	5.88707e+07	   76.7605	   15.9504	   3.03284	7.28975e+07	   76.7182	   15.9164	   2.99973	 1.0055e+08	   76.6749	   15.9478	   3.03033	7.71912e+07	   76.7173	   15.9819	   3.06344	5.23201e+07	
         R10	   2800	   76.8561	   15.9854	   3.06692	4.24212e+07	   76.8553	   15.9164	   2.99973	1.22803e+08	   76.7631	   15.9164	   2.99973	1.05781e+08	   76.7578	   15.9845	   3.06595	4.82088e+07	   76.8557	   15.9509	   3.03332	7.82523e+07	   76.8092	   15.9164	   2.99973	1.13146e+08	   76.7605	   15.9504	   3.03284	7.27239e+07	   76.8069	    15.985	   3.06644	4.47697e+07	
         R10	   2801	     76.95	   15.9878	   3.06923	3.80617e+07	   76.9498	   15.9164	   2.99973	1.36596e+08	   76.8553	   15.9164	   2.99973	 1.2272e+08	   76.8561	   15.9854	   3.06692	4.06091e+07	   76.9499	   15.9521	   3.03448	8.39829e+07	   76.9026	   15.9164	   2.99973	1.29183e+08	   76.8557	   15.9509	   3.03332	7.75212e+07	    76.903	   15.9866	   3.06808	3.89624e+07	
         R10	   2802	   77.0393	   15.9835	   3.06505	4.35213e+07	   77.0465	   15.9164	   2.99973	1.47004e+08	   76.9498	   15.9164	   2.99973	1.35654e+08	     76.95	   15.9878	   3.06923	4.10131e+07	   77.0429	     15.95	   3.03239	9.20849e+07	   76.9981	   15.9164	   2.99973	1.41219e+08	   76.9499	   15.9521	   3.03448	8.35132e+07	   76.9946	   15.9857	   3.06714	4.12934e+07	
         R10	   2803	   77.1435	   15.9995	   3.08058	3.02489e+07	   77.1454	   15.9164	   2.99973	1.49481e+08	   77.0465	   15.9164	   2.99973	1.47872e+08	   77.0393	   15.9835	   3.06505	 4.0258e+07	   77.1444	   15.9579	   3.04015	8.84856e+07	   77.0959	   15.9164	   2.99973	1.48369e+08	   77.0429	     15.95	   3.03239	9.22933e+07	   77.0914	   15.9915	   3.07281	3.48388e+07	
         R10	   2804	   77.2435	   15.9837	   3.06518	5.09046e+07	   77.2466	   15.9164	   2.99973	1.55542e+08	   77.1454	   15.9164	   2.99973	1.48834e+08	   77.1435	   15.9995	   3.08058	3.62525e+07	    77.245	     15.95	   3.03246	1.00571e+08	    77.196	   15.9164	   2.99973	1.52177e+08	   77.1444	   15.9579	   3.04015	8.78189e+07	   77.1935	   15.9916	   3.07288	4.24368e+07	
         R10	   2805	   77.3512	   15.9919	   3.07316	4.11798e+07	     77.35	   15.9164	   2.99973	 1.5489e+08	   77.2466	   15.9164	   2.99973	1.56373e+08	   77.2435	   15.9837	   3.06518	5.02222e+07	   77.3506	   15.9541	   3.03644	9.55881e+07	   77.2983	   15.9164	   2.99973	1.55591e+08	    77.245	     15.95	   3.03246	1.01394e+08	   77.2973	   15.9878	   3.06917	4.54865e+07	
         R10	   2806	   77.4387	   15.9944	    3.0756	3.79042e+07	   77.4514	   15.9164	   2.99973	1.53866e+08	     77.35	   15.9164	   2.99973	 1.5431e+08	   77.3512	   15.9919	   3.07316	4.21921e+07	    77.445	   15.9554	   3.03766	9.34032e+07	   77.4007	   15.9164	   2.99973	1.54077e+08	   77.3506	   15.9541	   3.03644	9.54189e+07	   77.3949	   15.9931	   3.07438	3.99745e+07	
         R10	   2807	     77.57	   16.0187	    3.0993	1.28912e+07	   77.5694	   15.9164	   2.99973	1.47308e+08	   77.4514	   15.9164	   2.99973	1.54385e+08	   77.4387	   15.9944	    3.0756	3.71691e+07	   77.5697	   15.9676	   3.04951	7.79409e+07	   77.5104	   15.9164	   2.99973	1.50736e+08	    77.445	   15.9554	   3.03766	 9.3836e+07	   77.5043	   16.0065	   3.08745	2.43784e+07	
         R10	   2808	   77.7132	   16.0212	   3.10175	1.78018e+07	   77.7039	   15.9164	   2.99973	 1.4736e+08	   77.5694	   15.9164	   2.99973	1.47872e+08	     77.57	   16.0187	    3.0993	1.80906e+07	   77.7085	   15.9688	   3.05074	7.60413e+07	   77.6366	   15.9164	   2.99973	1.47598e+08	   77.5697	   15.9676	   3.04951	7.93848e+07	   77.6416	     16.02	   3.10052	1.72191e+07	
         R10	   2809	   77.8593	   16.0353	   3.11538	1.97122e+07	    77.855	   15.9164	   2.99973	1.44506e+08	   77.7039	   15.9164	   2.99973	1.47376e+08	   77.7132	   16.0212	   3.10175	 1.1961e+07	   77.8572	   15.9758	   3.05755	6.65345e+07	   77.7794	   15.9164	   2.99973	1.45897e+08	   77.7085	   15.9688	   3.05074	7.61295e+07	   77.7863	   16.0282	   3.10856	1.38031e+07	
         R10	   2810	   78.0265	   16.0473	   3.12714	2.96386e+07	   78.0226	   15.9164	   2.99973	1.41384e+08	    77.855	   15.9164	   2.99973	1.44391e+08	   77.8593	   16.0353	   3.11538	1.72681e+07	   78.0246	   15.9819	   3.06343	5.81028e+07	   77.9388	   15.9164	   2.99973	1.42853e+08	   77.8572	   15.9758	   3.05755	6.65901e+07	   77.9429	   16.0413	   3.12126	2.31892e+07	
         R10	   2811	   78.2116	   16.0584	   3.13794	4.01339e+07	   78.2069	   15.9164	   2.99973	1.38606e+08	   78.0226	   15.9164	   2.99973	1.41331e+08	   78.0265	   16.0473	   3.12714	2.91548e+07	   78.2092	   15.9874	   3.06883	5.08019e+07	   78.1147	   15.9164	   2.99973	1.39932e+08	   78.0246	   15.9819	   3.06343	5.82344e+07	    78.119	   16.0529	   3.13254	3.45598e+07	
         R10	   2812	   78.4116	   16.0662	   3.14548	5.11332e+07	   78.4076	   15.9164	   2.99973	1.37547e+08	   78.2069	   15.9164	   2.99973	1.38706e+08	   78.2116	   16.0584	   3.13794	4.04204e+07	   78.4096	   15.9913	    3.0726	4.47916e+07	   78.3073	   15.9164	   2.99973	1.38095e+08	   78.2092	   15.9874	   3.06883	5.11027e+07	   78.3116	   16.0623	   3.14171	4.57206e+07	
         R10	   2813	    78.625	   16.0631	   3.14252	4.59674e+07	    78.625	   15.9164	   2.99973	1.32297e+08	   78.4076	   15.9164	   2.99973	1.37727e+08	   78.4116	   16.0662	   3.14548	 5.0602e+07	    78.625	   15.9898	   3.07112	4.56019e+07	   78.5163	   15.9164	   2.99973	1.34911e+08	   78.4096	   15.9913	    3.0726	4.51138e+07	   78.5183	   16.0647	     3.144	4.82139e+07	
         R10	   2814	    78.625	   16.2148	   3.29007	9.98902e+07	    78.625	   16.0631	   3.14252	5.54245e+07	   78.4116	   16.0662	   3.14548	4.69614e+07	   78.4053	   16.2172	   3.29245	1.12593e+08	    78.625	    16.139	   3.21629	7.72636e+07	   78.5183	   16.0647	     3.144	5.05506e+07	   78.4085	   16.1417	   3.21897	7.95702e+07	   78.5152	    16.216	   3.29126	1.06218e+08	
         R10	   2815	   78.3977	   16.3742	   3.44516	4.97056e+07	    78.625	   16.3713	   3.44238	4.93943e+07	    78.625	   16.2148	   3.29007	1.17929e+08	   78.4053	   16.2172	   3.29245	1.11196e+08	   78.5113	   16.3728	   3.44377	4.94981e+07	    78.625	   16.2931	   3.36622	8.34825e+07	   78.5152	    16.216	   3.29126	1.14246e+08	   78.4015	   16.2957	    3.3688	8.03218e+07	
         R10	   2816	   78.3725	   16.5328	   3.59945	1.45816e+08	    78.625	   16.5328	   3.59945	1.49142e+08	    78.625	   16.3713	   3.44238	5.70642e+07	   78.3977	   16.3742	   3.44516	4.90928e+07	   78.4987	   16.5328	   3.59945	1.47427e+08	    78.625	   16.4521	   3.52092	4.72058e+07	   78.5113	   16.3728	   3.44377	5.29536e+07	   78.3851	   16.4535	    3.5223	4.90073e+07	
         R10	   2817	   78.1288	   16.5328	   3.59945	1.45972e+08	   78.3725	   16.5328	   3.59945	1.46201e+08	   78.3977	   16.3742	   3.44516	4.94725e+07	   78.1625	   16.3665	   3.43771	5.81735e+07	   78.2507	   16.5328	   3.59945	1.46062e+08	   78.3851	   16.4535	    3.5223	4.91538e+07	   78.2801	   16.3704	   3.44143	5.37757e+07	   78.1457	   16.4497	   3.51858	4.46263e+07	
         R10	   2818	   77.9129	   16.3628	    3.4341	 5.7194e+07	   77.8941	   16.5328	   3.59945	1.42956e+08	   78.1288	   16.5328	   3.59945	1.46265e+08	   78.1625	   16.3665	   3.43771	5.85647e+07	   77.9035	   16.4478	   3.51678	4.41306e+07	   78.0115	   16.5328	   3.59945	1.44564e+08	   78.1457	   16.4497	   3.51858	4.51328e+07	   78.0377	   16.3647	   3.43591	5.78479e+07	
         R10	   2819	   77.6643	    16.387	   3.45762	4.08007e+07	   77.6683	   16.5328	   3.59945	1.47095e+08	   77.8941	   16.5328	   3.59945	1.42849e+08	   77.9129	   16.3628	    3.4341	5.73039e+07	   77.6663	   16.4599	   3.52853	5.54622e+07	   77.7812	   16.5328	   3.59945	1.44917e+08	   77.9035	   16.4478	   3.51678	4.38467e+07	   77.7886	   16.3749	   3.44586	4.87035e+07	
         R10	   2820	   77.4547	   16.3892	   3.45977	4.19945e+07	   77.4513	   16.5328	   3.59945	1.48672e+08	   77.6683	   16.5328	   3.59945	 1.4736e+08	   77.6643	    16.387	   3.45762	4.18255e+07	    77.453	    16.461	   3.52961	5.76256e+07	   77.5598	   16.5328	   3.59945	1.47996e+08	   77.6663	   16.4599	   3.52853	5.58383e+07	   77.5595	   16.3881	   3.45869	 4.1864e+07	
         R10	   2821	   77.2466	   16.3956	   3.46601	3.92633e+07	   77.2433	   16.5328	   3.59945	1.44986e+08	   77.4513	   16.5328	   3.59945	1.48895e+08	   77.4547	   16.3892	   3.45977	4.13954e+07	   77.2449	   16.4642	   3.53273	6.04412e+07	   77.3473	   16.5328	   3.59945	1.46888e+08	    77.453	    16.461	   3.52961	5.77397e+07	   77.3506	   16.3924	   3.46289	4.00803e+07	
         R10	   2822	   77.0472	   16.4011	   3.47137	4.45416e+07	   77.0441	   16.5328	   3.59945	1.34013e+08	   77.2433	   16.5328	   3.59945	1.45518e+08	   77.2466	   16.3956	   3.46601	3.81434e+07	   77.0456	   16.4669	   3.53541	 5.8938e+07	   77.1437	   16.5328	   3.59945	1.39651e+08	   77.2449	   16.4642	   3.53273	6.09336e+07	   77.1469	   16.3984	   3.46869	4.10493e+07	
         R10	   2823	   76.8568	   16.4059	   3.47606	5.71445e+07	   76.8539	   16.5328	   3.59945	1.04987e+08	   77.0441	   16.5328	   3.59945	1.34557e+08	   77.0472	   16.4011	   3.47137	4.24934e+07	   76.8553	   16.4694	   3.53775	5.46865e+07	    76.949	   16.5328	   3.59945	1.19272e+08	   77.0456	   16.4669	   3.53541	5.88263e+07	    76.952	   16.4035	   3.47371	4.93793e+07	
         R10	   2824	   76.6763	   16.4115	   3.48147	3.37032e+07	   76.6725	   16.5328	   3.59945	7.63349e+07	   76.8539	   16.5328	   3.59945	1.07649e+08	   76.8568	   16.4059	   3.47606	5.82494e+07	   76.6744	   16.4721	   3.54046	5.07186e+07	   76.7632	   16.5328	   3.59945	8.22636e+07	   76.8553	   16.4694	   3.53775	5.74761e+07	   76.7665	   16.4087	   3.47876	4.25592e+07	
         R10	   2825	      76.5	   16.4164	   3.48621	9.35076e+07	      76.5	   16.5328	   3.59945	1.00018e+08	   76.6725	   16.5328	   3.59945	7.65941e+07	   76.6763	   16.4115	   3.48147	6.37005e+07	      76.5	   16.4746	   3.54283	1.76747e+07	   76.5862	   16.5328	   3.59945	6.95687e+07	   76.6744	   16.4721	   3.54046	6.36003e+07	   76.5882	   16.4139	   3.48384	3.25658e+07	
         R10	   2826	      76.5	   16.3094	   3.38216	9.53086e+07	      76.5	   16.4164	   3.48621	8.35214e+07	   76.6763	   16.4115	   3.48147	9.70733e+07	   76.6715	    16.302	   3.37488	4.93497e+07	      76.5	   16.3629	   3.43418	8.31491e+07	   76.5882	   16.4139	   3.48384	3.88379e+07	   76.6739	   16.3567	   3.42817	6.11125e+07	   76.5857	   16.3057	   3.37852	4.15062e+07	
         R10	   2827	   76.6499	   16.2119	   3.28724	6.08288e+07	      76.5	   16.2119	    3.2873	1.06507e+08	      76.5	   16.3094	   3.38216	9.84809e+07	   76.6715	    16.302	   3.37488	 5.0421e+07	    76.575	   16.2119	   3.28727	5.97163e+07	      76.5	   16.2607	   3.33473	1.02007e+08	   76.5857	   16.3057	   3.37852	4.07805e+07	   76.6607	   16.2569	   3.33106	4.03079e+07	
         R10	   2828	   76.6286	   16.1273	   3.20497	6.82916e+07	      76.5	   16.1239	   3.20162	9.01183e+07	      76.5	   16.2119	    3.2873	1.06666e+08	   76.6499	   16.2119	   3.28724	 3.7258e+07	   76.5643	   16.1256	    3.2033	6.04839e+07	      76.5	   16.1679	   3.24446	9.83881e+07	    76.575	   16.2119	   3.28727	5.17728e+07	   76.6393	   16.1696	    3.2461	4.60259e+07	
         R10	   2829	   76.6181	    16.048	   3.12782	6.89344e+07	      76.5	   16.0453	   3.12513	6.63566e+07	      76.5	   16.1239	   3.20162	8.85562e+07	   76.6286	   16.1273	   3.20497	3.92377e+07	    76.559	   16.0467	   3.12648	4.64079e+07	      76.5	   16.0846	   3.16338	7.70231e+07	   76.5643	   16.1256	    3.2033	5.09631e+07	   76.6234	   16.0877	   3.16639	5.08802e+07	
         R10	   2830	   76.5806	   15.9761	    3.0578	6.63589e+07	   76.5855	   15.9164	   2.99973	1.56818e+08	      76.5	   15.9164	   2.99973	1.74097e+08	      76.5	   15.9761	   3.05784	1.50948e+08	   76.5831	   15.9462	   3.02876	9.81527e+07	   76.5427	   15.9164	   2.99973	1.59009e+08	      76.5	   15.9462	   3.02878	 2.1768e+07	   76.5403	   15.9761	   3.05782	6.91551e+07	
         R10	   2831	   76.8532	   16.0665	   3.14573	 6.1703e+07	   76.8561	   15.9854	   3.06692	9.37041e+07	   76.7578	   15.9845	   3.06595	9.80556e+07	   76.7481	   16.0563	   3.13583	7.50658e+07	   76.8546	   16.0259	   3.10633	7.02166e+07	   76.8069	    15.985	   3.06644	9.56094e+07	    76.753	   16.0204	   3.10089	8.44889e+07	   76.8006	   16.0614	   3.14078	6.74388e+07	
         R10	   2832	   76.9469	   16.0703	   3.14944	6.57473e+07	     76.95	   15.9878	   3.06923	7.97039e+07	   76.8561	   15.9854	   3.06692	9.30874e+07	   76.8532	   16.0665	   3.14573	6.94073e+07	   76.9485	    16.029	   3.10933	6.21567e+07	    76.903	   15.9866	   3.06808	 8.6218e+07	   76.8546	   16.0259	   3.10633	7.46817e+07	      76.9	   16.0684	   3.14759	6.73274e+07	
         R10	   2833	   77.0479	   16.0607	   3.14012	5.68047e+07	   77.0393	   15.9835	   3.06505	7.42976e+07	     76.95	   15.9878	   3.06923	7.81462e+07	   76.9469	   16.0703	   3.14944	6.76033e+07	   77.0436	   16.0221	   3.10259	5.07118e+07	   76.9946	   15.9857	   3.06714	7.58434e+07	   76.9485	    16.029	   3.10933	6.32398e+07	   76.9974	   16.0655	   3.14478	6.18344e+07	
         R10	   2834	    77.272	   16.0799	   3.15886	5.14012e+07	   77.2435	   15.9837	   3.06518	5.74562e+07	   77.1435	   15.9995	   3.08058	4.72541e+07	   77.1658	    16.059	   3.13845	5.40896e+07	   77.2577	   16.0318	   3.11202	3.24701e+07	   77.1935	   15.9916	   3.07288	5.18578e+07	   77.1546	   16.0292	   3.10951	4.28164e+07	   77.2189	   16.0694	   3.14865	5.01998e+07	
         R10	   2835	   77.4292	   16.0811	   3.16002	5.58929e+07	   77.4387	   15.9944	    3.0756	5.25023e+07	   77.3512	   15.9919	   3.07316	5.40013e+07	    77.272	   16.0799	   3.15886	4.56046e+07	   77.4339	   16.0377	   3.11781	2.69321e+07	   77.3949	   15.9931	   3.07438	5.32071e+07	   77.3116	   16.0359	   3.11601	3.36703e+07	   77.3506	   16.0805	   3.15944	4.95832e+07	
         R10	   2836	   77.7091	   16.1248	   3.20247	8.45403e+07	   77.7132	   16.0212	   3.10175	3.04358e+07	     77.57	   16.0187	    3.0993	3.44084e+07	   77.5839	   16.1238	   3.20154	7.85105e+07	   77.7111	    16.073	   3.15211	4.41372e+07	   77.6416	     16.02	   3.10052	3.23541e+07	   77.5769	   16.0713	   3.15042	4.54471e+07	   77.6465	   16.1243	   3.20201	8.13137e+07	
         R10	   2837	   77.8382	   16.1579	   3.23474	1.02487e+08	   77.8593	   16.0353	   3.11538	3.06595e+07	   77.7132	   16.0212	   3.10175	 3.4852e+07	   77.7091	   16.1248	   3.20247	8.37329e+07	   77.8488	   16.0966	   3.17506	5.95237e+07	   77.7863	   16.0282	   3.10856	3.13793e+07	   77.7111	    16.073	   3.15211	4.44974e+07	   77.7737	   16.1413	   3.21861	9.29274e+07	
         R10	   2838	   78.0052	    16.192	    3.2679	1.07613e+08	   78.0265	   16.0473	   3.12714	3.58564e+07	   77.8593	   16.0353	   3.11538	2.98936e+07	   77.8382	   16.1579	   3.23474	1.03231e+08	   78.0159	   16.1197	   3.19752	6.91846e+07	   77.9429	   16.0413	   3.12126	3.15425e+07	   77.8488	   16.0966	   3.17506	6.04192e+07	   77.9217	    16.175	   3.25132	1.05097e+08	
         R10	   2839	   78.1868	   16.2113	   3.28666	1.12824e+08	   78.2116	   16.0584	   3.13794	4.32918e+07	   78.0265	   16.0473	   3.12714	3.66297e+07	   78.0052	    16.192	    3.2679	1.06909e+08	   78.1992	   16.1349	    3.2123	7.71519e+07	    78.119	   16.0529	   3.13254	3.93624e+07	   78.0159	   16.1197	   3.19752	6.90825e+07	    78.096	   16.2017	   3.27728	1.09824e+08	
         R10	   2840	   78.4053	   16.2172	   3.29245	1.13265e+08	   78.4116	   16.0662	   3.14548	4.74285e+07	   78.2116	   16.0584	   3.13794	4.34931e+07	   78.1868	   16.2113	   3.28666	1.11256e+08	   78.4085	   16.1417	   3.21897	7.99697e+07	   78.3116	   16.0623	   3.14171	4.52462e+07	   78.1992	   16.1349	    3.2123	7.65338e+07	   78.2961	   16.2143	   3.28956	 1.1219e+08	
         R10	   2841	   78.1625	   16.3665	   3.43771	5.38999e+07	   78.3977	   16.3742	   3.44516	5.02578e+07	   78.4053	   16.2172	   3.29245	1.11093e+08	   78.1868	   16.2113	   3.28666	1.11186e+08	   78.2801	   16.3704	   3.44143	5.20724e+07	   78.4015	   16.2957	    3.3688	8.05633e+07	   78.2961	   16.2143	   3.28956	1.11019e+08	   78.1746	   16.2889	   3.36219	8.22667e+07	
         R10	   2842	   77.9129	   16.3628	    3.4341	6.54757e+07	   78.1625	   16.3665	   3.43771	 5.5382e+07	   78.1868	   16.2113	   3.28666	1.13024e+08	   78.0052	    16.192	    3.2679	1.09487e+08	   78.0377	   16.3647	   3.43591	6.03916e+07	   78.1746	   16.2889	   3.36219	8.40114e+07	    78.096	   16.2017	   3.27728	1.11026e+08	   77.9591	   16.2774	     3.351	 8.6676e+07	
         R10	   2843	   77.4485	   16.2641	   3.33806	1.04816e+08	   77.4547	   16.3892	   3.45977	4.41497e+07	   77.6643	    16.387	   3.45762	3.87172e+07	   77.6469	   16.2526	   3.32682	 1.1493e+08	   77.4516	   16.3267	   3.39891	7.02812e+07	   77.5595	   16.3881	   3.45869	 4.1422e+07	   77.6556	   16.3198	   3.39222	7.31224e+07	   77.5477	   16.2583	   3.33244	1.09809e+08	
         R10	   2844	   77.2555	   16.2784	   3.35192	1.00795e+08	   77.2466	   16.3956	   3.46601	4.57893e+07	   77.4547	   16.3892	   3.45977	  4.378e+07	   77.4485	   16.2641	   3.33806	1.04012e+08	   77.2511	    16.337	   3.40897	6.75844e+07	   77.3506	   16.3924	   3.46289	  4.451e+07	   77.4516	   16.3267	   3.39891	7.05166e+07	    77.352	   16.2712	   3.34499	1.02307e+08	
         R10	   2845	   77.0309	   16.2805	   3.35405	9.59213e+07	   77.0472	   16.4011	   3.47137	5.88412e+07	   77.2466	   16.3956	   3.46601	4.69003e+07	   77.2555	   16.2784	   3.35192	1.02683e+08	    77.039	   16.3408	   3.41271	6.76985e+07	   77.1469	   16.3984	   3.46869	5.25166e+07	   77.2511	    16.337	   3.40897	6.97532e+07	   77.1432	   16.2795	   3.35298	9.92038e+07	
         R10	   2846	   76.8482	   16.2901	   3.36329	7.97776e+07	   76.8568	   16.4059	   3.47606	 7.4355e+07	   77.0472	   16.4011	   3.47137	5.83804e+07	   77.0309	   16.2805	   3.35405	9.82237e+07	   76.8525	    16.348	   3.41968	6.46823e+07	    76.952	   16.4035	   3.47371	 6.6052e+07	    77.039	   16.3408	   3.41271	 6.9698e+07	   76.9395	   16.2853	   3.35867	8.88497e+07	
         R10	   2847	   76.6715	    16.302	   3.37488	5.19473e+07	   76.6763	   16.4115	   3.48147	7.51877e+07	   76.8568	   16.4059	   3.47606	7.02063e+07	   76.8482	   16.2901	   3.36329	8.11848e+07	   76.6739	   16.3567	   3.42817	5.02931e+07	   76.7665	   16.4087	   3.47876	7.24766e+07	   76.8525	    16.348	   3.41968	6.58223e+07	   76.7598	    16.296	   3.36909	6.60683e+07	
         R10	   2848	   76.6499	   16.2119	   3.28724	6.18955e+07	   76.6715	    16.302	   3.37488	5.21427e+07	   76.8482	   16.2901	   3.36329	 8.7278e+07	   76.8266	   16.1845	   3.26056	9.46164e+07	   76.6607	   16.2569	   3.33106	3.91289e+07	   76.7598	    16.296	   3.36909	6.90665e+07	   76.8374	   16.2373	   3.31193	8.41215e+07	   76.7383	   16.1982	    3.2739	7.36654e+07	
         R10	   2849	   76.7329	   16.1186	    3.1965	7.76437e+07	   76.6286	   16.1273	   3.20497	6.77614e+07	   76.6499	   16.2119	   3.28724	3.66783e+07	   76.8266	   16.1845	   3.26056	8.12023e+07	   76.6808	    16.123	   3.20074	7.04968e+07	   76.6393	   16.1696	    3.2461	4.61108e+07	   76.7383	   16.1982	    3.2739	5.62926e+07	   76.7798	   16.1515	   3.22853	7.68136e+07	
         R10	   2850	   76.5806	   15.9761	    3.0578	1.08141e+08	      76.5	   15.9761	   3.05784	 6.9665e+07	      76.5	   16.0453	   3.12513	6.27788e+07	   76.6181	    16.048	   3.12782	 2.3463e+07	   76.5403	   15.9761	   3.05782	2.65246e+07	      76.5	   16.0107	   3.09148	6.26254e+07	    76.559	   16.0467	   3.12648	2.63676e+07	   76.5994	   16.0121	   3.09281	6.44018e+07	
         R10	   2851	   76.7481	   16.0563	   3.13583	7.23627e+07	   76.7578	   15.9845	   3.06595	 1.0466e+08	   76.6767	   15.9793	   3.06093	1.08085e+08	   76.6181	    16.048	   3.12782	4.40991e+07	    76.753	   16.0204	   3.10089	8.64572e+07	   76.7173	   15.9819	   3.06344	1.06339e+08	   76.6474	   16.0137	   3.09437	7.43845e+07	   76.6831	   16.0522	   3.13183	5.77415e+07	
         R10	   2852	   77.1658	    16.059	   3.13845	5.84391e+07	   77.1435	   15.9995	   3.08058	5.44125e+07	   77.0479	   16.0607	   3.14012	5.51372e+07	   77.0967	   16.1313	   3.20881	8.69913e+07	   77.1546	   16.0292	   3.10951	5.10933e+07	   77.0957	   16.0301	   3.11035	4.74763e+07	   77.0723	    16.096	   3.17447	6.90843e+07	   77.1312	   16.0951	   3.17363	7.11832e+07	
         R10	   2853	   77.4539	    16.164	   3.24061	9.83961e+07	   77.4292	   16.0811	   3.16002	5.50179e+07	    77.272	   16.0799	   3.15886	7.27694e+07	   77.2883	    16.161	   3.23769	9.57132e+07	   77.4415	   16.1225	   3.20031	7.45534e+07	   77.3506	   16.0805	   3.15944	6.35808e+07	   77.2802	   16.1204	   3.19828	8.13104e+07	   77.3711	   16.1625	   3.23915	9.68563e+07	
         R10	   2854	   77.5839	   16.1238	   3.20154	7.88139e+07	     77.57	   16.0187	    3.0993	3.65838e+07	   77.4292	   16.0811	   3.16002	4.95972e+07	   77.4539	    16.164	   3.24061	1.02078e+08	   77.5769	   16.0713	   3.15042	 4.6002e+07	   77.4996	   16.0499	   3.12966	3.47344e+07	   77.4415	   16.1225	   3.20031	 7.2354e+07	   77.5189	   16.1439	   3.22108	9.03252e+07	
         R10	   2855	   76.9665	   16.1628	   3.23944	9.53336e+07	   76.8266	   16.1845	   3.26056	9.17566e+07	   76.8482	   16.2901	   3.36329	8.21296e+07	   77.0309	   16.2805	   3.35405	9.60597e+07	   76.8965	   16.1736	      3.25	9.32463e+07	   76.8374	   16.2373	   3.31193	8.04292e+07	   76.9395	   16.2853	   3.35867	8.87838e+07	   76.9987	   16.2217	   3.29674	9.26574e+07	
         R10	   2856	   76.7481	   16.0563	   3.13583	9.53825e+07	   76.6181	    16.048	   3.12782	7.78647e+07	   76.6286	   16.1273	   3.20497	3.76051e+07	   76.7329	   16.1186	    3.1965	6.90165e+07	   76.6831	   16.0522	   3.13183	8.60163e+07	   76.6234	   16.0877	   3.16639	5.48332e+07	   76.6808	    16.123	   3.20074	5.24417e+07	   76.7405	   16.0875	   3.16617	7.83871e+07	
         R10	   2857	   76.8532	   16.0665	   3.14573	9.25587e+07	   76.7481	   16.0563	   3.13583	1.02588e+08	   76.7329	   16.1186	    3.1965	6.72948e+07	   76.8266	   16.1845	   3.26056	  8.484e+07	   76.8006	   16.0614	   3.14078	9.67996e+07	   76.7405	   16.0875	   3.16617	8.11667e+07	   76.7798	   16.1515	   3.22853	7.36542e+07	   76.8399	   16.1255	   3.20315	8.56957e+07	
         R10	   2858	   76.9469	   16.0703	   3.14944	8.55585e+07	   76.8532	   16.0665	   3.14573	9.46642e+07	   76.8266	   16.1845	   3.26056	8.01507e+07	   76.9665	   16.1628	   3.23944	9.14712e+07	      76.9	   16.0684	   3.14759	9.00231e+07	   76.8399	   16.1255	   3.20315	8.26863e+07	   76.8965	   16.1736	      3.25	8.56303e+07	   76.9567	   16.1165	   3.19444	8.36904e+07	
         R10	   2859	   77.0967	   16.1313	   3.20881	 8.3918e+07	   77.0479	   16.0607	   3.14012	6.50955e+07	   76.9469	   16.0703	   3.14944	8.63173e+07	   76.9665	   16.1628	   3.23944	9.69335e+07	   77.0723	    16.096	   3.17447	7.21347e+07	   76.9974	   16.0655	   3.14478	 7.5327e+07	   76.9567	   16.1165	   3.19444	    8.7e+07	   77.0316	    16.147	   3.22412	9.02857e+07	
         R10	   2860	   77.1338	   16.1948	    3.2706	 1.1711e+08	   77.0967	   16.1313	   3.20881	9.10313e+07	   76.9665	   16.1628	   3.23944	 1.0182e+08	   77.0309	   16.2805	   3.35405	9.06414e+07	   77.1153	    16.163	    3.2397	1.04011e+08	   77.0316	    16.147	   3.22412	9.60992e+07	   76.9987	   16.2217	   3.29674	9.14807e+07	   77.0824	   16.2377	   3.31232	1.01636e+08	
         R10	   2861	   77.2883	    16.161	   3.23769	9.73177e+07	    77.272	   16.0799	   3.15886	7.10868e+07	   77.0967	   16.1313	   3.20881	8.23677e+07	   77.1338	   16.1948	    3.2706	1.01381e+08	   77.2802	   16.1204	   3.19828	 8.1502e+07	   77.1844	   16.1056	   3.18383	7.57887e+07	   77.1153	    16.163	    3.2397	9.15943e+07	   77.2111	   16.1779	   3.25415	9.89145e+07	
         R10	   2862	   77.4539	    16.164	   3.24061	1.05351e+08	   77.2883	    16.161	   3.23769	1.04649e+08	   77.2555	   16.2784	   3.35192	9.68975e+07	   77.4485	   16.2641	   3.33806	1.01779e+08	   77.3711	   16.1625	   3.23915	1.04837e+08	   77.2719	   16.2197	   3.29481	9.96379e+07	    77.352	   16.2712	   3.34499	9.91857e+07	   77.4512	    16.214	   3.28933	1.01704e+08	
         R10	   2863	   77.4539	    16.164	   3.24061	1.05759e+08	   77.4485	   16.2641	   3.33806	1.01707e+08	   77.6469	   16.2526	   3.32682	1.06342e+08	   77.5839	   16.1238	   3.20154	8.20251e+07	   77.4512	    16.214	   3.28933	1.02598e+08	   77.5477	   16.2583	   3.33244	1.04009e+08	   77.6154	   16.1882	   3.26418	9.33188e+07	   77.5189	   16.1439	   3.22108	9.37604e+07	
         R10	   2864	   77.9129	   16.3628	    3.4341	7.03158e+07	   78.0052	    16.192	    3.2679	1.13545e+08	   77.8382	   16.1579	   3.23474	9.93028e+07	   77.7987	   16.2549	   3.32912	1.03917e+08	   77.9591	   16.2774	     3.351	9.02394e+07	   77.9217	    16.175	   3.25132	1.05853e+08	   77.8184	   16.2064	   3.28193	9.84456e+07	   77.8558	   16.3089	   3.38161	8.33781e+07	
         R10	   2865	   77.6469	   16.2526	   3.32682	1.16085e+08	   77.6643	    16.387	   3.45762	3.84202e+07	   77.9129	   16.3628	    3.4341	6.69128e+07	   77.7987	   16.2549	   3.32912	 9.2874e+07	   77.6556	   16.3198	   3.39222	7.26013e+07	   77.7886	   16.3749	   3.44586	5.16031e+07	   77.8558	   16.3089	   3.38161	7.77404e+07	   77.7228	   16.2537	   3.32797	1.04172e+08	
         R10	   2866	   77.8382	   16.1579	   3.23474	8.90043e+07	   77.7091	   16.1248	   3.20247	8.92089e+07	   77.6469	   16.2526	   3.32682	1.01771e+08	   77.7987	   16.2549	   3.32912	1.15826e+08	   77.7737	   16.1413	   3.21861	 8.8804e+07	    77.678	   16.1887	   3.26464	9.36601e+07	   77.7228	   16.2537	   3.32797	1.08537e+08	   77.8184	   16.2064	   3.28193	1.01075e+08	
         R10	   2867	   77.1435	   15.9995	   3.08058	6.05064e+07	   77.0393	   15.9835	   3.06505	7.73471e+07	   77.0479	   16.0607	   3.14012	5.57796e+07	   77.0914	   15.9915	   3.07281	 6.8882e+07	   77.0436	   16.0221	   3.10259	5.39916e+07	   77.0957	   16.0301	   3.11035	 4.7747e+07	       N/A	       N/A	       N/A	        N/A	       N/A	       N/A	       N/A	        N/A	
         R10	   2868	   77.3512	   15.9919	   3.07316	5.04653e+07	   77.2435	   15.9837	   3.06518	6.00231e+07	    77.272	   16.0799	   3.15886	4.76198e+07	   77.2973	   15.9878	   3.06917	5.52174e+07	   77.2577	   16.0318	   3.11202	 3.3902e+07	   77.3116	   16.0359	   3.11601	 3.1413e+07	       N/A	       N/A	       N/A	        N/A	       N/A	       N/A	       N/A	        N/A	
         R10	   2869	     77.57	   16.0187	    3.0993	3.92417e+07	   77.4387	   15.9944	    3.0756	5.59246e+07	   77.4292	   16.0811	   3.16002	5.17613e+07	   77.5043	   16.0065	   3.08745	4.65471e+07	   77.4339	   16.0377	   3.11781	3.05549e+07	   77.4996	   16.0499	   3.12966	3.28879e+07	       N/A	       N/A	       N/A	        N/A	       N/A	       N/A	       N/A	        N/A	
         R10	   2870	   76.6767	   15.9793	   3.06093	1.00714e+08	   76.5806	   15.9761	    3.0578	9.36308e+07	   76.6181	    16.048	   3.12782	4.57553e+07	   76.6287	   15.9777	   3.05936	9.71703e+07	   76.5994	   16.0121	   3.09281	  6.774e+07	   76.6474	   16.0137	   3.09437	7.12065e+07	       N/A	       N/A	       N/A	        N/A	       N/A	       N/A	       N/A	        N/A	
         R10	   2871	    77.272	   16.0799	   3.15886	7.32068e+07	   77.1658	    16.059	   3.13845	5.44058e+07	   77.0967	   16.1313	   3.20881	8.47268e+07	   77.2189	   16.0694	   3.14865	6.16457e+07	   77.1312	   16.0951	   3.17363	6.65749e+07	   77.1844	   16.1056	   3.18383	7.85828e+07	       N/A	       N/A	       N/A	        N/A	       N/A	       N/A	       N/A	        N/A	
         R10	   2872	   77.1338	   16.1948	    3.2706	1.07281e+08	   77.0309	   16.2805	   3.35405	8.41217e+07	   77.2555	   16.2784	   3.35192	1.01059e+08	   77.0824	   16.2377	   3.31232	9.30634e+07	   77.1432	   16.2795	   3.35298	9.23929e+07	   77.1947	   16.2366	   3.31126	 1.0176e+08	       N/A	       N/A	       N/A	        N/A	       N/A	       N/A	       N/A	        N/A	
         R10	   2873	   77.2883	    16.161	   3.23769	1.05908e+08	   77.1338	   16.1948	    3.2706	9.85973e+07	   77.2555	   16.2784	   3.35192	1.01409e+08	   77.2111	   16.1779	   3.25415	1.02232e+08	   77.1947	   16.2366	   3.31126	9.84896e+07	   77.2719	   16.2197	   3.29481	1.02368e+08	       N/A	       N/A	       N/A	        N/A	       N/A	       N/A	       N/A	        N/A	
         R10	   2874	   77.6469	   16.2526	   3.32682	1.04208e+08	   77.7091	   16.1248	   3.20247	8.86184e+07	   77.5839	   16.1238	   3.20154	8.84977e+07	    77.678	   16.1887	   3.26464	9.50196e+07	   77.6465	   16.1243	   3.20201	8.85563e+07	   77.6154	   16.1882	   3.26418	9.48598e+07	       N/A	       N/A	       N/A	        N/A	       N/A	       N/A	       N/A	        N/A	
         R10	   2875	   76.8559	   16.6483	    3.7119	6.57264e+07	   76.8539	   16.5328	   3.59945	1.27399e+08	   76.6725	   16.5328	   3.59945	1.04787e+08	   76.6909	   16.6677	   3.73078	6.10638e+07	   76.8549	   16.5906	   3.65568	7.94311e+07	   76.7632	   16.5328	   3.59945	1.08333e+08	   76.6817	   16.6003	   3.66512	8.10592e+07	   76.7734	    16.658	   3.72134	6.12391e+07	
         R10	   2876	   77.0586	   16.6498	   3.71331	4.14734e+07	   77.0441	   16.5328	   3.59945	1.43233e+08	   76.8539	   16.5328	   3.59945	1.24614e+08	   76.8559	   16.6483	    3.7119	6.42767e+07	   77.0514	   16.5913	   3.65638	7.52219e+07	    76.949	   16.5328	   3.59945	1.33372e+08	   76.8549	   16.5906	   3.65568	7.61206e+07	   76.9573	   16.6491	   3.71261	5.09219e+07	
         R10	   2877	   77.2381	   16.6857	   3.74825	  4.344e+07	   77.2433	   16.5328	   3.59945	 1.4604e+08	   77.0441	   16.5328	   3.59945	1.42523e+08	   77.0586	   16.6498	   3.71331	2.76925e+07	   77.2407	   16.6092	   3.67385	 5.7654e+07	   77.1437	   16.5328	   3.59945	1.44034e+08	   77.0514	   16.5913	   3.65638	 7.1242e+07	   77.1483	   16.6677	   3.73078	3.27413e+07	
         R10	   2878	   77.4432	   16.7241	   3.78558	7.01448e+07	   77.4513	   16.5328	   3.59945	1.40834e+08	   77.2433	   16.5328	   3.59945	1.46399e+08	   77.2381	   16.6857	   3.74825	5.39237e+07	   77.4473	   16.6284	   3.69251	3.90783e+07	   77.3473	   16.5328	   3.59945	1.43382e+08	   77.2407	   16.6092	   3.67385	6.14683e+07	   77.3406	   16.7049	   3.76692	5.93114e+07	
         R10	   2879	   77.6176	   16.7144	   3.77616	 6.4124e+07	   77.6683	   16.5328	   3.59945	 1.4131e+08	   77.4513	   16.5328	   3.59945	1.40627e+08	   77.4432	   16.7241	   3.78558	7.47189e+07	   77.6429	   16.6236	    3.6878	4.24719e+07	   77.5598	   16.5328	   3.59945	1.40868e+08	   77.4473	   16.6284	   3.69251	4.15148e+07	   77.5304	   16.7192	   3.78087	6.91557e+07	
         R10	   2880	   77.8907	   16.7106	   3.77245	6.15903e+07	   77.8941	   16.5328	   3.59945	1.40272e+08	   77.6683	   16.5328	   3.59945	1.41546e+08	   77.6176	   16.7144	   3.77616	6.59476e+07	   77.8924	   16.6217	   3.68595	4.14704e+07	   77.7812	   16.5328	   3.59945	1.40849e+08	   77.6429	   16.6236	    3.6878	4.33989e+07	   77.7542	   16.7125	    3.7743	6.36402e+07	
         R10	   2881	   78.0936	   16.7274	   3.78882	 7.5357e+07	   78.1288	   16.5328	   3.59945	1.36184e+08	   77.8941	   16.5328	   3.59945	1.39697e+08	   77.8907	   16.7106	   3.77245	6.14854e+07	   78.1112	   16.6301	   3.69413	3.15218e+07	   78.0115	   16.5328	   3.59945	1.37887e+08	   77.8924	   16.6217	   3.68595	 4.0798e+07	   77.9922	    16.719	   3.78063	6.83345e+07	
         R10	   2882	   78.3701	    16.723	   3.78454	7.19309e+07	   78.3725	   16.5328	   3.59945	1.34038e+08	   78.1288	   16.5328	   3.59945	1.36467e+08	   78.0936	   16.7274	   3.78882	7.61609e+07	   78.3713	   16.6279	     3.692	3.16324e+07	   78.2507	   16.5328	   3.59945	1.35217e+08	   78.1112	   16.6301	   3.69413	 3.1541e+07	   78.2319	   16.7252	   3.78668	7.40228e+07	
         R10	   2883	    78.625	   16.7091	   3.77097	6.83185e+07	    78.625	   16.5328	   3.59945	 1.3339e+08	   78.3725	   16.5328	   3.59945	1.34276e+08	   78.3701	    16.723	   3.78454	7.14181e+07	    78.625	   16.6209	   3.68521	 3.4433e+07	   78.4987	   16.5328	   3.59945	1.33638e+08	   78.3713	   16.6279	     3.692	3.17764e+07	   78.4976	    16.716	   3.77776	6.96713e+07	
         R10	   2884	    78.625	   16.9145	   3.97088	8.08745e+07	    78.625	   16.7091	   3.77097	7.19814e+07	   78.3701	    16.723	   3.78454	7.95506e+07	   78.3309	   16.9376	   3.99335	8.69251e+07	    78.625	   16.8118	   3.87093	7.48392e+07	   78.4976	    16.716	   3.77776	7.49636e+07	   78.3505	   16.8303	   3.88895	8.31344e+07	   78.4779	   16.9261	   3.98212	 8.3435e+07	
         R10	   2885	   78.2783	   17.1492	   4.19918	 1.2578e+08	    78.625	   17.1492	   4.19918	1.14202e+08	    78.625	   16.9145	   3.97088	9.95341e+07	   78.3309	   16.9376	   3.99335	 8.7955e+07	   78.4517	   17.1492	   4.19918	1.19788e+08	    78.625	   17.0318	   4.08503	9.82724e+06	   78.4779	   16.9261	   3.98212	9.35951e+07	   78.3046	   17.0434	   4.09626	 2.0572e+07	
         R10	   2886	    77.946	   17.1492	   4.19918	 1.2711e+08	   78.2783	   17.1492	   4.19918	1.25827e+08	   78.3309	   16.9376	   3.99335	8.80906e+07	   78.0143	   16.9349	   3.99068	8.94239e+07	   78.1122	   17.1492	   4.19918	1.26441e+08	   78.3046	   17.0434	   4.09626	1.95829e+07	   78.1726	   16.9362	   3.99202	8.87559e+07	   77.9801	    17.042	   4.09493	 1.9741e+07	
         R10	   2887	   77.6991	   16.9204	   3.97656	9.83925e+07	   77.6281	   17.1492	   4.19918	1.26353e+08	    77.946	   17.1492	   4.19918	 1.2678e+08	   78.0143	   16.9349	   3.99068	9.09308e+07	   77.6636	   17.0348	   4.08787	1.65972e+07	    77.787	   17.1492	   4.19918	1.26509e+08	   77.9801	    17.042	   4.09493	1.97352e+07	   77.8567	   16.9276	   3.98362	9.45535e+07	
         R10	   2888	   77.3448	   16.9232	   3.97934	9.45837e+07	   77.3245	   17.1492	   4.19918	1.24638e+08	   77.6281	   17.1492	   4.19918	1.26329e+08	   77.6991	   16.9204	   3.97656	1.02086e+08	   77.3347	   17.0362	   4.08926	 2.0161e+07	   77.4763	   17.1492	   4.19918	1.25402e+08	   77.6636	   17.0348	   4.08787	2.04912e+07	    77.522	   16.9218	   3.97795	9.80802e+07	
         R10	   2889	   77.0267	   16.9756	   4.03034	7.30653e+07	   77.0353	   17.1492	   4.19918	 1.2407e+08	   77.3245	   17.1492	   4.19918	1.25158e+08	   77.3448	   16.9232	   3.97934	9.91617e+07	    77.031	   17.0624	   4.11476	3.78915e+07	   77.1799	   17.1492	   4.19918	1.24363e+08	   77.3347	   17.0362	   4.08926	2.69785e+07	   77.1858	   16.9494	   4.00484	8.60274e+07	
         R10	   2890	   76.7624	   16.9733	   4.02804	3.62241e+07	   76.7605	   17.1492	   4.19918	7.52819e+07	   77.0353	   17.1492	   4.19918	1.26527e+08	   77.0267	   16.9756	   4.03034	 8.3032e+07	   76.7614	   17.0612	   4.11361	4.31877e+07	   76.8979	   17.1492	   4.19918	9.70064e+07	    77.031	   17.0624	   4.11476	4.83309e+07	   76.8946	   16.9744	   4.02919	5.82626e+07	
         R10	   2891	      76.5	    16.966	   4.02101	9.51258e+07	      76.5	   17.1492	   4.19918	7.85387e+07	   76.7605	   17.1492	   4.19918	 7.9335e+07	   76.7624	   16.9733	   4.02804	9.03353e+07	      76.5	   17.0576	   4.11009	1.54028e+07	   76.6302	   17.1492	   4.19918	5.42323e+07	   76.7614	   17.0612	   4.11361	7.06543e+07	   76.6312	   16.9696	   4.02452	2.15001e+07	
         R10	   2892	      76.5	   16.8023	   3.86166	9.86987e+07	      76.5	    16.966	   4.02101	 8.9807e+07	   76.7624	   16.9733	   4.02804	1.03975e+08	   76.7318	   16.8161	    3.8751	8.58091e+07	      76.5	   16.8841	   3.94133	8.83161e+07	   76.6312	   16.9696	   4.02452	4.20778e+07	   76.7471	   16.8947	   3.95157	8.12749e+07	   76.6159	   16.8092	   3.86838	3.88552e+07	
         R10	   2893	   76.6909	   16.6677	   3.73078	7.31427e+07	   76.6725	   16.5328	   3.59945	1.08402e+08	      76.5	   16.5328	   3.59945	9.18622e+07	      76.5	   16.6578	   3.72114	7.91195e+07	   76.6817	   16.6003	   3.66512	8.81689e+07	   76.5862	   16.5328	   3.59945	8.84044e+07	      76.5	   16.5953	    3.6603	3.06466e+07	   76.5954	   16.6628	   3.72596	4.64589e+07	
         R10	   2894	   78.0143	   16.9349	   3.99068	8.76937e+07	   78.3309	   16.9376	   3.99335	8.60635e+07	   78.3701	    16.723	   3.78454	7.88994e+07	   78.0936	   16.7274	   3.78882	 8.2468e+07	   78.1726	   16.9362	   3.99202	8.68642e+07	   78.3505	   16.8303	   3.88895	8.23557e+07	   78.2319	   16.7252	   3.78668	8.06711e+07	    78.054	   16.8311	   3.88975	  8.497e+07	
         R10	   2895	   77.6991	   16.9204	   3.97656	 9.3002e+07	   78.0143	   16.9349	   3.99068	8.97578e+07	   78.0936	   16.7274	   3.78882	8.13467e+07	   77.8907	   16.7106	   3.77245	7.52671e+07	   77.8567	   16.9276	   3.98362	9.13546e+07	    78.054	   16.8311	   3.88975	8.52141e+07	   77.9922	    16.719	   3.78063	7.82011e+07	   77.7949	   16.8155	    3.8745	8.36148e+07	
         R10	   2896	   76.9819	   16.8081	   3.86734	1.08192e+08	   76.7318	   16.8161	    3.8751	8.22037e+07	   76.7624	   16.9733	   4.02804	6.94476e+07	   77.0267	   16.9756	   4.03034	6.58801e+07	   76.8569	   16.8121	   3.87122	9.10754e+07	   76.7471	   16.8947	   3.95157	5.33265e+07	   76.8946	   16.9744	   4.02919	6.66398e+07	   77.0043	   16.8919	   3.94884	7.72057e+07	
         R10	   2897	   76.6909	   16.6677	   3.73078	1.25644e+08	      76.5	   16.6578	   3.72114	 5.8742e+07	      76.5	   16.8023	   3.86166	1.01142e+08	   76.7318	   16.8161	    3.8751	7.09199e+07	   76.5954	   16.6628	   3.72596	6.83657e+07	      76.5	   16.7301	    3.7914	7.81888e+07	   76.6159	   16.8092	   3.86838	3.01829e+07	   76.7114	   16.7419	   3.80294	8.65635e+07	
         R10	   2898	   76.8559	   16.6483	    3.7119	8.12692e+07	   76.6909	   16.6677	   3.73078	1.05821e+08	   76.7318	   16.8161	    3.8751	6.19627e+07	   76.9819	   16.8081	   3.86734	8.24352e+07	   76.7734	    16.658	   3.72134	9.31521e+07	   76.7114	   16.7419	   3.80294	7.69971e+07	   76.8569	   16.8121	   3.87122	7.15615e+07	   76.9189	   16.7282	   3.78962	 6.8835e+07	
         R10	   2899	   77.6991	   16.9204	   3.97656	 9.7668e+07	   77.6176	   16.7144	   3.77616	7.68541e+07	   77.4432	   16.7241	   3.78558	8.92938e+07	   77.3448	   16.9232	   3.97934	8.39264e+07	   77.6583	   16.8174	   3.87636	8.60459e+07	   77.5304	   16.7192	   3.78087	8.28978e+07	    77.394	   16.8236	   3.88246	8.46454e+07	    77.522	   16.9218	   3.97795	9.07222e+07	
         R10	   2900	   77.3448	   16.9232	   3.97934	1.10008e+08	   77.4432	   16.7241	   3.78558	9.30237e+07	   77.2381	   16.6857	   3.74825	9.37299e+07	   77.1912	   16.7988	    3.8583	1.04297e+08	    77.394	   16.8236	   3.88246	9.59495e+07	   77.3406	   16.7049	   3.76692	 8.7268e+07	   77.2146	   16.7423	   3.80328	 7.8309e+07	    77.268	    16.861	   3.91882	9.27746e+07	
         R10	   2901	   76.9819	   16.8081	   3.86734	 1.1325e+08	   77.0267	   16.9756	   4.03034	5.31606e+07	   77.3448	   16.9232	   3.97934	9.51358e+07	   77.1912	   16.7988	    3.8583	8.60858e+07	   77.0043	   16.8919	   3.94884	7.14655e+07	   77.1858	   16.9494	   4.00484	7.20844e+07	    77.268	    16.861	   3.91882	8.13087e+07	   77.0865	   16.8035	   3.86282	9.89587e+07	
         R10	   2902	   77.2381	   16.6857	   3.74825	7.76464e+07	   77.0586	   16.6498	   3.71331	8.63187e+07	   76.9819	   16.8081	   3.86734	7.27207e+07	   77.1912	   16.7988	    3.8583	 1.2758e+08	   77.1483	   16.6677	   3.73078	8.16896e+07	   77.0202	   16.7289	   3.79033	7.00556e+07	   77.0865	   16.8035	   3.86282	9.75301e+07	   77.2146	   16.7423	   3.80328	7.89003e+07	
         R10	   2903	   77.0586	   16.6498	   3.71331	8.37356e+07	   76.8559	   16.6483	    3.7119	8.90422e+07	   76.9819	   16.8081	   3.86734	7.72704e+07	   76.9573	   16.6491	   3.71261	8.62704e+07	   76.9189	   16.7282	   3.78962	6.97769e+07	   77.0202	   16.7289	   3.79033	6.96868e+07	       N/A	       N/A	       N/A	        N/A	       N/A	       N/A	       N/A	        N/A	
         R10	   2904	   77.6991	   16.9204	   3.97656	9.67982e+07	   77.8907	   16.7106	   3.77245	7.65631e+07	   77.6176	   16.7144	   3.77616	7.89002e+07	   77.7949	   16.8155	    3.8745	8.60339e+07	   77.7542	   16.7125	    3.7743	7.76732e+07	   77.6583	   16.8174	   3.87636	8.68478e+07	       N/A	       N/A	       N/A	        N/A	       N/A	       N/A	       N/A	        N/A	
         R10	   2905	   74.8583	   15.4683	   2.56373	5.22601e+07	   74.9081	      15.3	       2.4	1.80645e+08	   74.6584	      15.3	       2.4	1.81924e+08	    74.623	   15.4925	   2.58728	7.52003e+07	   74.8832	   15.3841	   2.48186	7.33246e+07	   74.7833	      15.3	       2.4	1.81246e+08	   74.6407	   15.3962	   2.49364	5.81479e+07	   74.7407	   15.4804	    2.5755	6.28678e+07	
         R10	   2906	   75.0756	   15.4404	   2.53657	2.78307e+07	    75.124	      15.3	       2.4	1.75223e+08	   74.9081	      15.3	       2.4	1.79783e+08	   74.8583	   15.4683	   2.56373	4.72815e+07	   75.0998	   15.3702	   2.46828	8.57651e+07	    75.016	      15.3	       2.4	1.77276e+08	   74.8832	   15.3841	   2.48186	6.89382e+07	    74.967	   15.4543	   2.55015	3.27309e+07	
         R10	   2907	   75.2552	   15.4148	   2.51171	3.25272e+07	   75.3061	      15.3	       2.4	1.83607e+08	    75.124	      15.3	       2.4	1.74071e+08	   75.0756	   15.4404	   2.53657	2.58747e+07	   75.2807	   15.3574	   2.45586	1.02049e+08	   75.2151	      15.3	       2.4	1.78733e+08	   75.0998	   15.3702	   2.46828	8.43507e+07	   75.1654	   15.4276	   2.52414	2.46467e+07	
         R10	   2908	   75.4146	   15.3927	   2.49017	4.96698e+07	   75.4545	      15.3	       2.4	1.78055e+08	   75.3061	      15.3	       2.4	1.84075e+08	   75.2552	   15.4148	   2.51171	2.50738e+07	   75.4346	   15.3463	   2.44509	1.12184e+08	   75.3803	      15.3	       2.4	1.81046e+08	   75.2807	   15.3574	   2.45586	9.90208e+07	   75.3349	   15.4037	   2.50094	3.53825e+07	
         R10	   2909	   75.5418	   15.3899	   2.48748	4.70826e+07	   75.5691	      15.3	       2.4	1.73838e+08	   75.4545	      15.3	       2.4	1.79827e+08	   75.4146	   15.3927	   2.49017	4.70044e+07	   75.5555	    15.345	   2.44374	1.09059e+08	   75.5118	      15.3	       2.4	1.76742e+08	   75.4346	   15.3463	   2.44509	1.11287e+08	   75.4782	   15.3913	   2.48883	4.65228e+07	
         R10	   2910	     75.65	   15.3588	   2.45717	8.40939e+07	     75.65	      15.3	       2.4	1.71748e+08	   75.5691	      15.3	       2.4	1.77739e+08	   75.5418	   15.3899	   2.48748	4.27316e+07	     75.65	   15.3294	   2.42859	1.27248e+08	   75.6096	      15.3	       2.4	1.74708e+08	   75.5555	    15.345	   2.44374	1.09584e+08	   75.5959	   15.3743	   2.47233	6.33428e+07	
         R10	   2911	   75.5387	   15.5494	   2.64263	  9.332e+07	     75.65	   15.5496	   2.64289	9.39231e+07	     75.65	   15.4836	   2.57862	6.24057e+07	   75.5369	   15.4718	   2.56717	4.96625e+07	   75.5943	   15.5495	   2.64276	9.36104e+07	     75.65	   15.5166	   2.61075	7.79168e+07	   75.5935	   15.4777	    2.5729	5.60259e+07	   75.5378	   15.5106	    2.6049	7.11516e+07	
         R10	   2912	   75.5367	   15.6204	   2.71179	1.04645e+08	     75.65	   15.6181	   2.70953	1.05603e+08	     75.65	   15.5496	   2.64289	 9.4269e+07	   75.5387	   15.5494	   2.64263	9.18285e+07	   75.5934	   15.6193	   2.71066	1.05113e+08	     75.65	   15.5839	   2.67621	9.98606e+07	   75.5943	   15.5495	   2.64276	9.30404e+07	   75.5377	   15.5849	   2.67721	9.81598e+07	
         R10	   2913	   75.5345	   15.6925	   2.78185	8.99932e+07	     75.65	    15.689	   2.77853	9.25394e+07	     75.65	   15.6181	   2.70953	 1.0631e+08	   75.5367	   15.6204	   2.71179	1.04203e+08	   75.5923	   15.6907	   2.78019	9.12476e+07	     75.65	   15.6536	   2.74403	9.91359e+07	   75.5934	   15.6193	   2.71066	1.05244e+08	   75.5356	   15.6565	   2.74682	9.70087e+07	
         R10	   2914	   75.5322	   15.7651	   2.85251	 4.7695e+07	     75.65	   15.7624	   2.84989	5.40864e+07	     75.65	    15.689	   2.77853	9.20381e+07	   75.5345	   15.6925	   2.78185	8.94719e+07	   75.5911	   15.7637	    2.8512	5.08597e+07	     75.65	   15.7257	   2.81421	7.17955e+07	   75.5923	   15.6907	   2.78019	9.07416e+07	   75.5334	   15.7288	   2.81718	6.76183e+07	
         R10	   2915	   75.5317	   15.8397	   2.92508	  4.348e+07	     75.65	   15.8382	   2.92363	4.40188e+07	     75.65	   15.7624	   2.84989	5.14416e+07	   75.5322	   15.7651	   2.85251	4.73053e+07	   75.5909	   15.8389	   2.92435	4.36674e+07	     75.65	   15.8003	   2.88676	2.52061e+07	   75.5911	   15.7637	    2.8512	4.93434e+07	    75.532	   15.8024	    2.8888	2.11606e+07	
         R10	   2916	   75.5497	   15.9164	   2.99973	1.47217e+08	     75.65	   15.9164	   2.99973	1.47754e+08	     75.65	   15.8382	   2.92363	3.59892e+07	   75.5317	   15.8397	   2.92508	3.90628e+07	   75.5999	   15.9164	   2.99973	1.47475e+08	     75.65	   15.8773	   2.96168	8.77386e+07	   75.5909	   15.8389	   2.92435	3.75012e+07	   75.5407	    15.878	    2.9624	8.93273e+07	
         R10	   2917	   75.4222	   15.9164	   2.99973	1.44254e+08	   75.5497	   15.9164	   2.99973	1.47272e+08	   75.5317	   15.8397	   2.92508	3.84325e+07	   75.4039	   15.8404	   2.92583	4.07891e+07	    75.486	   15.9164	   2.99973	1.45749e+08	   75.5407	    15.878	    2.9624	8.93616e+07	   75.4678	   15.8401	   2.92546	3.95846e+07	    75.413	   15.8784	   2.96278	8.95076e+07	
         R10	   2918	    75.253	   15.8272	   2.91294	3.49833e+07	   75.2673	   15.9164	   2.99973	1.37468e+08	   75.4222	   15.9164	   2.99973	1.44445e+08	   75.4039	   15.8404	   2.92583	4.11531e+07	   75.2602	   15.8718	   2.95633	7.70831e+07	   75.3448	   15.9164	   2.99973	1.40953e+08	    75.413	   15.8784	   2.96278	8.96682e+07	   75.3284	   15.8338	   2.91939	3.63423e+07	
         R10	   2919	   75.0838	   15.7613	   2.84885	 4.9061e+07	   75.0852	   15.9164	   2.99973	1.29918e+08	   75.2673	   15.9164	   2.99973	1.39356e+08	    75.253	   15.8272	   2.91294	2.30009e+07	   75.0845	   15.8389	   2.92429	4.38386e+07	   75.1763	   15.9164	   2.99973	1.34149e+08	   75.2602	   15.8718	   2.95633	7.52225e+07	   75.1684	   15.7943	    2.8809	1.92308e+07	
         R10	   2920	   74.8855	   15.7754	   2.86255	4.71743e+07	   74.8758	   15.9164	   2.99973	1.26315e+08	   75.0852	   15.9164	   2.99973	1.29907e+08	   75.0838	   15.7613	   2.84885	4.62553e+07	   74.8806	   15.8459	   2.93114	4.76924e+07	   74.9805	   15.9164	   2.99973	1.28109e+08	   75.0845	   15.8389	   2.92429	4.47598e+07	   74.9846	   15.7684	    2.8557	4.53436e+07	
         R10	   2921	    74.634	   15.7019	   2.79105	7.98088e+07	    74.639	   15.9164	   2.99973	1.10016e+08	   74.8758	   15.9164	   2.99973	1.24877e+08	   74.8855	   15.7754	   2.86255	3.83436e+07	   74.6365	   15.8091	   2.89539	2.12885e+07	   74.7574	   15.9164	   2.99973	1.17213e+08	   74.8806	   15.8459	   2.93114	4.48913e+07	   74.7598	   15.7387	    2.8268	5.83127e+07	
         R10	   2922	    74.375	   15.7109	   2.79982	8.38059e+07	    74.375	   15.9164	   2.99973	9.75222e+07	    74.639	   15.9164	   2.99973	1.11159e+08	    74.634	   15.7019	   2.79105	7.84728e+07	    74.375	   15.8137	   2.89977	2.76755e+07	    74.507	   15.9164	   2.99973	1.04335e+08	   74.6365	   15.8091	   2.89539	2.24634e+07	   74.5045	   15.7064	   2.79543	7.96501e+07	
         R10	   2923	    74.623	   15.4925	   2.58728	7.51944e+07	   74.6584	      15.3	       2.4	1.85408e+08	    74.375	      15.3	       2.4	1.62085e+08	    74.375	   15.5055	   2.59991	5.71751e+07	   74.6407	   15.3962	   2.49364	6.31945e+07	   74.5167	      15.3	       2.4	1.72615e+08	    74.375	   15.4027	   2.49995	6.80911e+07	    74.499	    15.499	    2.5936	6.29329e+07	
         R10	   2924	   75.0894	   15.5921	   2.68418	1.09633e+08	   75.0756	   15.4404	   2.53657	2.46043e+07	   74.8583	   15.4683	   2.56373	5.05382e+07	   74.8842	   15.6049	   2.69665	8.32718e+07	   75.0825	   15.5162	   2.61037	6.29864e+07	    74.967	   15.4543	   2.55015	3.45242e+07	   74.8713	   15.5366	   2.63019	6.59645e+07	   74.9868	   15.5985	   2.69041	9.57291e+07	
         R10	   2925	   75.2652	   15.5033	   2.59777	7.44722e+07	   75.2552	   15.4148	   2.51171	3.37964e+07	   75.0756	   15.4404	   2.53657	3.30647e+07	   75.0894	   15.5921	   2.68418	1.16242e+08	   75.2602	    15.459	   2.55474	3.76971e+07	   75.1654	   15.4276	   2.52414	3.10346e+07	   75.0825	   15.5162	   2.61037	7.04568e+07	   75.1773	   15.5477	   2.64097	9.42464e+07	
         R10	   2926	   75.5369	   15.4718	   2.56717	4.93731e+07	     75.65	   15.4836	   2.57862	6.06094e+07	     75.65	     15.42	   2.51671	 1.9377e+07	   75.5418	   15.3899	   2.48748	4.74229e+07	   75.5935	   15.4777	    2.5729	5.49001e+07	     75.65	   15.4518	   2.54767	3.32416e+07	   75.5959	   15.4049	    2.5021	3.15218e+07	   75.5394	   15.4309	   2.52733	2.47833e+07	
         R10	   2927	   75.4173	   15.4731	   2.56838	4.97346e+07	   75.5369	   15.4718	   2.56717	4.96839e+07	   75.5418	   15.3899	   2.48748	4.53116e+07	   75.4146	   15.3927	   2.49017	4.51603e+07	   75.4771	   15.4724	   2.56778	4.96478e+07	   75.5394	   15.4309	   2.52733	2.35791e+07	   75.4782	   15.3913	   2.48883	4.52125e+07	   75.4159	   15.4329	   2.52928	2.27486e+07	
         R10	   2928	   75.4268	   15.5533	   2.64642	9.31114e+07	   75.5387	   15.5494	   2.64263	9.26796e+07	   75.5369	   15.4718	   2.56717	5.01142e+07	   75.4173	   15.4731	   2.56838	4.86038e+07	   75.4828	   15.5513	   2.64452	9.28815e+07	   75.5378	   15.5106	    2.6049	7.09938e+07	   75.4771	   15.4724	   2.56778	 4.9354e+07	    75.422	   15.5132	    2.6074	7.03044e+07	
         R10	   2929	   75.4147	   15.6255	   2.71673	1.01742e+08	   75.5367	   15.6204	   2.71179	1.04192e+08	   75.5387	   15.5494	   2.64263	9.20326e+07	   75.4268	   15.5533	   2.64642	9.19546e+07	   75.4757	    15.623	   2.71426	1.02945e+08	   75.5377	   15.5849	   2.67721	9.80337e+07	   75.4828	   15.5513	   2.64452	9.19215e+07	   75.4208	   15.5894	   2.68157	9.68373e+07	
         R10	   2930	   75.4097	   15.6919	    2.7813	8.54724e+07	   75.5345	   15.6925	   2.78185	9.04581e+07	   75.5367	   15.6204	   2.71179	1.04503e+08	   75.4147	   15.6255	   2.71673	1.02955e+08	   75.4721	   15.6922	   2.78158	8.78928e+07	   75.5356	   15.6565	   2.74682	9.72303e+07	   75.4757	    15.623	   2.71426	 1.0366e+08	   75.4122	   15.6587	   2.74902	9.41943e+07	
         R10	   2931	   75.4123	   15.7644	   2.85185	 4.8495e+07	   75.5322	   15.7651	   2.85251	 4.9976e+07	   75.5345	   15.6925	   2.78185	8.89907e+07	   75.4097	   15.6919	    2.7813	8.67635e+07	   75.4722	   15.7647	   2.85218	4.90529e+07	   75.5334	   15.7288	   2.81718	6.80892e+07	   75.4721	   15.6922	   2.78158	8.78372e+07	    75.411	   15.7281	   2.81658	6.70123e+07	
         R10	   2932	   75.4039	   15.8404	   2.92583	4.05697e+07	   75.5317	   15.8397	   2.92508	4.40654e+07	   75.5322	   15.7651	   2.85251	4.74037e+07	   75.4123	   15.7644	   2.85185	4.35563e+07	   75.4678	   15.8401	   2.92546	4.22373e+07	    75.532	   15.8024	    2.8888	2.25967e+07	   75.4722	   15.7647	   2.85218	4.53926e+07	   75.4081	   15.8024	   2.88884	1.79309e+07	
         R10	   2933	    74.623	   15.4925	   2.58728	5.27292e+07	    74.375	   15.5055	   2.59991	1.22857e+08	    74.375	   15.7109	   2.79982	 4.3729e+07	    74.634	   15.7019	   2.79105	1.04385e+08	    74.499	    15.499	    2.5936	 8.6711e+07	    74.375	   15.6082	   2.69986	8.26526e+07	   74.5045	   15.7064	   2.79543	7.33147e+07	   74.6285	   15.5972	   2.68916	7.81414e+07	
         R10	   2934	   75.2526	   15.7008	   2.78992	 8.8005e+07	   75.4097	   15.6919	    2.7813	8.17406e+07	   75.4147	   15.6255	   2.71673	1.00717e+08	   75.2588	   15.6308	   2.72182	9.07629e+07	   75.3312	   15.6963	   2.78561	8.47874e+07	   75.4122	   15.6587	   2.74902	9.11803e+07	   75.3368	   15.6281	   2.71927	9.56978e+07	   75.2557	   15.6658	   2.75587	8.93276e+07	
         R10	   2935	   74.8842	   15.6049	   2.69665	8.23524e+07	   74.8583	   15.4683	   2.56373	6.37584e+07	    74.623	   15.4925	   2.58728	 5.4032e+07	    74.634	   15.7019	   2.79105	1.18567e+08	   74.8713	   15.5366	   2.63019	6.76809e+07	   74.7407	   15.4804	    2.5755	 5.8643e+07	   74.6285	   15.5972	   2.68916	 8.5885e+07	   74.7591	   15.6534	   2.74385	9.41383e+07	
         R10	   2936	   74.8842	   15.6049	   2.69665	1.17463e+08	   74.8855	   15.7754	   2.86255	3.26275e+07	   75.0838	   15.7613	   2.84885	5.93002e+07	   75.0894	   15.5921	   2.68418	9.71159e+07	   74.8848	   15.6901	    2.7796	7.31569e+07	   74.9846	   15.7684	    2.8557	4.50726e+07	   75.0866	   15.6767	   2.76651	7.81065e+07	   74.9868	   15.5985	   2.69041	 1.0709e+08	
         R10	   2937	   75.4173	   15.4731	   2.56838	4.62136e+07	   75.4146	   15.3927	   2.49017	4.59708e+07	   75.2552	   15.4148	   2.51171	2.56418e+07	   75.2652	   15.5033	   2.59777	7.21727e+07	   75.4159	   15.4329	   2.52928	1.93923e+07	   75.3349	   15.4037	   2.50094	3.42774e+07	   75.2602	    15.459	   2.55474	3.29623e+07	   75.3412	   15.4882	   2.58308	5.87542e+07	
         R10	   2938	   75.2588	   15.6308	   2.72182	1.00515e+08	   75.4147	   15.6255	   2.71673	1.01414e+08	   75.4268	   15.5533	   2.64642	9.32423e+07	   75.3138	   15.5638	   2.65665	9.29722e+07	   75.3368	   15.6281	   2.71927	1.00901e+08	   75.4208	   15.5894	   2.68157	9.73027e+07	   75.3703	   15.5585	   2.65153	9.29794e+07	   75.2863	   15.5973	   2.68923	9.65933e+07	
         R10	   2939	   75.2652	   15.5033	   2.59777	7.09546e+07	   75.0894	   15.5921	   2.68418	7.15639e+07	   75.2588	   15.6308	   2.72182	1.04766e+08	   75.3138	   15.5638	   2.65665	8.53187e+07	   75.1773	   15.5477	   2.64097	7.05839e+07	   75.1741	   15.6114	     2.703	8.62812e+07	   75.2863	   15.5973	   2.68923	9.48859e+07	   75.2895	   15.5335	   2.62721	7.79823e+07	
         R10	   2940	   75.4268	   15.5533	   2.64642	9.35988e+07	   75.4173	   15.4731	   2.56838	4.58783e+07	   75.2652	   15.5033	   2.59777	7.40171e+07	   75.3138	   15.5638	   2.65665	9.31164e+07	    75.422	   15.5132	    2.6074	6.95207e+07	   75.3412	   15.4882	   2.58308	5.99383e+07	   75.2895	   15.5335	   2.62721	8.33152e+07	   75.3703	   15.5585	   2.65153	9.30695e+07	
         R10	   2941	   75.2526	   15.7008	   2.78992	8.77776e+07	   75.2588	   15.6308	   2.72182	1.00571e+08	   75.0894	   15.5921	   2.68418	1.06078e+08	   75.0838	   15.7613	   2.84885	7.55796e+07	   75.2557	   15.6658	   2.75587	9.32876e+07	   75.1741	   15.6114	     2.703	 1.0212e+08	   75.0866	   15.6767	   2.76651	 8.8727e+07	   75.1682	    15.731	   2.81938	7.67519e+07	
         R10	   2942	    75.253	   15.8272	   2.91294	4.88115e+07	   75.4039	   15.8404	   2.92583	4.46834e+07	   75.4123	   15.7644	   2.85185	3.94516e+07	   75.2981	   15.7625	   2.85004	6.58314e+07	   75.3284	   15.8338	   2.91939	4.65853e+07	   75.4081	   15.8024	   2.88884	2.10564e+07	   75.3552	   15.7635	   2.85095	5.16422e+07	   75.2756	   15.7949	   2.88149	2.31603e+07	
         R10	   2943	   75.2526	   15.7008	   2.78992	8.85905e+07	   75.0838	   15.7613	   2.84885	4.10844e+07	    75.253	   15.8272	   2.91294	4.72816e+07	   75.2981	   15.7625	   2.85004	4.32229e+07	   75.1682	    15.731	   2.81938	5.94917e+07	   75.1684	   15.7943	    2.8809	 3.4232e+07	   75.2756	   15.7949	   2.88149	1.60623e+07	   75.2754	   15.7316	   2.81998	6.49596e+07	
         R10	   2944	   75.4123	   15.7644	   2.85185	5.11231e+07	   75.4097	   15.6919	    2.7813	8.53206e+07	   75.2526	   15.7008	   2.78992	8.99788e+07	   75.2981	   15.7625	   2.85004	4.05241e+07	    75.411	   15.7281	   2.81658	6.72321e+07	   75.3312	   15.6963	   2.78561	8.74717e+07	   75.2754	   15.7316	   2.81998	6.28604e+07	   75.3552	   15.7635	   2.85095	4.45175e+07	
         R10	   2945	     75.65	     15.42	   2.51671	1.85506e+07	     75.65	   15.3588	   2.45717	8.39775e+07	   75.5418	   15.3899	   2.48748	 4.6617e+07	     75.65	   15.3894	   2.48694	4.62608e+07	   75.5959	   15.3743	   2.47233	6.45004e+07	   75.5959	   15.4049	    2.5021	2.90696e+07	       N/A	       N/A	       N/A	        N/A	       N/A	       N/A	       N/A	        N/A	
         R10	   2946	   74.8842	   15.6049	   2.69665	1.11648e+08	    74.634	   15.7019	   2.79105	7.36646e+07	   74.8855	   15.7754	   2.86255	3.37662e+07	   74.7591	   15.6534	   2.74385	8.85801e+07	   74.7598	   15.7387	    2.8268	5.33955e+07	   74.8848	   15.6901	    2.7796	6.82188e+07	       N/A	       N/A	       N/A	        N/A	       N/A	       N/A	       N/A	        N/A	
         R10	   2947	   74.9219	   13.8584	       2.4	8.30877e+07	   74.9213	      13.6	       2.4	1.72702e+08	   74.6542	      13.6	       2.4	1.71325e+08	    74.655	   13.8762	       2.4	9.91507e+07	   74.9216	   13.7292	       2.4	4.73412e+07	   74.7878	      13.6	       2.4	1.71866e+08	   74.6546	   13.7381	       2.4	3.66474e+07	   74.7884	   13.8673	       2.4	9.06631e+07	
         R10	   2948	   75.1768	   13.8455	       2.4	 7.3345e+07	   75.1763	      13.6	       2.4	1.73295e+08	   74.9213	      13.6	       2.4	 1.7306e+08	   74.9219	   13.8584	       2.4	8.00948e+07	   75.1766	   13.7227	       2.4	5.08576e+07	   75.0488	      13.6	       2.4	1.73174e+08	   74.9216	   13.7292	       2.4	4.73633e+07	   75.0493	   13.8519	       2.4	7.65781e+07	
         R10	   2949	   75.4184	   13.8353	       2.4	6.77474e+07	   75.4192	      13.6	       2.4	1.72951e+08	   75.1763	      13.6	       2.4	1.73135e+08	   75.1768	   13.8455	       2.4	7.47729e+07	   75.4188	   13.7176	       2.4	5.51386e+07	   75.2978	      13.6	       2.4	1.72992e+08	   75.1766	   13.7227	       2.4	5.09511e+07	   75.2976	   13.8404	       2.4	7.12354e+07	
         R10	   2950	     75.65	   13.8398	       2.4	7.79771e+07	     75.65	      13.6	       2.4	1.74612e+08	   75.4192	      13.6	       2.4	1.74178e+08	   75.4184	   13.8353	       2.4	 6.8714e+07	     75.65	   13.7199	       2.4	5.32133e+07	   75.5346	      13.6	       2.4	1.74323e+08	   75.4188	   13.7176	       2.4	5.69767e+07	   75.5342	   13.8376	       2.4	7.33102e+07	
         R10	   2951	     75.65	   14.0447	       2.4	1.23277e+08	     75.65	   13.8398	       2.4	7.75211e+07	   75.4184	   13.8353	       2.4	6.66961e+07	   75.4195	   14.0461	       2.4	 1.3981e+08	     75.65	   13.9423	       2.4	9.22818e+07	   75.5342	   13.8376	       2.4	7.15729e+07	    75.419	   13.9407	       2.4	1.02194e+08	   75.5348	   14.0454	       2.4	1.29999e+08	
         R10	   2952	   75.4967	   14.2158	       2.4	7.23084e+07	     75.65	   14.2147	       2.4	8.34682e+07	     75.65	   14.0447	       2.4	1.16255e+08	   75.4195	   14.0461	       2.4	9.20088e+07	   75.5733	   14.2153	       2.4	7.55901e+07	     75.65	   14.1297	       2.4	9.44915e+07	   75.5348	   14.0454	       2.4	1.03489e+08	   75.4581	    14.131	       2.4	8.19162e+07	
         R10	   2953	   75.5322	   14.3482	       2.4	7.68901e+07	     75.65	   14.3498	       2.4	7.22413e+07	     75.65	   14.2147	       2.4	7.16053e+07	   75.4967	   14.2158	       2.4	9.45296e+07	   75.5911	    14.349	       2.4	6.99461e+07	     75.65	   14.2823	       2.4	4.43376e+07	   75.5733	   14.2153	       2.4	8.25979e+07	   75.5144	    14.282	       2.4	3.04675e+07	
         R10	   2954	   75.5497	     14.45	       2.4	1.65577e+08	     75.65	     14.45	       2.4	1.73146e+08	     75.65	   14.3498	       2.4	5.73893e+07	   75.5322	   14.3482	       2.4	5.22657e+07	   75.5999	     14.45	       2.4	1.69332e+08	     75.65	   14.3999	       2.4	 1.1234e+08	   75.5911	    14.349	       2.4	5.46344e+07	    75.541	   14.3991	       2.4	1.04795e+08	
         R10	   2955	    75.268	   14.2785	       2.4	2.15904e+07	   75.2673	     14.45	       2.4	 1.5928e+08	   75.4222	     14.45	       2.4	1.55753e+08	    75.374	   14.3152	       2.4	3.91799e+07	   75.2677	   14.3643	       2.4	7.22235e+07	   75.3448	     14.45	       2.4	1.57516e+08	   75.3981	   14.3826	       2.4	9.62592e+07	    75.321	   14.2969	       2.4	1.74348e+07	
         R10	   2956	   75.0876	   14.2531	       2.4	5.84587e+07	   75.0852	     14.45	       2.4	1.56508e+08	   75.2673	     14.45	       2.4	 1.5754e+08	    75.268	   14.2785	       2.4	2.20242e+07	   75.0864	   14.3515	       2.4	5.32631e+07	   75.1763	     14.45	       2.4	1.56898e+08	   75.2677	   14.3643	       2.4	7.04348e+07	   75.1778	   14.2658	       2.4	3.73058e+07	
         R10	   2957	   74.8755	    14.221	       2.4	7.88732e+07	   74.8758	     14.45	       2.4	1.47736e+08	   75.0852	     14.45	       2.4	1.55513e+08	   75.0876	   14.2531	       2.4	5.44003e+07	   74.8756	   14.3355	       2.4	4.11198e+07	   74.9805	     14.45	       2.4	1.51523e+08	   75.0864	   14.3515	       2.4	5.05807e+07	   74.9815	    14.237	       2.4	6.49206e+07	
         R10	   2958	   74.6334	   14.1993	       2.4	 9.3155e+07	    74.639	     14.45	       2.4	1.37767e+08	   74.8758	     14.45	       2.4	1.48477e+08	   74.8755	    14.221	       2.4	7.49202e+07	   74.6362	   14.3246	       2.4	2.50818e+07	   74.7574	     14.45	       2.4	1.43039e+08	   74.8756	   14.3355	       2.4	3.88057e+07	   74.7544	   14.2101	       2.4	8.40305e+07	
         R10	   2959	    74.375	   14.1802	       2.4	8.77832e+07	    74.375	     14.45	       2.4	1.01314e+08	    74.639	     14.45	       2.4	1.37773e+08	   74.6334	   14.1993	       2.4	 9.2331e+07	    74.375	   14.3151	       2.4	2.33862e+07	    74.507	     14.45	       2.4	1.19539e+08	   74.6362	   14.3246	       2.4	2.43806e+07	   74.5042	   14.1897	       2.4	 8.8518e+07	
         R10	   2960	    74.655	   13.8762	       2.4	9.99056e+07	   74.6542	      13.6	       2.4	1.72675e+08	    74.375	      13.6	       2.4	1.39414e+08	    74.375	   13.8968	       2.4	9.25813e+07	   74.6546	   13.7381	       2.4	3.87913e+07	   74.5146	      13.6	       2.4	1.56044e+08	    74.375	   13.7484	       2.4	3.30139e+07	    74.515	   13.8865	       2.4	9.53702e+07	
         R10	   2961	   75.4195	   14.0461	       2.4	1.35147e+08	   75.4184	   13.8353	       2.4	6.19958e+07	   75.1768	   13.8455	       2.4	7.42296e+07	   75.1846	   14.0651	       2.4	1.21455e+08	    75.419	   13.9407	       2.4	9.71775e+07	   75.2976	   13.8404	       2.4	6.80679e+07	   75.1807	   13.9553	       2.4	9.63002e+07	   75.3021	   14.0556	       2.4	1.28284e+08	
         R10	   2962	    75.374	   14.3152	       2.4	 6.9842e+07	   75.4222	     14.45	       2.4	1.56354e+08	   75.5322	   14.3482	       2.4	7.45164e+07	   75.4967	   14.2158	       2.4	9.34874e+07	   75.3981	   14.3826	       2.4	1.02236e+08	   75.4772	   14.3991	       2.4	1.13785e+08	   75.5144	    14.282	       2.4	2.92533e+07	   75.4353	   14.2655	       2.4	4.29318e+07	
         R10	   2963	    75.268	   14.2785	       2.4	7.66628e+07	    75.374	   14.3152	       2.4	5.08296e+07	   75.4967	   14.2158	       2.4	9.10573e+07	   75.4195	   14.0461	       2.4	9.67488e+07	    75.321	   14.2969	       2.4	5.88029e+07	   75.4353	   14.2655	       2.4	5.84193e+07	   75.4581	    14.131	       2.4	9.31706e+07	   75.3438	   14.1623	       2.4	8.49223e+07	
         R10	   2964	   75.0876	   14.2531	       2.4	5.12853e+07	    75.268	   14.2785	       2.4	6.78625e+07	   75.4195	   14.0461	       2.4	9.11925e+07	   75.1846	   14.0651	       2.4	1.23136e+08	   75.1778	   14.2658	       2.4	5.82903e+07	   75.3438	   14.1623	       2.4	7.71932e+07	   75.3021	   14.0556	       2.4	1.06897e+08	   75.1361	   14.1591	       2.4	8.04507e+07	
         R10	   2965	   74.8755	    14.221	       2.4	7.30801e+07	   75.0876	   14.2531	       2.4	4.97962e+07	   75.1846	   14.0651	       2.4	1.23236e+08	   74.9876	   14.0228	       2.4	1.04701e+08	   74.9815	    14.237	       2.4	6.03032e+07	   75.1361	   14.1591	       2.4	 8.2858e+07	   75.0861	    14.044	       2.4	1.13834e+08	   74.9315	   14.1219	       2.4	8.76257e+07	
         R10	   2966	    74.655	   13.8762	       2.4	1.03183e+08	    74.375	   13.8968	       2.4	1.08412e+08	    74.375	   14.1802	       2.4	8.97591e+07	   74.6334	   14.1993	       2.4	8.69935e+07	    74.515	   13.8865	       2.4	1.05466e+08	    74.375	   14.0385	       2.4	9.59712e+07	   74.5042	   14.1897	       2.4	8.74196e+07	   74.6442	   14.0377	       2.4	9.49613e+07	
         R10	   2967	   74.9876	   14.0228	       2.4	1.31105e+08	   75.1846	   14.0651	       2.4	1.22046e+08	   75.1768	   13.8455	       2.4	7.06405e+07	   74.9219	   13.8584	       2.4	 7.5199e+07	   75.0861	    14.044	       2.4	1.26413e+08	   75.1807	   13.9553	       2.4	9.43856e+07	   75.0493	   13.8519	       2.4	7.28477e+07	   74.9547	   13.9406	       2.4	9.96011e+07	
         R10	   2968	   74.8755	    14.221	       2.4	8.88225e+07	   74.9876	   14.0228	       2.4	1.20881e+08	   74.9219	   13.8584	       2.4	9.29468e+07	    74.655	   13.8762	       2.4	1.04906e+08	   74.9315	   14.1219	       2.4	1.02771e+08	   74.9547	   13.9406	       2.4	1.04957e+08	   74.7884	   13.8673	       2.4	9.77724e+07	   74.7652	   14.0486	       2.4	9.55828e+07	
         R10	   2969	   75.4222	     14.45	       2.4	1.60506e+08	   75.5497	     14.45	       2.4	1.64013e+08	   75.5322	   14.3482	       2.4	5.02092e+07	    75.486	     14.45	       2.4	1.62183e+08	    75.541	   14.3991	       2.4	1.03864e+08	   75.4772	   14.3991	       2.4	1.02421e+08	       N/A	       N/A	       N/A	        N/A	       N/A	       N/A	       N/A	        N/A	
         R10	   2970	   74.8755	    14.221	       2.4	8.80663e+07	    74.655	   13.8762	       2.4	1.00154e+08	   74.6334	   14.1993	       2.4	8.68512e+07	   74.7652	   14.0486	       2.4	9.40118e+07	   74.6442	   14.0377	       2.4	9.32988e+07	   74.7544	   14.2101	       2.4	8.74152e+07	       N/A	       N/A	       N/A	        N/A	       N/A	       N/A	       N/A	        N/A	
         R10	   2971	   74.8666	   14.6828	       2.4	7.01844e+07	   74.8758	     14.45	       2.4	1.47799e+08	    74.639	     14.45	       2.4	1.47286e+08	   74.6314	   14.7141	       2.4	9.02329e+07	   74.8712	   14.5664	       2.4	4.15268e+07	   74.7574	     14.45	       2.4	1.47395e+08	   74.6352	    14.582	       2.4	3.25872e+07	    74.749	   14.6984	       2.4	8.00303e+07	
         R10	   2972	   75.0786	   14.6489	       2.4	4.83032e+07	   75.0852	     14.45	       2.4	1.48972e+08	   74.8758	     14.45	       2.4	1.47729e+08	   74.8666	   14.6828	       2.4	6.81009e+07	   75.0819	   14.5494	       2.4	5.44327e+07	   74.9805	     14.45	       2.4	1.48273e+08	   74.8712	   14.5664	       2.4	 4.0578e+07	   74.9726	   14.6658	       2.4	5.69875e+07	
         R10	   2973	   75.2601	   14.6204	       2.4	2.69251e+07	   75.2673	     14.45	       2.4	1.51815e+08	   75.0852	     14.45	       2.4	1.49024e+08	   75.0786	   14.6489	       2.4	 4.3392e+07	   75.2637	   14.5352	       2.4	 6.8219e+07	   75.1763	     14.45	       2.4	1.50406e+08	   75.0819	   14.5494	       2.4	5.38585e+07	   75.1693	   14.6346	       2.4	3.33966e+07	
         R10	   2974	   75.4145	   14.5914	       2.4	2.48253e+07	   75.4222	     14.45	       2.4	 1.5784e+08	   75.2673	     14.45	       2.4	1.53154e+08	   75.2601	   14.6204	       2.4	1.96095e+07	   75.4183	   14.5207	       2.4	8.37552e+07	   75.3448	     14.45	       2.4	 1.5539e+08	   75.2637	   14.5352	       2.4	6.94342e+07	   75.3373	   14.6059	       2.4	1.83028e+07	
         R10	   2975	   75.5426	   14.5656	       2.4	3.64021e+07	   75.5497	     14.45	       2.4	1.61041e+08	   75.4222	     14.45	       2.4	1.56771e+08	   75.4145	   14.5914	       2.4	1.32575e+07	   75.5462	   14.5078	       2.4	9.34827e+07	    75.486	     14.45	       2.4	1.58868e+08	   75.4183	   14.5207	       2.4	8.21421e+07	   75.4785	   14.5785	       2.4	2.47439e+07	
         R10	   2976	     75.65	   14.5579	       2.4	4.24632e+07	     75.65	     14.45	       2.4	 1.6471e+08	   75.5497	     14.45	       2.4	1.61288e+08	   75.5426	   14.5656	       2.4	3.50248e+07	     75.65	   14.5039	       2.4	9.80127e+07	   75.5999	     14.45	       2.4	1.62979e+08	   75.5462	   14.5078	       2.4	9.41771e+07	   75.5963	   14.5617	       2.4	3.86508e+07	
         R10	   2977	     75.65	   14.6624	       2.4	5.46937e+07	     75.65	   14.5579	       2.4	5.05077e+07	   75.5426	   14.5656	       2.4	5.17569e+07	   75.5562	   14.6714	       2.4	6.17941e+07	     75.65	   14.6101	       2.4	2.48798e+07	   75.5963	   14.5617	       2.4	5.11233e+07	   75.5494	   14.6185	       2.4	2.83005e+07	   75.6031	   14.6669	       2.4	 5.8084e+07	
         R10	   2978	   75.5545	    14.768	       2.4	9.93052e+07	     75.65	   14.7635	       2.4	9.89465e+07	     75.65	   14.6624	       2.4	5.52125e+07	   75.5562	   14.6714	       2.4	6.27632e+07	   75.6022	   14.7657	       2.4	9.89564e+07	     75.65	   14.7129	       2.4	7.60017e+07	   75.6031	   14.6669	       2.4	5.88839e+07	   75.5553	   14.7197	       2.4	7.82685e+07	
         R10	   2979	   75.5518	   14.8632	       2.4	 1.1193e+08	     75.65	   14.8613	       2.4	1.14142e+08	     75.65	   14.7635	       2.4	9.95246e+07	   75.5545	    14.768	       2.4	9.63398e+07	   75.6009	   14.8623	       2.4	1.12994e+08	     75.65	   14.8124	       2.4	1.06271e+08	   75.6022	   14.7657	       2.4	9.77859e+07	   75.5531	   14.8156	       2.4	1.04093e+08	
         R10	   2980	   75.5528	   14.9548	       2.4	9.49091e+07	     75.65	   14.9557	       2.4	1.00856e+08	     75.65	   14.8613	       2.4	1.12285e+08	   75.5518	   14.8632	       2.4	1.16398e+08	   75.6014	   14.9553	       2.4	9.78813e+07	     75.65	   14.9085	       2.4	1.06544e+08	   75.6009	   14.8623	       2.4	1.14306e+08	   75.5523	    14.909	       2.4	1.05539e+08	
         R10	   2981	   75.5581	   15.0476	       2.4	 6.1551e+07	     75.65	   15.0468	       2.4	6.23685e+07	     75.65	   14.9557	       2.4	1.00236e+08	   75.5528	   14.9548	       2.4	9.88034e+07	    75.604	   15.0472	       2.4	6.17331e+07	     75.65	   15.0013	       2.4	 8.0795e+07	   75.6014	   14.9553	       2.4	9.95145e+07	   75.5554	   15.0012	       2.4	8.00752e+07	
         R10	   2982	   75.5655	   15.1311	       2.4	2.34109e+07	     75.65	   15.1346	       2.4	 2.5729e+07	     75.65	   15.0468	       2.4	6.27559e+07	   75.5581	   15.0476	       2.4	5.57771e+07	   75.6077	   15.1329	       2.4	 2.4546e+07	     75.65	   15.0907	       2.4	3.56348e+07	    75.604	   15.0472	       2.4	5.91983e+07	   75.5618	   15.0894	       2.4	 3.2188e+07	
         R10	   2983	   75.5631	   15.2215	       2.4	1.04734e+08	     75.65	    15.219	       2.4	9.48997e+07	     75.65	   15.1346	       2.4	 2.4736e+07	   75.5655	   15.1311	       2.4	2.27251e+07	   75.6066	   15.2202	       2.4	  9.981e+07	     75.65	   15.1768	       2.4	5.53939e+07	   75.6077	   15.1329	       2.4	 2.3678e+07	   75.5643	   15.1763	       2.4	5.85783e+07	
         R10	   2984	   75.5691	      15.3	       2.4	1.98443e+08	     75.65	      15.3	       2.4	1.99423e+08	     75.65	    15.219	       2.4	 9.4816e+07	   75.5631	   15.2215	       2.4	1.04085e+08	   75.6096	      15.3	       2.4	1.98894e+08	     75.65	   15.2595	       2.4	1.46711e+08	   75.6066	   15.2202	       2.4	9.94371e+07	   75.5661	   15.2607	       2.4	1.51015e+08	
         R10	   2985	   75.4484	   15.1681	       2.4	5.44595e+07	   75.4545	      15.3	       2.4	1.95325e+08	   75.5691	      15.3	       2.4	2.01321e+08	   75.5631	   15.2215	       2.4	1.02248e+08	   75.4515	    15.234	       2.4	1.23655e+08	   75.5118	      15.3	       2.4	1.98301e+08	   75.5661	   15.2607	       2.4	1.51374e+08	   75.5058	   15.1948	       2.4	7.80346e+07	
         R10	   2986	   75.2981	   15.0981	       2.4	 3.1794e+07	   75.3061	      15.3	       2.4	1.99292e+08	   75.4545	      15.3	       2.4	1.95713e+08	   75.4484	   15.1681	       2.4	5.23129e+07	   75.3021	    15.199	       2.4	8.98472e+07	   75.3803	      15.3	       2.4	1.97416e+08	   75.4515	    15.234	       2.4	1.22269e+08	   75.3733	   15.1331	       2.4	2.51927e+07	
         R10	   2987	   75.1176	   15.0875	       2.4	4.43338e+07	    75.124	      15.3	       2.4	2.08786e+08	   75.3061	      15.3	       2.4	1.98524e+08	   75.2981	   15.0981	       2.4	3.31829e+07	   75.1208	   15.1938	       2.4	8.68865e+07	   75.2151	      15.3	       2.4	2.03315e+08	   75.3021	    15.199	       2.4	9.16378e+07	   75.2079	   15.0928	       2.4	3.59375e+07	
         R10	   2988	   74.9099	   15.0901	       2.4	2.91024e+07	   74.9081	      15.3	       2.4	 1.9605e+08	    75.124	      15.3	       2.4	2.09743e+08	   75.1176	   15.0875	       2.4	4.42452e+07	    74.909	    15.195	       2.4	9.11575e+07	    75.016	      15.3	       2.4	2.02512e+08	   75.1208	   15.1938	       2.4	8.87876e+07	   75.0137	   15.0888	       2.4	3.58051e+07	
         R10	   2989	   74.6498	   15.0178	       2.4	1.02157e+08	   74.6584	      15.3	       2.4	2.00988e+08	   74.9081	      15.3	       2.4	1.97586e+08	   74.9099	   15.0901	       2.4	2.65285e+07	   74.6541	   15.1589	       2.4	5.46287e+07	   74.7833	      15.3	       2.4	1.99286e+08	    74.909	    15.195	       2.4	9.07198e+07	   74.7798	   15.0539	       2.4	6.26495e+07	
         R10	   2990	    74.375	   15.0167	       2.4	5.18878e+07	    74.375	      15.3	       2.4	 1.4416e+08	   74.6584	      15.3	       2.4	2.04989e+08	   74.6498	   15.0178	       2.4	9.75282e+07	    74.375	   15.1583	       2.4	5.68525e+07	   74.5167	      15.3	       2.4	1.73448e+08	   74.6541	   15.1589	       2.4	6.18641e+07	   74.5124	   15.0172	       2.4	7.12509e+07	
         R10	   2991	   74.6314	   14.7141	       2.4	8.80871e+07	    74.639	     14.45	       2.4	1.47272e+08	    74.375	     14.45	       2.4	1.11836e+08	    74.375	   14.7333	       2.4	7.25349e+07	   74.6352	    14.582	       2.4	3.26662e+07	    74.507	     14.45	       2.4	1.29487e+08	    74.375	   14.5917	       2.4	3.58373e+07	   74.5032	   14.7237	       2.4	7.87671e+07	
         R10	   2992	   75.1077	   14.8596	       2.4	1.21746e+08	   75.0786	   14.6489	       2.4	4.98758e+07	   74.8666	   14.6828	       2.4	7.20711e+07	   74.8995	   14.8852	       2.4	1.03073e+08	   75.0931	   14.7542	       2.4	8.35742e+07	   74.9726	   14.6658	       2.4	6.01132e+07	   74.8831	    14.784	       2.4	8.64024e+07	   75.0036	   14.8724	       2.4	1.12185e+08	
         R10	   2993	   75.2857	   14.8189	       2.4	1.13916e+08	   75.2601	   14.6204	       2.4	3.36404e+07	   75.0786	   14.6489	       2.4	4.71923e+07	   75.1077	   14.8596	       2.4	1.20944e+08	   75.2729	   14.7196	       2.4	7.21796e+07	   75.1693	   14.6346	       2.4	3.95636e+07	   75.0931	   14.7542	       2.4	8.18012e+07	   75.1967	   14.8392	       2.4	1.17187e+08	
         R10	   2994	   75.4356	   14.7085	       2.4	9.49504e+07	   75.4145	   14.5914	       2.4	5.35073e+07	   75.2601	   14.6204	       2.4	3.65913e+07	   75.2857	   14.8189	       2.4	1.31736e+08	    75.425	   14.6499	       2.4	4.57799e+07	   75.3373	   14.6059	       2.4	4.00433e+07	   75.2729	   14.7196	       2.4	8.40542e+07	   75.3607	   14.7637	       2.4	1.02848e+08	
         R10	   2995	   75.4295	   14.9708	       2.4	1.12541e+08	   75.5528	   14.9548	       2.4	8.91499e+07	   75.5518	   14.8632	       2.4	1.11529e+08	   75.4287	   14.8752	       2.4	9.17153e+07	   75.4911	   14.9628	       2.4	1.00655e+08	   75.5523	    14.909	       2.4	 1.0024e+08	   75.4902	   14.8692	       2.4	1.01046e+08	   75.4291	    14.923	       2.4	1.01465e+08	
         R10	   2996	   74.6314	   14.7141	       2.4	 9.2779e+07	    74.375	   14.7333	       2.4	8.72684e+07	    74.375	   15.0167	       2.4	1.11916e+08	   74.6498	   15.0178	       2.4	7.70757e+07	   74.5032	   14.7237	       2.4	8.84891e+07	    74.375	    14.875	       2.4	9.81742e+07	   74.5124	   15.0172	       2.4	9.44064e+07	   74.6406	   14.8659	       2.4	 8.4492e+07	
         R10	   2997	   74.8995	   14.8852	       2.4	1.00627e+08	   74.8666	   14.6828	       2.4	7.94268e+07	   74.6314	   14.7141	       2.4	9.67749e+07	   74.6498	   15.0178	       2.4	8.33428e+07	   74.8831	    14.784	       2.4	8.81675e+07	    74.749	   14.6984	       2.4	8.80868e+07	   74.6406	   14.8659	       2.4	8.93689e+07	   74.7746	   14.9515	       2.4	8.76877e+07	
         R10	   2998	   74.8995	   14.8852	       2.4	 9.9618e+07	   74.9099	   15.0901	       2.4	4.96104e+07	   75.1176	   15.0875	       2.4	4.22113e+07	   75.1077	   14.8596	       2.4	1.08187e+08	   74.9047	   14.9876	       2.4	7.34963e+07	   75.0137	   15.0888	       2.4	4.54945e+07	   75.1127	   14.9736	       2.4	7.24695e+07	   75.0036	   14.8724	       2.4	1.03568e+08	
         R10	   2999	   75.1077	   14.8596	       2.4	 1.1145e+08	   75.1176	   15.0875	       2.4	4.00064e+07	   75.2981	   15.0981	       2.4	4.92728e+07	   75.2857	   14.8189	       2.4	1.13503e+08	   75.1127	   14.9736	       2.4	7.42851e+07	   75.2079	   15.0928	       2.4	4.42824e+07	   75.2919	   14.9585	       2.4	7.91786e+07	   75.1967	   14.8392	       2.4	1.11652e+08	
         R10	   3000	   75.5562	   14.6714	       2.4	5.98974e+07	   75.5426	   14.5656	       2.4	 4.9541e+07	   75.4145	   14.5914	       2.4	4.43018e+07	   75.4356	   14.7085	       2.4	9.04046e+07	   75.5494	   14.6185	       2.4	2.22305e+07	   75.4785	   14.5785	       2.4	4.43062e+07	    75.425	   14.6499	       2.4	4.41163e+07	   75.4959	   14.6899	       2.4	7.48733e+07	
         R10	   3001	   75.5545	    14.768	       2.4	9.78525e+07	   75.5562	   14.6714	       2.4	5.78503e+07	   75.4356	   14.7085	       2.4	7.93223e+07	   75.4716	   14.7826	       2.4	1.12245e+08	   75.5553	   14.7197	       2.4	7.70039e+07	   75.4959	   14.6899	       2.4	6.79604e+07	   75.4536	   14.7455	       2.4	9.14565e+07	    75.513	   14.7753	       2.4	1.04496e+08	
         R10	   3002	   75.4287	   14.8752	       2.4	1.19754e+08	   75.5518	   14.8632	       2.4	1.10516e+08	   75.5545	    14.768	       2.4	1.01361e+08	   75.4716	   14.7826	       2.4	9.52068e+07	   75.4902	   14.8692	       2.4	1.14151e+08	   75.5531	   14.8156	       2.4	1.05181e+08	    75.513	   14.7753	       2.4	9.79451e+07	   75.4501	   14.8289	       2.4	1.06739e+08	
         R10	   3003	   75.4356	   14.7085	       2.4	7.33102e+07	   75.2857	   14.8189	       2.4	8.51988e+07	   75.4287	   14.8752	       2.4	1.09598e+08	   75.4716	   14.7826	       2.4	9.31783e+07	   75.3607	   14.7637	       2.4	7.59932e+07	   75.3572	   14.8471	       2.4	9.55949e+07	   75.4501	   14.8289	       2.4	 9.9975e+07	   75.4536	   14.7455	       2.4	 8.1629e+07	
         R10	   3004	   75.4295	   14.9708	       2.4	1.04135e+08	   75.4287	   14.8752	       2.4	1.09007e+08	   75.2857	   14.8189	       2.4	1.23857e+08	   75.2981	   15.0981	       2.4	5.71589e+07	   75.4291	    14.923	       2.4	1.06501e+08	   75.3572	   14.8471	       2.4	1.16246e+08	   75.2919	   14.9585	       2.4	8.58027e+07	   75.3638	   15.0344	       2.4	7.57788e+07	
         R10	   3005	   75.4295	   14.9708	       2.4	9.49442e+07	   75.2981	   15.0981	       2.4	3.01955e+07	   75.4484	   15.1681	       2.4	4.99111e+07	   75.4747	   15.0625	       2.4	4.80151e+07	   75.3638	   15.0344	       2.4	5.81987e+07	   75.3733	   15.1331	       2.4	2.87198e+07	   75.4615	   15.1153	       2.4	2.06754e+07	   75.4521	   15.0166	       2.4	 7.0783e+07	
         R10	   3006	   75.5581	   15.0476	       2.4	6.72204e+07	   75.5528	   14.9548	       2.4	9.67456e+07	   75.4295	   14.9708	       2.4	  1.057e+08	   75.4747	   15.0625	       2.4	3.90637e+07	   75.5554	   15.0012	       2.4	8.10603e+07	   75.4911	   14.9628	       2.4	1.00776e+08	   75.4521	   15.0166	       2.4	7.10942e+07	   75.5164	   15.0551	       2.4	5.25847e+07	
         R10	   3007	   75.4484	   15.1681	       2.4	5.58697e+07	   75.5655	   15.1311	       2.4	2.03586e+07	   75.5581	   15.0476	       2.4	5.71615e+07	   75.4747	   15.0625	       2.4	6.12878e+07	    75.507	   15.1496	       2.4	3.60168e+07	   75.5618	   15.0894	       2.4	3.09114e+07	   75.5164	   15.0551	       2.4	5.80652e+07	   75.4615	   15.1153	       2.4	2.55698e+07	
         R10	   3008	   75.5655	   15.1311	       2.4	2.02479e+07	   75.4484	   15.1681	       2.4	4.94357e+07	   75.5631	   15.2215	       2.4	1.05143e+08	    75.507	   15.1496	       2.4	3.28642e+07	   75.5058	   15.1948	       2.4	7.63693e+07	   75.5643	   15.1763	       2.4	5.84628e+07	       N/A	       N/A	       N/A	        N/A	       N/A	       N/A	       N/A	        N/A	
         R10	   3009	   74.8995	   14.8852	       2.4	9.38157e+07	   74.6498	   15.0178	       2.4	6.08617e+07	   74.9099	   15.0901	       2.4	5.11359e+07	   74.7746	   14.9515	       2.4	7.56458e+07	   74.7798	   15.0539	       2.4	5.59538e+07	   74.9047	   14.9876	       2.4	7.06617e+07	       N/A	       N/A	       N/A	        N/A	       N/A	       N/A	       N/A	        N/A	
         R10	   3010	   74.8548	    16.113	     3.191	8.30141e+07	   74.8758	   15.9164	   2.99973	1.22533e+08	    74.639	   15.9164	   2.99973	1.20318e+08	   74.6296	   16.1237	    3.2014	1.06386e+08	   74.8653	   16.0147	   3.09536	2.33888e+07	   74.7574	   15.9164	   2.99973	1.21274e+08	   74.6343	     16.02	   3.10056	1.54258e+07	   74.7422	   16.1183	    3.1962	 9.4691e+07	
         R10	   3011	    75.058	   16.0772	   3.15615	6.00762e+07	   75.0852	   15.9164	   2.99973	1.31987e+08	   74.8758	   15.9164	   2.99973	1.22756e+08	   74.8548	    16.113	     3.191	8.11499e+07	   75.0716	   15.9968	   3.07794	4.17874e+07	   74.9805	   15.9164	   2.99973	 1.2732e+08	   74.8653	   16.0147	   3.09536	2.12432e+07	   74.9564	   16.0951	   3.17357	6.93709e+07	
         R10	   3012	   75.2433	   16.0436	   3.12351	2.73844e+07	   75.2673	   15.9164	   2.99973	  1.358e+08	   75.0852	   15.9164	   2.99973	1.31441e+08	    75.058	   16.0772	   3.15615	5.61215e+07	   75.2553	     15.98	   3.06162	 5.5809e+07	   75.1763	   15.9164	   2.99973	1.33576e+08	   75.0716	   15.9968	   3.07794	3.90058e+07	   75.1507	   16.0604	   3.13983	4.13314e+07	
         R10	   3013	   75.3985	   16.0266	   3.10692	1.33419e+07	   75.4222	   15.9164	   2.99973	1.41737e+08	   75.2673	   15.9164	   2.99973	1.35978e+08	   75.2433	   16.0436	   3.12351	   2.91e+07	   75.4103	   15.9715	   3.05332	6.82151e+07	   75.3448	   15.9164	   2.99973	1.38822e+08	   75.2553	     15.98	   3.06162	5.67829e+07	   75.3209	   16.0351	   3.11521	2.06066e+07	
         R10	   3014	   75.5187	   16.0045	   3.08545	2.37179e+07	   75.5497	   15.9164	   2.99973	1.44475e+08	   75.4222	   15.9164	   2.99973	1.41604e+08	   75.3985	   16.0266	   3.10692	1.54437e+07	   75.5342	   15.9604	   3.04259	8.21633e+07	    75.486	   15.9164	   2.99973	1.42979e+08	   75.4103	   15.9715	   3.05332	6.79924e+07	   75.4586	   16.0155	   3.09619	1.39159e+07	
         R10	   3015	   75.6489	   15.9959	    3.0771	3.12864e+07	     75.65	   15.9164	   2.99973	1.49434e+08	   75.5497	   15.9164	   2.99973	1.44732e+08	   75.5187	   16.0045	   3.08545	2.77403e+07	   75.6494	   15.9561	   3.03841	8.82952e+07	   75.5999	   15.9164	   2.99973	1.47047e+08	   75.5342	   15.9604	   3.04259	8.33138e+07	   75.5838	   16.0002	   3.08128	 2.9241e+07	
         R10	   3016	   75.7393	   16.0032	   3.08415	2.71409e+07	   75.7534	   15.9164	   2.99973	1.46733e+08	     75.65	   15.9164	   2.99973	1.48931e+08	   75.6489	   15.9959	    3.0771	3.06427e+07	   75.7464	   15.9598	   3.04194	8.19976e+07	   75.7017	   15.9164	   2.99973	1.47812e+08	   75.6494	   15.9561	   3.03841	8.74678e+07	   75.6941	   15.9995	   3.08063	2.83163e+07	
         R10	   3017	   75.8471	   15.9968	   3.07796	2.89693e+07	   75.8546	   15.9164	   2.99973	1.45715e+08	   75.7534	   15.9164	   2.99973	1.47338e+08	   75.7393	   16.0032	   3.08415	2.25568e+07	   75.8509	   15.9566	   3.03884	8.40554e+07	    75.804	   15.9164	   2.99973	1.46405e+08	   75.7464	   15.9598	   3.04194	8.22549e+07	   75.7932	        16	   3.08106	2.57627e+07	
         R10	   3018	   75.9387	   15.9848	   3.06633	3.76573e+07	   75.9535	   15.9164	   2.99973	1.40835e+08	   75.8546	   15.9164	   2.99973	1.45584e+08	   75.8471	   15.9968	   3.07796	2.49206e+07	   75.9461	   15.9506	   3.03303	8.76253e+07	   75.9041	   15.9164	   2.99973	1.43139e+08	   75.8509	   15.9566	   3.03884	8.29495e+07	   75.8929	   15.9908	   3.07214	3.10491e+07	
         R10	   3019	    76.048	   16.0022	   3.08325	4.30376e+07	   76.0502	   15.9164	   2.99973	1.26231e+08	   75.9535	   15.9164	   2.99973	1.41036e+08	   75.9387	   15.9848	   3.06633	 4.8525e+07	   76.0491	   15.9593	   3.04149	7.64183e+07	   76.0019	   15.9164	   2.99973	1.33495e+08	   75.9461	   15.9506	   3.03303	 8.9586e+07	   75.9934	   15.9935	   3.07479	4.27356e+07	
         R10	   3020	   76.1448	   15.9912	   3.07251	4.13067e+07	   76.1447	   15.9164	   2.99973	1.17469e+08	   76.0502	   15.9164	   2.99973	1.26888e+08	    76.048	   16.0022	   3.08325	3.90894e+07	   76.1447	   15.9538	   3.03612	7.53735e+07	   76.0974	   15.9164	   2.99973	1.21377e+08	   76.0491	   15.9593	   3.04149	7.60634e+07	   76.0964	   15.9967	   3.07788	4.01794e+07	
         R10	   3021	   76.2352	   15.9884	   3.06976	5.20745e+07	   76.2369	   15.9164	   2.99973	1.04091e+08	   76.1447	   15.9164	   2.99973	1.16468e+08	   76.1448	   15.9912	   3.07251	 4.3456e+07	    76.236	   15.9524	   3.03474	7.41718e+07	   76.1908	   15.9164	   2.99973	1.08988e+08	   76.1447	   15.9538	   3.03612	7.47529e+07	     76.19	   15.9898	   3.07114	4.75204e+07	
         R10	   3022	   76.3237	   15.9844	   3.06589	6.67726e+07	   76.3268	   15.9164	   2.99973	1.01955e+08	   76.2369	   15.9164	   2.99973	1.03889e+08	   76.2352	   15.9884	   3.06976	5.21805e+07	   76.3252	   15.9504	   3.03281	8.24738e+07	   76.2818	   15.9164	   2.99973	1.00521e+08	    76.236	   15.9524	   3.03474	7.41988e+07	   76.2794	   15.9864	   3.06783	5.92313e+07	
         R10	   3023	   76.4133	   15.9823	   3.06386	4.38189e+07	   76.4145	   15.9164	   2.99973	1.63391e+08	   76.3268	   15.9164	   2.99973	1.09649e+08	   76.3237	   15.9844	   3.06589	6.93092e+07	   76.4139	   15.9493	   3.03179	8.88358e+07	   76.3707	   15.9164	   2.99973	 1.3194e+08	   76.3252	   15.9504	   3.03281	8.78548e+07	   76.3685	   15.9833	   3.06487	4.93268e+07	
         R10	   3024	      76.5	   15.9761	   3.05784	1.53019e+08	      76.5	   15.9164	   2.99973	1.73946e+08	   76.4145	   15.9164	   2.99973	1.63487e+08	   76.4133	   15.9823	   3.06386	7.14182e+07	      76.5	   15.9462	   3.02878	3.71712e+07	   76.4573	   15.9164	   2.99973	1.64557e+08	   76.4139	   15.9493	   3.03179	1.01597e+08	   76.4567	   15.9792	   3.06085	7.20048e+07	
         R10	   3025	      76.5	   16.0453	   3.12513	7.13633e+07	      76.5	   15.9761	   3.05784	7.56607e+07	   76.4133	   15.9823	   3.06386	1.18895e+08	   76.4167	   16.0504	   3.13008	2.04212e+07	      76.5	   16.0107	   3.09148	7.18172e+07	   76.4567	   15.9792	   3.06085	3.22076e+07	    76.415	   16.0163	   3.09697	5.92437e+07	   76.4584	   16.0478	   3.12761	4.38261e+07	
         R10	   3026	   76.4035	   16.1302	    3.2078	4.48316e+07	      76.5	   16.1239	   3.20162	 9.3274e+07	      76.5	   16.0453	   3.12513	7.19474e+07	   76.4167	   16.0504	   3.13008	  5.514e+07	   76.4518	   16.1271	   3.20471	6.48329e+07	      76.5	   16.0846	   3.16338	8.22865e+07	   76.4584	   16.0478	   3.12761	5.11327e+07	   76.4101	   16.0903	   3.16894	4.50639e+07	
         R10	   3027	   76.3428	   16.2177	    3.2929	3.25549e+07	      76.5	   16.2119	    3.2873	1.10149e+08	      76.5	   16.1239	   3.20162	9.73135e+07	   76.4035	   16.1302	    3.2078	6.39482e+07	   76.4214	   16.2148	    3.2901	5.33437e+07	      76.5	   16.1679	   3.24446	1.03727e+08	   76.4518	   16.1271	   3.20471	 7.0482e+07	   76.3731	    16.174	   3.25035	4.00552e+07	
         R10	   3028	   76.3382	   16.3206	   3.39306	5.03833e+07	      76.5	   16.3094	   3.38216	1.02255e+08	      76.5	   16.2119	    3.2873	1.09576e+08	   76.3428	   16.2177	    3.2929	5.29637e+07	   76.4191	    16.315	   3.38761	4.45877e+07	      76.5	   16.2607	   3.33473	1.05653e+08	   76.4214	   16.2148	    3.2901	5.96279e+07	   76.3405	   16.2692	   3.34298	3.87823e+07	
         R10	   3029	   76.3248	   16.4246	    3.4942	 9.6293e+07	      76.5	   16.4164	   3.48621	 8.8266e+07	      76.5	   16.3094	   3.38216	9.88176e+07	   76.3382	   16.3206	   3.39306	4.90448e+07	   76.4124	   16.4205	    3.4902	3.50102e+07	      76.5	   16.3629	   3.43418	8.69014e+07	   76.4191	    16.315	   3.38761	3.96362e+07	   76.3315	   16.3726	   3.44363	6.09876e+07	
         R10	   3030	   76.3313	   16.5328	   3.59945	7.79536e+07	      76.5	   16.5328	   3.59945	9.81308e+07	      76.5	   16.4164	   3.48621	9.67258e+07	   76.3248	   16.4246	    3.4942	7.06853e+07	   76.4156	   16.5328	   3.59945	7.05165e+07	      76.5	   16.4746	   3.54283	1.55933e+07	   76.4124	   16.4205	    3.4902	3.50671e+07	    76.328	   16.4787	   3.54682	6.64145e+07	
         R10	   3031	   76.1457	   16.5328	   3.59945	1.08179e+08	   76.3313	   16.5328	   3.59945	7.73901e+07	   76.3248	   16.4246	    3.4942	3.34788e+07	   76.1312	   16.4171	   3.48691	5.16469e+07	   76.2385	   16.5328	   3.59945	8.15343e+07	    76.328	   16.4787	   3.54682	5.00788e+07	    76.228	   16.4208	   3.49055	3.86728e+07	   76.1385	   16.4749	   3.54318	5.92357e+07	
         R10	   3032	   75.9366	   16.4079	     3.478	3.51081e+07	   75.9433	   16.5328	   3.59945	1.36871e+08	   76.1457	   16.5328	   3.59945	1.05986e+08	   76.1312	   16.4171	   3.48691	5.05654e+07	   75.9399	   16.4704	   3.53873	6.12845e+07	   76.0445	   16.5328	   3.59945	1.20909e+08	   76.1385	   16.4749	   3.54318	5.69316e+07	   76.0339	   16.4125	   3.48246	4.19287e+07	
         R10	   3033	   75.7161	    16.402	   3.47219	3.56526e+07	    75.724	   16.5328	   3.59945	1.49289e+08	   75.9433	   16.5328	   3.59945	1.36123e+08	   75.9366	   16.4079	     3.478	3.94882e+07	   75.7201	   16.4674	   3.53582	6.26353e+07	   75.8336	   16.5328	   3.59945	1.42567e+08	   75.9399	   16.4704	   3.53873	6.14252e+07	   75.8263	    16.405	    3.4751	3.71068e+07	
         R10	   3034	   75.4909	    16.399	   3.46931	3.53615e+07	   75.4879	   16.5328	   3.59945	1.45818e+08	    75.724	   16.5328	   3.59945	1.48766e+08	   75.7161	    16.402	   3.47219	3.65655e+07	   75.4894	   16.4659	   3.53438	6.13406e+07	   75.6059	   16.5328	   3.59945	1.47225e+08	   75.7201	   16.4674	   3.53582	   6.23e+07	   75.6035	   16.4005	   3.47075	3.59542e+07	
         R10	   3035	   75.2321	   16.3784	   3.44929	4.92374e+07	   75.2349	   16.5328	   3.59945	1.36353e+08	   75.4879	   16.5328	   3.59945	1.45165e+08	   75.4909	    16.399	   3.46931	3.03062e+07	   75.2335	   16.4556	   3.52437	4.76695e+07	   75.3614	   16.5328	   3.59945	1.40744e+08	   75.4894	   16.4659	   3.53438	5.94986e+07	   75.3615	   16.3887	    3.4593	3.96967e+07	
         R10	   3036	   74.9194	   16.3258	   3.39811	9.65256e+07	   74.9651	   16.5328	   3.59945	1.31152e+08	   75.2349	   16.5328	   3.59945	1.36451e+08	   75.2321	   16.3784	   3.44929	4.72041e+07	   74.9423	   16.4293	   3.49878	2.15943e+07	      75.1	   16.5328	   3.59945	1.33697e+08	   75.2335	   16.4556	   3.52437	4.56482e+07	   75.0757	   16.3521	    3.4237	7.05654e+07	
         R10	   3037	   74.6487	   16.3286	   3.40081	9.66808e+07	   74.6785	   16.5328	   3.59945	1.23533e+08	   74.9651	   16.5328	   3.59945	 1.3175e+08	   74.9194	   16.3258	   3.39811	9.11994e+07	   74.6636	   16.4307	   3.50013	2.02472e+07	   74.8218	   16.5328	   3.59945	1.27528e+08	   74.9423	   16.4293	   3.49878	2.13324e+07	   74.7841	   16.3272	   3.39946	9.36655e+07	
         R10	   3038	    74.375	   16.3175	   3.39002	7.22416e+07	    74.375	   16.5328	   3.59945	7.23322e+07	   74.6785	   16.5328	   3.59945	1.24441e+08	   74.6487	   16.3286	   3.40081	9.58266e+07	    74.375	   16.4251	   3.49474	2.40819e+07	   74.5267	   16.5328	   3.59945	9.82789e+07	   74.6636	   16.4307	   3.50013	2.12496e+07	   74.5119	   16.3231	   3.39542	8.27447e+07	
         R10	   3039	   74.6296	   16.1237	    3.2014	1.04671e+08	    74.639	   15.9164	   2.99973	1.21287e+08	    74.375	   15.9164	   2.99973	8.29627e+07	    74.375	   16.1121	   3.19011	9.49357e+07	   74.6343	     16.02	   3.10056	1.25957e+07	    74.507	   15.9164	   2.99973	1.02084e+08	    74.375	   16.0142	   3.09492	 2.8962e+07	   74.5023	   16.1179	   3.19576	9.74171e+07	
         R10	   3040	   75.2807	   16.1671	   3.24366	 1.1871e+08	   75.2433	   16.0436	   3.12351	3.34078e+07	    75.058	   16.0772	   3.15615	7.53907e+07	   75.1114	   16.2013	    3.2769	1.03456e+08	    75.262	   16.1054	   3.18358	7.05441e+07	   75.1507	   16.0604	   3.13983	5.30931e+07	   75.0847	   16.1392	   3.21653	 8.3467e+07	   75.1961	   16.1842	   3.26028	1.10298e+08	
         R10	   3041	   75.4334	   16.1296	   3.20722	9.19415e+07	   75.3985	   16.0266	   3.10692	4.24606e+07	   75.2433	   16.0436	   3.12351	3.70711e+07	   75.2807	   16.1671	   3.24366	 1.1721e+08	   75.4159	   16.0781	   3.15707	5.37778e+07	   75.3209	   16.0351	   3.11521	3.90792e+07	    75.262	   16.1054	   3.18358	7.03558e+07	    75.357	   16.1484	   3.22544	1.04037e+08	
         R10	   3042	   75.5878	   16.0948	   3.17329	6.39478e+07	   75.5187	   16.0045	   3.08545	4.07491e+07	   75.3985	   16.0266	   3.10692	4.35472e+07	   75.4334	   16.1296	   3.20722	8.73997e+07	   75.5533	   16.0496	   3.12937	3.69232e+07	   75.4586	   16.0155	   3.09619	4.09417e+07	   75.4159	   16.0781	   3.15707	5.07613e+07	   75.5106	   16.1122	   3.19026	7.47031e+07	
         R10	   3043	    75.859	   16.0821	   3.16093	6.89628e+07	   75.8471	   15.9968	   3.07796	6.65366e+07	   75.7393	   16.0032	   3.08415	5.06202e+07	   75.7361	   16.0877	   3.16636	6.21957e+07	   75.8531	   16.0394	   3.11944	 4.9162e+07	   75.7932	        16	   3.08106	5.84893e+07	   75.7377	   16.0454	   3.12526	4.12326e+07	   75.7976	   16.0849	   3.16365	 6.5451e+07	
         R10	   3044	   75.9525	   16.0655	   3.14479	5.52207e+07	   75.9387	   15.9848	   3.06633	7.08164e+07	   75.8471	   15.9968	   3.07796	6.76674e+07	    75.859	   16.0821	   3.16093	6.87732e+07	   75.9456	   16.0252	   3.10556	5.33565e+07	   75.8929	   15.9908	   3.07214	6.92377e+07	   75.8531	   16.0394	   3.11944	4.99184e+07	   75.9058	   16.0738	   3.15286	6.09432e+07	
         R10	   3045	   76.1467	   16.0743	   3.15333	7.76573e+07	   76.1448	   15.9912	   3.07251	9.68361e+07	    76.048	   16.0022	   3.08325	7.63845e+07	   76.0741	   16.0714	   3.15057	7.17799e+07	   76.1458	   16.0327	   3.11292	8.05531e+07	   76.0964	   15.9967	   3.07788	 8.6446e+07	   76.0611	   16.0368	   3.11691	6.98712e+07	   76.1104	   16.0728	   3.15195	7.46924e+07	
         R10	   3046	   76.2333	   16.0641	   3.14348	7.33938e+07	   76.2352	   15.9884	   3.06976	1.07971e+08	   76.1448	   15.9912	   3.07251	9.61024e+07	   76.1467	   16.0743	   3.15333	7.30704e+07	   76.2342	   16.0262	   3.10662	8.76822e+07	     76.19	   15.9898	   3.07114	  1.019e+08	   76.1458	   16.0327	   3.11292	7.78952e+07	     76.19	   16.0692	   3.14841	7.28141e+07	
         R10	   3047	   76.3243	   16.0502	   3.12991	5.54146e+07	   76.3237	   15.9844	   3.06589	1.14427e+08	   76.2352	   15.9884	   3.06976	1.10065e+08	   76.2333	   16.0641	   3.14348	7.13122e+07	    76.324	   16.0173	    3.0979	8.39041e+07	   76.2794	   15.9864	   3.06783	1.12234e+08	   76.2342	   16.0262	   3.10662	8.79198e+07	   76.2788	   16.0572	   3.13669	 6.3176e+07	
         R10	   3048	   76.4167	   16.0504	   3.13008	2.79985e+07	   76.4133	   15.9823	   3.06386	9.39207e+07	   76.3237	   15.9844	   3.06589	1.08101e+08	   76.3243	   16.0502	   3.12991	6.62427e+07	    76.415	   16.0163	   3.09697	5.65816e+07	   76.3685	   15.9833	   3.06487	1.00997e+08	    76.324	   16.0173	    3.0979	8.59982e+07	   76.3705	   16.0503	      3.13	4.40089e+07	
         R10	   3049	   76.1539	    16.313	    3.3856	8.31574e+07	   76.3382	   16.3206	   3.39306	4.62553e+07	   76.3428	   16.2177	    3.2929	4.91292e+07	   76.1948	   16.2389	   3.31352	9.75553e+07	    76.246	   16.3168	   3.38933	6.43874e+07	   76.3405	   16.2692	   3.34298	3.55746e+07	   76.2688	   16.2283	   3.30321	7.20867e+07	   76.1744	   16.2759	   3.34956	7.88807e+07	
         R10	   3050	   76.1312	   16.4171	   3.48691	7.31918e+07	   76.3248	   16.4246	    3.4942	7.70839e+07	   76.3382	   16.3206	   3.39306	4.67954e+07	   76.1539	    16.313	    3.3856	7.78416e+07	    76.228	   16.4208	   3.49055	7.50488e+07	   76.3315	   16.3726	   3.44363	4.73453e+07	    76.246	   16.3168	   3.38933	6.12209e+07	   76.1426	    16.365	   3.43626	6.51178e+07	
         R10	   3051	   75.7306	   16.2889	   3.36222	9.85092e+07	   75.7161	    16.402	   3.47219	4.44386e+07	   75.9366	   16.4079	     3.478	5.22094e+07	   75.9652	   16.2789	   3.35242	 1.0123e+08	   75.7233	   16.3455	    3.4172	6.45389e+07	   75.8263	    16.405	    3.4751	 4.8023e+07	   75.9509	   16.3434	   3.41521	6.72113e+07	   75.8479	   16.2839	   3.35732	9.97379e+07	
         R10	   3052	   75.5199	   16.2631	   3.33709	 1.1715e+08	   75.4909	    16.399	   3.46931	3.83976e+07	   75.7161	    16.402	   3.47219	4.53156e+07	   75.7306	   16.2889	   3.36222	9.91123e+07	   75.5054	   16.3311	    3.4032	7.41042e+07	   75.6035	   16.4005	   3.47075	4.15893e+07	   75.7233	   16.3455	    3.4172	6.36958e+07	   75.6252	    16.276	   3.34965	1.07729e+08	
         R10	   3053	   74.6296	   16.1237	    3.2014	8.79928e+07	    74.375	   16.1121	   3.19011	7.83566e+07	    74.375	   16.3175	   3.39002	6.97832e+07	   74.6487	   16.3286	   3.40081	8.26667e+07	   74.5023	   16.1179	   3.19576	  8.182e+07	    74.375	   16.2148	   3.29007	7.32981e+07	   74.5119	   16.3231	   3.39542	7.62141e+07	   74.6392	   16.2261	   3.30111	8.47791e+07	
         R10	   3054	   74.8548	    16.113	     3.191	9.63806e+07	   74.6296	   16.1237	    3.2014	8.99557e+07	   74.6487	   16.3286	   3.40081	8.40298e+07	   74.9194	   16.3258	   3.39811	9.43832e+07	   74.7422	   16.1183	    3.1962	 9.2765e+07	   74.6392	   16.2261	   3.30111	 8.6172e+07	   74.7841	   16.3272	   3.39946	8.84135e+07	   74.8871	   16.2194	   3.29455	9.52139e+07	
         R10	   3055	   75.1114	   16.2013	    3.2769	1.08077e+08	    75.058	   16.0772	   3.15615	9.05942e+07	   74.8548	    16.113	     3.191	9.75579e+07	   74.9194	   16.3258	   3.39811	1.08724e+08	   75.0847	   16.1392	   3.21653	8.67513e+07	   74.9564	   16.0951	   3.17357	9.14315e+07	   74.8871	   16.2194	   3.29455	1.01331e+08	   75.0154	   16.2635	   3.33751	9.88319e+07	
         R10	   3056	   75.7361	   16.0877	   3.16636	5.93137e+07	   75.7393	   16.0032	   3.08415	5.16962e+07	   75.6489	   15.9959	    3.0771	4.81566e+07	   75.5878	   16.0948	   3.17329	6.97783e+07	   75.7377	   16.0454	   3.12526	3.95388e+07	   75.6941	   15.9995	   3.08063	4.94448e+07	   75.6183	   16.0453	    3.1252	3.51988e+07	   75.6619	   16.0912	   3.16983	6.44633e+07	
         R10	   3057	   76.0741	   16.0714	   3.15057	6.50518e+07	    76.048	   16.0022	   3.08325	7.39992e+07	   75.9525	   16.0655	   3.14479	7.62934e+07	   76.0058	   16.1319	   3.20943	9.61874e+07	   76.0611	   16.0368	   3.11691	6.62021e+07	   76.0003	   16.0339	   3.11402	7.16739e+07	   75.9792	   16.0987	   3.17711	8.29746e+07	     76.04	   16.1017	      3.18	7.94448e+07	
         R10	   3058	   76.2577	   16.1396	   3.21693	6.82274e+07	   76.2333	   16.0641	   3.14348	1.03042e+08	   76.1467	   16.0743	   3.15333	9.42077e+07	   76.1129	   16.1834	    3.2595	9.14002e+07	   76.2455	   16.1019	   3.18021	8.08375e+07	     76.19	   16.0692	   3.14841	9.78172e+07	   76.1298	   16.1288	   3.20641	8.94852e+07	   76.1853	   16.1615	   3.23822	7.88179e+07	
         R10	   3059	    75.898	   16.1725	   3.24894	1.00293e+08	   76.0058	   16.1319	   3.20943	1.05516e+08	   75.9525	   16.0655	   3.14479	6.71301e+07	    75.859	   16.0821	   3.16093	7.81523e+07	   75.9519	   16.1522	   3.22918	 9.9759e+07	   75.9792	   16.0987	   3.17711	8.39191e+07	   75.9058	   16.0738	   3.15286	7.21078e+07	   75.8785	   16.1273	   3.20494	  8.458e+07	
         R10	   3060	    75.898	   16.1725	   3.24894	1.03814e+08	    75.859	   16.0821	   3.16093	7.71808e+07	   75.7361	   16.0877	   3.16636	7.87009e+07	   75.7445	   16.1842	   3.26031	1.04685e+08	   75.8785	   16.1273	   3.20494	8.66195e+07	   75.7976	   16.0849	   3.16365	 7.7587e+07	   75.7403	   16.1359	   3.21334	8.82201e+07	   75.8213	   16.1784	   3.25463	1.03917e+08	
         R10	   3061	   76.1467	   16.0743	   3.15333	9.59107e+07	   76.0741	   16.0714	   3.15057	8.40773e+07	   76.0058	   16.1319	   3.20943	9.26855e+07	   76.1129	   16.1834	    3.2595	8.76854e+07	   76.1104	   16.0728	   3.15195	8.97641e+07	     76.04	   16.1017	      3.18	8.67472e+07	   76.0594	   16.1576	   3.23446	8.99502e+07	   76.1298	   16.1288	   3.20641	8.83011e+07	
         R10	   3062	   76.3243	   16.0502	   3.12991	8.96892e+07	   76.2333	   16.0641	   3.14348	1.01495e+08	   76.2577	   16.1396	   3.21693	6.64974e+07	   76.3301	   16.1107	   3.18878	5.50923e+07	   76.2788	   16.0572	   3.13669	9.54795e+07	   76.2455	   16.1019	   3.18021	7.85385e+07	   76.2939	   16.1252	   3.20286	5.93055e+07	   76.3272	   16.0804	   3.15935	7.13676e+07	
         R10	   3063	   76.4035	   16.1302	    3.2078	4.02706e+07	   76.4167	   16.0504	   3.13008	 5.8575e+07	   76.3243	   16.0502	   3.12991	9.48404e+07	   76.3301	   16.1107	   3.18878	5.29243e+07	   76.4101	   16.0903	   3.16894	4.57453e+07	   76.3705	   16.0503	      3.13	7.49745e+07	   76.3272	   16.0804	   3.15935	 7.2433e+07	   76.3668	   16.1205	   3.19829	4.19297e+07	
         R10	   3064	   76.2577	   16.1396	   3.21693	8.21846e+07	   76.3428	   16.2177	    3.2929	4.39439e+07	   76.4035	   16.1302	    3.2078	 7.0959e+07	   76.3301	   16.1107	   3.18878	 6.7937e+07	   76.3002	   16.1787	   3.25492	6.07447e+07	   76.3731	    16.174	   3.25035	4.98731e+07	   76.3668	   16.1205	   3.19829	6.21245e+07	   76.2939	   16.1252	   3.20286	7.41529e+07	
         R10	   3065	   76.1948	   16.2389	   3.31352	7.16585e+07	   76.3428	   16.2177	    3.2929	5.41297e+07	   76.2577	   16.1396	   3.21693	7.57075e+07	   76.1129	   16.1834	    3.2595	9.83106e+07	   76.2688	   16.2283	   3.30321	6.01742e+07	   76.3002	   16.1787	   3.25492	5.84278e+07	   76.1853	   16.1615	   3.23822	8.46584e+07	   76.1538	   16.2111	   3.28651	8.30232e+07	
         R10	   3066	   75.9652	   16.2789	   3.35242	1.00086e+08	   75.9366	   16.4079	     3.478	5.40943e+07	   76.1312	   16.4171	   3.48691	7.72739e+07	   76.1539	    16.313	    3.3856	 7.3807e+07	   75.9509	   16.3434	   3.41521	6.93161e+07	   76.0339	   16.4125	   3.48246	6.52667e+07	   76.1426	    16.365	   3.43626	6.20455e+07	   76.0595	   16.2959	   3.36901	8.68266e+07	
         R10	   3067	   75.9652	   16.2789	   3.35242	9.37057e+07	   76.1539	    16.313	    3.3856	8.61506e+07	   76.1948	   16.2389	   3.31352	  6.875e+07	   76.1129	   16.1834	    3.2595	9.76858e+07	   76.0595	   16.2959	   3.36901	8.92545e+07	   76.1744	   16.2759	   3.34956	7.20354e+07	   76.1538	   16.2111	   3.28651	8.17623e+07	    76.039	   16.2311	   3.30596	9.21441e+07	
         R10	   3068	   75.9652	   16.2789	   3.35242	9.88739e+07	   76.1129	   16.1834	    3.2595	9.42584e+07	   76.0058	   16.1319	   3.20943	9.59037e+07	    75.898	   16.1725	   3.24894	1.11989e+08	    76.039	   16.2311	   3.30596	9.34899e+07	   76.0594	   16.1576	   3.23446	9.41246e+07	   75.9519	   16.1522	   3.22918	1.03157e+08	   75.9316	   16.2257	   3.30068	1.02618e+08	
         R10	   3069	   75.7306	   16.2889	   3.36222	9.83323e+07	   75.9652	   16.2789	   3.35242	9.29052e+07	    75.898	   16.1725	   3.24894	1.05719e+08	   75.7445	   16.1842	   3.26031	 1.1244e+08	   75.8479	   16.2839	   3.35732	9.52849e+07	   75.9316	   16.2257	   3.30068	9.65946e+07	   75.8213	   16.1784	   3.25463	1.08754e+08	   75.7375	   16.2366	   3.31126	1.02767e+08	
         R10	   3070	   75.5199	   16.2631	   3.33709	9.90637e+07	   75.7306	   16.2889	   3.36222	9.75711e+07	   75.7445	   16.1842	   3.26031	1.11682e+08	   75.6229	   16.1742	   3.25058	1.02859e+08	   75.6252	    16.276	   3.34965	9.82801e+07	   75.7375	   16.2366	   3.31126	1.02516e+08	   75.6837	   16.1792	   3.25544	1.07123e+08	   75.5714	   16.2187	   3.29383	9.99369e+07	
         R10	   3071	   75.5878	   16.0948	   3.17329	8.08825e+07	   75.4334	   16.1296	   3.20722	1.00528e+08	   75.5199	   16.2631	   3.33709	1.06514e+08	   75.6229	   16.1742	   3.25058	 1.0493e+08	   75.5106	   16.1122	   3.19026	8.96022e+07	   75.4766	   16.1964	   3.27215	1.02701e+08	   75.5714	   16.2187	   3.29383	1.04698e+08	   75.6053	   16.1345	   3.21193	8.89002e+07	
         R10	   3072	   75.7445	   16.1842	   3.26031	1.03545e+08	   75.7361	   16.0877	   3.16636	7.66603e+07	   75.5878	   16.0948	   3.17329	7.15093e+07	   75.6229	   16.1742	   3.25058	1.09548e+08	   75.7403	   16.1359	   3.21334	8.69804e+07	   75.6619	   16.0912	   3.16983	7.38468e+07	   75.6053	   16.1345	   3.21193	8.78613e+07	   75.6837	   16.1792	   3.25544	1.06401e+08	
         R10	   3073	   75.5199	   16.2631	   3.33709	1.01199e+08	   75.4334	   16.1296	   3.20722	 9.7957e+07	   75.2807	   16.1671	   3.24366	8.83318e+07	   75.3437	    16.264	   3.33793	1.14522e+08	   75.4766	   16.1964	   3.27215	9.87616e+07	    75.357	   16.1484	   3.22544	9.29627e+07	   75.3122	   16.2155	    3.2908	9.99801e+07	   75.4318	   16.2636	   3.33751	1.07637e+08	
         R10	   3074	   75.2321	   16.3784	   3.44929	6.68547e+07	   75.4909	    16.399	   3.46931	3.12331e+07	   75.5199	   16.2631	   3.33709	 1.1674e+08	   75.3437	    16.264	   3.33793	 9.0696e+07	   75.3615	   16.3887	    3.4593	4.85916e+07	   75.5054	   16.3311	    3.4032	7.06934e+07	   75.4318	   16.2636	   3.33751	1.03358e+08	   75.2879	   16.3212	   3.39361	7.65673e+07	
         R10	   3075	   75.2807	   16.1671	   3.24366	9.89993e+07	   75.1114	   16.2013	    3.2769	 1.1684e+08	   75.2321	   16.3784	   3.44929	6.46469e+07	   75.3437	    16.264	   3.33793	9.98836e+07	   75.1961	   16.1842	   3.26028	1.07713e+08	   75.1717	   16.2898	   3.36309	8.67091e+07	   75.2879	   16.3212	   3.39361	7.81865e+07	   75.3122	   16.2155	    3.2908	9.68936e+07	
         R10	   3076	   75.6489	   15.9959	    3.0771	5.18766e+07	   75.5187	   16.0045	   3.08545	4.16863e+07	   75.5878	   16.0948	   3.17329	6.87211e+07	   75.5838	   16.0002	   3.08128	4.66124e+07	   75.5533	   16.0496	   3.12937	3.87237e+07	   75.6183	   16.0453	    3.1252	3.75401e+07	       N/A	       N/A	       N/A	        N/A	       N/A	       N/A	       N/A	        N/A	
         R10	   3077	    76.048	   16.0022	   3.08325	6.51596e+07	   75.9387	   15.9848	   3.06633	6.47772e+07	   75.9525	   16.0655	   3.14479	5.99194e+07	   75.9934	   15.9935	   3.07479	6.36551e+07	   75.9456	   16.0252	   3.10556	5.32526e+07	   76.0003	   16.0339	   3.11402	5.79968e+07	       N/A	       N/A	       N/A	        N/A	       N/A	       N/A	       N/A	        N/A	
         R10	   3078	   75.1114	   16.2013	    3.2769	1.10899e+08	   74.9194	   16.3258	   3.39811	8.70303e+07	   75.2321	   16.3784	   3.44929	6.14283e+07	   75.0154	   16.2635	   3.33751	 9.4079e+07	   75.0757	   16.3521	    3.4237	7.40365e+07	   75.1717	   16.2898	   3.36309	 8.2137e+07	       N/A	       N/A	       N/A	        N/A	       N/A	       N/A	       N/A	        N/A	
         R10	   3079	   73.0071	      15.3	       1.6	2.71663e+07	     72.25	      15.3	       1.6	3.79027e+07	     72.25	      15.3	       2.4	3.20889e+07	   73.0071	      15.3	       2.4	3.12093e+07	   72.6286	      15.3	       1.6	3.21498e+07	     72.25	      15.3	         2	3.48315e+07	   72.6286	      15.3	       2.4	2.82562e+07	   73.0071	      15.3	         2	2.75917e+07	
         R10	   3080	   73.6137	      15.3	       1.6	2.91933e+07	   73.0071	      15.3	       1.6	2.77359e+07	   73.0071	      15.3	       2.4	1.81111e+07	   73.6137	      15.3	       2.4	3.25805e+07	   73.3104	      15.3	       1.6	2.78922e+07	   73.0071	      15.3	         2	2.10145e+07	   73.3104	      15.3	       2.4	2.51994e+07	   73.6137	      15.3	         2	3.06225e+07	
         R10	   3081	   74.0696	      15.3	   2.01934	3.76434e+07	   74.0696	      15.3	       2.4	2.06472e+07	    74.375	      15.3	       2.4	3.94144e+07	    74.375	      15.3	   2.13333	2.77297e+07	   74.0696	      15.3	   2.20967	2.40357e+07	   74.2223	      15.3	       2.4	2.44368e+07	    74.375	      15.3	   2.26667	3.25435e+07	   74.2223	      15.3	   2.07633	3.24217e+07	
         R10	   3082	   74.0696	      15.3	   2.01934	2.79475e+07	    74.375	      15.3	   1.86667	3.30396e+07	    74.375	      15.3	       1.6	 3.0371e+07	   74.0696	      15.3	       1.6	2.78657e+07	   74.2223	      15.3	     1.943	2.95132e+07	    74.375	      15.3	   1.73333	3.10091e+07	   74.2223	      15.3	       1.6	2.88961e+07	   74.0696	      15.3	   1.80967	2.74681e+07	
         R10	   3083	   74.0696	      15.3	   2.01934	1.96792e+07	   74.0696	      15.3	       1.6	2.80263e+07	   73.6137	      15.3	       1.6	 2.7932e+07	   73.6137	      15.3	       2.4	2.26939e+07	   74.0696	      15.3	   1.80967	2.37613e+07	   73.8416	      15.3	       1.6	2.75657e+07	   73.6137	      15.3	         2	2.46158e+07	   73.8416	      15.3	   2.20967	2.11815e+07	
         R10	   3084	   74.0696	      15.3	   2.01934	 3.2276e+07	    74.375	      15.3	   2.13333	2.79745e+07	    74.375	      15.3	   1.86667	3.69965e+07	   74.2223	      15.3	   2.07633	2.93097e+07	    74.375	      15.3	         2	3.18418e+07	   74.2223	      15.3	     1.943	3.42112e+07	       N/A	       N/A	       N/A	        N/A	       N/A	       N/A	       N/A	        N/A	
         R10	   3085	   73.6137	      15.3	       2.4	2.15848e+07	   74.0696	      15.3	       2.4	3.66054e+07	   74.0696	      15.3	   2.01934	2.27297e+07	   73.8416	      15.3	       2.4	2.87525e+07	   74.0696	      15.3	   2.20967	2.80135e+07	   73.8416	      15.3	   2.20967	1.96524e+07	       N/A	       N/A	       N/A	        N/A	       N/A	       N/A	       N/A	        N/A	
         R10	   3086	    72.961	      15.3	         0	4.59819e+07	     72.25	      15.3	         0	4.05632e+07	     72.25	      15.3	       0.8	3.22475e+07	    72.986	      15.3	       0.8	3.55948e+07	   72.6055	      15.3	         0	4.17037e+07	     72.25	      15.3	       0.4	3.50204e+07	    72.618	      15.3	       0.8	3.38019e+07	   72.9735	      15.3	       0.4	4.04688e+07	
         R10	   3087	   73.6123	      15.3	         0	 2.5948e+07	    72.961	      15.3	         0	3.44957e+07	    72.986	      15.3	       0.8	 4.1816e+07	   73.5855	      15.3	       0.8	3.39527e+07	   73.2867	      15.3	         0	2.98541e+07	   72.9735	      15.3	       0.4	3.65309e+07	   73.2857	      15.3	       0.8	3.70579e+07	   73.5989	      15.3	       0.4	 2.9676e+07	
         R10	   3088	   74.0142	      15.3	  0.419023	2.74814e+07	   74.0485	      15.3	       0.8	3.05229e+07	    74.375	      15.3	       0.8	2.84563e+07	   74.3438	      15.3	  0.426322	2.72602e+07	   74.0313	      15.3	  0.609512	2.88178e+07	   74.2117	      15.3	       0.8	2.94272e+07	   74.3594	      15.3	  0.613161	2.78561e+07	    74.179	      15.3	  0.422673	2.72381e+07	
         R10	   3089	   74.3438	      15.3	  0.426322	2.76911e+07	    74.375	      15.3	       0.8	2.89192e+07	   74.6887	      15.3	       0.8	 2.7725e+07	   74.6494	      15.3	  0.459467	2.76983e+07	   74.3594	      15.3	  0.613161	2.82888e+07	   74.5318	      15.3	       0.8	2.82778e+07	    74.669	      15.3	  0.629734	2.76047e+07	   74.4966	      15.3	  0.442895	2.75918e+07	
         R10	   3090	   74.6494	      15.3	  0.459467	2.84111e+07	   74.6887	      15.3	       0.8	2.79516e+07	    74.983	      15.3	       0.8	2.79084e+07	    74.983	      15.3	  0.471679	2.83203e+07	    74.669	      15.3	  0.629734	2.80532e+07	   74.8358	      15.3	       0.8	2.78965e+07	    74.983	      15.3	   0.63584	 2.8101e+07	   74.8162	      15.3	  0.465573	2.81921e+07	
         R10	   3091	    74.983	      15.3	  0.471679	2.72466e+07	    74.983	      15.3	       0.8	2.79754e+07	   75.2579	      15.3	       0.8	2.85811e+07	   75.2411	      15.3	  0.455406	2.69976e+07	    74.983	      15.3	   0.63584	 2.7528e+07	   75.1204	      15.3	       0.8	2.82348e+07	   75.2495	      15.3	  0.627703	2.77801e+07	    75.112	      15.3	  0.463543	2.69111e+07	
         R10	   3092	   75.2411	      15.3	  0.455406	2.95263e+07	   75.2579	      15.3	       0.8	2.82543e+07	   75.5134	      15.3	       0.8	2.94059e+07	   75.5031	      15.3	  0.486008	2.84087e+07	   75.2495	      15.3	  0.627703	2.88066e+07	   75.3856	      15.3	       0.8	2.87494e+07	   75.5082	      15.3	  0.643004	 2.8864e+07	   75.3721	      15.3	  0.470707	2.88257e+07	
         R10	   3093	   75.5031	      15.3	  0.486008	2.68441e+07	   75.5134	      15.3	       0.8	2.91286e+07	   75.7495	      15.3	       0.8	2.94302e+07	   75.7322	      15.3	  0.552431	3.38186e+07	   75.5082	      15.3	  0.643004	2.79218e+07	   75.6314	      15.3	       0.8	2.91737e+07	   75.7409	      15.3	  0.676215	3.15926e+07	   75.6177	      15.3	  0.519219	3.01941e+07	
         R10	   3094	   75.7322	      15.3	  0.552431	3.05609e+07	   75.7495	      15.3	       0.8	2.95897e+07	   75.9662	      15.3	       0.8	2.98819e+07	   75.9608	      15.3	  0.582564	3.23605e+07	   75.7409	      15.3	  0.676215	3.00633e+07	   75.8578	      15.3	       0.8	2.96488e+07	   75.9635	      15.3	  0.691282	3.10983e+07	   75.8465	      15.3	  0.567497	3.13561e+07	
         R10	   3095	   75.9608	      15.3	  0.582564	3.22379e+07	   75.9662	      15.3	       0.8	2.98473e+07	   76.1635	      15.3	       0.8	3.05481e+07	   76.1385	      15.3	  0.567834	  3.356e+07	   75.9635	      15.3	  0.691282	 3.1014e+07	   76.0648	      15.3	       0.8	3.01706e+07	    76.151	      15.3	  0.683917	3.20519e+07	   76.0497	      15.3	  0.575199	3.27605e+07	
         R10	   3096	   76.1385	      15.3	  0.567834	3.20534e+07	   76.1635	      15.3	       0.8	3.06032e+07	   76.3415	      15.3	       0.8	3.10939e+07	   76.3447	      15.3	  0.636697	3.29818e+07	    76.151	      15.3	  0.683917	3.13282e+07	   76.2525	      15.3	       0.8	3.08218e+07	   76.3431	      15.3	  0.718348	3.20369e+07	   76.2416	      15.3	  0.602265	 3.2496e+07	
         R10	   3097	   76.3447	      15.3	  0.636697	3.19255e+07	   76.3415	      15.3	       0.8	 3.1133e+07	      76.5	      15.3	       0.8	3.12524e+07	      76.5	      15.3	  0.637669	3.13484e+07	   76.3431	      15.3	  0.718348	3.15284e+07	   76.4207	      15.3	       0.8	3.11304e+07	      76.5	      15.3	  0.718834	3.10888e+07	   76.4224	      15.3	  0.637183	3.16027e+07	
         R10	   3098	   76.3447	      15.3	  0.636697	3.18144e+07	      76.5	      15.3	  0.637669	3.11548e+07	      76.5	      15.3	  0.450225	3.22858e+07	   76.3052	      15.3	  0.436837	3.35775e+07	   76.4224	      15.3	  0.637183	 3.1448e+07	      76.5	      15.3	  0.543947	3.17003e+07	   76.4026	      15.3	  0.443531	3.29294e+07	    76.325	      15.3	  0.536767	3.26909e+07	
         R10	   3099	   76.3052	      15.3	  0.436837	3.38085e+07	      76.5	      15.3	  0.450225	3.23481e+07	      76.5	      15.3	  0.237669	3.29942e+07	    76.271	      15.3	  0.237031	3.94141e+07	   76.4026	      15.3	  0.443531	3.30613e+07	      76.5	      15.3	  0.343947	3.26535e+07	   76.3855	      15.3	   0.23735	3.61241e+07	   76.2881	      15.3	  0.336934	3.65483e+07	
         R10	   3100	    76.271	      15.3	  0.237031	3.89239e+07	      76.5	      15.3	  0.237669	3.09027e+07	      76.5	      15.3	         0	5.78477e+07	   76.2666	      15.3	         0	3.94834e+07	   76.3855	      15.3	   0.23735	3.47532e+07	      76.5	      15.3	  0.118834	4.42739e+07	   76.3833	      15.3	         0	4.72275e+07	   76.2688	      15.3	  0.118515	3.82344e+07	
         R10	   3101	   76.0351	      15.3	  0.261056	3.48337e+07	    76.271	      15.3	  0.237031	4.17976e+07	   76.2666	      15.3	         0	4.17231e+07	   75.9734	      15.3	         0	3.46196e+07	    76.153	      15.3	  0.249044	3.79306e+07	   76.2688	      15.3	  0.118515	4.07983e+07	     76.12	      15.3	         0	3.79251e+07	   76.0042	      15.3	  0.130528	3.41653e+07	
         R10	   3102	   73.6123	      15.3	         0	2.46613e+07	   73.5855	      15.3	       0.8	3.18012e+07	   74.0485	      15.3	       0.8	3.05961e+07	   74.0142	      15.3	  0.419023	2.73424e+07	   73.5989	      15.3	       0.4	 2.8148e+07	    73.817	      15.3	       0.8	3.11111e+07	   74.0313	      15.3	  0.609512	2.87853e+07	   73.8133	      15.3	  0.209512	 2.5962e+07	
         R10	   3103	   74.2039	      15.3	         0	2.13809e+07	   73.6123	      15.3	         0	2.88769e+07	   74.0142	      15.3	  0.419023	 2.9022e+07	   74.3438	      15.3	  0.426322	2.74444e+07	   73.9081	      15.3	         0	2.50989e+07	   73.8133	      15.3	  0.209512	2.89441e+07	    74.179	      15.3	  0.422673	 2.8212e+07	   74.2738	      15.3	  0.213161	2.43799e+07	
         R10	   3104	   74.7358	      15.3	         0	2.33216e+07	   74.2039	      15.3	         0	2.67847e+07	   74.3438	      15.3	  0.426322	2.91038e+07	   74.6494	      15.3	  0.459467	 2.7639e+07	   74.4699	      15.3	         0	2.48148e+07	   74.2738	      15.3	  0.213161	2.79003e+07	   74.4966	      15.3	  0.442895	2.82168e+07	   74.6926	      15.3	  0.229734	2.54307e+07	
         R10	   3105	   76.1385	      15.3	  0.567834	3.41559e+07	   76.3052	      15.3	  0.436837	3.40847e+07	    76.271	      15.3	  0.237031	3.87365e+07	   76.0351	      15.3	  0.261056	3.35646e+07	   76.2218	      15.3	  0.502336	3.40684e+07	   76.2881	      15.3	  0.336934	3.62795e+07	    76.153	      15.3	  0.249044	3.60981e+07	   76.0868	      15.3	  0.414445	3.37372e+07	
         R10	   3106	   75.9608	      15.3	  0.582564	3.21444e+07	   76.1385	      15.3	  0.567834	 3.4004e+07	   76.0351	      15.3	  0.261056	3.40802e+07	   75.8083	      15.3	  0.329547	3.35351e+07	   76.0497	      15.3	  0.575199	3.30096e+07	   76.0868	      15.3	  0.414445	 3.3829e+07	   75.9217	      15.3	  0.295301	3.37849e+07	   75.8846	      15.3	  0.456055	3.27174e+07	
         R10	   3107	   75.8083	      15.3	  0.329547	3.28214e+07	   76.0351	      15.3	  0.261056	3.58746e+07	   75.9734	      15.3	         0	3.31912e+07	   75.6206	      15.3	         0	3.23227e+07	   75.9217	      15.3	  0.295301	3.42116e+07	   76.0042	      15.3	  0.130528	3.44143e+07	    75.797	      15.3	         0	3.20099e+07	   75.7145	      15.3	  0.164773	3.12921e+07	
         R10	   3108	   75.6206	      15.3	         0	2.84536e+07	   75.5031	      15.3	  0.486008	2.81322e+07	   75.7322	      15.3	  0.552431	3.37107e+07	   75.8083	      15.3	  0.329547	3.16673e+07	   75.5619	      15.3	  0.243004	 2.8258e+07	   75.6177	      15.3	  0.519219	3.08229e+07	   75.7703	      15.3	  0.440989	3.25802e+07	   75.7145	      15.3	  0.164773	3.00291e+07	
         R10	   3109	   75.2081	      15.3	         0	2.59639e+07	   75.2411	      15.3	  0.455406	3.10324e+07	   75.5031	      15.3	  0.486008	2.92295e+07	   75.6206	      15.3	         0	2.74929e+07	   75.2246	      15.3	  0.227703	2.84887e+07	   75.3721	      15.3	  0.470707	2.99434e+07	   75.5619	      15.3	  0.243004	2.83385e+07	   75.4143	      15.3	         0	2.66812e+07	
         R10	   3110	   74.7358	      15.3	         0	2.41204e+07	    74.983	      15.3	  0.471679	 2.7485e+07	   75.2411	      15.3	  0.455406	2.74655e+07	   75.2081	      15.3	         0	2.53801e+07	   74.8594	      15.3	   0.23584	2.56891e+07	    75.112	      15.3	  0.463543	2.72844e+07	   75.2246	      15.3	  0.227703	2.61174e+07	    74.972	      15.3	         0	2.46049e+07	
         R10	   3111	   76.1385	      15.3	  0.567834	3.30606e+07	   76.3447	      15.3	  0.636697	3.30942e+07	   76.3052	      15.3	  0.436837	3.31776e+07	   76.2416	      15.3	  0.602265	3.30606e+07	    76.325	      15.3	  0.536767	3.31351e+07	   76.2218	      15.3	  0.502336	3.30938e+07	       N/A	       N/A	       N/A	        N/A	       N/A	       N/A	       N/A	        N/A	
         R10	   3112	   74.7358	      15.3	         0	2.67589e+07	   74.6494	      15.3	  0.459467	2.75403e+07	    74.983	      15.3	  0.471679	2.82707e+07	   74.6926	      15.3	  0.229734	2.71466e+07	   74.8162	      15.3	  0.465573	 2.7744e+07	   74.8594	      15.3	   0.23584	2.73499e+07	       N/A	       N/A	       N/A	        N/A	       N/A	       N/A	       N/A	        N/A	
         R10	   3113	   75.7322	      15.3	  0.552431	3.05456e+07	   75.9608	      15.3	  0.582564	3.23581e+07	   75.8083	      15.3	  0.329547	3.18176e+07	   75.8465	      15.3	  0.567497	3.13245e+07	   75.8846	      15.3	  0.456055	3.18623e+07	   75.7703	      15.3	  0.440989	3.11676e+07	       N/A	       N/A	       N/A	        N/A	       N/A	       N/A	       N/A	        N/A	
         R10	   3114	   80.1935	        19	         6	2.01603e+07	     80.75	        19	         6	1.60784e+07	     80.75	     19.83	         6	2.21035e+07	   80.1935	     19.83	         6	1.06906e+07	   80.4717	        19	         6	1.38975e+07	     80.75	    19.415	         6	1.84421e+07	   80.4717	     19.83	         6	1.52688e+07	   80.1935	    19.415	         6	1.45244e+07	
         R10	   3115	   79.6538	        19	         6	2.02798e+07	   80.1935	        19	         6	5.54807e+06	   80.1935	     19.83	         6	1.20977e+07	   79.6538	     19.83	         6	1.37925e+07	   79.9236	        19	         6	1.27679e+07	   80.1935	    19.415	         6	8.25089e+06	   79.9236	     19.83	         6	1.24838e+07	   79.6538	    19.415	         6	1.68405e+07	
         R10	   3116	    79.131	        19	         6	2.29283e+07	   79.6538	        19	         6	 1.1275e+07	   79.6538	     19.83	         6	1.20188e+07	    79.131	     19.83	         6	1.40216e+07	   79.3924	        19	         6	1.66652e+07	   79.6538	    19.415	         6	1.05194e+07	   79.3924	     19.83	         6	1.27933e+07	    79.131	    19.415	         6	1.78804e+07	
         R10	   3117	    78.625	   19.3952	         6	2.61945e+07	    78.625	        19	         6	1.97329e+07	    79.131	        19	         6	1.63625e+07	    79.131	     19.83	         6	1.04944e+07	    78.625	   19.1976	         6	1.96564e+07	    78.878	        19	         6	1.37906e+07	    79.131	    19.415	         6	1.08385e+07	    78.878	   19.6126	         6	1.65815e+07	
         R10	   3118	    78.625	   19.3952	         6	2.01775e+07	    79.131	     19.83	         6	1.51876e+07	    78.625	     19.83	         6	1.72647e+07	    78.878	   19.6126	         6	1.75838e+07	    78.878	     19.83	         6	1.55485e+07	    78.625	   19.6126	         6	1.72718e+07	       N/A	       N/A	       N/A	        N/A	       N/A	       N/A	       N/A	        N/A	
         R10	   3119	   80.1935	     19.83	         6	1.19636e+07	     80.75	     19.83	         6	1.73227e+07	     80.75	     20.66	         6	1.63762e+07	   80.0004	     20.66	         6	1.39036e+07	   80.4717	     19.83	         6	1.33276e+07	     80.75	    20.245	         6	1.67846e+07	   80.3752	     20.66	         6	 1.4183e+07	   80.0969	    20.245	         6	1.22027e+07	
         R10	   3120	   79.6538	     19.83	         6	1.31237e+07	   80.1935	     19.83	         6	1.26502e+07	   80.0004	     20.66	         6	1.58062e+07	   79.2921	     20.66	         6	1.39775e+07	   79.9236	     19.83	         6	1.22885e+07	   80.0969	    20.245	         6	1.36859e+07	   79.6462	     20.66	         6	1.37072e+07	   79.4729	    20.245	         6	1.31797e+07	
         R10	   3121	    78.625	     20.66	         6	1.53855e+07	    78.625	     19.83	         6	1.47169e+07	    79.131	     19.83	         6	1.52242e+07	   79.2921	     20.66	         6	 1.5529e+07	    78.625	    20.245	         6	1.50423e+07	    78.878	     19.83	         6	1.49167e+07	   79.2115	    20.245	         6	1.53432e+07	   78.9585	     20.66	         6	1.52846e+07	
         R10	   3122	    79.131	     19.83	         6	1.38991e+07	   79.6538	     19.83	         6	1.22653e+07	   79.2921	     20.66	         6	1.44383e+07	   79.3924	     19.83	         6	1.27076e+07	   79.4729	    20.245	         6	1.30461e+07	   79.2115	    20.245	         6	1.40143e+07	       N/A	       N/A	       N/A	        N/A	       N/A	       N/A	       N/A	        N/A	
         R10	   3123	   80.0004	     20.66	         6	1.41869e+07	     80.75	     20.66	         6	1.75804e+07	     80.75	      21.5	         6	1.80993e+07	   80.0094	      21.5	         6	3.27958e+07	   80.3752	     20.66	         6	1.51488e+07	     80.75	     21.08	         6	1.58753e+07	   80.3797	      21.5	         6	2.29058e+07	   80.0049	     21.08	         6	2.33778e+07	
         R10	   3124	   79.2921	     20.66	         6	1.75357e+07	   80.0004	     20.66	         6	 2.1445e+07	   80.0094	      21.5	         6	1.76839e+07	   79.3011	      21.5	         6	1.66291e+07	   79.6462	     20.66	         6	1.76628e+07	   80.0049	     21.08	         6	 1.6192e+07	   79.6553	      21.5	         6	1.62067e+07	   79.2966	     21.08	         6	 1.6827e+07	
         R10	   3125	    78.625	     20.66	         6	1.61216e+07	   79.2921	     20.66	         6	1.64813e+07	   79.3011	      21.5	         6	1.17036e+07	    78.625	      21.5	         6	1.66825e+07	   78.9585	     20.66	         6	1.62497e+07	   79.2966	     21.08	         6	1.39109e+07	   78.9631	      21.5	         6	1.38369e+07	    78.625	     21.08	         6	1.60614e+07	
         R10	   3126	    72.986	      15.3	       0.8	3.48595e+07	     72.25	      15.3	       0.8	3.54201e+07	     72.25	      15.3	       1.6	3.62822e+07	   73.0071	      15.3	       1.6	2.57501e+07	    72.618	      15.3	       0.8	3.48421e+07	     72.25	      15.3	       1.2	3.58379e+07	   72.6286	      15.3	       1.6	3.07254e+07	   72.9966	      15.3	       1.2	3.02413e+07	
         R10	   3127	   73.5855	      15.3	       0.8	3.02806e+07	    72.986	      15.3	       0.8	3.44682e+07	   73.0071	      15.3	       1.6	2.62927e+07	   73.6137	      15.3	       1.6	2.89892e+07	   73.2857	      15.3	       0.8	3.20741e+07	   72.9966	      15.3	       1.2	3.03018e+07	   73.3104	      15.3	       1.6	2.72364e+07	   73.5996	      15.3	       1.2	2.95946e+07	
         R10	   3128	   74.0696	      15.3	   1.21934	3.07257e+07	   74.0696	      15.3	       1.6	2.83303e+07	    74.375	      15.3	       1.6	2.78862e+07	    74.375	      15.3	   1.34603	2.85754e+07	   74.0696	      15.3	   1.40967	2.94761e+07	   74.2223	      15.3	       1.6	2.80221e+07	    74.375	      15.3	   1.47302	2.82254e+07	   74.2223	      15.3	   1.28268	2.96192e+07	
         R10	   3129	   74.0696	      15.3	   1.21934	3.00668e+07	    74.375	      15.3	   1.07937	2.93251e+07	    74.375	      15.3	       0.8	2.95131e+07	   74.0485	      15.3	       0.8	3.00533e+07	   74.2223	      15.3	   1.14935	2.96921e+07	    74.375	      15.3	  0.939683	  2.938e+07	   74.2117	      15.3	       0.8	2.97381e+07	   74.0591	      15.3	   1.00967	3.00397e+07	
         R10	   3130	   73.6137	      15.3	       1.6	2.82988e+07	   74.0696	      15.3	   1.21934	2.84796e+07	   74.0485	      15.3	       0.8	3.00285e+07	   73.5855	      15.3	       0.8	3.15311e+07	   73.8416	      15.3	   1.40967	 2.8343e+07	   74.0591	      15.3	   1.00967	2.92312e+07	    73.817	      15.3	       0.8	  3.055e+07	   73.5996	      15.3	       1.2	2.98595e+07	
         R10	   3131	   74.0696	      15.3	   1.21934	2.98902e+07	    74.375	      15.3	   1.34603	2.86637e+07	    74.375	      15.3	   1.07937	2.97729e+07	   74.2223	      15.3	   1.28268	2.92507e+07	    74.375	      15.3	    1.2127	2.91976e+07	   74.2223	      15.3	   1.14935	2.98009e+07	       N/A	       N/A	       N/A	        N/A	       N/A	       N/A	       N/A	        N/A	
         R10	   3132	   74.0696	      15.3	       1.6	2.86644e+07	   74.0696	      15.3	   1.21934	2.94152e+07	   73.6137	      15.3	       1.6	2.74862e+07	   74.0696	      15.3	   1.40967	2.89721e+07	   73.8416	      15.3	   1.40967	2.83378e+07	   73.8416	      15.3	       1.6	2.80498e+07	       N/A	       N/A	       N/A	        N/A	       N/A	       N/A	       N/A	        N/A	
         R10	   3133	   76.7279	      15.3	         0	3.88962e+07	      76.5	      15.3	         0	6.15883e+07	      76.5	      15.3	  0.237669	 3.3994e+07	   76.7279	      15.3	  0.212304	 4.3561e+07	    76.614	      15.3	         0	4.89488e+07	      76.5	      15.3	  0.118834	4.76309e+07	    76.614	      15.3	  0.224987	3.85988e+07	   76.7279	      15.3	  0.106152	4.04127e+07	
         R10	   3134	   76.7279	      15.3	  0.212304	4.28918e+07	      76.5	      15.3	  0.237669	 3.7025e+07	      76.5	      15.3	  0.450225	  3.492e+07	   76.7177	      15.3	  0.419759	3.68571e+07	    76.614	      15.3	  0.224987	3.98659e+07	      76.5	      15.3	  0.343947	3.59632e+07	   76.6089	      15.3	  0.434992	 3.5843e+07	   76.7228	      15.3	  0.316032	3.98398e+07	
         R10	   3135	   76.7177	      15.3	  0.419759	3.62614e+07	      76.5	      15.3	  0.450225	3.56859e+07	      76.5	      15.3	  0.637669	3.29212e+07	   76.6973	      15.3	  0.607315	3.53644e+07	   76.6089	      15.3	  0.434992	3.59577e+07	      76.5	      15.3	  0.543947	3.42865e+07	   76.5986	      15.3	  0.622492	  3.411e+07	   76.7075	      15.3	  0.513537	3.58095e+07	
         R10	   3136	   76.6973	      15.3	  0.607315	3.51048e+07	      76.5	      15.3	  0.637669	3.36131e+07	      76.5	      15.3	       0.8	3.31905e+07	    76.648	      15.3	       0.8	3.33932e+07	   76.5986	      15.3	  0.622492	3.43377e+07	      76.5	      15.3	  0.718834	3.32069e+07	    76.574	      15.3	       0.8	3.32425e+07	   76.6726	      15.3	  0.703657	3.42337e+07	
         R10	   3137	   76.9061	      15.3	  0.619706	3.43786e+07	   76.6973	      15.3	  0.607315	3.45212e+07	    76.648	      15.3	       0.8	3.33858e+07	    76.805	      15.3	       0.8	 3.2986e+07	   76.8017	      15.3	   0.61351	3.44225e+07	   76.6726	      15.3	  0.703657	3.39424e+07	   76.7265	      15.3	       0.8	3.31716e+07	   76.8556	      15.3	  0.709853	3.36617e+07	
         R10	   3138	   77.1251	      15.3	  0.595442	3.30573e+07	   77.1462	      15.3	       0.8	3.12927e+07	   77.3304	      15.3	       0.8	3.02168e+07	   77.3242	      15.3	  0.543019	3.17328e+07	   77.1357	      15.3	  0.697721	3.21693e+07	   77.2383	      15.3	       0.8	3.07026e+07	   77.3273	      15.3	   0.67151	3.09702e+07	   77.2247	      15.3	   0.56923	3.23474e+07	
         R10	   3139	   77.3242	      15.3	  0.543019	3.07546e+07	   77.3304	      15.3	       0.8	3.03956e+07	   77.5236	      15.3	       0.8	2.96213e+07	   77.5136	      15.3	  0.520072	3.08991e+07	   77.3273	      15.3	   0.67151	3.05566e+07	    77.427	      15.3	       0.8	2.99366e+07	   77.5186	      15.3	  0.660036	3.02554e+07	   77.4189	      15.3	  0.531546	3.08223e+07	
         R10	   3140	   77.5136	      15.3	  0.520072	3.03098e+07	   77.5236	      15.3	       0.8	2.97376e+07	   77.7258	      15.3	       0.8	2.90818e+07	   77.7017	      15.3	  0.558573	3.01189e+07	   77.5186	      15.3	  0.660036	3.00148e+07	   77.6247	      15.3	       0.8	2.93546e+07	   77.7138	      15.3	  0.679286	2.95855e+07	   77.6077	      15.3	  0.539322	3.01841e+07	
         R10	   3141	   77.7017	      15.3	  0.558573	2.93814e+07	   77.7258	      15.3	       0.8	2.94417e+07	    77.937	      15.3	       0.8	 2.8591e+07	   77.9373	      15.3	  0.559303	2.82974e+07	   77.7138	      15.3	  0.679286	2.93979e+07	   77.8314	      15.3	       0.8	2.89702e+07	   77.9372	      15.3	  0.679652	2.84329e+07	   77.8195	      15.3	  0.558938	2.87989e+07	
         R10	   3142	   77.9373	      15.3	  0.559303	2.74228e+07	    77.937	      15.3	       0.8	2.86515e+07	   78.1573	      15.3	       0.8	2.95875e+07	   78.1317	      15.3	  0.527147	2.84054e+07	   77.9372	      15.3	  0.679652	2.80218e+07	   78.0472	      15.3	       0.8	 2.9066e+07	   78.1445	      15.3	  0.663573	2.89434e+07	   78.0345	      15.3	  0.543225	2.78667e+07	
         R10	   3143	   78.1317	      15.3	  0.527147	3.04131e+07	   78.1573	      15.3	       0.8	2.97718e+07	   78.3866	      15.3	       0.8	2.94869e+07	   78.3752	      15.3	  0.532532	2.89979e+07	   78.1445	      15.3	  0.663573	3.00148e+07	    78.272	      15.3	       0.8	2.95789e+07	   78.3809	      15.3	  0.666266	2.92012e+07	   78.2534	      15.3	   0.52984	2.95663e+07	
         R10	   3144	   78.3752	      15.3	  0.532532	2.67946e+07	   78.3866	      15.3	       0.8	2.92201e+07	    78.625	      15.3	       0.8	2.86913e+07	    78.625	      15.3	  0.558673	2.74783e+07	   78.3809	      15.3	  0.666266	2.79897e+07	   78.5058	      15.3	       0.8	2.89282e+07	    78.625	      15.3	  0.679336	2.80785e+07	   78.5001	      15.3	  0.545603	2.71303e+07	
         R10	   3145	   78.3546	      15.3	  0.263318	2.20003e+07	   78.3752	      15.3	  0.532532	 2.7257e+07	    78.625	      15.3	  0.558673	2.70891e+07	    78.625	      15.3	  0.292006	2.47832e+07	   78.3649	      15.3	  0.397925	 2.4617e+07	   78.5001	      15.3	  0.545603	2.71699e+07	    78.625	      15.3	  0.425339	2.59332e+07	   78.4898	      15.3	  0.277662	2.33733e+07	
         R10	   3146	   78.3546	      15.3	  0.263318	2.04422e+07	    78.625	      15.3	  0.292006	2.51786e+07	    78.625	      15.3	         0	2.31518e+07	   78.3217	      15.3	         0	2.35421e+07	   78.4898	      15.3	  0.277662	2.25765e+07	    78.625	      15.3	  0.146003	2.36413e+07	   78.4733	      15.3	         0	  2.318e+07	   78.3381	      15.3	  0.131659	2.19763e+07	
         R10	   3147	   78.0773	      15.3	  0.263443	3.31431e+07	   78.3546	      15.3	  0.263318	2.96604e+07	   78.3217	      15.3	         0	2.18346e+07	   78.0291	      15.3	         0	2.47414e+07	   78.2159	      15.3	  0.263381	3.13343e+07	   78.3381	      15.3	  0.131659	2.57307e+07	   78.1754	      15.3	         0	2.24723e+07	   78.0532	      15.3	  0.131722	2.78886e+07	
         R10	   3148	   78.0773	      15.3	  0.263443	2.42194e+07	   78.0291	      15.3	         0	2.62608e+07	   77.7473	      15.3	         0	2.45847e+07	    77.794	      15.3	  0.282486	2.56445e+07	   78.0532	      15.3	  0.131722	2.32227e+07	   77.8882	      15.3	         0	2.30626e+07	   77.7707	      15.3	  0.141243	2.40364e+07	   77.9356	      15.3	  0.272965	 2.4821e+07	
         R10	   3149	    77.794	      15.3	  0.282486	 2.7215e+07	   77.7473	      15.3	         0	3.11205e+07	   77.4763	      15.3	         0	2.66174e+07	   77.5022	      15.3	  0.265437	3.22428e+07	   77.7707	      15.3	  0.141243	2.82457e+07	   77.6118	      15.3	         0	2.68855e+07	   77.4893	      15.3	  0.132719	2.81603e+07	   77.6481	      15.3	  0.273962	2.93034e+07	
         R10	   3150	   77.5022	      15.3	  0.265437	2.80557e+07	   77.4763	      15.3	         0	3.13021e+07	    77.216	      15.3	         0	2.91372e+07	   77.2397	      15.3	  0.275932	3.38552e+07	   77.4893	      15.3	  0.132719	2.92714e+07	   77.3462	      15.3	         0	2.84594e+07	   77.2279	      15.3	  0.137966	2.96853e+07	    77.371	      15.3	  0.270684	3.06106e+07	
         R10	   3151	   77.2397	      15.3	  0.275932	3.25338e+07	    77.216	      15.3	         0	 3.5409e+07	   76.9666	      15.3	         0	3.33547e+07	   76.9625	      15.3	  0.208864	3.60971e+07	   77.2279	      15.3	  0.137966	 3.3805e+07	   77.0913	      15.3	         0	3.37608e+07	   76.9646	      15.3	  0.104432	3.39457e+07	   77.1011	      15.3	  0.242398	3.41166e+07	
         R10	   3152	   76.9625	      15.3	  0.208864	3.96305e+07	   76.9666	      15.3	         0	 3.5542e+07	   76.7279	      15.3	         0	4.47384e+07	   76.7279	      15.3	  0.212304	4.49108e+07	   76.9646	      15.3	  0.104432	3.74646e+07	   76.8472	      15.3	         0	4.00397e+07	   76.7279	      15.3	  0.106152	4.40036e+07	   76.8452	      15.3	  0.210584	4.15854e+07	
         R10	   3153	   76.9227	      15.3	  0.420222	3.63943e+07	   76.9625	      15.3	  0.208864	3.76932e+07	   76.7279	      15.3	  0.212304	4.07006e+07	   76.7177	      15.3	  0.419759	3.81695e+07	   76.9426	      15.3	  0.314543	3.68901e+07	   76.8452	      15.3	  0.210584	 3.9001e+07	   76.7228	      15.3	  0.316032	 3.9372e+07	   76.8202	      15.3	  0.419991	3.72015e+07	
         R10	   3154	   76.9227	      15.3	  0.420222	3.64062e+07	   76.7177	      15.3	  0.419759	3.71822e+07	   76.6973	      15.3	  0.607315	3.48428e+07	   76.9061	      15.3	  0.619706	3.45086e+07	   76.8202	      15.3	  0.419991	3.67073e+07	   76.7075	      15.3	  0.513537	3.60092e+07	   76.8017	      15.3	   0.61351	3.46352e+07	   76.9144	      15.3	  0.519964	3.54395e+07	
         R10	   3155	   76.9061	      15.3	  0.619706	3.40858e+07	   76.9711	      15.3	       0.8	3.22131e+07	   77.1462	      15.3	       0.8	 3.1298e+07	   77.1251	      15.3	  0.595442	3.29444e+07	   76.9386	      15.3	  0.709853	3.31484e+07	   77.0587	      15.3	       0.8	3.17207e+07	   77.1357	      15.3	  0.697721	3.21178e+07	   77.0156	      15.3	  0.607574	3.34471e+07	
         R10	   3156	   76.9227	      15.3	  0.420222	3.60494e+07	   76.9061	      15.3	  0.619706	3.43147e+07	   77.1251	      15.3	  0.595442	3.30846e+07	   77.0916	      15.3	  0.440336	3.43538e+07	   76.9144	      15.3	  0.519964	3.51487e+07	   77.0156	      15.3	  0.607574	3.36237e+07	   77.1083	      15.3	  0.517889	3.37152e+07	   77.0071	      15.3	  0.430279	3.51748e+07	
         R10	   3157	   78.1317	      15.3	  0.527147	3.08495e+07	   78.3752	      15.3	  0.532532	2.89474e+07	   78.3546	      15.3	  0.263318	 2.8789e+07	   78.0773	      15.3	  0.263443	 3.0798e+07	   78.2534	      15.3	   0.52984	2.97635e+07	   78.3649	      15.3	  0.397925	2.88076e+07	   78.2159	      15.3	  0.263381	2.97487e+07	   78.1045	      15.3	  0.395295	3.06917e+07	
         R10	   3158	   77.9373	      15.3	  0.559303	2.63762e+07	   78.1317	      15.3	  0.527147	 2.9073e+07	   78.0773	      15.3	  0.263443	2.35682e+07	    77.794	      15.3	  0.282486	2.67117e+07	   78.0345	      15.3	  0.543225	2.76872e+07	   78.1045	      15.3	  0.395295	2.62871e+07	   77.9356	      15.3	  0.272965	2.50988e+07	   77.8657	      15.3	  0.420895	2.65315e+07	
         R10	   3159	   77.2397	      15.3	  0.275932	3.33924e+07	   76.9625	      15.3	  0.208864	3.66173e+07	   76.9227	      15.3	  0.420222	3.67804e+07	   77.0916	      15.3	  0.440336	 3.4813e+07	   77.1011	      15.3	  0.242398	3.47979e+07	   76.9426	      15.3	  0.314543	3.66551e+07	   77.0071	      15.3	  0.430279	3.57563e+07	   77.1656	      15.3	  0.358134	3.39018e+07	
         R10	   3160	   77.2397	      15.3	  0.275932	3.15137e+07	   77.0916	      15.3	  0.440336	3.40945e+07	   77.1251	      15.3	  0.595442	3.32281e+07	   77.3242	      15.3	  0.543019	3.18884e+07	   77.1656	      15.3	  0.358134	3.27029e+07	   77.1083	      15.3	  0.517889	3.36535e+07	   77.2247	      15.3	   0.56923	3.25316e+07	    77.282	      15.3	  0.409476	3.16453e+07	
         R10	   3161	   77.5136	      15.3	  0.520072	3.06655e+07	   77.5022	      15.3	  0.265437	 2.6951e+07	   77.2397	      15.3	  0.275932	3.37375e+07	   77.3242	      15.3	  0.543019	3.10005e+07	   77.5079	      15.3	  0.392755	 2.8663e+07	    77.371	      15.3	  0.270684	3.00999e+07	    77.282	      15.3	  0.409476	3.23599e+07	   77.4189	      15.3	  0.531546	3.08162e+07	
         R10	   3162	   77.7017	      15.3	  0.558573	 3.0631e+07	    77.794	      15.3	  0.282486	2.81307e+07	   77.5022	      15.3	  0.265437	3.14416e+07	   77.5136	      15.3	  0.520072	3.05807e+07	   77.7479	      15.3	  0.420529	2.92146e+07	   77.6481	      15.3	  0.273962	2.95125e+07	   77.5079	      15.3	  0.392755	3.10024e+07	   77.6077	      15.3	  0.539322	3.05728e+07	
         R10	   3163	   76.9061	      15.3	  0.619706	3.39596e+07	    76.805	      15.3	       0.8	3.29021e+07	   76.9711	      15.3	       0.8	3.22572e+07	   76.8556	      15.3	  0.709853	3.34074e+07	   76.8881	      15.3	       0.8	3.25574e+07	   76.9386	      15.3	  0.709853	3.31082e+07	       N/A	       N/A	       N/A	        N/A	       N/A	       N/A	       N/A	        N/A	
         R10	   3164	   77.9373	      15.3	  0.559303	2.69262e+07	    77.794	      15.3	  0.282486	2.75352e+07	   77.7017	      15.3	  0.558573	2.96753e+07	   77.8657	      15.3	  0.420895	2.71984e+07	   77.7479	      15.3	  0.420529	2.84798e+07	   77.8195	      15.3	  0.558938	 2.8272e+07	       N/A	       N/A	       N/A	        N/A	       N/A	       N/A	       N/A	        N/A	
         R10	   3165	    76.648	      15.3	       0.8	3.24859e+07	      76.5	      15.3	       0.8	3.39492e+07	      76.5	      15.3	  0.951056	 3.3358e+07	   76.6487	      15.3	  0.948637	3.28545e+07	    76.574	      15.3	       0.8	3.31438e+07	      76.5	      15.3	  0.875528	3.34536e+07	   76.5743	      15.3	  0.949846	 3.3075e+07	   76.6483	      15.3	  0.874318	3.26618e+07	
         R10	   3166	   76.6487	      15.3	  0.948637	3.20105e+07	      76.5	      15.3	  0.951056	3.35132e+07	      76.5	      15.3	   1.08986	3.34344e+07	   76.6383	      15.3	   1.08668	3.25559e+07	   76.5743	      15.3	  0.949846	3.27241e+07	      76.5	      15.3	   1.02046	3.34131e+07	   76.5692	      15.3	   1.08827	3.29912e+07	   76.6435	      15.3	   1.01766	3.22729e+07	
         R10	   3167	   76.6383	      15.3	   1.08668	3.20152e+07	      76.5	      15.3	   1.08986	3.35074e+07	      76.5	      15.3	    1.2164	3.37473e+07	   76.6242	      15.3	   1.21294	3.25686e+07	   76.5692	      15.3	   1.08827	3.27451e+07	      76.5	      15.3	   1.15313	3.36044e+07	   76.5621	      15.3	   1.21467	 3.3156e+07	   76.6312	      15.3	   1.14981	 3.2286e+07	
         R10	   3168	   76.6242	      15.3	   1.21294	3.22188e+07	      76.5	      15.3	    1.2164	 3.3865e+07	      76.5	      15.3	   1.33068	3.42015e+07	   76.6103	      15.3	   1.32778	3.27102e+07	   76.5621	      15.3	   1.21467	3.30304e+07	      76.5	      15.3	   1.27354	3.40198e+07	   76.5552	      15.3	   1.32923	3.34525e+07	   76.6172	      15.3	   1.27036	3.24575e+07	
         R10	   3169	   76.6103	      15.3	   1.32778	3.24045e+07	      76.5	      15.3	   1.33068	3.45548e+07	      76.5	      15.3	   1.43271	3.42589e+07	   76.5974	      15.3	   1.42922	3.30286e+07	   76.5552	      15.3	   1.32923	 3.3465e+07	      76.5	      15.3	    1.3817	 3.4389e+07	   76.5487	      15.3	   1.43096	  3.364e+07	   76.6039	      15.3	    1.3785	3.27117e+07	
         R10	   3170	   76.5974	      15.3	   1.42922	3.25471e+07	      76.5	      15.3	   1.43271	3.51719e+07	      76.5	      15.3	   1.52248	3.21691e+07	   76.5854	      15.3	   1.51934	3.57087e+07	   76.5487	      15.3	   1.43096	3.38215e+07	      76.5	      15.3	    1.4776	3.35659e+07	   76.5427	      15.3	   1.52091	3.38349e+07	   76.5914	      15.3	   1.47428	3.41254e+07	
         R10	   3171	   76.5854	      15.3	   1.51934	3.59662e+07	      76.5	      15.3	   1.52248	3.75915e+07	      76.5	      15.3	       1.6	3.67021e+07	    76.581	      15.3	       1.6	3.53668e+07	   76.5427	      15.3	   1.52091	3.63155e+07	      76.5	      15.3	   1.56124	3.56194e+07	   76.5405	      15.3	       1.6	3.59261e+07	   76.5832	      15.3	   1.55967	3.53976e+07	
         R10	   3172	    76.666	      15.3	   1.52869	3.32874e+07	   76.5854	      15.3	   1.51934	3.47472e+07	    76.581	      15.3	       1.6	3.50711e+07	   76.6654	      15.3	       1.6	3.21572e+07	   76.6257	      15.3	   1.52402	3.39796e+07	   76.5832	      15.3	   1.55967	3.47134e+07	   76.6232	      15.3	       1.6	3.35816e+07	   76.6657	      15.3	   1.56435	3.27093e+07	
         R10	   3173	    76.666	      15.3	   1.52869	3.33584e+07	   76.6654	      15.3	       1.6	3.14621e+07	   76.7532	      15.3	       1.6	  2.992e+07	   76.7582	      15.3	   1.51367	3.07706e+07	   76.6657	      15.3	   1.56435	 3.2397e+07	   76.7093	      15.3	       1.6	3.06828e+07	   76.7557	      15.3	   1.55684	3.03223e+07	   76.7121	      15.3	   1.52118	3.20503e+07	
         R10	   3174	   76.7582	      15.3	   1.51367	3.07887e+07	   76.7532	      15.3	       1.6	2.99682e+07	   76.8443	      15.3	       1.6	2.81764e+07	   76.8417	      15.3	   1.50509	2.90833e+07	   76.7557	      15.3	   1.55684	3.03562e+07	   76.7987	      15.3	       1.6	2.90594e+07	    76.843	      15.3	   1.55255	2.86129e+07	      76.8	      15.3	   1.50938	2.99251e+07	
         R10	   3175	   76.8417	      15.3	   1.50509	2.91068e+07	   76.8443	      15.3	       1.6	 2.8164e+07	   76.9387	      15.3	       1.6	2.65906e+07	   76.9396	      15.3	   1.50153	 2.7451e+07	    76.843	      15.3	   1.55255	 2.8618e+07	   76.8915	      15.3	       1.6	2.73603e+07	   76.9391	      15.3	   1.55076	2.70065e+07	   76.8906	      15.3	   1.50331	2.82631e+07	
         R10	   3176	   76.9396	      15.3	   1.50153	2.74676e+07	   76.9387	      15.3	       1.6	2.65893e+07	   77.0365	      15.3	       1.6	2.52883e+07	   77.0373	      15.3	   1.49785	2.61657e+07	   76.9391	      15.3	   1.55076	2.70141e+07	   76.9876	      15.3	       1.6	2.59168e+07	   77.0369	      15.3	   1.54893	2.57133e+07	   76.9884	      15.3	   1.49969	2.67983e+07	
         R10	   3177	   77.0373	      15.3	   1.49785	2.61911e+07	   77.0365	      15.3	       1.6	2.52851e+07	   77.1376	      15.3	       1.6	2.43198e+07	   77.1386	      15.3	   1.49427	2.51837e+07	   77.0369	      15.3	   1.54893	2.57244e+07	   77.0871	      15.3	       1.6	2.47764e+07	   77.1381	      15.3	   1.54713	 2.4739e+07	   77.0879	      15.3	   1.49606	2.56641e+07	
         R10	   3178	   77.1386	      15.3	   1.49427	2.52028e+07	   77.1376	      15.3	       1.6	2.43184e+07	   77.2421	      15.3	       1.6	2.37122e+07	   77.2428	      15.3	   1.49126	 2.4516e+07	   77.1381	      15.3	   1.54713	2.47477e+07	   77.1899	      15.3	       1.6	2.39868e+07	   77.2425	      15.3	   1.54563	2.41025e+07	   77.1907	      15.3	   1.49277	2.48334e+07	
         R10	   3179	   77.2428	      15.3	   1.49126	2.45238e+07	   77.2421	      15.3	       1.6	2.37217e+07	     77.35	      15.3	       1.6	2.34428e+07	   77.3421	      15.3	   1.49801	 2.4136e+07	   77.2425	      15.3	   1.54563	2.41109e+07	   77.2961	      15.3	       1.6	2.35531e+07	   77.3461	      15.3	   1.54901	2.37796e+07	   77.2925	      15.3	   1.49464	2.43068e+07	
         R10	   3180	   77.3421	      15.3	   1.49801	2.41334e+07	     77.35	      15.3	       1.6	2.34396e+07	   77.4514	      15.3	       1.6	2.34558e+07	   77.4573	      15.3	   1.48601	2.41393e+07	   77.3461	      15.3	   1.54901	 2.3777e+07	   77.4007	      15.3	       1.6	 2.3425e+07	   77.4544	      15.3	   1.54301	2.37881e+07	   77.3997	      15.3	   1.49201	2.41086e+07	
         R10	   3181	   77.4573	      15.3	   1.48601	2.41547e+07	   77.4514	      15.3	       1.6	2.34523e+07	   77.5694	      15.3	       1.6	2.37071e+07	   77.5663	      15.3	   1.46817	2.43483e+07	   77.4544	      15.3	   1.54301	2.37943e+07	   77.5104	      15.3	       1.6	2.35543e+07	   77.5678	      15.3	   1.53409	2.40176e+07	   77.5118	      15.3	   1.47709	2.42304e+07	
         R10	   3182	   77.5663	      15.3	   1.46817	2.43852e+07	   77.5694	      15.3	       1.6	 2.3707e+07	   77.7039	      15.3	       1.6	2.41956e+07	   77.7076	      15.3	   1.45417	2.48041e+07	   77.5678	      15.3	   1.53409	2.40362e+07	   77.6366	      15.3	       1.6	2.39259e+07	   77.7057	      15.3	   1.52709	2.44908e+07	   77.6369	      15.3	   1.46117	2.45652e+07	
         R10	   3183	   77.7076	      15.3	   1.45417	2.48434e+07	   77.7039	      15.3	       1.6	2.42084e+07	    77.855	      15.3	       1.6	2.48728e+07	   77.8592	      15.3	   1.43677	2.54432e+07	   77.7057	      15.3	   1.52709	2.45169e+07	   77.7794	      15.3	       1.6	2.45169e+07	   77.8571	      15.3	   1.51838	2.51486e+07	   77.7834	      15.3	   1.44547	2.51198e+07	
         R10	   3184	   77.8592	      15.3	   1.43677	 2.5509e+07	    77.855	      15.3	       1.6	2.48707e+07	   78.0226	      15.3	       1.6	2.56373e+07	   78.0288	      15.3	   1.40663	2.62457e+07	   77.8571	      15.3	   1.51838	2.51812e+07	   77.9388	      15.3	       1.6	2.52339e+07	   78.0257	      15.3	   1.50331	2.59339e+07	    77.944	      15.3	    1.4217	2.58569e+07	
         R10	   3185	   78.0288	      15.3	   1.40663	2.62476e+07	   78.0226	      15.3	       1.6	  2.565e+07	   78.2069	      15.3	       1.6	 2.6385e+07	   78.2074	      15.3	   1.38064	2.69215e+07	   78.0257	      15.3	   1.50331	2.59414e+07	   78.1147	      15.3	       1.6	2.60026e+07	   78.2071	      15.3	   1.49032	2.66448e+07	   78.1181	      15.3	   1.39363	2.65696e+07	
         R10	   3186	   78.2074	      15.3	   1.38064	2.69615e+07	   78.2069	      15.3	       1.6	2.63999e+07	   78.4076	      15.3	       1.6	2.70333e+07	   78.4074	      15.3	   1.36964	 2.7584e+07	   78.2071	      15.3	   1.49032	2.66734e+07	   78.3073	      15.3	       1.6	2.67029e+07	   78.4075	      15.3	   1.48482	2.73018e+07	   78.3074	      15.3	   1.37514	2.72626e+07	
         R10	   3187	   78.4074	      15.3	   1.36964	2.75684e+07	   78.4076	      15.3	       1.6	2.70455e+07	    78.625	      15.3	       1.6	2.74186e+07	    78.625	      15.3	   1.34603	2.80658e+07	   78.4075	      15.3	   1.48482	2.73015e+07	   78.5163	      15.3	       1.6	2.72226e+07	    78.625	      15.3	   1.47302	2.77376e+07	   78.5162	      15.3	   1.35784	2.78066e+07	
         R10	   3188	   78.3844	      15.3	   1.11942	2.80387e+07	   78.4074	      15.3	   1.36964	2.75522e+07	    78.625	      15.3	   1.34603	2.80546e+07	    78.625	      15.3	   1.07937	2.83342e+07	   78.3959	      15.3	   1.24453	2.77848e+07	   78.5162	      15.3	   1.35784	2.77942e+07	    78.625	      15.3	    1.2127	2.81884e+07	   78.5047	      15.3	   1.09939	2.81591e+07	
         R10	   3189	   78.3844	      15.3	   1.11942	2.80689e+07	    78.625	      15.3	   1.07937	2.84266e+07	    78.625	      15.3	       0.8	 2.8579e+07	   78.3866	      15.3	       0.8	2.83518e+07	   78.5047	      15.3	   1.09939	 2.8218e+07	    78.625	      15.3	  0.939683	2.84947e+07	   78.5058	      15.3	       0.8	 2.8443e+07	   78.3855	      15.3	  0.959709	2.81946e+07	
         R10	   3190	   78.3844	      15.3	   1.11942	2.78151e+07	   78.3866	      15.3	       0.8	2.84141e+07	   78.1573	      15.3	       0.8	2.82171e+07	   78.1561	      15.3	   1.06272	2.75596e+07	   78.3855	      15.3	  0.959709	2.81013e+07	    78.272	      15.3	       0.8	2.82884e+07	   78.1567	      15.3	   0.93136	2.78764e+07	   78.2702	      15.3	   1.09107	2.76588e+07	
         R10	   3191	   78.1561	      15.3	   1.06272	2.76033e+07	   78.1573	      15.3	       0.8	2.81651e+07	    77.937	      15.3	       0.8	2.81998e+07	   77.9257	      15.3	   1.02023	2.73775e+07	   78.1567	      15.3	   0.93136	2.78712e+07	   78.0472	      15.3	       0.8	 2.8147e+07	   77.9313	      15.3	  0.910115	2.77744e+07	   78.0409	      15.3	   1.04147	 2.7455e+07	
         R10	   3192	   77.9257	      15.3	   1.02023	2.72352e+07	    77.937	      15.3	       0.8	2.81489e+07	   77.7258	      15.3	       0.8	2.82767e+07	   77.7226	      15.3	   1.01626	2.71439e+07	   77.9313	      15.3	  0.910115	2.76785e+07	   77.8314	      15.3	       0.8	2.81707e+07	   77.7242	      15.3	   0.90813	2.76976e+07	   77.8241	      15.3	   1.01824	 2.7144e+07	
         R10	   3193	   77.7226	      15.3	   1.01626	2.70866e+07	   77.7258	      15.3	       0.8	2.80712e+07	   77.5236	      15.3	       0.8	2.87828e+07	   77.5284	      15.3	  0.998742	2.71988e+07	   77.7242	      15.3	   0.90813	2.75656e+07	   77.6247	      15.3	       0.8	2.83669e+07	    77.526	      15.3	  0.899371	2.79781e+07	   77.6255	      15.3	    1.0075	2.70961e+07	
         R10	   3194	   77.5284	      15.3	  0.998742	2.72936e+07	   77.5236	      15.3	       0.8	2.85999e+07	   77.3304	      15.3	       0.8	2.95242e+07	   77.3329	      15.3	  0.981139	2.80589e+07	    77.526	      15.3	  0.899371	2.79341e+07	    77.427	      15.3	       0.8	2.90012e+07	   77.3316	      15.3	  0.890569	2.87806e+07	   77.4306	      15.3	   0.98994	2.76231e+07	
         R10	   3195	   77.3329	      15.3	  0.981139	2.80174e+07	   77.3304	      15.3	       0.8	2.94164e+07	   77.1462	      15.3	       0.8	3.04912e+07	   77.1486	      15.3	  0.972738	2.91802e+07	   77.3316	      15.3	  0.890569	 2.8706e+07	   77.2383	      15.3	       0.8	2.99061e+07	   77.1474	      15.3	  0.886369	2.98265e+07	   77.2407	      15.3	  0.976938	2.85544e+07	
         R10	   3196	   77.1486	      15.3	  0.972738	2.91381e+07	   77.1462	      15.3	       0.8	3.04504e+07	   76.9711	      15.3	       0.8	3.15264e+07	   76.9734	      15.3	  0.964536	3.05192e+07	   77.1474	      15.3	  0.886369	2.97846e+07	   77.0587	      15.3	       0.8	3.09581e+07	   76.9723	      15.3	  0.882268	3.10152e+07	    77.061	      15.3	  0.968637	2.97982e+07	
         R10	   3197	   76.9734	      15.3	  0.964536	3.04541e+07	   76.9711	      15.3	       0.8	3.15562e+07	    76.805	      15.3	       0.8	3.21091e+07	   76.8064	      15.3	  0.956763	3.18864e+07	   76.9723	      15.3	  0.882268	3.09975e+07	   76.8881	      15.3	       0.8	3.18175e+07	   76.8057	      15.3	  0.878381	3.19921e+07	   76.8899	      15.3	  0.960649	3.11544e+07	
         R10	   3198	   76.8064	      15.3	  0.956763	3.19109e+07	    76.805	      15.3	       0.8	3.21224e+07	    76.648	      15.3	       0.8	3.25253e+07	   76.6487	      15.3	  0.948637	3.28555e+07	   76.8057	      15.3	  0.878381	3.20121e+07	   76.7265	      15.3	       0.8	3.23218e+07	   76.6483	      15.3	  0.874318	3.26727e+07	   76.7275	      15.3	    0.9527	  3.237e+07	
         R10	   3199	   76.7935	      15.3	   1.09867	3.11705e+07	   76.8064	      15.3	  0.956763	3.16213e+07	   76.6487	      15.3	  0.948637	  3.214e+07	   76.6383	      15.3	   1.08668	3.26742e+07	   76.7999	      15.3	   1.02772	3.13853e+07	   76.7275	      15.3	    0.9527	3.18721e+07	   76.6435	      15.3	   1.01766	3.24015e+07	   76.7159	      15.3	   1.09268	3.19115e+07	
         R10	   3200	   76.7935	      15.3	   1.09867	3.09735e+07	   76.6383	      15.3	   1.08668	3.22323e+07	   76.6242	      15.3	   1.21294	3.26116e+07	   76.7485	      15.3	    1.2208	3.11819e+07	   76.7159	      15.3	   1.09268	3.15969e+07	   76.6312	      15.3	   1.14981	3.24156e+07	   76.6863	      15.3	   1.21687	3.18885e+07	    76.771	      15.3	   1.15973	3.10664e+07	
         R10	   3201	   76.7485	      15.3	    1.2208	3.10458e+07	   76.6242	      15.3	   1.21294	3.23142e+07	   76.6103	      15.3	   1.32778	3.27761e+07	   76.7212	      15.3	   1.33799	3.14209e+07	   76.6863	      15.3	   1.21687	3.16751e+07	   76.6172	      15.3	   1.27036	3.25379e+07	   76.6658	      15.3	   1.33289	3.20897e+07	   76.7349	      15.3	   1.27939	3.12218e+07	
         R10	   3202	   76.7212	      15.3	   1.33799	3.13522e+07	   76.6103	      15.3	   1.32778	3.25094e+07	   76.5974	      15.3	   1.42922	3.34257e+07	    76.702	      15.3	   1.43815	3.19229e+07	   76.6658	      15.3	   1.33289	3.19269e+07	   76.6039	      15.3	    1.3785	3.29623e+07	   76.6497	      15.3	   1.43368	3.26573e+07	   76.7116	      15.3	   1.38807	 3.1619e+07	
         R10	   3203	    76.702	      15.3	   1.43815	3.20025e+07	   76.5974	      15.3	   1.42922	3.32793e+07	   76.5854	      15.3	   1.51934	3.48733e+07	    76.666	      15.3	   1.52869	3.23915e+07	   76.6497	      15.3	   1.43368	3.26387e+07	   76.5914	      15.3	   1.47428	3.40591e+07	   76.6257	      15.3	   1.52402	3.36085e+07	    76.684	      15.3	   1.48342	3.21735e+07	
         R10	   3204	   76.8322	      15.3	   1.40906	2.96701e+07	   76.8417	      15.3	   1.50509	2.89082e+07	   76.9396	      15.3	   1.50153	2.73278e+07	   76.9342	      15.3	   1.39365	2.81805e+07	   76.8369	      15.3	   1.45708	2.92755e+07	   76.8906	      15.3	   1.50331	2.81029e+07	   76.9369	      15.3	   1.44759	2.77402e+07	   76.8832	      15.3	   1.40136	2.89121e+07	
         R10	   3205	   76.9342	      15.3	   1.39365	2.81223e+07	   76.9396	      15.3	   1.50153	2.73558e+07	   77.0373	      15.3	   1.49785	2.60361e+07	    77.027	      15.3	   1.38014	2.71273e+07	   76.9369	      15.3	   1.44759	2.77254e+07	   76.9884	      15.3	   1.49969	2.66771e+07	   77.0321	      15.3	   1.43899	2.65675e+07	   76.9806	      15.3	    1.3869	2.76113e+07	
         R10	   3206	    77.027	      15.3	   1.38014	2.70577e+07	   77.0373	      15.3	   1.49785	 2.6061e+07	   77.1386	      15.3	   1.49427	2.50602e+07	   77.1355	      15.3	   1.38336	2.60398e+07	   77.0321	      15.3	   1.43899	2.65451e+07	   77.0879	      15.3	   1.49606	2.55371e+07	   77.1371	      15.3	   1.43882	2.55383e+07	   77.0813	      15.3	   1.38175	2.65288e+07	
         R10	   3207	   77.1355	      15.3	   1.38336	2.60023e+07	   77.1386	      15.3	   1.49427	2.50646e+07	   77.2428	      15.3	   1.49126	 2.4425e+07	   77.2404	      15.3	   1.37071	2.54079e+07	   77.1371	      15.3	   1.43882	2.55223e+07	   77.1907	      15.3	   1.49277	2.47195e+07	   77.2416	      15.3	   1.43099	2.49052e+07	    77.188	      15.3	   1.37704	 2.5682e+07	
         R10	   3208	   77.2404	      15.3	   1.37071	2.53373e+07	   77.2428	      15.3	   1.49126	2.44592e+07	   77.3421	      15.3	   1.49801	2.40784e+07	   77.3696	      15.3	   1.37848	2.48691e+07	   77.2416	      15.3	   1.43099	2.48874e+07	   77.2925	      15.3	   1.49464	2.42454e+07	   77.3559	      15.3	   1.43825	2.44619e+07	    77.305	      15.3	    1.3746	2.50703e+07	
         R10	   3209	   77.3696	      15.3	   1.37848	2.48364e+07	   77.4573	      15.3	   1.48601	2.40509e+07	   77.5663	      15.3	   1.46817	2.42832e+07	   77.5362	      15.3	   1.34025	2.50766e+07	   77.4135	      15.3	   1.43225	2.44213e+07	   77.5118	      15.3	   1.47709	2.41444e+07	   77.5512	      15.3	   1.40421	2.46689e+07	   77.4529	      15.3	   1.35937	2.49046e+07	
         R10	   3210	   77.5362	      15.3	   1.34025	2.49896e+07	   77.5663	      15.3	   1.46817	 2.4284e+07	   77.7076	      15.3	   1.45417	2.47829e+07	   77.6891	      15.3	   1.26681	 2.5757e+07	   77.5512	      15.3	   1.40421	2.46262e+07	   77.6369	      15.3	   1.46117	2.45056e+07	   77.6983	      15.3	   1.36049	2.52569e+07	   77.6126	      15.3	   1.30353	2.53389e+07	
         R10	   3211	   77.6891	      15.3	   1.26681	2.55979e+07	   77.7076	      15.3	   1.45417	2.48229e+07	   77.8592	      15.3	   1.43677	2.53978e+07	   77.8559	      15.3	   1.24379	2.62864e+07	   77.6983	      15.3	   1.36049	2.51964e+07	   77.7834	      15.3	   1.44547	2.50872e+07	   77.8575	      15.3	   1.34028	2.58289e+07	   77.7725	      15.3	    1.2553	2.59111e+07	
         R10	   3212	   77.8559	      15.3	   1.24379	2.62429e+07	   77.8592	      15.3	   1.43677	 2.5443e+07	   78.0288	      15.3	   1.40663	2.62487e+07	   78.0111	      15.3	   1.23778	2.67272e+07	   77.8575	      15.3	   1.34028	2.58294e+07	    77.944	      15.3	    1.4217	2.58235e+07	   78.0199	      15.3	    1.3222	2.64813e+07	   77.9335	      15.3	   1.24079	 2.6468e+07	
         R10	   3213	   77.5183	      15.3	   1.15289	2.62209e+07	   77.5284	      15.3	  0.998742	2.72703e+07	   77.3329	      15.3	  0.981139	2.80235e+07	   77.3295	      15.3	   1.12889	2.68598e+07	   77.5234	      15.3	   1.07582	2.67373e+07	   77.4306	      15.3	   0.98994	2.75951e+07	   77.3312	      15.3	   1.05501	2.74323e+07	   77.4239	      15.3	   1.14089	2.64848e+07	
         R10	   3214	   77.3295	      15.3	   1.12889	2.68708e+07	   77.3329	      15.3	  0.981139	2.79834e+07	   77.1486	      15.3	  0.972738	2.90831e+07	   77.1333	      15.3	   1.12896	2.79906e+07	   77.3312	      15.3	   1.05501	2.74176e+07	   77.2407	      15.3	  0.976938	2.84902e+07	    77.141	      15.3	   1.05085	2.85242e+07	   77.2314	      15.3	   1.12892	2.73709e+07	
         R10	   3215	   77.1333	      15.3	   1.12896	2.80236e+07	   77.1486	      15.3	  0.972738	2.90495e+07	   76.9734	      15.3	  0.964536	3.03683e+07	   76.9563	      15.3	   1.11251	2.95805e+07	    77.141	      15.3	   1.05085	2.85241e+07	    77.061	      15.3	  0.968637	2.96797e+07	   76.9649	      15.3	   1.03852	2.99625e+07	   77.0448	      15.3	   1.12073	2.87663e+07	
         R10	   3216	   76.9563	      15.3	   1.11251	2.96103e+07	   76.9734	      15.3	  0.964536	 3.0302e+07	   76.8064	      15.3	  0.956763	3.15632e+07	   76.7935	      15.3	   1.09867	3.12171e+07	   76.9649	      15.3	   1.03852	2.99452e+07	   76.8899	      15.3	  0.960649	 3.0918e+07	   76.7999	      15.3	   1.02772	3.13805e+07	   76.8749	      15.3	   1.10559	3.03974e+07	
         R10	   3217	   76.9563	      15.3	   1.11251	2.94846e+07	   76.7935	      15.3	   1.09867	3.10457e+07	   76.7485	      15.3	    1.2208	3.12019e+07	   76.8849	      15.3	   1.25478	2.95201e+07	   76.8749	      15.3	   1.10559	3.02494e+07	    76.771	      15.3	   1.15973	3.11115e+07	   76.8167	      15.3	   1.23779	3.03504e+07	   76.9206	      15.3	   1.18365	2.94788e+07	
         R10	   3218	    76.702	      15.3	   1.43815	3.17906e+07	   76.7582	      15.3	   1.51367	3.07124e+07	   76.8417	      15.3	   1.50509	2.89066e+07	   76.8322	      15.3	   1.40906	2.97754e+07	   76.7301	      15.3	   1.47591	3.12326e+07	      76.8	      15.3	   1.50938	2.97978e+07	   76.8369	      15.3	   1.45708	2.93276e+07	   76.7671	      15.3	   1.42361	3.07696e+07	
         R10	   3219	   77.0279	      15.3	   1.25564	2.79738e+07	    77.027	      15.3	   1.38014	 2.7006e+07	   77.1355	      15.3	   1.38336	2.59814e+07	     77.13	      15.3	    1.2805	2.67495e+07	   77.0274	      15.3	   1.31789	2.74768e+07	   77.0813	      15.3	   1.38175	2.64731e+07	   77.1327	      15.3	   1.33193	2.63577e+07	   77.0789	      15.3	   1.26807	2.73484e+07	
         R10	   3220	     77.13	      15.3	    1.2805	2.69389e+07	   77.1355	      15.3	   1.38336	2.59135e+07	   77.2404	      15.3	   1.37071	2.53811e+07	   77.2251	      15.3	   1.24388	 2.6406e+07	   77.1327	      15.3	   1.33193	2.64187e+07	    77.188	      15.3	   1.37704	2.56249e+07	   77.2328	      15.3	    1.3073	2.58838e+07	   77.1775	      15.3	   1.26219	2.66541e+07	
         R10	   3221	   77.2251	      15.3	   1.24388	2.64611e+07	   77.2404	      15.3	   1.37071	 2.5319e+07	   77.3696	      15.3	   1.37848	 2.4835e+07	   77.3472	      15.3	   1.25813	2.57631e+07	   77.2328	      15.3	    1.3073	2.58804e+07	    77.305	      15.3	    1.3746	 2.5043e+07	   77.3584	      15.3	   1.31831	2.52907e+07	   77.2861	      15.3	   1.25101	2.60875e+07	
         R10	   3222	   76.8075	      15.3	   1.33866	3.01289e+07	   76.8849	      15.3	   1.25478	2.94395e+07	   76.7485	      15.3	    1.2208	3.11304e+07	   76.7212	      15.3	   1.33799	3.14118e+07	   76.8462	      15.3	   1.29672	2.97695e+07	   76.8167	      15.3	   1.23779	3.02741e+07	   76.7349	      15.3	   1.27939	3.12606e+07	   76.7644	      15.3	   1.33832	3.07661e+07	
         R10	   3223	   76.8075	      15.3	   1.33866	3.02471e+07	   76.7212	      15.3	   1.33799	3.13468e+07	    76.702	      15.3	   1.43815	3.17283e+07	   76.8322	      15.3	   1.40906	2.95974e+07	   76.7644	      15.3	   1.33832	3.07926e+07	   76.7116	      15.3	   1.38807	3.15222e+07	   76.7671	      15.3	   1.42361	3.06483e+07	   76.8199	      15.3	   1.37386	2.99173e+07	
         R10	   3224	   76.8075	      15.3	   1.33866	3.02275e+07	   76.8322	      15.3	   1.40906	2.95135e+07	   76.9342	      15.3	   1.39365	2.82135e+07	   76.8849	      15.3	   1.25478	2.95102e+07	   76.8199	      15.3	   1.37386	2.98642e+07	   76.8832	      15.3	   1.40136	 2.8852e+07	   76.9096	      15.3	   1.32422	2.88465e+07	   76.8462	      15.3	   1.29672	2.98551e+07	
         R10	   3225	   76.8849	      15.3	   1.25478	2.94918e+07	   76.9342	      15.3	   1.39365	2.81714e+07	    77.027	      15.3	   1.38014	2.70605e+07	   77.0279	      15.3	   1.25564	2.79246e+07	   76.9096	      15.3	   1.32422	2.88166e+07	   76.9806	      15.3	    1.3869	2.76013e+07	   77.0274	      15.3	   1.31789	2.74804e+07	   76.9564	      15.3	   1.25521	2.86885e+07	
         R10	   3226	   77.1333	      15.3	   1.12896	2.79672e+07	   76.9563	      15.3	   1.11251	2.94437e+07	   76.8849	      15.3	   1.25478	2.95277e+07	   77.0279	      15.3	   1.25564	 2.7905e+07	   77.0448	      15.3	   1.12073	2.86718e+07	   76.9206	      15.3	   1.18365	 2.9464e+07	   76.9564	      15.3	   1.25521	2.86951e+07	   77.0806	      15.3	    1.1923	2.79018e+07	
         R10	   3227	   77.2251	      15.3	   1.24388	2.64925e+07	   77.1333	      15.3	   1.12896	2.79192e+07	   77.0279	      15.3	   1.25564	2.79212e+07	     77.13	      15.3	    1.2805	2.67658e+07	   77.1792	      15.3	   1.18642	2.71941e+07	   77.0806	      15.3	    1.1923	2.78838e+07	   77.0789	      15.3	   1.26807	2.73285e+07	   77.1775	      15.3	   1.26219	2.66126e+07	
         R10	   3228	   77.3472	      15.3	   1.25813	2.57641e+07	   77.3295	      15.3	   1.12889	2.68391e+07	   77.1333	      15.3	   1.12896	2.79276e+07	   77.2251	      15.3	   1.24388	2.64655e+07	   77.3383	      15.3	   1.19351	2.62943e+07	   77.2314	      15.3	   1.12892	2.73227e+07	   77.1792	      15.3	   1.18642	2.71837e+07	   77.2861	      15.3	   1.25101	2.60884e+07	
         R10	   3229	   77.4664	      15.3	   1.25559	2.55366e+07	   77.5183	      15.3	   1.15289	2.62112e+07	   77.3295	      15.3	   1.12889	2.68521e+07	   77.3472	      15.3	   1.25813	2.57832e+07	   77.4924	      15.3	   1.20424	2.58616e+07	   77.4239	      15.3	   1.14089	2.64742e+07	   77.3383	      15.3	   1.19351	2.63109e+07	   77.4068	      15.3	   1.25686	2.56335e+07	
         R10	   3230	   77.4664	      15.3	   1.25559	2.56078e+07	   77.3472	      15.3	   1.25813	2.57355e+07	   77.3696	      15.3	   1.37848	2.47906e+07	   77.5362	      15.3	   1.34025	2.49866e+07	   77.4068	      15.3	   1.25686	2.56446e+07	   77.3584	      15.3	   1.31831	2.52543e+07	   77.4529	      15.3	   1.35937	2.48393e+07	   77.5013	      15.3	   1.29792	2.52857e+07	
         R10	   3231	   77.4664	      15.3	   1.25559	2.55731e+07	   77.5362	      15.3	   1.34025	2.49263e+07	   77.6891	      15.3	   1.26681	2.56758e+07	   77.5183	      15.3	   1.15289	 2.6214e+07	   77.5013	      15.3	   1.29792	2.52385e+07	   77.6126	      15.3	   1.30353	2.52626e+07	   77.6037	      15.3	   1.20985	2.58965e+07	   77.4924	      15.3	   1.20424	2.58826e+07	
         R10	   3232	   78.1561	      15.3	   1.06272	2.75326e+07	   78.2074	      15.3	   1.38064	 2.6957e+07	   78.4074	      15.3	   1.36964	2.75628e+07	   78.3844	      15.3	   1.11942	2.78397e+07	   78.1817	      15.3	   1.22168	2.72262e+07	   78.3074	      15.3	   1.37514	2.72498e+07	   78.3959	      15.3	   1.24453	2.76938e+07	   78.2702	      15.3	   1.09107	2.76575e+07	
         R10	   3233	   78.1561	      15.3	   1.06272	2.75936e+07	   78.0111	      15.3	   1.23778	2.67414e+07	   78.0288	      15.3	   1.40663	2.62173e+07	   78.2074	      15.3	   1.38064	2.69207e+07	   78.0836	      15.3	   1.15025	2.71491e+07	   78.0199	      15.3	    1.3222	2.64708e+07	   78.1181	      15.3	   1.39363	2.65564e+07	   78.1817	      15.3	   1.22168	2.72447e+07	
         R10	   3234	   77.8559	      15.3	   1.24379	2.62222e+07	   78.0111	      15.3	   1.23778	2.67978e+07	   78.1561	      15.3	   1.06272	2.74926e+07	   77.9257	      15.3	   1.02023	2.73843e+07	   77.9335	      15.3	   1.24079	2.64873e+07	   78.0836	      15.3	   1.15025	 2.7131e+07	   78.0409	      15.3	   1.04147	2.73977e+07	   77.8908	      15.3	   1.13201	2.67844e+07	
         R10	   3235	   77.6891	      15.3	   1.26681	2.56779e+07	   77.8559	      15.3	   1.24379	2.62466e+07	   77.9257	      15.3	   1.02023	2.72655e+07	   77.7226	      15.3	   1.01626	2.70952e+07	   77.7725	      15.3	    1.2553	2.59321e+07	   77.8908	      15.3	   1.13201	2.67347e+07	   77.8241	      15.3	   1.01824	2.71384e+07	   77.7058	      15.3	   1.14154	2.63655e+07	
         R10	   3236	   77.5284	      15.3	  0.998742	2.71983e+07	   77.5183	      15.3	   1.15289	2.61819e+07	   77.6891	      15.3	   1.26681	2.56043e+07	   77.7226	      15.3	   1.01626	2.70949e+07	   77.5234	      15.3	   1.07582	2.66804e+07	   77.6037	      15.3	   1.20985	2.58549e+07	   77.7058	      15.3	   1.14154	2.63272e+07	   77.6255	      15.3	    1.0075	2.70996e+07	
         R10	   3237	    76.702	      15.3	   1.43815	3.19625e+07	    76.666	      15.3	   1.52869	3.26267e+07	   76.7582	      15.3	   1.51367	3.07006e+07	    76.684	      15.3	   1.48342	3.22679e+07	   76.7121	      15.3	   1.52118	3.16524e+07	   76.7301	      15.3	   1.47591	3.13052e+07	       N/A	       N/A	       N/A	        N/A	       N/A	       N/A	       N/A	        N/A	
         R10	   3238	   77.3696	      15.3	   1.37848	2.48424e+07	   77.3421	      15.3	   1.49801	2.40455e+07	   77.4573	      15.3	   1.48601	2.40484e+07	   77.3559	      15.3	   1.43825	2.44317e+07	   77.3997	      15.3	   1.49201	2.40195e+07	   77.4135	      15.3	   1.43225	2.44214e+07	       N/A	       N/A	       N/A	        N/A	       N/A	       N/A	       N/A	        N/A	
         R10	   3239	   77.4514	      15.3	       1.6	2.34246e+07	     77.35	      15.3	       1.6	2.34608e+07	     77.35	      15.3	   1.70151	2.28515e+07	   77.4578	      15.3	   1.70399	2.29142e+07	   77.4007	      15.3	       1.6	2.34182e+07	     77.35	      15.3	   1.65076	2.31501e+07	   77.4039	      15.3	   1.70275	2.28509e+07	   77.4546	      15.3	   1.65199	2.31605e+07	
         R10	   3240	   77.4578	      15.3	   1.70399	2.29768e+07	     77.35	      15.3	   1.70151	2.29357e+07	     77.35	      15.3	   1.79987	2.24486e+07	    77.445	      15.3	   1.79387	 2.2604e+07	   77.4039	      15.3	   1.70275	2.29239e+07	     77.35	      15.3	   1.75069	2.26856e+07	   77.3975	      15.3	   1.79687	 2.2503e+07	   77.4514	      15.3	   1.74893	2.27874e+07	
         R10	   3241	    77.445	      15.3	   1.79387	2.26329e+07	     77.35	      15.3	   1.79987	2.24803e+07	     77.35	      15.3	   1.89507	2.21792e+07	   77.4428	      15.3	   1.89924	 2.2413e+07	   77.3975	      15.3	   1.79687	2.25338e+07	     77.35	      15.3	   1.84747	2.23245e+07	   77.3964	      15.3	   1.89715	2.22717e+07	   77.4439	      15.3	   1.84656	2.25186e+07	
         R10	   3242	   77.4428	      15.3	   1.89924	2.23936e+07	     77.35	      15.3	   1.89507	2.21896e+07	     77.35	      15.3	   1.98711	2.20528e+07	   77.4476	      15.3	   1.97957	2.23847e+07	   77.3964	      15.3	   1.89715	 2.2267e+07	     77.35	      15.3	   1.94109	2.21166e+07	   77.3988	      15.3	   1.98334	2.21962e+07	   77.4452	      15.3	   1.93941	 2.2388e+07	
         R10	   3243	   77.4476	      15.3	   1.97957	2.23313e+07	     77.35	      15.3	   1.98711	 2.2081e+07	     77.35	      15.3	     2.076	2.20599e+07	   77.4414	      15.3	   2.07521	2.24143e+07	   77.3988	      15.3	   1.98334	2.21802e+07	     77.35	      15.3	   2.03156	2.20677e+07	   77.3957	      15.3	    2.0756	2.22159e+07	   77.4445	      15.3	   2.02739	2.23719e+07	
         R10	   3244	   77.4414	      15.3	   2.07521	2.23592e+07	     77.35	      15.3	     2.076	2.20848e+07	     77.35	      15.3	   2.16173	2.21799e+07	   77.4367	      15.3	   2.15942	2.24529e+07	   77.3957	      15.3	    2.0756	2.21973e+07	     77.35	      15.3	   2.11887	2.21295e+07	   77.3934	      15.3	   2.16057	2.23015e+07	    77.439	      15.3	   2.11731	 2.2406e+07	
         R10	   3245	   77.4367	      15.3	   2.15942	2.23564e+07	     77.35	      15.3	   2.16173	2.21974e+07	     77.35	      15.3	   2.24431	2.24955e+07	   77.4306	      15.3	   2.24261	2.25906e+07	   77.3934	      15.3	   2.16057	 2.2258e+07	     77.35	      15.3	   2.20302	2.23444e+07	   77.3903	      15.3	   2.24346	2.25326e+07	   77.4337	      15.3	   2.20101	2.24721e+07	
         R10	   3246	   77.4306	      15.3	   2.24261	2.24462e+07	     77.35	      15.3	   2.24431	2.24833e+07	     77.35	      15.3	   2.32373	2.27365e+07	   77.4306	      15.3	   2.32389	2.33303e+07	   77.3903	      15.3	   2.24346	2.24561e+07	     77.35	      15.3	   2.28402	2.26084e+07	   77.3903	      15.3	   2.32381	2.29986e+07	   77.4306	      15.3	   2.28325	2.28765e+07	
         R10	   3247	   77.4306	      15.3	   2.32389	2.31074e+07	     77.35	      15.3	   2.32373	2.27067e+07	     77.35	      15.3	       2.4	2.29112e+07	   77.4288	      15.3	       2.4	2.30147e+07	   77.3903	      15.3	   2.32381	 2.2868e+07	     77.35	      15.3	   2.36187	2.28018e+07	   77.3894	      15.3	       2.4	2.29399e+07	   77.4297	      15.3	   2.36194	2.29867e+07	
         R10	   3248	   77.5253	      15.3	   2.31439	2.25359e+07	   77.4306	      15.3	   2.32389	2.22786e+07	   77.4288	      15.3	       2.4	2.48562e+07	   77.5234	      15.3	       2.4	2.27948e+07	   77.4779	      15.3	   2.31914	2.23527e+07	   77.4297	      15.3	   2.36194	2.35486e+07	   77.4761	      15.3	       2.4	2.36534e+07	   77.5243	      15.3	    2.3572	2.25164e+07	
         R10	   3249	   77.5253	      15.3	   2.31439	2.35742e+07	   77.5234	      15.3	       2.4	2.23117e+07	   77.6336	      15.3	       2.4	2.31095e+07	   77.6341	      15.3	   2.27608	2.42216e+07	   77.5243	      15.3	    2.3572	2.28864e+07	   77.5785	      15.3	       2.4	2.25135e+07	   77.6339	      15.3	   2.33804	2.35848e+07	   77.5797	      15.3	   2.29524	2.38908e+07	
         R10	   3250	   77.6341	      15.3	   2.27608	2.32093e+07	   77.6336	      15.3	       2.4	 2.4675e+07	   77.7596	      15.3	       2.4	2.28124e+07	   77.7716	      15.3	   2.26714	  2.289e+07	   77.6339	      15.3	   2.33804	2.38262e+07	   77.6966	      15.3	       2.4	2.35127e+07	   77.7656	      15.3	   2.33357	2.26457e+07	   77.7029	      15.3	   2.27161	2.29218e+07	
         R10	   3251	   77.7716	      15.3	   2.26714	2.31439e+07	   77.7596	      15.3	       2.4	 2.2921e+07	   77.9013	      15.3	       2.4	 2.3656e+07	   77.9069	      15.3	   2.24758	2.41365e+07	   77.7656	      15.3	   2.33357	2.29459e+07	   77.8304	      15.3	       2.4	2.32677e+07	   77.9041	      15.3	   2.32379	2.38766e+07	   77.8393	      15.3	   2.25736	2.36141e+07	
         R10	   3252	   77.9069	      15.3	   2.24758	2.45221e+07	   77.9013	      15.3	       2.4	 2.2484e+07	   78.0586	      15.3	       2.4	2.39727e+07	   78.0643	      15.3	   2.23173	2.44527e+07	   77.9041	      15.3	   2.32379	2.34552e+07	     77.98	      15.3	       2.4	2.31728e+07	   78.0615	      15.3	   2.31586	2.42052e+07	   77.9856	      15.3	   2.23965	2.44779e+07	
         R10	   3253	   78.0643	      15.3	   2.23173	2.39158e+07	   78.0586	      15.3	       2.4	2.32686e+07	   78.2317	      15.3	       2.4	2.30972e+07	   78.2378	      15.3	   2.21689	2.42372e+07	   78.0615	      15.3	   2.31586	 2.3586e+07	   78.1452	      15.3	       2.4	2.31719e+07	   78.2347	      15.3	   2.30844	2.36559e+07	    78.151	      15.3	   2.22431	2.40327e+07	
         R10	   3254	   78.2378	      15.3	   2.21689	2.51638e+07	   78.2317	      15.3	       2.4	2.17395e+07	   78.4205	      15.3	       2.4	2.55531e+07	   78.4257	      15.3	   2.20679	2.43562e+07	   78.2347	      15.3	   2.30844	2.34254e+07	   78.3261	      15.3	       2.4	2.36145e+07	   78.4231	      15.3	   2.30339	2.49264e+07	   78.3317	      15.3	   2.21184	2.47372e+07	
         R10	   3255	   78.4257	      15.3	   2.20679	2.56107e+07	   78.4205	      15.3	       2.4	 1.9453e+07	    78.625	      15.3	       2.4	2.73182e+07	    78.625	      15.3	   2.20952	2.59324e+07	   78.4231	      15.3	   2.30339	2.24831e+07	   78.5228	      15.3	       2.4	2.29839e+07	    78.625	      15.3	   2.30476	2.62003e+07	   78.5254	      15.3	   2.20816	2.56955e+07	
         R10	   3256	   78.4211	      15.3	   2.01051	2.59021e+07	   78.4257	      15.3	   2.20679	2.56021e+07	    78.625	      15.3	   2.20952	2.52455e+07	    78.625	      15.3	    2.0127	2.60832e+07	   78.4234	      15.3	   2.10865	2.56972e+07	   78.5254	      15.3	   2.20816	2.53468e+07	    78.625	      15.3	   2.11111	2.55222e+07	   78.5231	      15.3	    2.0116	2.58816e+07	
         R10	   3257	   78.4211	      15.3	   2.01051	2.58829e+07	    78.625	      15.3	    2.0127	2.72636e+07	    78.625	      15.3	   1.80952	2.65159e+07	     78.42	      15.3	   1.80873	2.69447e+07	   78.5231	      15.3	    2.0116	2.65379e+07	    78.625	      15.3	   1.91111	2.68595e+07	   78.5225	      15.3	   1.80913	2.66648e+07	   78.4206	      15.3	   1.90962	2.63587e+07	
         R10	   3258	     78.42	      15.3	   1.80873	2.68566e+07	    78.625	      15.3	   1.80952	2.69299e+07	    78.625	      15.3	       1.6	2.73028e+07	   78.4076	      15.3	       1.6	2.69805e+07	   78.5225	      15.3	   1.80913	2.68726e+07	    78.625	      15.3	   1.70476	2.71116e+07	   78.5163	      15.3	       1.6	2.71304e+07	   78.4138	      15.3	   1.70436	2.69131e+07	
         R10	   3259	   78.2168	      15.3	   1.81847	2.61215e+07	     78.42	      15.3	   1.80873	 2.6455e+07	   78.4076	      15.3	       1.6	 2.7158e+07	   78.2069	      15.3	       1.6	  2.646e+07	   78.3184	      15.3	    1.8136	2.62547e+07	   78.4138	      15.3	   1.70436	2.67915e+07	   78.3073	      15.3	       1.6	2.67988e+07	   78.2118	      15.3	   1.70924	2.62906e+07	
         R10	   3260	   78.2168	      15.3	   1.81847	2.62192e+07	   78.2069	      15.3	       1.6	2.63302e+07	   78.0226	      15.3	       1.6	2.55215e+07	   78.0195	      15.3	   1.75622	2.53346e+07	   78.2118	      15.3	   1.70924	2.62698e+07	   78.1147	      15.3	       1.6	2.59072e+07	   78.0211	      15.3	   1.67811	2.54263e+07	   78.1181	      15.3	   1.78735	2.57539e+07	
         R10	   3261	   78.0195	      15.3	   1.75622	2.53552e+07	   78.0226	      15.3	       1.6	2.56132e+07	    77.855	      15.3	       1.6	 2.4834e+07	    77.861	      15.3	   1.75654	2.46287e+07	   78.0211	      15.3	   1.67811	2.54757e+07	   77.9388	      15.3	       1.6	2.52049e+07	    77.858	      15.3	   1.67827	 2.4727e+07	   77.9403	      15.3	   1.75638	2.49636e+07	
         R10	   3262	    77.861	      15.3	   1.75654	2.45106e+07	    77.855	      15.3	       1.6	2.48247e+07	   77.7039	      15.3	       1.6	2.41321e+07	   77.7104	      15.3	    1.7398	2.38227e+07	    77.858	      15.3	   1.67827	2.46576e+07	   77.7794	      15.3	       1.6	2.44526e+07	   77.7071	      15.3	    1.6699	2.39739e+07	   77.7857	      15.3	   1.74817	2.41343e+07	
         R10	   3263	   77.7104	      15.3	    1.7398	2.38784e+07	   77.7039	      15.3	       1.6	 2.4101e+07	   77.5694	      15.3	       1.6	2.36276e+07	    77.577	      15.3	   1.72208	2.32626e+07	   77.7071	      15.3	    1.6699	2.39807e+07	   77.6366	      15.3	       1.6	2.38358e+07	   77.5732	      15.3	   1.66104	2.34387e+07	   77.6437	      15.3	   1.73094	2.35378e+07	
         R10	   3264	    77.577	      15.3	   1.72208	2.32373e+07	   77.5694	      15.3	       1.6	2.36414e+07	   77.4514	      15.3	       1.6	 2.3422e+07	   77.4578	      15.3	   1.70399	2.29597e+07	   77.5732	      15.3	   1.66104	2.34285e+07	   77.5104	      15.3	       1.6	2.35035e+07	   77.4546	      15.3	   1.65199	2.31847e+07	   77.5174	      15.3	   1.71304	2.30633e+07	
         R10	   3265	   77.5606	      15.3	   1.85214	2.29271e+07	    77.577	      15.3	   1.72208	2.32408e+07	   77.4578	      15.3	   1.70399	2.29685e+07	    77.445	      15.3	   1.79387	2.26692e+07	   77.5688	      15.3	   1.78711	  2.308e+07	   77.5174	      15.3	   1.71304	2.30682e+07	   77.4514	      15.3	   1.74893	2.28143e+07	   77.5028	      15.3	     1.823	2.27663e+07	
         R10	   3266	   77.5473	      15.3	   1.96545	2.28403e+07	   77.4476	      15.3	   1.97957	 2.2345e+07	   77.4414	      15.3	   2.07521	2.23659e+07	   77.5343	      15.3	   2.07707	2.27595e+07	   77.4975	      15.3	   1.97251	 2.2575e+07	   77.4445	      15.3	   2.02739	2.23551e+07	   77.4878	      15.3	   2.07614	2.25409e+07	   77.5408	      15.3	   2.02126	2.27965e+07	
         R10	   3267	   77.5343	      15.3	   2.07707	2.28042e+07	   77.4414	      15.3	   2.07521	2.23522e+07	   77.4367	      15.3	   2.15942	2.26079e+07	   77.5495	      15.3	   2.16943	2.27082e+07	   77.4878	      15.3	   2.07614	2.25605e+07	    77.439	      15.3	   2.11731	2.24795e+07	   77.4931	      15.3	   2.16442	2.26373e+07	   77.5419	      15.3	   2.12325	2.27551e+07	
         R10	   3268	   77.7621	      15.3	   2.12013	2.35533e+07	   77.7716	      15.3	   2.26714	2.38381e+07	   77.9069	      15.3	   2.24758	2.33784e+07	   77.8794	      15.3	   2.09236	2.46292e+07	   77.7669	      15.3	   2.19364	2.36523e+07	   77.8393	      15.3	   2.25736	2.35346e+07	   77.8932	      15.3	   2.16997	2.39876e+07	   77.8207	      15.3	   2.10625	2.40784e+07	
         R10	   3269	   77.8794	      15.3	   2.09236	2.45004e+07	   77.9069	      15.3	   2.24758	2.39311e+07	   78.0643	      15.3	   2.23173	2.43733e+07	   78.0516	      15.3	   2.06263	2.47688e+07	   77.8932	      15.3	   2.16997	2.42062e+07	   77.9856	      15.3	   2.23965	2.41381e+07	    78.058	      15.3	   2.14718	2.45686e+07	   77.9655	      15.3	   2.07749	2.46224e+07	
         R10	   3270	   78.0516	      15.3	   2.06263	2.48074e+07	   78.0643	      15.3	   2.23173	2.42242e+07	   78.2378	      15.3	   2.21689	2.43715e+07	   78.2277	      15.3	   2.02807	2.56843e+07	    78.058	      15.3	   2.14718	2.45138e+07	    78.151	      15.3	   2.22431	2.42974e+07	   78.2327	      15.3	   2.12248	2.50182e+07	   78.1396	      15.3	   2.04535	2.52238e+07	
         R10	   3271	   78.2277	      15.3	   2.02807	2.54725e+07	   78.2378	      15.3	   2.21689	2.49542e+07	   78.4257	      15.3	   2.20679	2.41415e+07	   78.4211	      15.3	   2.01051	2.64064e+07	   78.2327	      15.3	   2.12248	 2.5209e+07	   78.3317	      15.3	   2.21184	2.45222e+07	   78.4234	      15.3	   2.10865	2.52468e+07	   78.3244	      15.3	   2.01929	2.59356e+07	
         R10	   3272	   78.2277	      15.3	   2.02807	  2.538e+07	   78.4211	      15.3	   2.01051	2.58674e+07	     78.42	      15.3	   1.80873	 2.6937e+07	   78.2168	      15.3	   1.81847	 2.6226e+07	   78.3244	      15.3	   2.01929	2.55962e+07	   78.4206	      15.3	   1.90962	2.63789e+07	   78.3184	      15.3	    1.8136	2.65642e+07	   78.2222	      15.3	   1.92327	2.58026e+07	
         R10	   3273	   78.0151	      15.3	   1.93043	2.49995e+07	   78.0195	      15.3	   1.75622	2.53084e+07	    77.861	      15.3	   1.75654	2.46724e+07	   77.8449	      15.3	   1.92717	2.43449e+07	   78.0173	      15.3	   1.84332	2.51516e+07	   77.9403	      15.3	   1.75638	2.49685e+07	    77.853	      15.3	   1.84185	2.45028e+07	     77.93	      15.3	    1.9288	2.46456e+07	
         R10	   3274	   77.8449	      15.3	   1.92717	2.41806e+07	    77.861	      15.3	   1.75654	2.45376e+07	   77.7104	      15.3	    1.7398	 2.3841e+07	   77.6847	      15.3	   1.86055	2.36732e+07	    77.853	      15.3	   1.84185	2.43542e+07	   77.7857	      15.3	   1.74817	2.41569e+07	   77.6975	      15.3	   1.80017	2.37545e+07	   77.7648	      15.3	   1.89386	2.38952e+07	
         R10	   3275	   77.6847	      15.3	   1.86055	2.34825e+07	   77.7104	      15.3	    1.7398	2.38743e+07	    77.577	      15.3	   1.72208	2.32757e+07	   77.5606	      15.3	   1.85214	2.30116e+07	   77.6975	      15.3	   1.80017	 2.3677e+07	   77.6437	      15.3	   1.73094	 2.3538e+07	   77.5688	      15.3	   1.78711	2.31373e+07	   77.6226	      15.3	   1.85634	2.32229e+07	
         R10	   3276	   77.5606	      15.3	   1.85214	2.29382e+07	   77.4428	      15.3	   1.89924	2.24825e+07	   77.4476	      15.3	   1.97957	2.24043e+07	   77.5473	      15.3	   1.96545	2.27449e+07	   77.5017	      15.3	   1.87569	2.26845e+07	   77.4452	      15.3	   1.93941	2.24418e+07	   77.4975	      15.3	   1.97251	 2.2555e+07	    77.554	      15.3	    1.9088	2.28374e+07	
         R10	   3277	   77.6847	      15.3	   1.86055	2.34541e+07	   77.5606	      15.3	   1.85214	2.29633e+07	   77.5473	      15.3	   1.96545	2.27617e+07	   77.6799	      15.3	    2.0124	2.34619e+07	   77.6226	      15.3	   1.85634	2.31844e+07	    77.554	      15.3	    1.9088	2.28585e+07	   77.6136	      15.3	   1.98893	2.30833e+07	   77.6823	      15.3	   1.93648	2.34572e+07	
         R10	   3278	   77.6799	      15.3	    2.0124	2.36032e+07	   77.5343	      15.3	   2.07707	2.28055e+07	   77.5495	      15.3	   2.16943	 2.2877e+07	   77.6312	      15.3	   2.12849	2.32858e+07	   77.6071	      15.3	   2.04473	2.31782e+07	   77.5419	      15.3	   2.12325	2.28388e+07	   77.5904	      15.3	   2.14896	2.30754e+07	   77.6556	      15.3	   2.07045	2.34418e+07	
         R10	   3279	   78.0516	      15.3	   2.06263	2.47238e+07	   78.2277	      15.3	   2.02807	2.58649e+07	   78.2168	      15.3	   1.81847	2.59119e+07	   78.0151	      15.3	   1.93043	2.51726e+07	   78.1396	      15.3	   2.04535	2.52886e+07	   78.2222	      15.3	   1.92327	2.58873e+07	   78.1159	      15.3	   1.87445	2.55219e+07	   78.0333	      15.3	   1.99653	2.49462e+07	
         R10	   3280	   77.8794	      15.3	   2.09236	 2.4202e+07	   78.0516	      15.3	   2.06263	2.47778e+07	   78.0151	      15.3	   1.93043	 2.4947e+07	   77.8449	      15.3	   1.92717	2.43982e+07	   77.9655	      15.3	   2.07749	2.44793e+07	   78.0333	      15.3	   1.99653	 2.4862e+07	     77.93	      15.3	    1.9288	2.46511e+07	   77.8621	      15.3	   2.00976	2.42877e+07	
         R10	   3281	   77.5033	      15.3	   2.24714	 2.2589e+07	   77.4306	      15.3	   2.24261	2.24466e+07	   77.4306	      15.3	   2.32389	2.26503e+07	   77.5253	      15.3	   2.31439	 2.2825e+07	   77.4669	      15.3	   2.24487	2.24999e+07	   77.4306	      15.3	   2.28325	2.25176e+07	   77.4779	      15.3	   2.31914	2.27202e+07	   77.5143	      15.3	   2.28077	2.26989e+07	
         R10	   3282	   77.5033	      15.3	   2.24714	2.29157e+07	   77.5253	      15.3	   2.31439	 2.3646e+07	   77.6341	      15.3	   2.27608	2.25997e+07	   77.5495	      15.3	   2.16943	2.37359e+07	   77.5143	      15.3	   2.28077	2.32775e+07	   77.5797	      15.3	   2.29524	2.30843e+07	   77.5918	      15.3	   2.22275	2.31506e+07	   77.5264	      15.3	   2.20828	2.33199e+07	
         R10	   3283	   77.5033	      15.3	   2.24714	 2.2768e+07	   77.5495	      15.3	   2.16943	2.27121e+07	   77.4367	      15.3	   2.15942	2.25967e+07	   77.4306	      15.3	   2.24261	2.25728e+07	   77.5264	      15.3	   2.20828	2.27303e+07	   77.4931	      15.3	   2.16442	2.26285e+07	   77.4337	      15.3	   2.20101	2.25829e+07	   77.4669	      15.3	   2.24487	2.26617e+07	
         R10	   3284	   77.6696	      15.3	   2.17596	2.21399e+07	   77.6312	      15.3	   2.12849	2.32773e+07	   77.5495	      15.3	   2.16943	2.35591e+07	   77.6341	      15.3	   2.27608	2.32105e+07	   77.6504	      15.3	   2.15223	2.27046e+07	   77.5904	      15.3	   2.14896	 2.3412e+07	   77.5918	      15.3	   2.22275	2.33655e+07	   77.6518	      15.3	   2.22602	2.26721e+07	
         R10	   3285	   77.6696	      15.3	   2.17596	2.35223e+07	   77.6341	      15.3	   2.27608	2.29955e+07	   77.7716	      15.3	   2.26714	2.41058e+07	   77.7621	      15.3	   2.12013	2.27461e+07	   77.6518	      15.3	   2.22602	2.32585e+07	   77.7029	      15.3	   2.27161	2.35438e+07	   77.7669	      15.3	   2.19364	2.33886e+07	   77.7159	      15.3	   2.14805	   2.31e+07	
         R10	   3286	   77.6696	      15.3	   2.17596	2.33265e+07	   77.7621	      15.3	   2.12013	2.46477e+07	   77.6799	      15.3	    2.0124	2.24923e+07	   77.6312	      15.3	   2.12849	2.27334e+07	   77.7159	      15.3	   2.14805	2.39829e+07	    77.721	      15.3	   2.06627	2.35635e+07	   77.6556	      15.3	   2.07045	2.26113e+07	   77.6504	      15.3	   2.15223	2.30259e+07	
         R10	   3287	   77.6799	      15.3	    2.0124	2.32913e+07	   77.7621	      15.3	   2.12013	2.40299e+07	   77.8794	      15.3	   2.09236	2.38022e+07	   77.8449	      15.3	   1.92717	2.45387e+07	    77.721	      15.3	   2.06627	2.36549e+07	   77.8207	      15.3	   2.10625	2.38946e+07	   77.8621	      15.3	   2.00976	2.41638e+07	   77.7624	      15.3	   1.96979	2.38946e+07	
         R10	   3288	   77.5606	      15.3	   1.85214	2.28657e+07	    77.445	      15.3	   1.79387	2.26541e+07	   77.4428	      15.3	   1.89924	2.24788e+07	   77.5028	      15.3	     1.823	2.27285e+07	   77.4439	      15.3	   1.84656	2.25631e+07	   77.5017	      15.3	   1.87569	2.26496e+07	       N/A	       N/A	       N/A	        N/A	       N/A	       N/A	       N/A	        N/A	
         R10	   3289	   77.6799	      15.3	    2.0124	2.35201e+07	   77.5473	      15.3	   1.96545	2.27719e+07	   77.5343	      15.3	   2.07707	2.26396e+07	   77.6136	      15.3	   1.98893	2.31197e+07	   77.5408	      15.3	   2.02126	 2.2704e+07	   77.6071	      15.3	   2.04473	2.30536e+07	       N/A	       N/A	       N/A	        N/A	       N/A	       N/A	       N/A	        N/A	
         R10	   3290	   78.2168	      15.3	   1.81847	2.62477e+07	   78.0195	      15.3	   1.75622	2.52303e+07	   78.0151	      15.3	   1.93043	2.49766e+07	   78.1181	      15.3	   1.78735	2.57079e+07	   78.0173	      15.3	   1.84332	2.51008e+07	   78.1159	      15.3	   1.87445	2.55943e+07	       N/A	       N/A	       N/A	        N/A	       N/A	       N/A	       N/A	        N/A	
         R10	   3291	   77.8449	      15.3	   1.92717	2.40577e+07	   77.6847	      15.3	   1.86055	2.36866e+07	   77.6799	      15.3	    2.0124	2.35606e+07	   77.7648	      15.3	   1.89386	2.38408e+07	   77.6823	      15.3	   1.93648	2.36228e+07	   77.7624	      15.3	   1.96979	2.37869e+07	       N/A	       N/A	       N/A	        N/A	       N/A	       N/A	       N/A	        N/A	
         R10	   3292	   79.6875	       8.5	       2.4	4.61093e+07	    78.625	       8.5	       2.4	6.36629e+07	    78.625	      9.35	       2.4	1.02682e+08	   79.6875	      9.35	       2.4	7.33833e+07	   79.1563	       8.5	       2.4	5.36099e+07	    78.625	     8.925	       2.4	3.04157e+07	   79.1563	      9.35	       2.4	8.39471e+07	   79.6875	     8.925	       2.4	3.10941e+07	
         R10	   3293	     80.75	       8.5	       2.4	 1.9855e+07	   79.6875	       8.5	       2.4	4.21031e+07	   79.6875	      9.35	       2.4	6.57765e+07	     80.75	      9.35	       2.4	5.60963e+07	   80.2188	       8.5	       2.4	2.47699e+07	   79.6875	     8.925	       2.4	2.09519e+07	   80.2188	      9.35	       2.4	4.93477e+07	     80.75	     8.925	       2.4	3.77655e+07	
         R10	   3294	   79.6875	      9.35	       2.4	5.72183e+07	    78.625	      9.35	       2.4	6.52264e+07	    78.625	      10.2	       2.4	2.96823e+07	   79.6875	      10.2	       2.4	5.27947e+07	   79.1563	      9.35	       2.4	  5.628e+07	    78.625	     9.775	       2.4	1.95719e+07	   79.1563	      10.2	       2.4	3.51738e+07	   79.6875	     9.775	       2.4	2.27742e+07	
         R10	   3295	     80.75	      9.35	       2.4	5.27942e+07	   79.6875	      9.35	       2.4	 5.5779e+07	   79.6875	      10.2	       2.4	5.55568e+07	     80.75	      10.2	       2.4	5.45985e+07	   80.2188	      9.35	       2.4	 3.5643e+07	   79.6875	     9.775	       2.4	1.35868e+07	   80.2188	      10.2	       2.4	4.77536e+07	     80.75	     9.775	       2.4	5.36856e+07	
         R10	   3296	   79.9744	     11.05	       2.4	5.35479e+07	     80.75	     11.05	       2.4	 5.3493e+07	     80.75	      10.2	       2.4	5.41047e+07	   79.6875	      10.2	       2.4	4.23256e+07	   80.3622	     11.05	       2.4	4.79225e+07	     80.75	    10.625	       2.4	5.37985e+07	   80.2188	      10.2	       2.4	 3.6742e+07	   79.8309	    10.625	       2.4	1.93887e+07	
         R10	   3297	   79.6875	      10.2	       2.4	3.24078e+07	    78.625	      10.2	       2.4	7.50285e+06	    78.625	     11.05	       2.4	2.08058e+07	    79.266	     11.05	       2.4	3.35297e+07	   79.1563	      10.2	       2.4	1.66011e+07	    78.625	    10.625	       2.4	7.99452e+06	   78.9455	     11.05	       2.4	2.15437e+07	   79.4768	    10.625	       2.4	1.43813e+07	
         R10	   3298	    79.266	     11.05	       2.4	3.21869e+07	   79.9744	     11.05	       2.4	5.12551e+07	   79.6875	      10.2	       2.4	5.23476e+07	   79.6202	     11.05	       2.4	4.13006e+07	   79.8309	    10.625	       2.4	2.87467e+07	   79.4768	    10.625	       2.4	2.18042e+07	       N/A	       N/A	       N/A	        N/A	       N/A	       N/A	       N/A	        N/A	
         R10	   3299	   79.2479	      15.3	  0.372116	3.22478e+07	   79.2266	      15.3	         0	3.10724e+07	   78.9125	      15.3	         0	 3.0079e+07	   78.9404	      15.3	  0.308896	3.18823e+07	   79.2372	      15.3	  0.186058	3.10351e+07	   79.0695	      15.3	         0	2.60392e+07	   78.9264	      15.3	  0.154448	 2.9364e+07	   79.0941	      15.3	  0.340506	  3.205e+07	
         R10	   3300	   79.5713	      15.3	  0.400362	3.07079e+07	   79.5674	      15.3	         0	2.91563e+07	   79.2266	      15.3	         0	2.51806e+07	   79.2479	      15.3	  0.372116	 2.6072e+07	   79.5694	      15.3	  0.200181	2.91073e+07	    79.397	      15.3	         0	2.69774e+07	   79.2372	      15.3	  0.186058	2.53945e+07	   79.4096	      15.3	  0.386239	2.83634e+07	
         R10	   3301	   79.9385	      15.3	  0.401676	3.24595e+07	   79.9349	      15.3	         0	3.62584e+07	   79.5674	      15.3	         0	3.06242e+07	   79.5713	      15.3	  0.400362	2.91151e+07	   79.9367	      15.3	  0.200838	3.32577e+07	   79.7512	      15.3	         0	3.32523e+07	   79.5694	      15.3	  0.200181	 2.9842e+07	   79.7549	      15.3	  0.401019	3.05749e+07	
         R10	   3302	   80.3364	      15.3	  0.403082	4.90621e+07	   80.3291	      15.3	         0	3.96686e+07	   79.9349	      15.3	         0	3.67912e+07	   79.9385	      15.3	  0.401676	2.95473e+07	   80.3327	      15.3	  0.201541	4.31217e+07	    80.132	      15.3	         0	3.71185e+07	   79.9367	      15.3	  0.200838	 3.2511e+07	   80.1374	      15.3	  0.402379	3.89417e+07	
         R10	   3303	     80.75	      15.3	       0.4	3.45808e+07	     80.75	      15.3	         0	4.88618e+07	   80.3291	      15.3	         0	4.54933e+07	   80.3364	      15.3	  0.403082	3.97224e+07	     80.75	      15.3	       0.2	4.06365e+07	   80.5396	      15.3	         0	4.57819e+07	   80.3327	      15.3	  0.201541	4.24068e+07	   80.5432	      15.3	  0.401541	3.64503e+07	
         R10	   3304	   80.2972	      15.3	       0.8	3.50965e+07	     80.75	      15.3	       0.8	3.40715e+07	     80.75	      15.3	       0.4	3.68201e+07	   80.3364	      15.3	  0.403082	3.75015e+07	   80.5236	      15.3	       0.8	3.44878e+07	     80.75	      15.3	       0.6	3.54437e+07	   80.5432	      15.3	  0.401541	3.71022e+07	   80.3168	      15.3	  0.601541	3.61448e+07	
         R10	   3305	   79.8839	      15.3	       0.8	3.08865e+07	   80.2972	      15.3	       0.8	3.29995e+07	   80.3364	      15.3	  0.403082	4.25738e+07	   79.9385	      15.3	  0.401676	3.09504e+07	   80.0906	      15.3	       0.8	3.18248e+07	   80.3168	      15.3	  0.601541	3.76211e+07	   80.1374	      15.3	  0.402379	3.60349e+07	   79.9112	      15.3	  0.600838	3.06895e+07	
         R10	   3306	     79.51	      15.3	       0.8	2.99645e+07	   79.8839	      15.3	       0.8	3.05638e+07	   79.9385	      15.3	  0.401676	3.53382e+07	   79.5713	      15.3	  0.400362	2.92335e+07	    79.697	      15.3	       0.8	3.01876e+07	   79.9112	      15.3	  0.600838	3.28048e+07	   79.7549	      15.3	  0.401019	3.21062e+07	   79.5407	      15.3	  0.600181	2.94744e+07	
         R10	   3307	   79.1756	      15.3	       0.8	3.01289e+07	     79.51	      15.3	       0.8	2.98874e+07	   79.5713	      15.3	  0.400362	3.11537e+07	   79.2479	      15.3	  0.372116	2.79464e+07	   79.3428	      15.3	       0.8	2.98832e+07	   79.5407	      15.3	  0.600181	3.04582e+07	   79.4096	      15.3	  0.386239	2.95376e+07	   79.2117	      15.3	  0.586058	2.90191e+07	
         R10	   3308	    78.625	      15.3	  0.558673	2.80413e+07	    78.625	      15.3	       0.8	 2.8927e+07	   78.8806	      15.3	       0.8	2.91337e+07	   78.9022	      15.3	  0.546117	 2.9429e+07	    78.625	      15.3	  0.679336	2.84792e+07	   78.7528	      15.3	       0.8	2.90024e+07	   78.8914	      15.3	  0.673059	2.92807e+07	   78.7636	      15.3	  0.552395	2.86882e+07	
         R10	   3309	   78.9404	      15.3	  0.308896	2.29838e+07	   78.9125	      15.3	         0	2.27515e+07	    78.625	      15.3	         0	2.30528e+07	    78.625	      15.3	  0.292006	  2.805e+07	   78.9264	      15.3	  0.154448	2.27242e+07	   78.7687	      15.3	         0	2.24761e+07	    78.625	      15.3	  0.146003	2.52967e+07	   78.7827	      15.3	  0.300451	 2.5506e+07	
         R10	   3310	   78.9404	      15.3	  0.308896	2.45962e+07	    78.625	      15.3	  0.292006	2.82159e+07	    78.625	      15.3	  0.558673	 2.7361e+07	   78.9022	      15.3	  0.546117	2.97112e+07	   78.7827	      15.3	  0.300451	2.63519e+07	    78.625	      15.3	  0.425339	 2.7777e+07	   78.7636	      15.3	  0.552395	2.84884e+07	   78.9213	      15.3	  0.427507	2.71195e+07	
         R10	   3311	   79.1756	      15.3	       0.8	3.01503e+07	   79.2479	      15.3	  0.372116	2.98754e+07	   78.9404	      15.3	  0.308896	2.92104e+07	   78.9022	      15.3	  0.546117	2.81699e+07	   79.2117	      15.3	  0.586058	2.99884e+07	   79.0941	      15.3	  0.340506	2.95364e+07	   78.9213	      15.3	  0.427507	2.86783e+07	   79.0389	      15.3	  0.673059	2.90653e+07	
         R10	   3312	   78.9022	      15.3	  0.546117	2.85389e+07	   78.8806	      15.3	       0.8	2.91042e+07	   79.1756	      15.3	       0.8	2.98353e+07	   78.8914	      15.3	  0.673059	2.88211e+07	   79.0281	      15.3	       0.8	2.94315e+07	   79.0389	      15.3	  0.673059	2.91413e+07	       N/A	       N/A	       N/A	        N/A	       N/A	       N/A	       N/A	        N/A	
         R10	   3313	   79.1756	      15.3	   1.11473	2.81295e+07	   79.1756	      15.3	       0.8	 2.8996e+07	   78.8806	      15.3	       0.8	 2.8712e+07	   78.8806	      15.3	   1.07529	2.86202e+07	   79.1756	      15.3	  0.957366	2.85483e+07	   79.0281	      15.3	       0.8	2.87985e+07	   78.8806	      15.3	  0.937646	2.86547e+07	   79.0281	      15.3	   1.09501	 2.8323e+07	
         R10	   3314	     79.51	      15.3	   1.15417	 2.9188e+07	     79.51	      15.3	       0.8	2.89551e+07	   79.1756	      15.3	       0.8	2.91996e+07	   79.1756	      15.3	   1.11473	2.70704e+07	     79.51	      15.3	  0.977084	2.90553e+07	   79.3428	      15.3	       0.8	2.90054e+07	   79.1756	      15.3	  0.957366	2.81251e+07	   79.3428	      15.3	   1.13445	2.80169e+07	
         R10	   3315	   79.8839	      15.3	    1.1936	2.95383e+07	   79.8839	      15.3	       0.8	3.01858e+07	     79.51	      15.3	       0.8	2.92851e+07	     79.51	      15.3	   1.15417	2.69954e+07	   79.8839	      15.3	  0.996802	2.98543e+07	    79.697	      15.3	       0.8	2.96102e+07	     79.51	      15.3	  0.977084	2.81341e+07	    79.697	      15.3	   1.17389	 2.8124e+07	
         R10	   3316	   80.2972	      15.3	   1.23304	3.14068e+07	   80.2972	      15.3	       0.8	3.24658e+07	   79.8839	      15.3	       0.8	3.09314e+07	   79.8839	      15.3	    1.1936	2.73563e+07	   80.2972	      15.3	   1.01652	3.18931e+07	   80.0906	      15.3	       0.8	3.15498e+07	   79.8839	      15.3	  0.996802	2.91364e+07	   80.0906	      15.3	   1.21332	 2.9206e+07	
         R10	   3317	     80.75	      15.3	   1.21905	3.48051e+07	     80.75	      15.3	       0.8	3.40654e+07	   80.2972	      15.3	       0.8	3.39113e+07	   80.2972	      15.3	   1.23304	 2.8665e+07	     80.75	      15.3	   1.00952	3.44309e+07	   80.5236	      15.3	       0.8	 3.3974e+07	   80.2972	      15.3	   1.01652	3.12272e+07	   80.5236	      15.3	   1.22604	3.16885e+07	
         R10	   3318	   80.3619	      15.3	       1.6	2.79841e+07	     80.75	      15.3	       1.6	3.30479e+07	     80.75	      15.3	   1.21905	  3.463e+07	   80.2972	      15.3	   1.23304	2.88407e+07	    80.556	      15.3	       1.6	3.02164e+07	     80.75	      15.3	   1.40952	3.36649e+07	   80.5236	      15.3	   1.22604	3.16489e+07	   80.3296	      15.3	   1.41652	2.83035e+07	
         R10	   3319	    80.002	      15.3	       1.6	2.56508e+07	   80.3619	      15.3	       1.6	 2.5942e+07	   80.2972	      15.3	   1.23304	3.21294e+07	   79.8839	      15.3	    1.1936	2.66554e+07	    80.182	      15.3	       1.6	2.57066e+07	   80.3296	      15.3	   1.41652	2.88835e+07	   80.0906	      15.3	   1.21332	2.90117e+07	    79.943	      15.3	    1.3968	2.61484e+07	
         R10	   3320	   79.6703	      15.3	       1.6	2.59368e+07	    80.002	      15.3	       1.6	2.59376e+07	   79.8839	      15.3	    1.1936	2.91784e+07	     79.51	      15.3	   1.15417	2.71263e+07	   79.8361	      15.3	       1.6	2.58771e+07	    79.943	      15.3	    1.3968	2.75405e+07	    79.697	      15.3	   1.17389	2.78236e+07	   79.5901	      15.3	   1.37708	2.64722e+07	
         R10	   3321	   78.8441	      15.3	   1.36685	2.81319e+07	   78.8441	      15.3	       1.6	2.75257e+07	   79.0913	      15.3	       1.6	2.72126e+07	   79.0913	      15.3	   1.33869	2.82925e+07	   78.8441	      15.3	   1.48343	2.78263e+07	   78.9677	      15.3	       1.6	2.73508e+07	   79.0913	      15.3	   1.46934	2.77328e+07	   78.9677	      15.3	   1.35277	2.81957e+07	
         R10	   3322	    78.625	      15.3	   1.34603	 2.7914e+07	    78.625	      15.3	       1.6	2.74171e+07	   78.8441	      15.3	       1.6	2.75632e+07	   78.8441	      15.3	   1.36685	2.82166e+07	    78.625	      15.3	   1.47302	2.76615e+07	   78.7345	      15.3	       1.6	2.74791e+07	   78.8441	      15.3	   1.48343	2.78871e+07	   78.7345	      15.3	   1.35644	2.80574e+07	
         R10	   3323	   78.8806	      15.3	   1.07529	2.83721e+07	   78.8806	      15.3	       0.8	2.86148e+07	    78.625	      15.3	       0.8	2.86338e+07	    78.625	      15.3	   1.07937	2.83699e+07	   78.8806	      15.3	  0.937646	2.84851e+07	   78.7528	      15.3	       0.8	2.85995e+07	    78.625	      15.3	  0.939683	2.84938e+07	   78.7528	      15.3	   1.07733	 2.8338e+07	
         R10	   3324	   78.8806	      15.3	   1.07529	2.83748e+07	    78.625	      15.3	   1.07937	2.83651e+07	    78.625	      15.3	   1.34603	2.79146e+07	   78.8441	      15.3	   1.36685	2.82665e+07	   78.7528	      15.3	   1.07733	2.83364e+07	    78.625	      15.3	    1.2127	2.81328e+07	   78.7345	      15.3	   1.35644	2.80827e+07	   78.8623	      15.3	   1.22107	2.83159e+07	
         R10	   3325	   79.1756	      15.3	   1.11473	2.84428e+07	   78.8806	      15.3	   1.07529	2.85651e+07	   78.8441	      15.3	   1.36685	2.82032e+07	   79.0913	      15.3	   1.33869	2.81055e+07	   79.0281	      15.3	   1.09501	2.84545e+07	   78.8623	      15.3	   1.22107	2.83829e+07	   78.9677	      15.3	   1.35277	2.81387e+07	   79.1334	      15.3	   1.22671	 2.8267e+07	
         R10	   3326	   79.3667	      15.3	       1.6	2.66056e+07	     79.51	      15.3	   1.15417	2.91486e+07	   79.1756	      15.3	   1.11473	2.72627e+07	   79.0913	      15.3	   1.33869	2.78544e+07	   79.4384	      15.3	   1.37708	2.78475e+07	   79.3428	      15.3	   1.13445	2.81305e+07	   79.1334	      15.3	   1.22671	2.75581e+07	    79.229	      15.3	   1.46934	2.71859e+07	
         R10	   3327	   79.3667	      15.3	       1.6	2.67716e+07	   79.6703	      15.3	       1.6	2.61548e+07	     79.51	      15.3	   1.15417	 2.7912e+07	   79.5185	      15.3	       1.6	2.64016e+07	   79.5901	      15.3	   1.37708	2.69948e+07	   79.4384	      15.3	   1.37708	2.73147e+07	       N/A	       N/A	       N/A	        N/A	       N/A	       N/A	       N/A	        N/A	
         R10	   3328	   79.0913	      15.3	   1.33869	2.80592e+07	   79.0913	      15.3	       1.6	2.71645e+07	   79.3667	      15.3	       1.6	 2.6575e+07	   79.0913	      15.3	   1.46934	2.75906e+07	    79.229	      15.3	       1.6	2.68417e+07	    79.229	      15.3	   1.46934	 2.7251e+07	       N/A	       N/A	       N/A	        N/A	       N/A	       N/A	       N/A	        N/A	
         R10	   3329	   79.1278	      15.3	   1.85414	2.68305e+07	   79.0913	      15.3	       1.6	2.67602e+07	   78.8441	      15.3	       1.6	2.71415e+07	   78.8748	      15.3	   1.82224	2.58875e+07	   79.1096	      15.3	   1.72707	2.67791e+07	   78.9677	      15.3	       1.6	2.69189e+07	   78.8594	      15.3	   1.71112	 2.6496e+07	   79.0013	      15.3	   1.83819	2.62052e+07	
         R10	   3330	    79.411	      15.3	   1.91032	2.76743e+07	   79.3667	      15.3	       1.6	2.65437e+07	   79.0913	      15.3	       1.6	2.67792e+07	   79.1278	      15.3	   1.85414	2.43649e+07	   79.3889	      15.3	   1.75516	2.69927e+07	    79.229	      15.3	       1.6	2.66362e+07	   79.1096	      15.3	   1.72707	2.55054e+07	   79.2694	      15.3	   1.88223	2.56465e+07	
         R10	   3331	    79.705	      15.3	   1.97475	2.55464e+07	   79.6703	      15.3	       1.6	2.56951e+07	   79.3667	      15.3	       1.6	2.66027e+07	    79.411	      15.3	   1.91032	2.43701e+07	   79.6876	      15.3	   1.78737	2.55643e+07	   79.5185	      15.3	       1.6	2.60493e+07	   79.3889	      15.3	   1.75516	2.53778e+07	    79.558	      15.3	   1.94253	 2.4744e+07	
         R10	   3332	   80.0216	      15.3	   2.00131	2.57081e+07	    80.002	      15.3	       1.6	2.59604e+07	   79.6703	      15.3	       1.6	2.55273e+07	    79.705	      15.3	   1.97475	2.40755e+07	   80.0118	      15.3	   1.80065	 2.5809e+07	   79.8361	      15.3	       1.6	 2.5555e+07	   79.6876	      15.3	   1.78737	2.46375e+07	   79.8633	      15.3	   1.98803	2.43566e+07	
         R10	   3333	   80.3775	      15.3	   2.00147	2.88004e+07	   80.3619	      15.3	       1.6	 2.7736e+07	    80.002	      15.3	       1.6	2.59872e+07	   80.0216	      15.3	   2.00131	2.46615e+07	   80.3697	      15.3	   1.80073	2.79463e+07	    80.182	      15.3	       1.6	2.66678e+07	   80.0118	      15.3	   1.80065	2.50018e+07	   80.1995	      15.3	   2.00139	2.53148e+07	
         R10	   3334	     80.75	      15.3	         2	3.44353e+07	     80.75	      15.3	       1.6	3.15666e+07	   80.3619	      15.3	       1.6	2.95919e+07	   80.3775	      15.3	   2.00147	2.40249e+07	     80.75	      15.3	       1.8	3.29878e+07	    80.556	      15.3	       1.6	 3.0382e+07	   80.3697	      15.3	   1.80073	2.66417e+07	   80.5637	      15.3	   2.00073	2.89355e+07	
         R10	   3335	   80.3488	      15.3	       2.4	2.78612e+07	     80.75	      15.3	       2.4	 4.0201e+07	     80.75	      15.3	         2	3.43826e+07	   80.3775	      15.3	   2.00147	2.89284e+07	   80.5494	      15.3	       2.4	  3.377e+07	     80.75	      15.3	       2.2	3.72054e+07	   80.5637	      15.3	   2.00073	3.07118e+07	   80.3631	      15.3	   2.20073	2.76393e+07	
         R10	   3336	   79.9801	      15.3	       2.4	3.12042e+07	   80.3488	      15.3	       2.4	2.70709e+07	   80.3775	      15.3	   2.00147	3.05906e+07	   80.0216	      15.3	   2.00131	2.50842e+07	   80.1644	      15.3	       2.4	2.53199e+07	   80.3631	      15.3	   2.20073	2.57527e+07	   80.1995	      15.3	   2.00139	2.64814e+07	   80.0008	      15.3	   2.20065	2.67955e+07	
         R10	   3337	   79.6439	      15.3	       2.4	2.49133e+07	   79.9801	      15.3	       2.4	2.38272e+07	   80.0216	      15.3	   2.00131	2.62902e+07	    79.705	      15.3	   1.97475	2.35322e+07	    79.812	      15.3	       2.4	2.39641e+07	   80.0008	      15.3	   2.20065	2.43483e+07	   79.8633	      15.3	   1.98803	2.40656e+07	   79.6745	      15.3	   2.18737	2.41922e+07	
         R10	   3338	   79.0986	      15.3	   2.12572	  2.844e+07	   79.0694	      15.3	       2.4	 2.3104e+07	   79.3404	      15.3	       2.4	2.88627e+07	   79.3651	      15.3	    2.1445	1.84207e+07	    79.084	      15.3	   2.26286	2.54124e+07	   79.2049	      15.3	       2.4	2.34965e+07	   79.3527	      15.3	   2.27225	2.30471e+07	   79.2319	      15.3	   2.13511	2.33616e+07	
         R10	   3339	   78.8349	      15.3	    2.2217	 2.6576e+07	   78.8309	      15.3	       2.4	1.95455e+07	   79.0694	      15.3	       2.4	3.70067e+07	   79.0986	      15.3	   2.12572	2.46626e+07	   78.8329	      15.3	   2.31085	2.08002e+07	   78.9501	      15.3	       2.4	2.44857e+07	    79.084	      15.3	   2.26286	3.02645e+07	   78.9668	      15.3	   2.17371	2.54363e+07	
         R10	   3340	    78.625	      15.3	   2.20952	2.60143e+07	    78.625	      15.3	       2.4	2.46848e+07	   78.8309	      15.3	       2.4	3.42392e+07	   78.8349	      15.3	    2.2217	2.39831e+07	    78.625	      15.3	   2.30476	2.50356e+07	    78.728	      15.3	       2.4	2.59551e+07	   78.8329	      15.3	   2.31085	2.63372e+07	   78.7299	      15.3	   2.21561	2.48385e+07	
         R10	   3341	    78.846	      15.3	   2.00272	 2.8288e+07	    78.625	      15.3	    2.0127	2.64519e+07	    78.625	      15.3	   2.20952	2.70182e+07	   78.8349	      15.3	    2.2217	2.40139e+07	   78.7355	      15.3	   2.00771	2.70644e+07	    78.625	      15.3	   2.11111	2.66804e+07	   78.7299	      15.3	   2.21561	2.50921e+07	   78.8404	      15.3	   2.11221	2.52047e+07	
         R10	   3342	   78.8748	      15.3	   1.82224	2.77692e+07	   78.8441	      15.3	       1.6	2.73428e+07	    78.625	      15.3	       1.6	 2.7394e+07	    78.625	      15.3	   1.80952	2.67478e+07	   78.8594	      15.3	   1.71112	2.75495e+07	   78.7345	      15.3	       1.6	2.73627e+07	    78.625	      15.3	   1.70476	2.70659e+07	   78.7499	      15.3	   1.81588	2.72148e+07	
         R10	   3343	   78.8748	      15.3	   1.82224	2.84225e+07	    78.625	      15.3	   1.80952	2.66532e+07	    78.625	      15.3	    2.0127	    2.7e+07	    78.846	      15.3	   2.00272	2.55317e+07	   78.7499	      15.3	   1.81588	2.74931e+07	    78.625	      15.3	   1.91111	2.67879e+07	   78.7355	      15.3	   2.00771	2.60722e+07	   78.8604	      15.3	   1.91248	2.68596e+07	
         R10	   3344	   79.3651	      15.3	    2.1445	2.76986e+07	   79.6439	      15.3	       2.4	2.31559e+07	    79.705	      15.3	   1.97475	2.47616e+07	    79.411	      15.3	   1.91032	2.58945e+07	   79.5045	      15.3	   2.27225	2.53815e+07	   79.6745	      15.3	   2.18737	2.39579e+07	    79.558	      15.3	   1.94253	2.52081e+07	   79.3881	      15.3	   2.02741	2.67727e+07	
         R10	   3345	   79.0986	      15.3	   2.12572	3.08728e+07	   79.3651	      15.3	    2.1445	1.90053e+07	    79.411	      15.3	   1.91032	2.83119e+07	   79.1278	      15.3	   1.85414	2.35859e+07	   79.2319	      15.3	   2.13511	 2.4819e+07	   79.3881	      15.3	   2.02741	 2.3528e+07	   79.2694	      15.3	   1.88223	2.58218e+07	   79.1132	      15.3	   1.98993	2.71335e+07	
         R10	   3346	   79.1278	      15.3	   1.85414	2.62411e+07	   78.8748	      15.3	   1.82224	2.59367e+07	    78.846	      15.3	   2.00272	3.04779e+07	   79.0986	      15.3	   2.12572	2.05006e+07	   79.0013	      15.3	   1.83819	2.56999e+07	   78.8604	      15.3	   1.91248	2.79802e+07	   78.9723	      15.3	   2.06422	2.52162e+07	   79.1132	      15.3	   1.98993	 2.3026e+07	
         R10	   3347	   79.3651	      15.3	    2.1445	2.95969e+07	   79.3404	      15.3	       2.4	1.95599e+07	   79.6439	      15.3	       2.4	3.13975e+07	   79.3527	      15.3	   2.27225	2.37779e+07	   79.4922	      15.3	       2.4	2.30362e+07	   79.5045	      15.3	   2.27225	2.99257e+07	       N/A	       N/A	       N/A	        N/A	       N/A	       N/A	       N/A	        N/A	
         R10	   3348	    78.846	      15.3	   2.00272	3.05461e+07	   78.8349	      15.3	    2.2217	2.45081e+07	   79.0986	      15.3	   2.12572	2.34425e+07	   78.8404	      15.3	   2.11221	 2.6504e+07	   78.9668	      15.3	   2.17371	2.35076e+07	   78.9723	      15.3	   2.06422	 2.6738e+07	       N/A	       N/A	       N/A	        N/A	       N/A	       N/A	       N/A	        N/A	
         R10	   3349	   74.6887	      15.3	       0.8	2.84942e+07	    74.375	      15.3	       0.8	2.97248e+07	    74.375	      15.3	   1.07937	2.93627e+07	    74.667	      15.3	   1.07016	2.87363e+07	   74.5318	      15.3	       0.8	2.90712e+07	    74.375	      15.3	  0.939683	2.95139e+07	    74.521	      15.3	   1.07476	2.90392e+07	   74.6778	      15.3	  0.935078	2.86009e+07	
         R10	   3350	    74.667	      15.3	   1.07016	2.85946e+07	    74.375	      15.3	   1.07937	2.96762e+07	    74.375	      15.3	   1.34603	2.91718e+07	   74.6443	      15.3	   1.33537	2.81359e+07	    74.521	      15.3	   1.07476	2.91138e+07	    74.375	      15.3	    1.2127	2.94061e+07	   74.5097	      15.3	    1.3407	2.86399e+07	   74.6556	      15.3	   1.20277	2.83631e+07	
         R10	   3351	   74.6443	      15.3	   1.33537	2.79443e+07	    74.375	      15.3	   1.34603	2.93084e+07	    74.375	      15.3	       1.6	2.82243e+07	    74.639	      15.3	       1.6	2.76834e+07	   74.5097	      15.3	    1.3407	2.85923e+07	    74.375	      15.3	   1.47302	2.87584e+07	    74.507	      15.3	       1.6	2.79442e+07	   74.6417	      15.3	   1.46769	2.78121e+07	
         R10	   3352	   74.8922	      15.3	   1.33075	2.74498e+07	   74.6443	      15.3	   1.33537	2.77779e+07	    74.639	      15.3	       1.6	2.76449e+07	   74.8758	      15.3	       1.6	 2.6637e+07	   74.7683	      15.3	   1.33306	2.76007e+07	   74.6417	      15.3	   1.46769	 2.7711e+07	   74.7574	      15.3	       1.6	2.71192e+07	    74.884	      15.3	   1.46538	2.70411e+07	
         R10	   3353	   74.8922	      15.3	   1.33075	2.71904e+07	   74.8758	      15.3	       1.6	2.66226e+07	   75.0852	      15.3	       1.6	 2.5619e+07	    75.095	      15.3	   1.35773	2.62837e+07	    74.884	      15.3	   1.46538	2.69034e+07	   74.9805	      15.3	       1.6	2.61036e+07	   75.0901	      15.3	   1.47886	2.59478e+07	   74.9936	      15.3	   1.34424	 2.6716e+07	
         R10	   3354	    75.095	      15.3	   1.35773	2.63317e+07	   75.0852	      15.3	       1.6	 2.5696e+07	   75.2673	      15.3	       1.6	 2.4747e+07	   75.2659	      15.3	   1.41225	2.51578e+07	   75.0901	      15.3	   1.47886	2.60097e+07	   75.1763	      15.3	       1.6	2.51953e+07	   75.2666	      15.3	   1.50612	2.49492e+07	   75.1804	      15.3	   1.38499	 2.5727e+07	
         R10	   3355	   75.2659	      15.3	   1.41225	2.52528e+07	   75.2673	      15.3	       1.6	2.46827e+07	   75.4222	      15.3	       1.6	2.39212e+07	   75.4112	      15.3	   1.44802	2.43436e+07	   75.2666	      15.3	   1.50612	2.49647e+07	   75.3448	      15.3	       1.6	 2.4277e+07	   75.4167	      15.3	   1.52401	2.41308e+07	   75.3386	      15.3	   1.43013	2.47762e+07	
         R10	   3356	   75.4112	      15.3	   1.44802	 2.4386e+07	   75.4222	      15.3	       1.6	2.39402e+07	   75.5497	      15.3	       1.6	2.34329e+07	   75.5279	      15.3	    1.4802	2.36803e+07	   75.4167	      15.3	   1.52401	2.41617e+07	    75.486	      15.3	       1.6	2.36624e+07	   75.5388	      15.3	    1.5401	2.35536e+07	   75.4695	      15.3	   1.46411	2.40183e+07	
         R10	   3357	   75.5279	      15.3	    1.4802	2.37317e+07	   75.5497	      15.3	       1.6	2.34087e+07	     75.65	      15.3	       1.6	2.31389e+07	   75.6577	      15.3	   1.49188	2.34133e+07	   75.5388	      15.3	    1.5401	2.35676e+07	   75.5999	      15.3	       1.6	2.32569e+07	   75.6538	      15.3	   1.54594	2.32756e+07	   75.5928	      15.3	   1.48604	2.35452e+07	
         R10	   3358	   75.6577	      15.3	   1.49188	2.33703e+07	     75.65	      15.3	       1.6	2.31272e+07	   75.7579	      15.3	       1.6	2.30372e+07	   75.7466	      15.3	   1.48315	 2.3338e+07	   75.6538	      15.3	   1.54594	2.32481e+07	   75.7039	      15.3	       1.6	2.30606e+07	   75.7522	      15.3	   1.54157	2.31866e+07	   75.7021	      15.3	   1.48751	2.33395e+07	
         R10	   3359	   75.7466	      15.3	   1.48315	2.33048e+07	   75.7579	      15.3	       1.6	 2.3058e+07	   75.8624	      15.3	       1.6	2.32576e+07	   75.8608	      15.3	   1.48932	2.33739e+07	   75.7522	      15.3	   1.54157	2.31805e+07	   75.8101	      15.3	       1.6	2.31346e+07	   75.8616	      15.3	   1.54466	2.33151e+07	   75.8037	      15.3	   1.48623	2.33163e+07	
         R10	   3360	   75.8608	      15.3	   1.48932	2.33722e+07	   75.8624	      15.3	       1.6	2.32491e+07	   75.9635	      15.3	       1.6	2.37372e+07	   75.9513	      15.3	   1.50319	2.37224e+07	   75.8616	      15.3	   1.54466	2.33101e+07	   75.9129	      15.3	       1.6	2.34723e+07	   75.9574	      15.3	   1.55159	2.37278e+07	   75.9061	      15.3	   1.49625	2.35331e+07	
         R10	   3361	   75.9513	      15.3	   1.50319	2.38204e+07	   75.9635	      15.3	       1.6	2.37012e+07	   76.0613	      15.3	       1.6	2.44851e+07	   76.0586	      15.3	   1.47931	2.45783e+07	   75.9574	      15.3	   1.55159	2.37592e+07	   76.0124	      15.3	       1.6	2.40763e+07	   76.0599	      15.3	   1.53965	2.45309e+07	    76.005	      15.3	   1.49125	2.41783e+07	
         R10	   3362	   76.0586	      15.3	   1.47931	2.45355e+07	   76.0613	      15.3	       1.6	2.45629e+07	   76.1557	      15.3	       1.6	 2.5809e+07	   76.1591	      15.3	   1.50678	2.51108e+07	   76.0599	      15.3	   1.53965	2.45489e+07	   76.1085	      15.3	       1.6	2.51703e+07	   76.1574	      15.3	   1.55339	2.54583e+07	   76.1089	      15.3	   1.49304	2.48129e+07	
         R10	   3363	   76.1591	      15.3	   1.50678	2.53145e+07	   76.1557	      15.3	       1.6	2.57272e+07	   76.2468	      15.3	       1.6	2.70567e+07	   76.2453	      15.3	     1.508	2.63271e+07	   76.1574	      15.3	   1.55339	2.55175e+07	   76.2013	      15.3	       1.6	 2.6384e+07	   76.2461	      15.3	     1.554	2.66873e+07	   76.2022	      15.3	   1.50739	2.58138e+07	
         R10	   3364	   76.2453	      15.3	     1.508	2.63611e+07	   76.2468	      15.3	       1.6	2.70246e+07	   76.3346	      15.3	       1.6	2.84377e+07	   76.3333	      15.3	   1.51168	2.79774e+07	   76.2461	      15.3	     1.554	2.66887e+07	   76.2907	      15.3	       1.6	2.77279e+07	   76.3339	      15.3	   1.55584	2.82044e+07	   76.2893	      15.3	   1.50984	2.71642e+07	
         R10	   3365	   76.3333	      15.3	   1.51168	2.80334e+07	   76.3346	      15.3	       1.6	 2.8636e+07	    76.419	      15.3	       1.6	3.13617e+07	   76.4174	      15.3	    1.5149	2.92634e+07	   76.3339	      15.3	   1.55584	2.83318e+07	   76.3768	      15.3	       1.6	2.99948e+07	   76.4182	      15.3	   1.55745	 3.0292e+07	   76.3753	      15.3	   1.51329	2.86445e+07	
         R10	   3366	   76.4174	      15.3	    1.5149	2.95283e+07	    76.419	      15.3	       1.6	3.32375e+07	      76.5	      15.3	       1.6	3.54937e+07	      76.5	      15.3	   1.52248	2.91943e+07	   76.4182	      15.3	   1.55745	3.12998e+07	   76.4595	      15.3	       1.6	3.36555e+07	      76.5	      15.3	   1.56124	3.07018e+07	   76.4587	      15.3	   1.51869	2.90021e+07	
         R10	   3367	   76.4184	      15.3	   1.42439	3.01487e+07	   76.4174	      15.3	    1.5149	3.02776e+07	      76.5	      15.3	   1.52248	3.26655e+07	      76.5	      15.3	   1.43271	3.14051e+07	   76.4179	      15.3	   1.46964	 3.0195e+07	   76.4587	      15.3	   1.51869	3.13292e+07	      76.5	      15.3	    1.4776	3.19073e+07	   76.4592	      15.3	   1.42855	3.07588e+07	
         R10	   3368	   76.4184	      15.3	   1.42439	3.05996e+07	      76.5	      15.3	   1.43271	3.27582e+07	      76.5	      15.3	   1.33068	3.24848e+07	   76.4035	      15.3	   1.31953	3.04333e+07	   76.4592	      15.3	   1.42855	3.16777e+07	      76.5	      15.3	    1.3817	 3.2603e+07	   76.4518	      15.3	   1.32511	3.14525e+07	    76.411	      15.3	   1.37196	3.05132e+07	
         R10	   3369	   76.4035	      15.3	   1.31953	 3.0778e+07	      76.5	      15.3	   1.33068	3.28414e+07	      76.5	      15.3	    1.2164	3.22982e+07	   76.3816	      15.3	   1.20702	3.03301e+07	   76.4518	      15.3	   1.32511	 3.1809e+07	      76.5	      15.3	   1.27354	3.25552e+07	   76.4408	      15.3	   1.21171	3.13075e+07	   76.3926	      15.3	   1.26328	3.05494e+07	
         R10	   3370	   76.3816	      15.3	   1.20702	 3.0694e+07	      76.5	      15.3	    1.2164	   3.25e+07	      76.5	      15.3	   1.08986	3.18376e+07	   76.3637	      15.3	   1.08431	3.02651e+07	   76.4408	      15.3	   1.21171	3.15968e+07	      76.5	      15.3	   1.15313	3.21436e+07	   76.4318	      15.3	   1.08708	3.10353e+07	   76.3726	      15.3	   1.14566	3.04764e+07	
         R10	   3371	   76.3637	      15.3	   1.08431	3.06331e+07	      76.5	      15.3	   1.08986	3.19941e+07	      76.5	      15.3	  0.951056	3.16297e+07	   76.3469	      15.3	  0.943624	  2.997e+07	   76.4318	      15.3	   1.08708	3.13101e+07	      76.5	      15.3	   1.02046	 3.1745e+07	   76.4235	      15.3	   0.94734	3.07631e+07	   76.3553	      15.3	   1.01397	3.02964e+07	
         R10	   3372	   76.3469	      15.3	  0.943624	 3.0568e+07	      76.5	      15.3	  0.951056	3.17054e+07	      76.5	      15.3	       0.8	3.13961e+07	   76.3415	      15.3	       0.8	3.05125e+07	   76.4235	      15.3	   0.94734	3.11093e+07	      76.5	      15.3	  0.875528	3.13298e+07	   76.4207	      15.3	       0.8	3.08784e+07	   76.3442	      15.3	  0.871812	3.05311e+07	
         R10	   3373	   76.1714	      15.3	  0.953091	2.97847e+07	   76.3469	      15.3	  0.943624	3.07922e+07	   76.3415	      15.3	       0.8	3.05712e+07	   76.1635	      15.3	       0.8	2.99955e+07	   76.2592	      15.3	  0.948358	3.02741e+07	   76.3442	      15.3	  0.871812	3.06677e+07	   76.2525	      15.3	       0.8	3.02781e+07	   76.1674	      15.3	  0.876545	2.98846e+07	
         R10	   3374	   76.1714	      15.3	  0.953091	2.94892e+07	   76.1635	      15.3	       0.8	3.01123e+07	   75.9662	      15.3	       0.8	2.93641e+07	   75.9646	      15.3	   1.01446	2.76502e+07	   76.1674	      15.3	  0.876545	2.97909e+07	   76.0648	      15.3	       0.8	2.97119e+07	   75.9654	      15.3	   0.90723	2.85021e+07	    76.068	      15.3	  0.983775	2.85269e+07	
         R10	   3375	   75.9646	      15.3	   1.01446	2.76119e+07	   75.9662	      15.3	       0.8	2.92366e+07	   75.7495	      15.3	       0.8	2.82552e+07	    75.721	      15.3	   1.02578	2.64094e+07	   75.9654	      15.3	   0.90723	2.84195e+07	   75.8578	      15.3	       0.8	2.86812e+07	   75.7352	      15.3	   0.91289	2.73302e+07	   75.8428	      15.3	   1.02012	 2.6916e+07	
         R10	   3376	    75.721	      15.3	   1.02578	2.63342e+07	   75.7495	      15.3	       0.8	2.81931e+07	   75.5134	      15.3	       0.8	2.74744e+07	   75.5086	      15.3	   1.03558	2.61447e+07	   75.7352	      15.3	   0.91289	2.72595e+07	   75.6314	      15.3	       0.8	2.77348e+07	    75.511	      15.3	  0.917789	2.68064e+07	   75.6148	      15.3	   1.03068	2.61716e+07	
         R10	   3377	   75.5086	      15.3	   1.03558	2.59203e+07	   75.5134	      15.3	       0.8	2.76185e+07	   75.2579	      15.3	       0.8	2.72015e+07	   75.2221	      15.3	   1.08375	2.66435e+07	    75.511	      15.3	  0.917789	2.67668e+07	   75.3856	      15.3	       0.8	2.73308e+07	     75.24	      15.3	  0.941875	2.69142e+07	   75.3654	      15.3	   1.05966	2.61816e+07	
         R10	   3378	   75.2221	      15.3	   1.08375	2.65199e+07	   75.2579	      15.3	       0.8	2.73838e+07	    74.983	      15.3	       0.8	2.77475e+07	   74.9453	      15.3	   1.07556	2.76457e+07	     75.24	      15.3	  0.941875	2.69446e+07	   75.1204	      15.3	       0.8	2.75134e+07	   74.9641	      15.3	   0.93778	2.76914e+07	   75.0837	      15.3	   1.07966	2.70244e+07	
         R10	   3379	   74.9453	      15.3	   1.07556	2.76648e+07	    74.983	      15.3	       0.8	2.78126e+07	   74.6887	      15.3	       0.8	2.86793e+07	    74.667	      15.3	   1.07016	2.84365e+07	   74.9641	      15.3	   0.93778	2.77352e+07	   74.8358	      15.3	       0.8	2.82091e+07	   74.6778	      15.3	  0.935078	2.85495e+07	   74.8061	      15.3	   1.07286	2.80131e+07	
         R10	   3380	   74.9453	      15.3	   1.07556	2.76324e+07	    74.667	      15.3	   1.07016	2.84419e+07	   74.6443	      15.3	   1.33537	2.79656e+07	   74.8922	      15.3	   1.33075	2.73912e+07	   74.8061	      15.3	   1.07286	2.80093e+07	   74.6556	      15.3	   1.20277	2.81995e+07	   74.7683	      15.3	   1.33306	2.76516e+07	   74.9187	      15.3	   1.20316	2.75081e+07	
         R10	   3381	   75.2221	      15.3	   1.08375	2.65499e+07	   74.9453	      15.3	   1.07556	2.75787e+07	   74.8922	      15.3	   1.33075	 2.7225e+07	    75.095	      15.3	   1.35773	  2.626e+07	   75.0837	      15.3	   1.07966	2.70056e+07	   74.9187	      15.3	   1.20316	2.73987e+07	   74.9936	      15.3	   1.34424	2.67214e+07	   75.1585	      15.3	   1.22074	2.63836e+07	
         R10	   3382	   75.2221	      15.3	   1.08375	2.65243e+07	    75.095	      15.3	   1.35773	2.63488e+07	   75.2659	      15.3	   1.41225	2.53319e+07	   75.3185	      15.3	    1.2575	2.52563e+07	   75.1585	      15.3	   1.22074	 2.6409e+07	   75.1804	      15.3	   1.38499	2.58155e+07	   75.2922	      15.3	   1.33487	2.52902e+07	   75.2703	      15.3	   1.17062	2.58794e+07	
         R10	   3383	   75.3185	      15.3	    1.2575	2.55869e+07	   75.2659	      15.3	   1.41225	2.53318e+07	   75.4112	      15.3	   1.44802	2.44051e+07	   75.5018	      15.3	   1.24397	2.48607e+07	   75.2922	      15.3	   1.33487	2.54574e+07	   75.3386	      15.3	   1.43013	2.48511e+07	   75.4565	      15.3	     1.346	2.46106e+07	   75.4101	      15.3	   1.25074	2.51693e+07	
         R10	   3384	   75.5018	      15.3	   1.24397	2.48894e+07	   75.4112	      15.3	   1.44802	2.45041e+07	   75.5279	      15.3	    1.4802	2.39029e+07	   75.6018	      15.3	   1.38031	2.38225e+07	   75.4565	      15.3	     1.346	2.46764e+07	   75.4695	      15.3	   1.46411	2.41829e+07	   75.5648	      15.3	   1.43026	2.38526e+07	   75.5518	      15.3	   1.31214	2.43431e+07	
         R10	   3385	   75.7228	      15.3	   1.36764	2.38995e+07	   75.7466	      15.3	   1.48315	2.34119e+07	   75.8608	      15.3	   1.48932	2.35719e+07	   75.8702	      15.3	   1.36559	2.42255e+07	   75.7347	      15.3	    1.4254	2.36536e+07	   75.8037	      15.3	   1.48623	2.34654e+07	   75.8655	      15.3	   1.42746	2.38974e+07	   75.7965	      15.3	   1.36662	 2.4017e+07	
         R10	   3386	   75.8702	      15.3	   1.36559	2.42154e+07	   75.8608	      15.3	   1.48932	2.36124e+07	   75.9513	      15.3	   1.50319	2.39242e+07	   75.9682	      15.3	   1.38528	2.45433e+07	   75.8655	      15.3	   1.42746	2.39129e+07	   75.9061	      15.3	   1.49625	2.37545e+07	   75.9597	      15.3	   1.44424	 2.4231e+07	   75.9192	      15.3	   1.37544	2.43578e+07	
         R10	   3387	   76.0845	      15.3	   1.39187	2.55055e+07	   76.0586	      15.3	   1.47931	 2.4897e+07	   76.1591	      15.3	   1.50678	2.59468e+07	   76.1646	      15.3	   1.37961	2.63379e+07	   76.0715	      15.3	   1.43559	2.52003e+07	   76.1089	      15.3	   1.49304	2.54069e+07	   76.1619	      15.3	    1.4432	2.61422e+07	   76.1245	      15.3	   1.38574	 2.5915e+07	
         R10	   3388	   76.1646	      15.3	   1.37961	2.63214e+07	   76.1591	      15.3	   1.50678	2.59765e+07	   76.2453	      15.3	     1.508	2.71218e+07	   76.2392	      15.3	   1.38551	2.73364e+07	   76.1619	      15.3	    1.4432	2.61488e+07	   76.2022	      15.3	   1.50739	 2.6541e+07	   76.2423	      15.3	   1.44676	2.72272e+07	   76.2019	      15.3	   1.38256	2.68242e+07	
         R10	   3389	   76.2392	      15.3	   1.38551	2.72289e+07	   76.2453	      15.3	     1.508	2.72375e+07	   76.3333	      15.3	   1.51168	2.88256e+07	   76.3292	      15.3	   1.41169	2.84062e+07	   76.2423	      15.3	   1.44676	2.72315e+07	   76.2893	      15.3	   1.50984	 2.8028e+07	   76.3313	      15.3	   1.46168	2.86146e+07	   76.2842	      15.3	    1.3986	2.78132e+07	
         R10	   3390	   76.3292	      15.3	   1.41169	2.86015e+07	   76.3333	      15.3	   1.51168	2.86163e+07	   76.4174	      15.3	    1.5149	3.06259e+07	   76.4184	      15.3	   1.42439	3.01406e+07	   76.3313	      15.3	   1.46168	2.86072e+07	   76.3753	      15.3	   1.51329	2.96194e+07	   76.4179	      15.3	   1.46964	3.03826e+07	   76.3738	      15.3	   1.41804	2.93691e+07	
         R10	   3391	   76.2523	      15.3	   1.24861	2.86402e+07	   76.3816	      15.3	   1.20702	3.05731e+07	   76.3637	      15.3	   1.08431	3.04813e+07	   76.2168	      15.3	    1.0951	2.89169e+07	   76.3169	      15.3	   1.22781	2.95984e+07	   76.3726	      15.3	   1.14566	3.05229e+07	   76.2902	      15.3	    1.0897	2.96948e+07	   76.2345	      15.3	   1.17185	2.87696e+07	
         R10	   3392	   76.2168	      15.3	    1.0951	2.89758e+07	   76.3637	      15.3	   1.08431	3.07731e+07	   76.3469	      15.3	  0.943624	3.03453e+07	   76.1714	      15.3	  0.953091	2.96204e+07	   76.2902	      15.3	    1.0897	2.98652e+07	   76.3553	      15.3	   1.01397	3.05549e+07	   76.2592	      15.3	  0.948358	2.99712e+07	   76.1941	      15.3	   1.02409	2.92867e+07	
         R10	   3393	   76.0801	      15.3	   1.13339	2.74717e+07	   76.2168	      15.3	    1.0951	2.90295e+07	   76.1714	      15.3	  0.953091	2.93662e+07	   75.9646	      15.3	   1.01446	2.76724e+07	   76.1484	      15.3	   1.11424	2.82344e+07	   76.1941	      15.3	   1.02409	2.91889e+07	    76.068	      15.3	  0.983775	2.84847e+07	   76.0223	      15.3	   1.07393	2.75487e+07	
         R10	   3394	   75.5086	      15.3	   1.03558	2.58867e+07	   75.2221	      15.3	   1.08375	2.67381e+07	   75.3185	      15.3	    1.2575	2.56527e+07	   75.5018	      15.3	   1.24397	 2.4956e+07	   75.3654	      15.3	   1.05966	2.62082e+07	   75.2703	      15.3	   1.17062	2.61836e+07	   75.4101	      15.3	   1.25074	2.52555e+07	   75.5052	      15.3	   1.13978	2.54186e+07	
         R10	   3395	   75.6018	      15.3	   1.38031	2.41201e+07	   75.6577	      15.3	   1.49188	2.33971e+07	   75.7466	      15.3	   1.48315	2.34068e+07	   75.7228	      15.3	   1.36764	 2.3881e+07	   75.6297	      15.3	    1.4361	2.37483e+07	   75.7021	      15.3	   1.48751	2.33887e+07	   75.7347	      15.3	    1.4254	2.36421e+07	   75.6623	      15.3	   1.37398	2.39693e+07	
         R10	   3396	   75.7067	      15.3	   1.20183	2.49845e+07	   75.7228	      15.3	   1.36764	2.39355e+07	   75.8702	      15.3	   1.36559	2.43276e+07	   75.8986	      15.3	   1.19999	 2.5626e+07	   75.7148	      15.3	   1.28474	2.44562e+07	   75.7965	      15.3	   1.36662	2.40845e+07	   75.8844	      15.3	   1.28279	2.49731e+07	   75.8027	      15.3	   1.20091	2.52304e+07	
         R10	   3397	   76.0111	      15.3	   1.26819	2.58035e+07	   75.9682	      15.3	   1.38528	2.47264e+07	   76.0586	      15.3	   1.47931	2.48029e+07	   76.0845	      15.3	   1.39187	2.53838e+07	   75.9896	      15.3	   1.32674	2.52573e+07	   76.0134	      15.3	   1.43229	2.47484e+07	   76.0715	      15.3	   1.43559	2.50922e+07	   76.0478	      15.3	   1.33003	2.55834e+07	
         R10	   3398	   76.1569	      15.3	   1.26782	2.72579e+07	   76.2523	      15.3	   1.24861	2.85697e+07	   76.2168	      15.3	    1.0951	2.89883e+07	   76.0801	      15.3	   1.13339	2.74488e+07	   76.2046	      15.3	   1.25822	2.79069e+07	   76.2345	      15.3	   1.17185	2.87707e+07	   76.1484	      15.3	   1.11424	2.82035e+07	   76.1185	      15.3	   1.20061	 2.7339e+07	
         R10	   3399	   75.8986	      15.3	   1.19999	2.54456e+07	   75.8702	      15.3	   1.36559	 2.4369e+07	   75.9682	      15.3	   1.38528	   2.46e+07	   76.0111	      15.3	   1.26819	2.58883e+07	   75.8844	      15.3	   1.28279	2.49032e+07	   75.9192	      15.3	   1.37544	2.44642e+07	   75.9896	      15.3	   1.32674	  2.524e+07	   75.9548	      15.3	   1.23409	 2.5643e+07	
         R10	   3400	   76.3282	      15.3	    1.3297	2.94024e+07	   76.4035	      15.3	   1.31953	3.07483e+07	   76.3816	      15.3	   1.20702	3.04193e+07	   76.2523	      15.3	   1.24861	2.86029e+07	   76.3659	      15.3	   1.32462	3.00716e+07	   76.3926	      15.3	   1.26328	3.05782e+07	   76.3169	      15.3	   1.22781	 2.9507e+07	   76.2903	      15.3	   1.28915	 2.8999e+07	
         R10	   3401	   76.3282	      15.3	    1.3297	2.88178e+07	   76.2523	      15.3	   1.24861	2.83895e+07	   76.2392	      15.3	   1.38551	2.76987e+07	   76.3292	      15.3	   1.41169	2.92613e+07	   76.2903	      15.3	   1.28915	 2.8598e+07	   76.2458	      15.3	   1.31706	 2.8041e+07	   76.2842	      15.3	    1.3986	 2.8475e+07	   76.3287	      15.3	    1.3707	2.90378e+07	
         R10	   3402	   76.3282	      15.3	    1.3297	2.91064e+07	   76.3292	      15.3	   1.41169	2.92401e+07	   76.4184	      15.3	   1.42439	3.06862e+07	   76.4035	      15.3	   1.31953	3.03875e+07	   76.3287	      15.3	    1.3707	2.91695e+07	   76.3738	      15.3	   1.41804	2.99614e+07	    76.411	      15.3	   1.37196	3.05361e+07	   76.3659	      15.3	   1.32462	2.97437e+07	
         R10	   3403	   76.1569	      15.3	   1.26782	2.71613e+07	   76.1646	      15.3	   1.37961	2.66457e+07	   76.2392	      15.3	   1.38551	2.76825e+07	   76.2523	      15.3	   1.24861	2.84849e+07	   76.1608	      15.3	   1.32372	2.69014e+07	   76.2019	      15.3	   1.38256	2.71594e+07	   76.2458	      15.3	   1.31706	2.80805e+07	   76.2046	      15.3	   1.25822	2.78158e+07	
         R10	   3404	   75.5018	      15.3	   1.24397	2.49481e+07	   75.6018	      15.3	   1.38031	2.41381e+07	   75.7228	      15.3	   1.36764	2.39552e+07	   75.7067	      15.3	   1.20183	2.49722e+07	   75.5518	      15.3	   1.31214	2.45292e+07	   75.6623	      15.3	   1.37398	2.40143e+07	   75.7148	      15.3	   1.28474	2.44608e+07	   75.6043	      15.3	    1.2229	2.48804e+07	
         R10	   3405	    75.721	      15.3	   1.02578	 2.6297e+07	   75.5086	      15.3	   1.03558	2.60975e+07	   75.5018	      15.3	   1.24397	2.49512e+07	   75.7067	      15.3	   1.20183	2.49429e+07	   75.6148	      15.3	   1.03068	2.61241e+07	   75.5052	      15.3	   1.13978	2.55195e+07	   75.6043	      15.3	    1.2229	2.48696e+07	   75.7139	      15.3	   1.11381	2.56173e+07	
         R10	   3406	   75.9646	      15.3	   1.01446	2.75246e+07	    75.721	      15.3	   1.02578	2.63796e+07	   75.7067	      15.3	   1.20183	2.50039e+07	   75.8986	      15.3	   1.19999	2.57677e+07	   75.8428	      15.3	   1.02012	2.68672e+07	   75.7139	      15.3	   1.11381	2.56876e+07	   75.8027	      15.3	   1.20091	2.53066e+07	   75.9316	      15.3	   1.10723	2.66415e+07	
         R10	   3407	   76.0111	      15.3	   1.26819	2.58681e+07	   76.0801	      15.3	   1.13339	2.73495e+07	   75.9646	      15.3	   1.01446	 2.7385e+07	   75.8986	      15.3	   1.19999	2.57465e+07	   76.0456	      15.3	   1.20079	2.66035e+07	   76.0223	      15.3	   1.07393	 2.7342e+07	   75.9316	      15.3	   1.10723	2.65553e+07	   75.9548	      15.3	   1.23409	2.57853e+07	
         R10	   3408	   76.0845	      15.3	   1.39187	2.55518e+07	   76.1646	      15.3	   1.37961	2.66553e+07	   76.1569	      15.3	   1.26782	2.71025e+07	   76.0111	      15.3	   1.26819	2.58174e+07	   76.1245	      15.3	   1.38574	2.60923e+07	   76.1608	      15.3	   1.32372	2.68773e+07	    76.084	      15.3	   1.26801	2.64341e+07	   76.0478	      15.3	   1.33003	2.56746e+07	
         R10	   3409	   75.6018	      15.3	   1.38031	2.39752e+07	   75.5279	      15.3	    1.4802	2.38637e+07	   75.6577	      15.3	   1.49188	2.35503e+07	   75.5648	      15.3	   1.43026	2.39115e+07	   75.5928	      15.3	   1.48604	2.36786e+07	   75.6297	      15.3	    1.4361	2.37537e+07	       N/A	       N/A	       N/A	        N/A	       N/A	       N/A	       N/A	        N/A	
         R10	   3410	   75.9682	      15.3	   1.38528	 2.4634e+07	   75.9513	      15.3	   1.50319	2.39178e+07	   76.0586	      15.3	   1.47931	2.47564e+07	   75.9597	      15.3	   1.44424	2.42749e+07	    76.005	      15.3	   1.49125	2.43144e+07	   76.0134	      15.3	   1.43229	2.46773e+07	       N/A	       N/A	       N/A	        N/A	       N/A	       N/A	       N/A	        N/A	
         R10	   3411	   76.0111	      15.3	   1.26819	2.57712e+07	   76.1569	      15.3	   1.26782	2.72429e+07	   76.0801	      15.3	   1.13339	2.74696e+07	    76.084	      15.3	   1.26801	2.64775e+07	   76.1185	      15.3	   1.20061	2.73416e+07	   76.0456	      15.3	   1.20079	2.66146e+07	       N/A	       N/A	       N/A	        N/A	       N/A	       N/A	       N/A	        N/A	
         R10	   3412	    74.639	      15.3	       1.6	 2.7785e+07	    74.375	      15.3	       1.6	 3.0412e+07	    74.375	      15.3	   1.86667	2.69017e+07	   74.6353	      15.3	   1.86718	2.78205e+07	    74.507	      15.3	       1.6	 2.8995e+07	    74.375	      15.3	   1.73333	2.80062e+07	   74.5052	      15.3	   1.86692	2.68858e+07	   74.6372	      15.3	   1.73359	2.74217e+07	
         R10	   3413	   74.6353	      15.3	   1.86718	2.64599e+07	    74.375	      15.3	   1.86667	2.64537e+07	    74.375	      15.3	   2.13333	2.84413e+07	   74.6405	      15.3	   2.13162	2.30521e+07	   74.5052	      15.3	   1.86692	2.62583e+07	    74.375	      15.3	         2	 2.7235e+07	   74.5078	      15.3	   2.13248	2.52942e+07	   74.6379	      15.3	    1.9994	2.46533e+07	
         R10	   3414	   74.6405	      15.3	   2.13162	2.17132e+07	    74.375	      15.3	   2.13333	2.83762e+07	    74.375	      15.3	       2.4	1.88781e+07	   74.6584	      15.3	       2.4	2.66114e+07	   74.5078	      15.3	   2.13248	2.50059e+07	    74.375	      15.3	   2.26667	2.29957e+07	   74.5167	      15.3	       2.4	2.11989e+07	   74.6495	      15.3	   2.26581	2.32278e+07	
         R10	   3415	   74.8986	      15.3	   2.11684	2.42632e+07	   74.6405	      15.3	   2.13162	2.42445e+07	   74.6584	      15.3	       2.4	2.20027e+07	   74.9081	      15.3	       2.4	2.50038e+07	   74.7696	      15.3	   2.12423	2.41457e+07	   74.6495	      15.3	   2.26581	2.23068e+07	   74.7833	      15.3	       2.4	2.25266e+07	   74.9034	      15.3	   2.25842	2.44141e+07	
         R10	   3416	   74.8986	      15.3	   2.11684	2.13701e+07	   74.9081	      15.3	       2.4	2.57876e+07	    75.124	      15.3	       2.4	2.04497e+07	   75.1235	      15.3	   2.21705	2.75341e+07	   74.9034	      15.3	   2.25842	2.34905e+07	    75.016	      15.3	       2.4	2.28309e+07	   75.1237	      15.3	   2.30853	2.27757e+07	    75.011	      15.3	   2.16694	2.42061e+07	
         R10	   3417	   75.1235	      15.3	   2.21705	2.70561e+07	    75.124	      15.3	       2.4	2.68038e+07	   75.3061	      15.3	       2.4	2.21633e+07	   75.2968	      15.3	   2.23737	2.24946e+07	   75.1237	      15.3	   2.30853	2.44907e+07	   75.2151	      15.3	       2.4	2.33825e+07	   75.3015	      15.3	   2.31868	2.21948e+07	   75.2101	      15.3	   2.22721	2.44342e+07	
         R10	   3418	   75.2968	      15.3	   2.23737	2.49804e+07	   75.3061	      15.3	       2.4	2.06006e+07	   75.4545	      15.3	       2.4	2.58744e+07	   75.4449	      15.3	   2.26979	2.23207e+07	   75.3015	      15.3	   2.31868	2.26624e+07	   75.3803	      15.3	       2.4	2.31014e+07	   75.4497	      15.3	    2.3349	2.34612e+07	   75.3709	      15.3	   2.25358	2.33365e+07	
         R10	   3419	   75.4449	      15.3	   2.26979	2.21264e+07	   75.4545	      15.3	       2.4	2.44236e+07	   75.5691	      15.3	       2.4	2.43556e+07	   75.5616	      15.3	   2.29211	2.14021e+07	   75.4497	      15.3	    2.3349	2.16151e+07	   75.5118	      15.3	       2.4	2.30719e+07	   75.5654	      15.3	   2.34606	 2.2537e+07	   75.5033	      15.3	   2.28095	 2.1247e+07	
         R10	   3420	   75.5616	      15.3	   2.29211	2.26355e+07	   75.5691	      15.3	       2.4	2.39412e+07	     75.65	      15.3	       2.4	1.84844e+07	     75.65	      15.3	   2.32373	 2.4472e+07	   75.5654	      15.3	   2.34606	2.31934e+07	   75.6096	      15.3	       2.4	2.11983e+07	     75.65	      15.3	   2.36187	2.14769e+07	   75.6058	      15.3	   2.30792	 2.3519e+07	
         R10	   3421	    75.565	      15.3	   2.17592	2.14835e+07	     75.65	      15.3	   2.16173	2.17006e+07	     75.65	      15.3	     2.076	 2.1525e+07	    75.545	      15.3	   2.07575	2.29205e+07	   75.6075	      15.3	   2.16882	2.15747e+07	     75.65	      15.3	   2.11887	2.16113e+07	   75.5975	      15.3	   2.07588	2.21856e+07	    75.555	      15.3	   2.12583	2.22011e+07	
         R10	   3422	    75.545	      15.3	   2.07575	2.26209e+07	     75.65	      15.3	     2.076	2.13472e+07	     75.65	      15.3	   1.98711	2.17831e+07	   75.5635	      15.3	   1.98878	2.18582e+07	   75.5975	      15.3	   2.07588	2.19339e+07	     75.65	      15.3	   2.03156	2.15636e+07	   75.6068	      15.3	   1.98795	2.18114e+07	   75.5543	      15.3	   2.03227	2.22264e+07	
         R10	   3423	   75.5635	      15.3	   1.98878	2.19227e+07	     75.65	      15.3	   1.98711	2.18669e+07	     75.65	      15.3	   1.89507	2.17239e+07	   75.5557	      15.3	     1.896	2.20735e+07	   75.6068	      15.3	   1.98795	2.18843e+07	     75.65	      15.3	   1.94109	2.17935e+07	   75.6029	      15.3	   1.89553	2.18698e+07	   75.5596	      15.3	   1.94239	2.19909e+07	
         R10	   3424	   75.5557	      15.3	     1.896	2.23532e+07	     75.65	      15.3	   1.89507	2.17872e+07	     75.65	      15.3	   1.79987	2.22743e+07	     75.53	      15.3	   1.80337	2.21302e+07	   75.6029	      15.3	   1.89553	2.20588e+07	     75.65	      15.3	   1.84747	2.20113e+07	     75.59	      15.3	   1.80162	2.21574e+07	   75.5428	      15.3	   1.84969	2.22284e+07	
         R10	   3425	     75.53	      15.3	   1.80337	2.21509e+07	     75.65	      15.3	   1.79987	2.23849e+07	     75.65	      15.3	   1.70151	2.22306e+07	   75.5519	      15.3	   1.69435	2.27228e+07	     75.59	      15.3	   1.80162	2.22113e+07	     75.65	      15.3	   1.75069	2.23077e+07	   75.6009	      15.3	   1.69793	2.24497e+07	   75.5409	      15.3	   1.74886	2.23958e+07	
         R10	   3426	   75.5519	      15.3	   1.69435	2.27735e+07	     75.65	      15.3	   1.70151	2.22448e+07	     75.65	      15.3	       1.6	2.29478e+07	   75.5497	      15.3	       1.6	2.29869e+07	   75.6009	      15.3	   1.69793	2.25036e+07	     75.65	      15.3	   1.65076	2.25876e+07	   75.5999	      15.3	       1.6	2.29357e+07	   75.5508	      15.3	   1.64718	2.28748e+07	
         R10	   3427	   75.4282	      15.3	   1.70635	2.31631e+07	   75.5519	      15.3	   1.69435	2.27452e+07	   75.5497	      15.3	       1.6	2.29553e+07	   75.4222	      15.3	       1.6	2.33707e+07	   75.4901	      15.3	   1.70035	2.29264e+07	   75.5508	      15.3	   1.64718	2.28244e+07	    75.486	      15.3	       1.6	2.31334e+07	   75.4252	      15.3	   1.65318	2.32634e+07	
         R10	   3428	   75.4282	      15.3	   1.70635	2.25859e+07	   75.4222	      15.3	       1.6	2.33617e+07	   75.2673	      15.3	       1.6	2.41229e+07	   75.2763	      15.3	    1.7767	2.42901e+07	   75.4252	      15.3	   1.65318	2.29478e+07	   75.3448	      15.3	       1.6	 2.3709e+07	   75.2718	      15.3	   1.68835	2.41953e+07	   75.3523	      15.3	   1.74153	2.34167e+07	
         R10	   3429	   75.2763	      15.3	    1.7767	2.32745e+07	   75.2673	      15.3	       1.6	2.42233e+07	   75.0852	      15.3	       1.6	2.51449e+07	   75.0802	      15.3	   1.81037	2.52888e+07	   75.2718	      15.3	   1.68835	2.36887e+07	   75.1763	      15.3	       1.6	2.46637e+07	   75.0827	      15.3	   1.70519	2.52065e+07	   75.1783	      15.3	   1.79354	 2.4205e+07	
         R10	   3430	   75.0802	      15.3	   1.81037	2.47669e+07	   75.0852	      15.3	       1.6	2.50087e+07	   74.8758	      15.3	       1.6	2.61833e+07	   74.8734	      15.3	   1.84062	2.56372e+07	   75.0827	      15.3	   1.70519	2.47783e+07	   74.9805	      15.3	       1.6	2.55598e+07	   74.8746	      15.3	   1.72031	2.58703e+07	   74.9768	      15.3	    1.8255	2.50451e+07	
         R10	   3431	   74.8734	      15.3	   1.84062	2.63328e+07	   74.8758	      15.3	       1.6	2.65511e+07	    74.639	      15.3	       1.6	2.81271e+07	   74.6353	      15.3	   1.86718	 2.5168e+07	   74.8746	      15.3	   1.72031	2.63553e+07	   74.7574	      15.3	       1.6	2.72831e+07	   74.6372	      15.3	   1.73359	2.65577e+07	   74.7544	      15.3	    1.8539	2.56712e+07	
         R10	   3432	   74.8734	      15.3	   1.84062	2.65352e+07	   74.6353	      15.3	   1.86718	2.55203e+07	   74.6405	      15.3	   2.13162	2.50976e+07	   74.8986	      15.3	   2.11684	2.52438e+07	   74.7544	      15.3	    1.8539	2.57185e+07	   74.6379	      15.3	    1.9994	2.50964e+07	   74.7696	      15.3	   2.12423	2.51312e+07	    74.886	      15.3	   1.97873	2.58728e+07	
         R10	   3433	    75.147	      15.3	   2.00057	2.63854e+07	   75.1235	      15.3	   2.21705	2.29188e+07	   75.2968	      15.3	   2.23737	2.18368e+07	   75.3354	      15.3	   2.10073	2.45681e+07	   75.1353	      15.3	   2.10881	2.40795e+07	   75.2101	      15.3	   2.22721	2.22726e+07	   75.3161	      15.3	   2.16905	2.31988e+07	   75.2412	      15.3	   2.05065	2.52681e+07	
         R10	   3434	   75.5616	      15.3	   2.29211	2.23467e+07	     75.65	      15.3	   2.24431	2.26254e+07	     75.65	      15.3	   2.16173	2.21236e+07	    75.565	      15.3	   2.17592	 2.1292e+07	   75.6058	      15.3	   2.26821	2.24492e+07	     75.65	      15.3	   2.20302	2.23723e+07	   75.6075	      15.3	   2.16882	2.16876e+07	   75.5633	      15.3	   2.23401	2.17755e+07	
         R10	   3435	   75.4449	      15.3	   2.26979	2.51055e+07	   75.5616	      15.3	   2.29211	2.11347e+07	    75.565	      15.3	   2.17592	2.18409e+07	   75.4612	      15.3	   2.16488	2.10828e+07	   75.5033	      15.3	   2.28095	2.29647e+07	   75.5633	      15.3	   2.23401	2.14613e+07	   75.5131	      15.3	    2.1704	2.12859e+07	   75.4531	      15.3	   2.21733	2.26684e+07	
         R10	   3436	     75.45	      15.3	   2.04159	 2.2903e+07	    75.545	      15.3	   2.07575	2.21533e+07	   75.5635	      15.3	   1.98878	2.18939e+07	   75.4405	      15.3	   1.96265	2.25511e+07	   75.4975	      15.3	   2.05867	2.24876e+07	   75.5543	      15.3	   2.03227	2.19916e+07	    75.502	      15.3	   1.97572	2.21566e+07	   75.4453	      15.3	   2.00212	2.27092e+07	
         R10	   3437	   75.3354	      15.3	   2.10073	2.31243e+07	   75.2968	      15.3	   2.23737	2.37381e+07	   75.4449	      15.3	   2.26979	2.44527e+07	   75.4612	      15.3	   2.16488	2.17172e+07	   75.3161	      15.3	   2.16905	2.34255e+07	   75.3709	      15.3	   2.25358	2.39971e+07	   75.4531	      15.3	   2.21733	2.26489e+07	   75.3983	      15.3	   2.13281	2.23366e+07	
         R10	   3438	   75.3354	      15.3	   2.10073	2.32201e+07	   75.4612	      15.3	   2.16488	2.41217e+07	    75.545	      15.3	   2.07575	2.11066e+07	     75.45	      15.3	   2.04159	2.25943e+07	   75.3983	      15.3	   2.13281	2.36465e+07	   75.5031	      15.3	   2.12031	2.25742e+07	   75.4975	      15.3	   2.05867	 2.1844e+07	   75.3927	      15.3	   2.07116	2.28529e+07	
         R10	   3439	   75.3354	      15.3	   2.10073	2.42125e+07	     75.45	      15.3	   2.04159	 2.2041e+07	   75.4405	      15.3	   1.96265	2.37141e+07	   75.3089	      15.3	   1.93255	2.15486e+07	   75.3927	      15.3	   2.07116	2.31111e+07	   75.4453	      15.3	   2.00212	2.28656e+07	   75.3747	      15.3	    1.9476	2.25388e+07	   75.3221	      15.3	   2.01664	2.27891e+07	
         R10	   3440	   75.4405	      15.3	   1.96265	2.27681e+07	   75.5557	      15.3	     1.896	2.15408e+07	     75.53	      15.3	   1.80337	2.20753e+07	   75.4328	      15.3	      1.85	 2.2878e+07	   75.4981	      15.3	   1.92932	2.21322e+07	   75.5428	      15.3	   1.84969	2.17891e+07	   75.4814	      15.3	   1.82669	2.24456e+07	   75.4367	      15.3	   1.90633	2.28221e+07	
         R10	   3441	   75.4328	      15.3	      1.85	2.34992e+07	     75.53	      15.3	   1.80337	2.19655e+07	   75.4282	      15.3	   1.70635	2.30727e+07	   75.2763	      15.3	    1.7767	2.42902e+07	   75.4814	      15.3	   1.82669	2.26775e+07	   75.4791	      15.3	   1.75486	2.24344e+07	   75.3523	      15.3	   1.74153	2.36603e+07	   75.3546	      15.3	   1.81335	2.37508e+07	
         R10	   3442	   75.0802	      15.3	   1.81037	2.44975e+07	   74.8734	      15.3	   1.84062	2.52213e+07	   74.8986	      15.3	   2.11684	2.16871e+07	    75.147	      15.3	   2.00057	2.73652e+07	   74.9768	      15.3	    1.8255	2.47334e+07	    74.886	      15.3	   1.97873	2.34002e+07	   75.0228	      15.3	   2.05871	2.45202e+07	   75.1136	      15.3	   1.90547	2.59077e+07	
         R10	   3443	   75.3089	      15.3	   1.93255	 2.0983e+07	   75.4405	      15.3	   1.96265	2.34993e+07	   75.4328	      15.3	      1.85	2.33765e+07	   75.2763	      15.3	    1.7767	2.34048e+07	   75.3747	      15.3	    1.9476	2.22181e+07	   75.4367	      15.3	   1.90633	2.34348e+07	   75.3546	      15.3	   1.81335	2.33522e+07	   75.2926	      15.3	   1.85462	 2.2153e+07	
         R10	   3444	    75.147	      15.3	   2.00057	1.88943e+07	   75.3089	      15.3	   1.93255	2.86258e+07	   75.2763	      15.3	    1.7767	2.34631e+07	   75.0802	      15.3	   1.81037	2.49865e+07	   75.2279	      15.3	   1.96656	2.36519e+07	   75.2926	      15.3	   1.85462	2.59786e+07	   75.1783	      15.3	   1.79354	2.41306e+07	   75.1136	      15.3	   1.90547	2.18216e+07	
         R10	   3445	   75.5616	      15.3	   2.29211	2.12292e+07	     75.65	      15.3	   2.32373	 2.3292e+07	     75.65	      15.3	   2.24431	2.18888e+07	   75.6058	      15.3	   2.30792	 2.2224e+07	     75.65	      15.3	   2.28402	 2.2553e+07	   75.6058	      15.3	   2.26821	2.15521e+07	       N/A	       N/A	       N/A	        N/A	       N/A	       N/A	       N/A	        N/A	
         R10	   3446	   75.4612	      15.3	   2.16488	2.32651e+07	    75.565	      15.3	   2.17592	2.29287e+07	    75.545	      15.3	   2.07575	1.95684e+07	   75.5131	      15.3	    2.1704	2.30596e+07	    75.555	      15.3	   2.12583	 2.1246e+07	   75.5031	      15.3	   2.12031	2.13664e+07	       N/A	       N/A	       N/A	        N/A	       N/A	       N/A	       N/A	        N/A	
         R10	   3447	   75.4405	      15.3	   1.96265	 2.2605e+07	   75.5635	      15.3	   1.98878	2.19924e+07	   75.5557	      15.3	     1.896	 2.1923e+07	    75.502	      15.3	   1.97572	2.22906e+07	   75.5596	      15.3	   1.94239	2.19478e+07	   75.4981	      15.3	   1.92932	2.22521e+07	       N/A	       N/A	       N/A	        N/A	       N/A	       N/A	       N/A	        N/A	
         R10	   3448	     75.53	      15.3	   1.80337	2.19582e+07	   75.5519	      15.3	   1.69435	2.27223e+07	   75.4282	      15.3	   1.70635	2.32536e+07	   75.5409	      15.3	   1.74886	 2.2338e+07	   75.4901	      15.3	   1.70035	2.29877e+07	   75.4791	      15.3	   1.75486	2.26046e+07	       N/A	       N/A	       N/A	        N/A	       N/A	       N/A	       N/A	        N/A	
         R10	   3449	   74.8986	      15.3	   2.11684	  2.235e+07	   75.1235	      15.3	   2.21705	2.37248e+07	    75.147	      15.3	   2.00057	2.46275e+07	    75.011	      15.3	   2.16694	2.25917e+07	   75.1353	      15.3	   2.10881	2.33752e+07	   75.0228	      15.3	   2.05871	2.33782e+07	       N/A	       N/A	       N/A	        N/A	       N/A	       N/A	       N/A	        N/A	
         R10	   3450	    75.147	      15.3	   2.00057	1.96508e+07	   75.3354	      15.3	   2.10073	2.30075e+07	   75.3089	      15.3	   1.93255	2.84349e+07	   75.2412	      15.3	   2.05065	2.12353e+07	   75.3221	      15.3	   2.01664	2.57013e+07	   75.2279	      15.3	   1.96656	2.39175e+07	       N/A	       N/A	       N/A	        N/A	       N/A	       N/A	       N/A	        N/A	
         R10	   3451	   79.0225	   11.4831	       2.4	4.87541e+07	    78.625	   11.5581	       2.4	7.82765e+07	    78.625	      11.9	       2.4	 8.0859e+07	   78.9896	      11.9	       2.4	3.93502e+07	   78.8237	   11.5206	       2.4	5.44065e+07	    78.625	   11.7291	       2.4	3.47801e+07	   78.8073	      11.9	       2.4	5.79305e+07	   79.0061	   11.6916	       2.4	 2.5353e+07	
         R10	   3452	   79.5015	   11.4512	       2.4	3.27875e+07	   79.3845	      11.9	       2.4	 1.5159e+07	   79.8095	      11.9	       2.4	5.73561e+07	   79.7584	   11.5003	       2.4	1.00584e+08	    79.443	   11.6756	       2.4	1.57607e+07	    79.597	      11.9	       2.4	3.46897e+07	   79.7839	   11.7002	       2.4	5.27219e+07	   79.6299	   11.4758	       2.4	6.15181e+07	
         R10	   3453	   80.2646	      11.9	       2.4	5.72285e+07	     80.75	      11.9	       2.4	5.44926e+07	     80.75	     11.05	       2.4	5.33858e+07	   79.9744	     11.05	       2.4	4.33354e+07	   80.5073	      11.9	       2.4	5.11142e+07	     80.75	    11.475	       2.4	5.39286e+07	   80.3622	     11.05	       2.4	3.94379e+07	   80.1195	    11.475	       2.4	2.55802e+07	
         R10	   3454	    79.266	     11.05	       2.4	3.88254e+07	    78.625	     11.05	       2.4	1.09783e+08	    78.625	   11.5581	       2.4	1.53004e+08	   79.0225	   11.4831	       2.4	1.64047e+07	   78.9455	     11.05	       2.4	6.20523e+07	    78.625	   11.3041	       2.4	3.42769e+07	   78.8237	   11.5206	       2.4	8.27737e+07	   79.1443	   11.2666	       2.4	2.26987e+07	
         R10	   3455	    79.266	     11.05	       2.4	3.01929e+07	   79.0225	   11.4831	       2.4	 1.1539e+07	   79.3845	      11.9	       2.4	8.93387e+06	   79.5015	   11.4512	       2.4	2.46141e+07	   79.1443	   11.2666	       2.4	9.75228e+06	   79.2035	   11.6916	       2.4	7.78975e+06	    79.443	   11.6756	       2.4	1.63364e+07	   79.3838	   11.2506	       2.4	1.70867e+07	
         R10	   3456	   79.9744	     11.05	       2.4	3.96158e+07	    79.266	     11.05	       2.4	1.06644e+07	   79.5015	   11.4512	       2.4	2.87177e+07	   79.7584	   11.5003	       2.4	7.32687e+07	   79.6202	     11.05	       2.4	2.35693e+07	   79.3838	   11.2506	       2.4	1.43888e+07	   79.6299	   11.4758	       2.4	4.89363e+07	   79.8664	   11.2752	       2.4	4.40417e+07	
         R10	   3457	   79.8095	      11.9	       2.4	7.06014e+07	   80.2646	      11.9	       2.4	6.51702e+07	   79.9744	     11.05	       2.4	5.20659e+07	   79.7584	   11.5003	       2.4	6.63519e+07	   80.0371	      11.9	       2.4	6.45147e+07	   80.1195	    11.475	       2.4	2.51092e+07	   79.8664	   11.2752	       2.4	4.76323e+07	   79.7839	   11.7002	       2.4	4.21334e+07	
         R10	   3458	   79.0225	   11.4831	       2.4	5.81447e+07	   78.9896	      11.9	       2.4	3.67567e+07	   79.3845	      11.9	       2.4	2.88229e+07	   79.0061	   11.6916	       2.4	3.01003e+07	   79.1871	      11.9	       2.4	2.48263e+07	   79.2035	   11.6916	       2.4	4.27238e+07	       N/A	       N/A	       N/A	        N/A	       N/A	       N/A	       N/A	        N/A	
         R10	   3459	   78.9896	      11.9	       2.4	1.12564e+08	    78.625	      11.9	       2.4	1.06531e+08	    78.625	   12.3654	       2.4	1.37226e+08	   79.0214	   12.3409	       2.4	1.45196e+08	   78.8073	      11.9	       2.4	1.09523e+08	    78.625	   12.1327	       2.4	1.82008e+07	   78.8232	   12.3532	       2.4	1.39312e+08	   79.0055	   12.1205	       2.4	2.06805e+07	
         R10	   3460	   79.0214	   12.3409	       2.4	1.09529e+08	    78.625	   12.3654	       2.4	1.13895e+08	    78.625	     12.75	       2.4	1.03419e+08	   78.9289	     12.75	       2.4	1.01174e+08	   78.8232	   12.3532	       2.4	1.09665e+08	    78.625	   12.5577	       2.4	1.35798e+07	   78.7769	     12.75	       2.4	1.01962e+08	   78.9751	   12.5455	       2.4	2.07493e+07	
         R10	   3461	    79.427	    12.366	       2.4	 4.9501e+07	   79.0214	   12.3409	       2.4	1.24985e+08	   78.9289	     12.75	       2.4	1.01018e+08	   79.2529	     12.75	       2.4	8.78205e+07	   79.2242	   12.3535	       2.4	8.48186e+07	   78.9751	   12.5455	       2.4	 1.4749e+07	   79.0909	     12.75	       2.4	9.37973e+07	   79.3399	    12.558	       2.4	3.02953e+07	
         R10	   3462	   79.9188	   12.3464	       2.4	1.28093e+08	   79.9612	     12.75	       2.4	1.23192e+08	   80.3455	     12.75	       2.4	1.30957e+08	   80.3395	   12.3354	       2.4	1.22259e+08	     79.94	   12.5482	       2.4	4.47282e+07	   80.1534	     12.75	       2.4	1.26272e+08	   80.3425	   12.5427	       2.4	4.72999e+07	   80.1292	   12.3409	       2.4	1.24016e+08	
         R10	   3463	   80.3395	   12.3354	       2.4	2.04244e+08	   80.3455	     12.75	       2.4	1.40989e+08	     80.75	     12.75	       2.4	8.37362e+07	     80.75	   12.3654	       2.4	1.01277e+08	   80.3425	   12.5427	       2.4	1.09638e+08	   80.5478	     12.75	       2.4	9.75754e+07	     80.75	   12.5577	       2.4	4.67657e+07	   80.5448	   12.3504	       2.4	8.04973e+07	
         R10	   3464	   80.3395	   12.3354	       2.4	1.93355e+08	     80.75	   12.3654	       2.4	 9.3441e+07	     80.75	      11.9	       2.4	6.74015e+07	   80.2646	      11.9	       2.4	1.32691e+08	   80.5448	   12.3504	       2.4	6.71237e+07	     80.75	   12.1327	       2.4	2.00121e+07	   80.5073	      11.9	       2.4	 7.9227e+07	   80.3021	   12.1177	       2.4	9.39346e+07	
         R10	   3465	   79.9188	   12.3464	       2.4	1.63285e+08	   80.3395	   12.3354	       2.4	1.32232e+08	   80.2646	      11.9	       2.4	1.22224e+08	   79.8095	      11.9	       2.4	1.25411e+08	   80.1292	   12.3409	       2.4	1.45717e+08	   80.3021	   12.1177	       2.4	3.27385e+07	   80.0371	      11.9	       2.4	1.22383e+08	   79.8642	   12.1232	       2.4	4.12046e+07	
         R10	   3466	   79.3845	      11.9	       2.4	1.17592e+08	   78.9896	      11.9	       2.4	1.12321e+08	   79.0214	   12.3409	       2.4	1.41795e+08	    79.427	    12.366	       2.4	1.74897e+08	   79.1871	      11.9	       2.4	1.14809e+08	   79.0055	   12.1205	       2.4	2.21556e+07	   79.2242	   12.3535	       2.4	1.55868e+08	   79.4057	    12.133	       2.4	3.02154e+07	
         R10	   3467	    79.427	    12.366	       2.4	6.48286e+07	    79.597	     12.75	       2.4	9.20624e+07	   79.9612	     12.75	       2.4	1.22543e+08	   79.9188	   12.3464	       2.4	 1.2559e+08	    79.512	    12.558	       2.4	1.98264e+07	   79.7791	     12.75	       2.4	1.07191e+08	     79.94	   12.5482	       2.4	4.04227e+07	   79.6729	   12.3562	       2.4	9.31307e+07	
         R10	   3468	   79.3845	      11.9	       2.4	1.17683e+08	    79.427	    12.366	       2.4	1.66927e+08	   79.9188	   12.3464	       2.4	1.69746e+08	   79.8095	      11.9	       2.4	1.21032e+08	   79.4057	    12.133	       2.4	2.88002e+07	   79.6729	   12.3562	       2.4	1.67153e+08	   79.8642	   12.1232	       2.4	3.53581e+07	    79.597	      11.9	       2.4	1.19168e+08	
         R10	   3469	    79.427	    12.366	       2.4	6.82126e+07	   79.2529	     12.75	       2.4	7.77073e+07	    79.597	     12.75	       2.4	8.67055e+07	   79.3399	    12.558	       2.4	1.13786e+07	   79.4249	     12.75	       2.4	8.21282e+07	    79.512	    12.558	       2.4	1.50926e+07	       N/A	       N/A	       N/A	        N/A	       N/A	       N/A	       N/A	        N/A	
         R10	   3470	   78.9289	     12.75	       2.4	1.08687e+08	    78.625	     12.75	       2.4	1.41693e+08	    78.625	   13.0736	       2.4	1.05989e+08	    78.914	   13.0484	       2.4	7.06082e+07	   78.7769	     12.75	       2.4	1.25169e+08	    78.625	   12.9118	       2.4	2.21134e+07	   78.7695	    13.061	       2.4	8.68812e+07	   78.9214	   12.8992	       2.4	2.97299e+07	
         R10	   3471	    78.914	   13.0484	       2.4	7.11104e+07	    78.625	   13.0736	       2.4	9.88249e+07	    78.625	   13.3569	       2.4	6.31348e+07	   78.8797	   13.3599	       2.4	9.00238e+07	   78.7695	    13.061	       2.4	8.44949e+07	    78.625	   13.2152	       2.4	8.06368e+07	   78.7523	   13.3584	       2.4	7.58282e+07	   78.8969	   13.2042	       2.4	7.94251e+07	
         R10	   3472	   78.8797	   13.3599	       2.4	5.03473e+07	    78.625	   13.3569	       2.4	8.12242e+07	    78.625	      13.6	       2.4	1.66285e+08	   78.8806	      13.6	       2.4	1.15864e+08	   78.7523	   13.3584	       2.4	5.50022e+07	    78.625	   13.4784	       2.4	4.34785e+07	   78.7528	      13.6	       2.4	1.41009e+08	   78.8801	   13.4799	       2.4	5.74177e+07	
         R10	   3473	   78.8797	   13.3599	       2.4	 8.0491e+07	   78.8806	      13.6	       2.4	1.13403e+08	   79.1756	      13.6	       2.4	1.37129e+08	   79.2049	   13.2142	       2.4	1.64412e+08	   78.8801	   13.4799	       2.4	5.67862e+07	   79.0281	      13.6	       2.4	1.25005e+08	   79.1903	   13.4071	       2.4	3.94217e+07	   79.0423	   13.2871	       2.4	8.47835e+07	
         R10	   3474	   79.2049	   13.2142	       2.4	1.31639e+08	   79.1756	      13.6	       2.4	1.36265e+08	     79.51	      13.6	       2.4	 1.4594e+08	   79.5364	   13.2022	       2.4	1.50656e+08	   79.1903	   13.4071	       2.4	8.55718e+06	   79.3428	      13.6	       2.4	  1.409e+08	   79.5232	   13.4011	       2.4	 2.7397e+07	   79.3707	   13.2082	       2.4	1.39327e+08	
         R10	   3475	   79.5364	   13.2022	       2.4	1.43739e+08	     79.51	      13.6	       2.4	1.46198e+08	   79.8839	      13.6	       2.4	1.41749e+08	   79.9076	    13.189	       2.4	1.49132e+08	   79.5232	   13.4011	       2.4	1.74558e+07	    79.697	      13.6	       2.4	 1.4375e+08	   79.8958	   13.3945	       2.4	3.69583e+07	    79.722	   13.1956	       2.4	1.45592e+08	
         R10	   3476	   79.9076	    13.189	       2.4	1.45741e+08	   79.8839	      13.6	       2.4	1.43387e+08	   80.2972	      13.6	       2.4	1.32364e+08	   80.3159	   13.1752	       2.4	1.35734e+08	   79.8958	   13.3945	       2.4	 3.7961e+07	   80.0906	      13.6	       2.4	1.36823e+08	   80.3065	   13.3876	       2.4	4.60172e+07	   80.1117	   13.1821	       2.4	1.40559e+08	
         R10	   3477	   80.3159	   13.1752	       2.4	1.91508e+08	   80.2972	      13.6	       2.4	1.47131e+08	     80.75	      13.6	       2.4	7.83397e+07	     80.75	    13.175	       2.4	8.77692e+07	   80.3065	   13.3876	       2.4	9.66174e+07	   80.5236	      13.6	       2.4	9.48847e+07	     80.75	   13.3875	       2.4	4.22026e+07	   80.5329	   13.1751	       2.4	8.02227e+07	
         R10	   3478	   80.3159	   13.1752	       2.4	1.83245e+08	     80.75	    13.175	       2.4	7.95864e+07	     80.75	     12.75	       2.4	6.88732e+07	   80.3455	     12.75	       2.4	1.25067e+08	   80.5329	   13.1751	       2.4	6.98959e+07	     80.75	   12.9625	       2.4	1.48495e+07	   80.5478	     12.75	       2.4	7.71235e+07	   80.3307	   12.9626	       2.4	9.17821e+07	
         R10	   3479	   79.9076	    13.189	       2.4	1.48395e+08	   80.3159	   13.1752	       2.4	1.23998e+08	   80.3455	     12.75	       2.4	1.17163e+08	   79.9612	     12.75	       2.4	1.25351e+08	   80.1117	   13.1821	       2.4	1.35539e+08	   80.3307	   12.9626	       2.4	 3.8787e+07	   80.1534	     12.75	       2.4	1.20247e+08	   79.9344	   12.9695	       2.4	3.42643e+07	
         R10	   3480	   79.5364	   13.2022	       2.4	1.40827e+08	   79.9076	    13.189	       2.4	1.50323e+08	   79.9612	     12.75	       2.4	1.24796e+08	    79.597	     12.75	       2.4	1.20174e+08	    79.722	   13.1956	       2.4	1.44734e+08	   79.9344	   12.9695	       2.4	3.56289e+07	   79.7791	     12.75	       2.4	1.22394e+08	   79.5667	   12.9761	       2.4	1.66804e+07	
         R10	   3481	   79.2049	   13.2142	       2.4	1.31553e+08	   79.5364	   13.2022	       2.4	1.47512e+08	    79.597	     12.75	       2.4	1.19278e+08	   79.2529	     12.75	       2.4	1.07539e+08	   79.3707	   13.2082	       2.4	1.37807e+08	   79.5667	   12.9761	       2.4	2.87296e+07	   79.4249	     12.75	       2.4	1.13229e+08	   79.2289	   12.9821	       2.4	1.20268e+07	
         R10	   3482	   79.2049	   13.2142	       2.4	1.46263e+08	   79.2529	     12.75	       2.4	1.07671e+08	   78.9289	     12.75	       2.4	1.07523e+08	    78.914	   13.0484	       2.4	 7.8849e+07	   79.2289	   12.9821	       2.4	3.22243e+07	   79.0909	     12.75	       2.4	1.07525e+08	   78.9214	   12.8992	       2.4	2.81015e+07	   79.0595	   13.1313	       2.4	1.01111e+08	
         R10	   3483	   78.8797	   13.3599	       2.4	 9.5156e+07	   79.2049	   13.2142	       2.4	 8.8272e+07	    78.914	   13.0484	       2.4	7.37823e+07	   79.0423	   13.2871	       2.4	7.37864e+07	   79.0595	   13.1313	       2.4	7.01369e+07	   78.8969	   13.2042	       2.4	8.35142e+07	       N/A	       N/A	       N/A	        N/A	       N/A	       N/A	       N/A	        N/A	
         R10	   3484	   78.8806	      13.6	       2.4	1.43867e+08	    78.625	      13.6	       2.4	1.62049e+08	    78.625	   13.8226	       2.4	6.04186e+07	   78.8837	   13.8009	       2.4	4.85393e+07	   78.7528	      13.6	       2.4	1.52911e+08	    78.625	   13.7113	       2.4	5.16497e+07	   78.7544	   13.8118	       2.4	5.36373e+07	   78.8821	   13.7005	       2.4	 5.2599e+07	
         R10	   3485	   78.8837	   13.8009	       2.4	3.76506e+07	    78.625	   13.8226	       2.4	5.78272e+07	    78.625	   14.0385	       2.4	1.20016e+08	   78.8649	   14.0347	       2.4	1.22103e+08	   78.7544	   13.8118	       2.4	4.64013e+07	    78.625	   13.9306	       2.4	8.78005e+07	   78.7449	   14.0366	       2.4	1.20907e+08	   78.8743	   13.9178	       2.4	7.77002e+07	
         R10	   3486	   78.8649	   14.0347	       2.4	1.12766e+08	    78.625	   14.0385	       2.4	1.33704e+08	    78.625	   14.2476	       2.4	4.46192e+07	   78.8769	   14.2251	       2.4	7.54993e+07	   78.7449	   14.0366	       2.4	1.23092e+08	    78.625	   14.1431	       2.4	8.86662e+07	   78.7509	   14.2364	       2.4	5.94106e+07	   78.8709	   14.1299	       2.4	9.37534e+07	
         R10	   3487	   78.8769	   14.2251	       2.4	6.23665e+07	    78.625	   14.2476	       2.4	5.37432e+07	    78.625	     14.45	       2.4	1.58534e+08	   78.8441	     14.45	       2.4	1.48484e+08	   78.7509	   14.2364	       2.4	5.78082e+07	    78.625	   14.3488	       2.4	5.47047e+07	   78.7345	     14.45	       2.4	1.53394e+08	   78.8605	   14.3375	       2.4	 4.4036e+07	
         R10	   3488	   79.1034	   14.2303	       2.4	6.15545e+07	   78.8769	   14.2251	       2.4	 6.3385e+07	   78.8441	     14.45	       2.4	 1.4839e+08	   79.0913	     14.45	       2.4	1.43516e+08	   78.9901	   14.2277	       2.4	6.17538e+07	   78.8605	   14.3375	       2.4	4.35204e+07	   78.9677	     14.45	       2.4	1.45936e+08	   79.0973	   14.3402	       2.4	4.64093e+07	
         R10	   3489	   79.1034	   14.2303	       2.4	8.49962e+07	   79.0913	     14.45	       2.4	1.41726e+08	   79.3667	     14.45	       2.4	9.35028e+07	   79.3931	   14.1353	       2.4	1.09569e+08	   79.0973	   14.3402	       2.4	5.51746e+07	    79.229	     14.45	       2.4	1.17358e+08	   79.3799	   14.2926	       2.4	2.94379e+07	   79.2482	   14.1828	       2.4	8.86564e+07	
         R10	   3490	   79.3931	   14.1353	       2.4	1.11876e+08	   79.3667	     14.45	       2.4	9.02061e+07	   79.6703	     14.45	       2.4	9.39656e+07	   79.6501	   14.0445	       2.4	1.51201e+08	   79.3799	   14.2926	       2.4	2.47581e+07	   79.5185	     14.45	       2.4	9.18343e+07	   79.6602	   14.2472	       2.4	3.50392e+07	   79.5216	   14.0899	       2.4	1.26757e+08	
         R10	   3491	   79.6501	   14.0445	       2.4	1.44445e+08	   79.6703	     14.45	       2.4	9.44946e+07	    80.002	     14.45	       2.4	9.73516e+07	   79.9787	   14.0175	       2.4	1.39723e+08	   79.6602	   14.2472	       2.4	3.39426e+07	   79.8361	     14.45	       2.4	9.57595e+07	   79.9904	   14.2338	       2.4	 3.8754e+07	   79.8144	    14.031	       2.4	1.41697e+08	
         R10	   3492	   79.9787	   14.0175	       2.4	1.60375e+08	    80.002	     14.45	       2.4	9.90577e+07	   80.3619	     14.45	       2.4	9.55785e+07	   80.3559	   14.0171	       2.4	1.07572e+08	   79.9904	   14.2338	       2.4	6.54837e+07	    80.182	     14.45	       2.4	9.59963e+07	   80.3589	   14.2335	       2.4	2.63314e+07	   80.1673	   14.0173	       2.4	1.23245e+08	
         R10	   3493	   80.3559	   14.0171	       2.4	2.34198e+08	   80.3619	     14.45	       2.4	9.10512e+07	     80.75	     14.45	       2.4	8.41295e+07	     80.75	   14.0452	       2.4	1.35622e+08	   80.3589	   14.2335	       2.4	 1.2696e+08	    80.556	     14.45	       2.4	7.42689e+07	     80.75	   14.2476	       2.4	6.18136e+07	    80.553	   14.0312	       2.4	8.28642e+07	
         R10	   3494	   80.3559	   14.0171	       2.4	2.47034e+08	     80.75	   14.0452	       2.4	1.38378e+08	     80.75	      13.6	       2.4	7.57049e+07	   80.2972	      13.6	       2.4	1.29221e+08	    80.553	   14.0312	       2.4	8.30552e+07	     80.75	   13.8226	       2.4	4.55864e+07	   80.5236	      13.6	       2.4	7.68197e+07	   80.3266	   13.8085	       2.4	 1.1325e+08	
         R10	   3495	   79.9787	   14.0175	       2.4	1.56558e+08	   80.3559	   14.0171	       2.4	1.33233e+08	   80.2972	      13.6	       2.4	 1.1757e+08	   79.8839	      13.6	       2.4	1.04518e+08	   80.1673	   14.0173	       2.4	 1.3657e+08	   80.3266	   13.8085	       2.4	2.68664e+07	   80.0906	      13.6	       2.4	1.10471e+08	   79.9313	   13.8088	       2.4	5.41325e+07	
         R10	   3496	   79.6501	   14.0445	       2.4	7.47682e+07	   79.9787	   14.0175	       2.4	1.31672e+08	   79.8839	      13.6	       2.4	9.62989e+07	     79.51	      13.6	       2.4	4.10026e+07	   79.8144	    14.031	       2.4	1.03014e+08	   79.9313	   13.8088	       2.4	3.47958e+07	    79.697	      13.6	       2.4	6.84345e+07	     79.58	   13.8222	       2.4	2.48194e+07	
         R10	   3497	   79.2036	    13.907	       2.4	3.63656e+07	   79.1756	      13.6	       2.4	5.50178e+07	   78.8806	      13.6	       2.4	1.37353e+08	   78.8837	   13.8009	       2.4	6.38918e+07	   79.1896	   13.7535	       2.4	 2.9125e+07	   79.0281	      13.6	       2.4	9.54072e+07	   78.8821	   13.7005	       2.4	5.72616e+07	   79.0437	    13.854	       2.4	3.96094e+07	
         R10	   3498	   79.2036	    13.907	       2.4	7.17428e+07	   78.8649	   14.0347	       2.4	1.15091e+08	   78.8769	   14.2251	       2.4	8.85622e+07	   79.1034	   14.2303	       2.4	1.24338e+08	   79.0342	   13.9709	       2.4	 9.1755e+07	   78.8709	   14.1299	       2.4	1.01797e+08	   78.9901	   14.2277	       2.4	1.06432e+08	   79.1535	   14.0687	       2.4	9.65508e+07	
         R10	   3499	     79.51	      13.6	       2.4	4.24246e+07	   79.2036	    13.907	       2.4	5.26361e+07	   79.3931	   14.1353	       2.4	1.05952e+08	   79.6501	   14.0445	       2.4	5.68148e+07	   79.3568	   13.7535	       2.4	2.41146e+07	   79.2984	   14.0212	       2.4	6.37635e+07	   79.5216	   14.0899	       2.4	7.96736e+07	     79.58	   13.8222	       2.4	7.63518e+06	
         R10	   3500	   79.2036	    13.907	       2.4	4.22305e+07	   78.8837	   13.8009	       2.4	5.49252e+07	   78.8649	   14.0347	       2.4	1.24672e+08	   79.0437	    13.854	       2.4	3.86163e+07	   78.8743	   13.9178	       2.4	8.34984e+07	   79.0342	   13.9709	       2.4	8.14347e+07	       N/A	       N/A	       N/A	        N/A	       N/A	       N/A	       N/A	        N/A	
         R10	   3501	   79.2036	    13.907	       2.4	7.94554e+07	   79.1034	   14.2303	       2.4	1.30776e+08	   79.3931	   14.1353	       2.4	1.05954e+08	   79.1535	   14.0687	       2.4	1.04668e+08	   79.2482	   14.1828	       2.4	1.13407e+08	   79.2984	   14.0212	       2.4	8.68273e+07	       N/A	       N/A	       N/A	        N/A	       N/A	       N/A	       N/A	        N/A	
         R10	   3502	     79.51	      13.6	       2.4	3.07315e+07	   79.1756	      13.6	       2.4	5.68827e+07	   79.2036	    13.907	       2.4	3.38323e+07	   79.3428	      13.6	       2.4	 4.3068e+07	   79.1896	   13.7535	       2.4	2.84734e+07	   79.3568	   13.7535	       2.4	 2.2629e+07	       N/A	       N/A	       N/A	        N/A	       N/A	       N/A	       N/A	        N/A	
         R10	   3503	   78.8441	     14.45	       2.4	1.48958e+08	    78.625	     14.45	       2.4	1.47078e+08	    78.625	   14.6726	       2.4	6.33016e+07	   78.8535	   14.6701	       2.4	6.51925e+07	   78.7345	     14.45	       2.4	1.47956e+08	    78.625	   14.5613	       2.4	4.36416e+07	   78.7392	   14.6713	       2.4	 6.4162e+07	   78.8488	     14.56	       2.4	4.52132e+07	
         R10	   3504	   78.8535	   14.6701	       2.4	5.90285e+07	    78.625	   14.6726	       2.4	6.53371e+07	    78.625	   14.8885	       2.4	1.10255e+08	   78.8446	   14.8886	       2.4	1.19411e+08	   78.7392	   14.6713	       2.4	6.18364e+07	    78.625	   14.7806	       2.4	8.77842e+07	   78.7348	   14.8885	       2.4	1.14799e+08	    78.849	   14.7793	       2.4	8.87112e+07	
         R10	   3505	   78.8446	   14.8886	       2.4	 1.0482e+08	    78.625	   14.8885	       2.4	1.15637e+08	    78.625	   15.0976	       2.4	2.81325e+07	    78.841	   15.0957	       2.4	3.52323e+07	   78.7348	   14.8885	       2.4	1.10124e+08	    78.625	   14.9931	       2.4	6.86339e+07	    78.733	   15.0967	       2.4	3.06934e+07	   78.8428	   14.9921	       2.4	6.77941e+07	
         R10	   3506	    78.841	   15.0957	       2.4	3.57863e+07	    78.625	   15.0976	       2.4	 2.4371e+07	    78.625	      15.3	       2.4	2.04834e+08	   78.8309	      15.3	       2.4	2.20003e+08	    78.733	   15.0967	       2.4	2.80063e+07	    78.625	   15.1988	       2.4	9.92177e+07	    78.728	      15.3	       2.4	2.11923e+08	   78.8359	   15.1979	       2.4	1.00224e+08	
         R10	   3507	   79.0748	   15.0994	       2.4	4.45365e+07	    78.841	   15.0957	       2.4	2.44639e+07	   78.8309	      15.3	       2.4	2.20638e+08	   79.0694	      15.3	       2.4	1.97389e+08	   78.9579	   15.0975	       2.4	3.23274e+07	   78.8359	   15.1979	       2.4	1.01707e+08	   78.9501	      15.3	       2.4	 2.0876e+08	   79.0721	   15.1997	       2.4	9.09395e+07	
         R10	   3508	   79.0748	   15.0994	       2.4	1.92981e+07	   79.0694	      15.3	       2.4	2.02681e+08	   79.3404	      15.3	       2.4	1.80903e+08	   79.3449	   15.0603	       2.4	7.02417e+07	   79.0721	   15.1997	       2.4	9.40003e+07	   79.2049	      15.3	       2.4	1.89539e+08	   79.3426	   15.1802	       2.4	7.39466e+07	   79.2098	   15.0798	       2.4	4.31371e+07	
         R10	   3509	   79.3449	   15.0603	       2.4	6.92412e+07	   79.3404	      15.3	       2.4	1.75889e+08	   79.6439	      15.3	       2.4	1.68367e+08	   79.6534	   14.9019	       2.4	2.01433e+08	   79.3426	   15.1802	       2.4	6.70539e+07	   79.4922	      15.3	       2.4	1.71939e+08	   79.6487	   15.1009	       2.4	6.08499e+07	   79.4991	   14.9811	       2.4	1.13463e+08	
         R10	   3510	   79.6534	   14.9019	       2.4	1.57334e+08	   79.6439	      15.3	       2.4	 1.6859e+08	   79.9801	      15.3	       2.4	1.48147e+08	   79.9967	    14.894	       2.4	 1.6847e+08	   79.6487	   15.1009	       2.4	1.26277e+07	    79.812	      15.3	       2.4	1.58315e+08	   79.9884	    15.097	       2.4	4.24178e+07	    79.825	    14.898	       2.4	1.58567e+08	
         R10	   3511	   79.9967	    14.894	       2.4	1.50112e+08	   79.9801	      15.3	       2.4	1.44427e+08	   80.3488	      15.3	       2.4	1.07155e+08	   80.3633	   14.8862	       2.4	1.43799e+08	   79.9884	    15.097	       2.4	 1.4681e+07	   80.1644	      15.3	       2.4	1.24424e+08	    80.356	   15.0931	       2.4	4.48156e+07	     80.18	   14.8901	       2.4	1.41962e+08	
         R10	   3512	   80.3633	   14.8862	       2.4	1.52377e+08	   80.3488	      15.3	       2.4	1.07946e+08	     80.75	      15.3	       2.4	4.27966e+07	     80.75	    14.875	       2.4	7.43823e+07	    80.356	   15.0931	       2.4	5.92722e+07	   80.5494	      15.3	       2.4	4.27188e+07	     80.75	   15.0875	       2.4	3.77552e+07	   80.5567	   14.8806	       2.4	7.72384e+07	
         R10	   3513	   80.3633	   14.8862	       2.4	1.52566e+08	     80.75	    14.875	       2.4	8.66414e+07	     80.75	     14.45	       2.4	6.04803e+07	   80.3619	     14.45	       2.4	1.36494e+08	   80.5567	   14.8806	       2.4	7.46738e+07	     80.75	   14.6625	       2.4	3.18293e+07	    80.556	     14.45	       2.4	7.29756e+07	   80.3626	   14.6681	       2.4	7.13381e+07	
         R10	   3514	   79.9967	    14.894	       2.4	1.43707e+08	   80.3633	   14.8862	       2.4	1.44446e+08	   80.3619	     14.45	       2.4	1.11001e+08	    80.002	     14.45	       2.4	1.22675e+08	     80.18	   14.8901	       2.4	1.40324e+08	   80.3626	   14.6681	       2.4	5.89619e+07	    80.182	     14.45	       2.4	1.16213e+08	   79.9993	    14.672	       2.4	2.22624e+07	
         R10	   3515	   79.6534	   14.9019	       2.4	1.39682e+08	   79.9967	    14.894	       2.4	1.64559e+08	    80.002	     14.45	       2.4	1.19448e+08	   79.6703	     14.45	       2.4	1.11577e+08	    79.825	    14.898	       2.4	1.47475e+08	   79.9993	    14.672	       2.4	5.38336e+07	   79.8361	     14.45	       2.4	1.15387e+08	   79.6618	   14.6759	       2.4	1.67965e+07	
         R10	   3516	   79.6534	   14.9019	       2.4	1.63715e+08	   79.6703	     14.45	       2.4	1.11383e+08	   79.3667	     14.45	       2.4	 1.2106e+08	   79.3731	   14.7128	       2.4	9.49673e+07	   79.6618	   14.6759	       2.4	4.49603e+07	   79.5185	     14.45	       2.4	1.15897e+08	   79.3699	   14.5814	       2.4	2.31748e+07	   79.5132	   14.8074	       2.4	1.18601e+08	
         R10	   3517	   79.3731	   14.7128	       2.4	9.83602e+07	   79.3667	     14.45	       2.4	1.22381e+08	   79.0913	     14.45	       2.4	1.41526e+08	    79.094	   14.6771	       2.4	5.92921e+07	   79.3699	   14.5814	       2.4	3.98988e+07	    79.229	     14.45	       2.4	1.31926e+08	   79.0927	   14.5635	       2.4	4.37189e+07	   79.2336	    14.695	       2.4	7.70979e+07	
         R10	   3518	    79.094	   14.6771	       2.4	6.20956e+07	   79.0913	     14.45	       2.4	1.40921e+08	   78.8441	     14.45	       2.4	1.49673e+08	   78.8535	   14.6701	       2.4	6.34964e+07	   79.0927	   14.5635	       2.4	4.53918e+07	   78.9677	     14.45	       2.4	1.45206e+08	   78.8488	     14.56	       2.4	4.49753e+07	   78.9738	   14.6736	       2.4	6.24672e+07	
         R10	   3519	    79.094	   14.6771	       2.4	7.87884e+07	   78.8535	   14.6701	       2.4	5.66935e+07	   78.8446	   14.8886	       2.4	1.21571e+08	   79.0637	   14.8939	       2.4	9.88612e+07	   78.9738	   14.6736	       2.4	6.74163e+07	    78.849	   14.7793	       2.4	8.89828e+07	   78.9541	   14.8912	       2.4	1.10214e+08	   79.0789	   14.7855	       2.4	8.77279e+07	
         R10	   3520	   79.0637	   14.8939	       2.4	1.22545e+08	   78.8446	   14.8886	       2.4	1.06461e+08	    78.841	   15.0957	       2.4	3.17131e+07	   79.0748	   15.0994	       2.4	 3.9534e+07	   78.9541	   14.8912	       2.4	1.14367e+08	   78.8428	   14.9921	       2.4	6.70506e+07	   78.9579	   15.0975	       2.4	3.00892e+07	   79.0693	   14.9966	       2.4	6.99589e+07	
         R10	   3521	   79.2714	   14.8937	       2.4	9.43961e+07	   79.0637	   14.8939	       2.4	1.25545e+08	   79.0748	   15.0994	       2.4	1.55747e+07	   79.3449	   15.0603	       2.4	8.93409e+07	   79.1676	   14.8938	       2.4	1.05278e+08	   79.0693	   14.9966	       2.4	6.60152e+07	   79.2098	   15.0798	       2.4	4.82046e+07	   79.3082	    14.977	       2.4	9.14417e+07	
         R10	   3522	   79.2714	   14.8937	       2.4	9.44294e+07	   79.3449	   15.0603	       2.4	8.94126e+07	   79.6534	   14.9019	       2.4	 9.4667e+07	   79.3731	   14.7128	       2.4	5.39828e+07	   79.3082	    14.977	       2.4	9.04111e+07	   79.4991	   14.9811	       2.4	7.70964e+07	   79.5132	   14.8074	       2.4	6.50844e+07	   79.3223	   14.8033	       2.4	7.41374e+07	
         R10	   3523	   79.2714	   14.8937	       2.4	1.30546e+08	   79.3731	   14.7128	       2.4	 6.9157e+07	    79.094	   14.6771	       2.4	7.22641e+07	   79.0637	   14.8939	       2.4	9.65858e+07	   79.3223	   14.8033	       2.4	9.97629e+07	   79.2336	    14.695	       2.4	6.96609e+07	   79.0789	   14.7855	       2.4	8.35564e+07	   79.1676	   14.8938	       2.4	1.09986e+08	
         R10	   3524	      76.5	       8.5	       1.6	4.36282e+07	      76.5	       8.5	       2.4	4.06705e+07	      76.5	      9.35	       2.4	4.84571e+07	      76.5	      9.35	       1.6	5.11306e+07	      76.5	       8.5	         2	4.18871e+07	      76.5	     8.925	       2.4	 4.4197e+07	      76.5	      9.35	         2	4.83786e+07	      76.5	     8.925	       1.6	4.61796e+07	
         R10	   3525	      76.5	       8.5	       0.8	4.36691e+07	      76.5	       8.5	       1.6	4.32657e+07	      76.5	      9.35	       1.6	4.80311e+07	      76.5	      9.35	       0.8	4.24542e+07	      76.5	       8.5	       1.2	 4.3357e+07	      76.5	     8.925	       1.6	4.42096e+07	      76.5	      9.35	       1.2	4.51153e+07	      76.5	     8.925	       0.8	4.21707e+07	
         R10	   3526	      76.5	       8.5	         0	4.70997e+07	      76.5	       8.5	       0.8	4.21597e+07	      76.5	      9.35	       0.8	4.71389e+07	      76.5	      9.35	         0	4.09755e+07	      76.5	       8.5	       0.4	4.37453e+07	      76.5	     8.925	       0.8	4.38618e+07	      76.5	      9.35	       0.4	4.35454e+07	      76.5	     8.925	         0	4.33443e+07	
         R10	   3527	   78.8309	      15.3	       2.4	1.66999e+08	    78.625	      15.3	       2.4	1.93723e+08	    78.625	   15.4468	   2.54279	 3.1437e+07	   78.8273	   15.4346	   2.53094	2.73114e+07	    78.728	      15.3	       2.4	1.79879e+08	    78.625	   15.3734	    2.4714	8.85227e+07	   78.7262	   15.4407	   2.53687	2.47929e+07	   78.8291	   15.3673	   2.46547	8.79171e+07	
         R10	   3528	   78.8273	   15.4346	   2.53094	 2.8978e+07	    78.625	   15.4468	   2.54279	2.71111e+07	    78.625	   15.5984	   2.69034	9.55172e+07	   78.8382	   15.6092	   2.70087	9.87161e+07	   78.7262	   15.4407	   2.53687	2.78236e+07	    78.625	   15.5226	   2.61657	5.82345e+07	   78.7316	   15.6038	   2.69561	9.66292e+07	   78.8328	   15.5219	   2.61591	6.17494e+07	
         R10	   3529	   78.8382	   15.6092	   2.70087	9.26307e+07	    78.625	   15.5984	   2.69034	1.08256e+08	    78.625	    15.755	   2.84265	5.55909e+07	   78.8624	    15.743	     2.831	7.00905e+07	   78.7316	   15.6038	   2.69561	9.96935e+07	    78.625	   15.6767	    2.7665	8.14793e+07	   78.7437	    15.749	   2.83683	6.23198e+07	   78.8503	   15.6761	   2.76594	8.07504e+07	
         R10	   3530	   78.8624	    15.743	     2.831	6.46273e+07	    78.625	    15.755	   2.84265	5.96106e+07	    78.625	   15.9164	   2.99973	1.31669e+08	   78.8441	   15.9164	   2.99973	1.28819e+08	   78.7437	    15.749	   2.83683	6.15207e+07	    78.625	   15.8357	   2.92119	4.09894e+07	   78.7345	   15.9164	   2.99973	1.30233e+08	   78.8532	   15.8297	   2.91536	3.54452e+07	
         R10	   3531	    79.109	   15.7173	   2.80607	8.78056e+07	   78.8624	    15.743	     2.831	6.67948e+07	   78.8441	   15.9164	   2.99973	1.28701e+08	   79.0913	   15.9164	   2.99973	 1.2887e+08	   78.9857	   15.7302	   2.81853	7.72341e+07	   78.8532	   15.8297	   2.91536	3.55343e+07	   78.9677	   15.9164	   2.99973	1.28565e+08	   79.1001	   15.8169	   2.90289	 2.7963e+07	
         R10	   3532	    79.109	   15.7173	   2.80607	8.80941e+07	   79.0913	   15.9164	   2.99973	1.30474e+08	   79.3667	   15.9164	   2.99973	1.00774e+08	   79.3439	   15.7302	   2.81856	6.12516e+07	   79.1001	   15.8169	   2.90289	2.89491e+07	    79.229	   15.9164	   2.99973	1.15592e+08	   79.3553	   15.8233	   2.90914	 4.0361e+07	   79.2264	   15.7238	   2.81231	7.20143e+07	
         R10	   3533	   79.3439	   15.7302	   2.81856	5.65442e+07	   79.3667	   15.9164	   2.99973	9.94909e+07	   79.6703	   15.9164	   2.99973	 1.0826e+08	   79.6746	   15.6057	   2.69741	1.41939e+08	   79.3553	   15.8233	   2.90914	 2.7733e+07	   79.5185	   15.9164	   2.99973	1.03731e+08	   79.6724	    15.761	   2.84857	3.35421e+07	   79.5092	   15.6679	   2.75799	9.34766e+07	
         R10	   3534	   79.6746	   15.6057	   2.69741	1.24497e+08	   79.6703	   15.9164	   2.99973	1.07939e+08	    80.002	   15.9164	   2.99973	1.16484e+08	   80.0107	   15.6074	   2.69907	1.50445e+08	   79.6724	    15.761	   2.84857	 1.6252e+07	   79.8361	   15.9164	   2.99973	1.12145e+08	   80.0064	   15.7619	    2.8494	 4.5288e+07	   79.8426	   15.6065	   2.69824	1.35339e+08	
         R10	   3535	   80.0107	   15.6074	   2.69907	1.34791e+08	    80.002	   15.9164	   2.99973	1.19023e+08	   80.3619	   15.9164	   2.99973	1.04871e+08	   80.3731	    15.607	   2.69871	1.44888e+08	   80.0064	   15.7619	    2.8494	1.97878e+07	    80.182	   15.9164	   2.99973	1.11458e+08	   80.3675	   15.7617	   2.84922	5.70862e+07	   80.1919	   15.6072	   2.69889	1.35855e+08	
         R10	   3536	   80.3731	    15.607	   2.69871	1.41098e+08	   80.3619	   15.9164	   2.99973	1.27488e+08	     80.75	   15.9164	   2.99973	5.25052e+07	     80.75	   15.6082	   2.69986	7.20365e+07	   80.3675	   15.7617	   2.84922	6.08114e+07	    80.556	   15.9164	   2.99973	6.59014e+07	     80.75	   15.7623	   2.84979	 2.8589e+07	   80.5615	   15.6076	   2.69929	7.30658e+07	
         R10	   3537	   80.3731	    15.607	   2.69871	1.35256e+08	     80.75	   15.6082	   2.69986	 6.1422e+07	     80.75	      15.3	       2.4	4.47209e+07	   80.3488	      15.3	       2.4	8.69376e+07	   80.5615	   15.6076	   2.69929	7.26215e+07	     80.75	   15.4541	   2.54993	3.23187e+07	   80.5494	      15.3	       2.4	3.75847e+07	   80.3609	   15.4535	   2.54935	5.07499e+07	
         R10	   3538	   80.0107	   15.6074	   2.69907	1.43082e+08	   80.3731	    15.607	   2.69871	1.36011e+08	   80.3488	      15.3	       2.4	8.57987e+07	   79.9801	      15.3	       2.4	1.26642e+08	   80.1919	   15.6072	   2.69889	1.34476e+08	   80.3609	   15.4535	   2.54935	 4.8874e+07	   80.1644	      15.3	       2.4	1.05151e+08	   79.9954	   15.4537	   2.54954	1.38451e+07	
         R10	   3539	   79.6746	   15.6057	   2.69741	 1.4756e+08	   80.0107	   15.6074	   2.69907	1.58356e+08	   79.9801	      15.3	       2.4	1.28695e+08	   79.6439	      15.3	       2.4	1.43561e+08	   79.8426	   15.6065	   2.69824	  1.509e+08	   79.9954	   15.4537	   2.54954	3.86392e+07	    79.812	      15.3	       2.4	1.36085e+08	   79.6593	   15.4528	   2.54871	1.66363e+07	
         R10	   3540	   79.6746	   15.6057	   2.69741	1.77631e+08	   79.6439	      15.3	       2.4	1.45535e+08	   79.3404	      15.3	       2.4	1.23138e+08	    79.349	   15.5007	   2.59526	4.26714e+07	   79.6593	   15.4528	   2.54871	5.10204e+07	   79.4922	      15.3	       2.4	1.34149e+08	   79.3447	   15.4003	   2.49763	4.73726e+07	   79.5118	   15.5532	   2.64634	9.81163e+07	
         R10	   3541	    79.349	   15.5007	   2.59526	 4.6971e+07	   79.3404	      15.3	       2.4	1.24913e+08	   79.0694	      15.3	       2.4	1.74216e+08	   79.0898	   15.5211	   2.61509	9.06907e+07	   79.3447	   15.4003	   2.49763	5.35896e+07	   79.2049	      15.3	       2.4	1.48194e+08	   79.0796	   15.4105	   2.50754	5.03281e+07	   79.2194	   15.5109	   2.60518	6.36489e+07	
         R10	   3542	   79.0898	   15.5211	   2.61509	9.48344e+07	   79.0694	      15.3	       2.4	1.71577e+08	   78.8309	      15.3	       2.4	 1.6786e+08	   78.8273	   15.4346	   2.53094	3.67194e+07	   79.0796	   15.4105	   2.50754	4.10288e+07	   78.9501	      15.3	       2.4	1.69663e+08	   78.8291	   15.3673	   2.46547	8.74308e+07	   78.9586	   15.4778	   2.57302	5.19513e+07	
         R10	   3543	   79.0898	   15.5211	   2.61509	9.92229e+07	   78.8382	   15.6092	   2.70087	 8.5459e+07	   78.8624	    15.743	     2.831	7.55037e+07	    79.109	   15.7173	   2.80607	8.40246e+07	    78.964	   15.5651	   2.65798	8.30445e+07	   78.8503	   15.6761	   2.76594	7.77393e+07	   78.9857	   15.7302	   2.81853	7.90865e+07	   79.0994	   15.6192	   2.71058	8.77503e+07	
         R10	   3544	    79.349	   15.5007	   2.59526	1.07795e+08	   79.0898	   15.5211	   2.61509	7.73345e+07	    79.109	   15.7173	   2.80607	8.22856e+07	   79.3439	   15.7302	   2.81856	6.45515e+07	   79.2194	   15.5109	   2.60518	9.20955e+07	   79.0994	   15.6192	   2.71058	7.91763e+07	   79.2264	   15.7238	   2.81231	7.32353e+07	   79.3464	   15.6154	   2.70691	8.61235e+07	
         R10	   3545	   79.0898	   15.5211	   2.61509	6.82214e+07	   78.8273	   15.4346	   2.53094	4.39528e+07	   78.8382	   15.6092	   2.70087	9.16965e+07	   78.9586	   15.4778	   2.57302	5.22704e+07	   78.8328	   15.5219	   2.61591	5.67559e+07	    78.964	   15.5651	   2.65798	7.32668e+07	       N/A	       N/A	       N/A	        N/A	       N/A	       N/A	       N/A	        N/A	
         R10	   3546	   79.6746	   15.6057	   2.69741	8.36367e+07	    79.349	   15.5007	   2.59526	9.85587e+07	   79.3439	   15.7302	   2.81856	5.77304e+07	   79.5118	   15.5532	   2.64634	8.45413e+07	   79.3464	   15.6154	   2.70691	7.80679e+07	   79.5092	   15.6679	   2.75799	6.56703e+07	       N/A	       N/A	       N/A	        N/A	       N/A	       N/A	       N/A	        N/A	
         R10	   3547	   78.8441	   15.9164	   2.99973	1.25113e+08	    78.625	   15.9164	   2.99973	1.32787e+08	    78.625	   16.0631	   3.14252	 4.3999e+07	   78.8361	   16.0514	   3.13113	4.80453e+07	   78.7345	   15.9164	   2.99973	1.28946e+08	    78.625	   15.9898	   3.07112	4.53803e+07	   78.7305	   16.0573	   3.13682	4.37395e+07	   78.8401	   15.9839	   3.06543	4.64669e+07	
         R10	   3548	   78.8361	   16.0514	   3.13113	3.78732e+07	    78.625	   16.0631	   3.14252	5.23884e+07	    78.625	   16.2148	   3.29007	1.01995e+08	   78.8449	    16.224	   3.29901	1.16137e+08	   78.7305	   16.0573	   3.13682	 4.4228e+07	    78.625	    16.139	   3.21629	7.67895e+07	    78.735	   16.2194	   3.29454	1.08021e+08	   78.8405	   16.1377	   3.21507	7.55318e+07	
         R10	   3549	   78.8449	    16.224	   3.29901	8.19336e+07	    78.625	   16.2148	   3.29007	1.22136e+08	    78.625	   16.3713	   3.44238	4.83848e+07	   78.8758	   16.3628	   3.43406	8.41943e+07	    78.735	   16.2194	   3.29454	1.01745e+08	    78.625	   16.2931	   3.36622	8.52139e+07	   78.7504	   16.3671	   3.43822	6.60385e+07	   78.8604	   16.2934	   3.36653	 8.2916e+07	
         R10	   3550	   78.8758	   16.3628	   3.43406	5.75225e+07	    78.625	   16.3713	   3.44238	5.55526e+07	    78.625	   16.5328	   3.59945	1.49132e+08	   78.8806	   16.5328	   3.59945	1.37614e+08	   78.7504	   16.3671	   3.43822	5.59575e+07	    78.625	   16.4521	   3.52092	4.72602e+07	   78.7528	   16.5328	   3.59945	1.43288e+08	   78.8782	   16.4478	   3.51675	4.44078e+07	
         R10	   3551	   79.1666	   16.3353	   3.40728	8.74636e+07	   78.8758	   16.3628	   3.43406	5.36457e+07	   78.8806	   16.5328	   3.59945	1.37073e+08	   79.1756	   16.5328	   3.59945	 1.1664e+08	   79.0212	    16.349	   3.42067	6.82263e+07	   78.8782	   16.4478	   3.51675	4.35581e+07	   79.0281	   16.5328	   3.59945	1.26797e+08	   79.1711	    16.434	   3.50337	 3.1977e+07	
         R10	   3552	   79.1666	   16.3353	   3.40728	8.46185e+07	   79.1756	   16.5328	   3.59945	1.16282e+08	     79.51	   16.5328	   3.59945	  1.106e+08	   79.5367	    16.241	   3.31558	1.53915e+08	   79.1711	    16.434	   3.50337	2.65557e+07	   79.3428	   16.5328	   3.59945	1.13302e+08	   79.5234	   16.3869	   3.45752	 3.8945e+07	   79.3517	   16.2881	   3.36143	1.09116e+08	
         R10	   3553	   79.5367	    16.241	   3.31558	1.31679e+08	     79.51	   16.5328	   3.59945	 1.1204e+08	   79.8839	   16.5328	   3.59945	1.03693e+08	   79.9276	   16.2329	    3.3077	1.34069e+08	   79.5234	   16.3869	   3.45752	1.57539e+07	    79.697	   16.5328	   3.59945	1.07754e+08	   79.9058	   16.3828	   3.45358	2.99286e+07	   79.7322	    16.237	   3.31164	1.32161e+08	
         R10	   3554	   79.9276	   16.2329	    3.3077	1.43937e+08	   79.8839	   16.5328	   3.59945	1.06747e+08	   80.2972	   16.5328	   3.59945	1.05961e+08	   80.3278	   16.2295	   3.30433	1.31263e+08	   79.9058	   16.3828	   3.45358	4.12667e+07	   80.0906	   16.5328	   3.59945	1.05917e+08	   80.3125	   16.3811	   3.45189	2.42371e+07	   80.1277	   16.2312	   3.30602	1.33353e+08	
         R10	   3555	   80.3278	   16.2295	   3.30433	2.24999e+08	   80.2972	   16.5328	   3.59945	1.18173e+08	     80.75	   16.5328	   3.59945	6.20003e+07	     80.75	   16.2099	   3.28531	1.23604e+08	   80.3125	   16.3811	   3.45189	1.01209e+08	   80.5236	   16.5328	   3.59945	6.46316e+07	     80.75	   16.3713	   3.44238	4.31898e+07	   80.5389	   16.2197	   3.29482	8.05812e+07	
         R10	   3556	   80.3278	   16.2295	   3.30433	2.10333e+08	     80.75	   16.2099	   3.28531	1.22032e+08	     80.75	   15.9164	   2.99973	7.47989e+07	   80.3619	   15.9164	   2.99973	7.53972e+07	   80.5389	   16.2197	   3.29482	7.77065e+07	     80.75	   16.0631	   3.14252	5.91893e+07	    80.556	   15.9164	   2.99973	6.43888e+07	   80.3449	   16.0729	   3.15203	1.16086e+08	
         R10	   3557	   79.9276	   16.2329	    3.3077	1.30386e+08	   80.3278	   16.2295	   3.30433	9.62519e+07	   80.3619	   15.9164	   2.99973	7.70721e+07	    80.002	   15.9164	   2.99973	7.07207e+07	   80.1277	   16.2312	   3.30602	1.05155e+08	   80.3449	   16.0729	   3.15203	2.67811e+07	    80.182	   15.9164	   2.99973	7.28799e+07	   79.9648	   16.0746	   3.15371	5.62189e+07	
         R10	   3558	   79.5367	    16.241	   3.31558	1.18136e+08	   79.9276	   16.2329	    3.3077	1.14138e+08	    80.002	   15.9164	   2.99973	6.87229e+07	   79.6703	   15.9164	   2.99973	  6.976e+07	   79.7322	    16.237	   3.31164	1.15242e+08	   79.9648	   16.0746	   3.15371	3.79149e+07	   79.8361	   15.9164	   2.99973	 6.9039e+07	   79.6035	   16.0787	   3.15765	3.00918e+07	
         R10	   3559	   79.1151	   16.1314	    3.2089	8.67339e+07	   79.0913	   15.9164	   2.99973	9.71156e+07	   78.8441	   15.9164	   2.99973	1.23449e+08	   78.8361	   16.0514	   3.13113	4.36465e+07	   79.1032	   16.0239	   3.10431	1.35445e+07	   78.9677	   15.9164	   2.99973	1.10093e+08	   78.8401	   15.9839	   3.06543	4.36669e+07	   78.9756	   16.0914	   3.17001	6.44669e+07	
         R10	   3560	   79.1151	   16.1314	    3.2089	1.26144e+08	   78.8449	    16.224	   3.29901	8.97299e+07	   78.8758	   16.3628	   3.43406	8.09642e+07	   79.1666	   16.3353	   3.40728	6.30936e+07	     78.98	   16.1777	   3.25395	1.03701e+08	   78.8604	   16.2934	   3.36653	8.52078e+07	   79.0212	    16.349	   3.42067	 6.7572e+07	   79.1409	   16.2333	   3.30809	9.02345e+07	
         R10	   3561	   79.3352	   16.1034	   3.18167	7.06263e+07	   79.1151	   16.1314	    3.2089	1.21565e+08	   79.1666	   16.3353	   3.40728	5.85498e+07	   79.5367	    16.241	   3.31558	9.17313e+07	   79.2251	   16.1174	   3.19528	9.19702e+07	   79.1409	   16.2333	   3.30809	8.50739e+07	   79.3517	   16.2881	   3.36143	6.31113e+07	   79.4359	   16.1722	   3.24863	8.11509e+07	
         R10	   3562	   79.3352	   16.1034	   3.18167	8.70356e+07	   79.5367	    16.241	   3.31558	1.19099e+08	   79.6703	   15.9164	   2.99973	6.93981e+07	   79.3667	   15.9164	   2.99973	9.58693e+07	   79.4359	   16.1722	   3.24863	1.00721e+08	   79.6035	   16.0787	   3.15765	3.62579e+07	   79.5185	   15.9164	   2.99973	8.18734e+07	   79.3509	   16.0099	    3.0907	1.55637e+07	
         R10	   3563	   79.1151	   16.1314	    3.2089	8.23552e+07	   79.3352	   16.1034	   3.18167	1.02869e+08	   79.3667	   15.9164	   2.99973	1.00557e+08	   79.0913	   15.9164	   2.99973	9.73025e+07	   79.2251	   16.1174	   3.19528	 8.8081e+07	   79.3509	   16.0099	    3.0907	3.30713e+07	    79.229	   15.9164	   2.99973	 9.8929e+07	   79.1032	   16.0239	   3.10431	7.68903e+06	
         R10	   3564	   79.1151	   16.1314	    3.2089	5.89579e+07	   78.8361	   16.0514	   3.13113	3.69554e+07	   78.8449	    16.224	   3.29901	1.15244e+08	   78.9756	   16.0914	   3.17001	4.77083e+07	   78.8405	   16.1377	   3.21507	7.46296e+07	     78.98	   16.1777	   3.25395	8.64434e+07	       N/A	       N/A	       N/A	        N/A	       N/A	       N/A	       N/A	        N/A	
         R10	   3565	   78.8806	   16.5328	   3.59945	9.18525e+07	    78.625	   16.5328	   3.59945	1.33448e+08	    78.625	   16.7091	   3.77097	6.85205e+07	   78.8978	    16.722	   3.78357	4.63472e+07	   78.7528	   16.5328	   3.59945	1.12635e+08	    78.625	   16.6209	   3.68521	3.44536e+07	   78.7614	   16.7155	   3.77727	5.51782e+07	   78.8892	   16.6274	   3.69151	3.35093e+07	
         R10	   3566	   78.8978	    16.722	   3.78357	7.70668e+07	    78.625	   16.7091	   3.77097	6.98331e+07	    78.625	   16.9145	   3.97088	8.07437e+07	   78.9083	   16.9547	   4.00998	6.88491e+07	   78.7614	   16.7155	   3.77727	 7.2733e+07	    78.625	   16.8118	   3.87093	7.44354e+07	   78.7666	   16.9346	   3.99043	7.41678e+07	    78.903	   16.8384	   3.89678	7.24989e+07	
         R10	   3567	   78.9083	   16.9547	   4.00998	5.56186e+07	    78.625	   16.9145	   3.97088	1.00348e+08	    78.625	   17.1492	   4.19918	 1.1627e+08	   78.9289	   17.1492	   4.19918	8.95387e+07	   78.7666	   16.9346	   3.99043	7.60083e+07	    78.625	   17.0318	   4.08503	1.15505e+07	   78.7769	   17.1492	   4.19918	1.02888e+08	   78.9186	   17.0519	   4.10458	2.78848e+07	
         R10	   3568	   79.2372	   16.8439	    3.9022	1.39962e+08	   78.9083	   16.9547	   4.00998	6.80106e+07	   78.9289	   17.1492	   4.19918	   8.75e+07	   79.2529	   17.1492	   4.19918	1.00626e+08	   79.0727	   16.8993	   3.95609	8.99437e+07	   78.9186	   17.0519	   4.10458	2.90609e+07	   79.0909	   17.1492	   4.19918	 9.3878e+07	    79.245	   16.9965	   4.05069	3.01702e+07	
         R10	   3569	   79.2372	   16.8439	    3.9022	1.22096e+08	   79.2529	   17.1492	   4.19918	1.00978e+08	    79.597	   17.1492	   4.19918	1.07298e+08	   79.5806	   16.8409	   3.89926	1.32513e+08	    79.245	   16.9965	   4.05069	1.16418e+07	   79.4249	   17.1492	   4.19918	1.04068e+08	   79.5888	    16.995	   4.04922	2.43372e+07	   79.4089	   16.8424	   3.90073	1.26255e+08	
         R10	   3570	   79.5806	   16.8409	   3.89926	1.28281e+08	    79.597	   17.1492	   4.19918	1.07248e+08	   79.9612	   17.1492	   4.19918	1.07646e+08	   79.9501	    16.839	   3.89739	1.32308e+08	   79.5888	    16.995	   4.04922	1.60347e+07	   79.7791	   17.1492	   4.19918	1.07303e+08	   79.9557	   16.9941	   4.04828	3.11595e+07	   79.7653	   16.8399	   3.89832	1.29684e+08	
         R10	   3571	   79.9501	    16.839	   3.89739	1.29576e+08	   79.9612	   17.1492	   4.19918	1.09178e+08	   80.3455	   17.1492	   4.19918	9.78161e+07	   80.3429	   16.8373	   3.89575	1.09314e+08	   79.9557	   16.9941	   4.04828	2.95238e+07	   80.1534	   17.1492	   4.19918	1.02721e+08	   80.3442	   16.9932	   4.04746	3.44244e+07	   80.1465	   16.8381	   3.89657	1.18943e+08	
         R10	   3572	   80.3429	   16.8373	   3.89575	1.60413e+08	   80.3455	   17.1492	   4.19918	1.08145e+08	     80.75	   17.1492	   4.19918	5.74531e+07	     80.75	    16.841	   3.89931	7.70255e+07	   80.3442	   16.9932	   4.04746	7.93305e+07	   80.5478	   17.1492	   4.19918	6.37076e+07	     80.75	   16.9951	   4.04924	1.38381e+07	   80.5464	   16.8391	   3.89753	5.95685e+07	
         R10	   3573	   80.3429	   16.8373	   3.89575	1.65495e+08	     80.75	    16.841	   3.89931	8.54201e+07	     80.75	   16.5328	   3.59945	6.98349e+07	   80.2972	   16.5328	   3.59945	1.21219e+08	   80.5464	   16.8391	   3.89753	6.91571e+07	     80.75	   16.6869	   3.74938	4.24619e+07	   80.5236	   16.5328	   3.59945	8.03345e+07	   80.3201	    16.685	    3.7476	8.38278e+07	
         R10	   3574	   79.9501	    16.839	   3.89739	1.30226e+08	   80.3429	   16.8373	   3.89575	1.15777e+08	   80.2972	   16.5328	   3.59945	1.09632e+08	   79.8839	   16.5328	   3.59945	1.14722e+08	   80.1465	   16.8381	   3.89657	1.22869e+08	   80.3201	    16.685	    3.7476	4.12489e+07	   80.0906	   16.5328	   3.59945	1.11186e+08	    79.917	   16.6859	   3.74842	3.30077e+07	
         R10	   3575	   79.5806	   16.8409	   3.89926	1.29475e+08	   79.9501	    16.839	   3.89739	1.33434e+08	   79.8839	   16.5328	   3.59945	1.12861e+08	     79.51	   16.5328	   3.59945	1.11224e+08	   79.7653	   16.8399	   3.89832	1.30849e+08	    79.917	   16.6859	   3.74842	 3.2811e+07	    79.697	   16.5328	   3.59945	1.11878e+08	   79.5453	   16.6868	   3.74936	1.76737e+07	
         R10	   3576	   79.2372	   16.8439	    3.9022	1.19022e+08	   79.5806	   16.8409	   3.89926	1.34977e+08	     79.51	   16.5328	   3.59945	1.10475e+08	   79.1756	   16.5328	   3.59945	9.71096e+07	   79.4089	   16.8424	   3.90073	1.25942e+08	   79.5453	   16.6868	   3.74936	 2.5284e+07	   79.3428	   16.5328	   3.59945	1.03622e+08	   79.2064	   16.6884	   3.75083	1.22878e+07	
         R10	   3577	   79.2372	   16.8439	    3.9022	1.42538e+08	   79.1756	   16.5328	   3.59945	9.82411e+07	   78.8806	   16.5328	   3.59945	8.99105e+07	   78.8978	    16.722	   3.78357	6.73219e+07	   79.2064	   16.6884	   3.75083	3.23781e+07	   79.0281	   16.5328	   3.59945	9.38193e+07	   78.8892	   16.6274	   3.69151	3.32942e+07	   79.0675	    16.783	   3.84289	8.68984e+07	
         R10	   3578	   78.9083	   16.9547	   4.00998	7.39833e+07	   79.2372	   16.8439	    3.9022	 7.2888e+07	   78.8978	    16.722	   3.78357	7.81955e+07	   79.0727	   16.8993	   3.95609	6.29978e+07	   79.0675	    16.783	   3.84289	6.71082e+07	    78.903	   16.8384	   3.89678	 7.5725e+07	       N/A	       N/A	       N/A	        N/A	       N/A	       N/A	       N/A	        N/A	
         R10	   3579	   78.9289	   17.1492	   4.19918	5.73334e+07	    78.625	   17.1492	   4.19918	8.06902e+07	    78.625	   17.4281	   4.47054	8.50246e+07	   79.0451	   17.4391	   4.48126	4.94185e+07	   78.7769	   17.1492	   4.19918	6.85513e+07	    78.625	   17.2886	   4.33486	5.32493e+06	    78.835	   17.4336	    4.4759	6.61005e+07	    78.987	   17.2941	   4.34022	 1.4448e+07	
         R10	   3580	   79.0451	   17.4391	   4.48126	1.39132e+08	    78.625	   17.4281	   4.47054	1.40074e+08	    78.625	   17.7655	    4.7989	9.13746e+07	   79.0096	   17.7655	    4.7989	9.26392e+07	    78.835	   17.4336	    4.4759	1.38682e+08	    78.625	   17.5968	   4.63472	2.67482e+07	   78.8173	   17.7655	    4.7989	9.19272e+07	   79.0274	   17.6023	   4.64008	2.34536e+07	
         R10	   3581	    79.438	   17.4334	   4.47576	1.36847e+08	   79.0451	   17.4391	   4.48126	 1.3744e+08	   79.0096	   17.7655	    4.7989	9.37022e+07	   79.4144	   17.7655	    4.7989	9.65136e+07	   79.2415	   17.4362	   4.47851	1.36345e+08	   79.0274	   17.6023	   4.64008	2.42228e+07	    79.212	   17.7655	    4.7989	9.50544e+07	   79.4262	   17.5995	   4.63733	2.18871e+07	
         R10	   3582	    79.438	   17.4334	   4.47576	1.32853e+08	   79.4144	   17.7655	    4.7989	9.64351e+07	   79.8394	   17.7655	    4.7989	1.02971e+08	   79.8553	   17.4577	   4.49937	1.18289e+08	   79.4262	   17.5995	   4.63733	2.09782e+07	   79.6269	   17.7655	    4.7989	9.95826e+07	   79.8474	   17.6116	   4.64914	1.77899e+07	   79.6466	   17.4456	   4.48757	1.25202e+08	
         R10	   3583	   79.8553	   17.4577	   4.49937	1.21564e+08	   79.8394	   17.7655	    4.7989	1.06499e+08	   80.2846	   17.7655	    4.7989	1.02988e+08	   80.2969	    17.451	   4.49289	1.08608e+08	   79.8474	   17.6116	   4.64914	3.20155e+07	    80.062	   17.7655	    4.7989	1.04289e+08	   80.2907	   17.6083	    4.6459	2.16913e+07	   80.0761	   17.4544	   4.49613	1.13549e+08	
         R10	   3584	   80.2969	    17.451	   4.49289	1.66859e+08	   80.2846	   17.7655	    4.7989	1.13598e+08	     80.75	   17.7655	    4.7989	6.03477e+07	     80.75	   17.4427	   4.48476	 7.0126e+07	   80.2907	   17.6083	    4.6459	7.69596e+07	   80.5173	   17.7655	    4.7989	7.31818e+07	     80.75	   17.6041	   4.64183	2.11652e+07	   80.5234	   17.4468	   4.48883	5.91215e+07	
         R10	   3585	   80.2969	    17.451	   4.49289	1.64118e+08	     80.75	   17.4427	   4.48476	7.30996e+07	     80.75	   17.1492	   4.19918	7.07745e+07	   80.3455	   17.1492	   4.19918	1.07403e+08	   80.5234	   17.4468	   4.48883	6.11429e+07	     80.75	   17.2959	   4.34197	 3.5749e+07	   80.5478	   17.1492	   4.19918	7.99096e+07	   80.3212	   17.3001	   4.34604	8.94958e+07	
         R10	   3586	   79.8553	   17.4577	   4.49937	1.30864e+08	   80.2969	    17.451	   4.49289	 9.3973e+07	   80.3455	   17.1492	   4.19918	 1.0269e+08	   79.9612	   17.1492	   4.19918	1.01633e+08	   80.0761	   17.4544	   4.49613	1.10979e+08	   80.3212	   17.3001	   4.34604	2.90688e+07	   80.1534	   17.1492	   4.19918	1.01195e+08	   79.9082	   17.3034	   4.34927	3.96531e+07	
         R10	   3587	    79.438	   17.4334	   4.47576	 7.8796e+07	   79.8553	   17.4577	   4.49937	1.25117e+08	   79.9612	   17.1492	   4.19918	  1.022e+08	    79.597	   17.1492	   4.19918	7.86164e+07	   79.6466	   17.4456	   4.48757	 1.0179e+08	   79.9082	   17.3034	   4.34927	2.80953e+07	   79.7791	   17.1492	   4.19918	9.03332e+07	   79.5175	   17.2913	   4.33747	1.18353e+07	
         R10	   3588	   79.0451	   17.4391	   4.48126	 4.7714e+07	    79.438	   17.4334	   4.47576	8.62912e+07	    79.597	   17.1492	   4.19918	7.85535e+07	   79.2529	   17.1492	   4.19918	5.64777e+07	   79.2415	   17.4362	   4.47851	6.57488e+07	   79.5175	   17.2913	   4.33747	1.68555e+07	   79.4249	   17.1492	   4.19918	6.74368e+07	    79.149	   17.2941	   4.34022	7.27376e+06	
         R10	   3589	   78.9289	   17.1492	   4.19918	5.18613e+07	   79.0451	   17.4391	   4.48126	5.54935e+07	   79.2529	   17.1492	   4.19918	5.24765e+07	    78.987	   17.2941	   4.34022	4.92076e+06	    79.149	   17.2941	   4.34022	4.02588e+06	   79.0909	   17.1492	   4.19918	5.21191e+07	       N/A	       N/A	       N/A	        N/A	       N/A	       N/A	       N/A	        N/A	
         R10	   3590	   79.0096	   17.7655	    4.7989	8.22566e+07	    78.625	   17.7655	    4.7989	8.53241e+07	    78.625	   18.0444	   5.07027	9.40864e+07	   79.1166	    18.083	   5.10782	1.10554e+08	   78.8173	   17.7655	    4.7989	8.34717e+07	    78.625	    17.905	   4.93459	6.78251e+06	   78.8708	   18.0637	   5.08905	1.01718e+08	   79.0631	   17.9243	   4.95336	1.83334e+07	
         R10	   3591	   79.1166	    18.083	   5.10782	 1.1456e+08	    78.625	   18.0444	   5.07027	1.23887e+08	    78.625	   18.3819	   5.39863	7.42034e+07	    79.131	   18.3819	   5.39863	  7.501e+07	   78.8708	   18.0637	   5.08905	1.18387e+08	    78.625	   18.2132	   5.23445	2.50746e+07	    78.878	   18.3819	   5.39863	7.45368e+07	   79.1238	   18.2325	   5.25322	2.14162e+07	
         R10	   3592	   79.1166	    18.083	   5.10782	1.15945e+08	    79.131	   18.3819	   5.39863	 7.3875e+07	   79.6538	   18.3819	   5.39863	7.53494e+07	   79.6608	   18.0661	   5.09131	1.39239e+08	   79.1238	   18.2325	   5.25322	2.39409e+07	   79.3924	   18.3819	   5.39863	7.44464e+07	   79.6573	    18.224	   5.24497	3.32856e+07	   79.3887	   18.0746	   5.09957	1.26715e+08	
         R10	   3593	   80.1935	   18.3819	   5.39863	 8.1253e+07	     80.75	   18.3819	   5.39863	 6.4808e+07	     80.75	   18.0591	   5.08448	7.99276e+07	   80.2281	   18.0805	   5.10536	1.73982e+08	   80.4717	   18.3819	   5.39863	5.96778e+07	     80.75	   18.2205	   5.24156	 4.0578e+07	   80.4891	   18.0698	   5.09492	6.63981e+07	   80.2108	   18.2312	   5.25199	7.86842e+07	
         R10	   3594	   80.2281	   18.0805	   5.10536	1.81988e+08	     80.75	   18.0591	   5.08448	8.18639e+07	     80.75	   17.7655	    4.7989	6.23665e+07	   80.2846	   17.7655	    4.7989	1.07995e+08	   80.4891	   18.0698	   5.09492	6.79588e+07	     80.75	   17.9123	   4.94169	3.11565e+07	   80.5173	   17.7655	    4.7989	7.27314e+07	   80.2564	    17.923	   4.95213	8.85126e+07	
         R10	   3595	   79.4144	   17.7655	    4.7989	6.65366e+07	   79.0096	   17.7655	    4.7989	8.33867e+07	   79.1166	    18.083	   5.10782	1.17472e+08	   79.6608	   18.0661	   5.09131	5.32568e+07	    79.212	   17.7655	    4.7989	7.41614e+07	   79.0631	   17.9243	   4.95336	1.79245e+07	   79.3887	   18.0746	   5.09957	8.50016e+07	   79.5376	   17.9158	   4.94511	1.79196e+07	
         R10	   3596	   79.6608	   18.0661	   5.09131	 1.4402e+08	   79.6538	   18.3819	   5.39863	7.40005e+07	   80.1935	   18.3819	   5.39863	 8.4193e+07	   80.2281	   18.0805	   5.10536	1.14229e+08	   79.6573	    18.224	   5.24497	4.16317e+07	   79.9236	   18.3819	   5.39863	7.79233e+07	   80.2108	   18.2312	   5.25199	2.12238e+07	   79.9445	   18.0733	   5.09834	1.25566e+08	
         R10	   3597	   79.6608	   18.0661	   5.09131	5.45286e+07	   80.2281	   18.0805	   5.10536	1.12942e+08	   80.2846	   17.7655	    4.7989	 9.9199e+07	   79.8394	   17.7655	    4.7989	5.88438e+07	   79.9445	   18.0733	   5.09834	8.08617e+07	   80.2564	    17.923	   4.95213	2.33556e+07	    80.062	   17.7655	    4.7989	7.90199e+07	   79.7501	   17.9158	   4.94511	2.33713e+07	
         R10	   3598	   79.4144	   17.7655	    4.7989	5.91126e+07	   79.6608	   18.0661	   5.09131	5.63786e+07	   79.8394	   17.7655	    4.7989	5.20219e+07	   79.5376	   17.9158	   4.94511	1.39241e+07	   79.7501	   17.9158	   4.94511	1.49167e+07	   79.6269	   17.7655	    4.7989	5.54141e+07	       N/A	       N/A	       N/A	        N/A	       N/A	       N/A	       N/A	        N/A	
         R10	   3599	    79.131	   18.3819	   5.39863	9.49606e+07	    78.625	   18.3819	   5.39863	9.06719e+07	    78.625	   18.6762	   5.68499	1.01398e+08	   79.1374	   18.6909	   5.69929	1.10743e+08	    78.878	   18.3819	   5.39863	9.25847e+07	    78.625	   18.5291	   5.54181	 6.6626e+06	   78.8812	   18.6836	   5.69214	1.05963e+08	   79.1342	   18.5364	   5.54896	1.52452e+07	
         R10	   3600	   79.1374	   18.6909	   5.69929	1.20257e+08	    78.625	   18.6762	   5.68499	1.19318e+08	    78.625	        19	         6	1.21753e+08	    79.131	        19	         6	1.43259e+08	   78.8812	   18.6836	   5.69214	1.19632e+08	    78.625	   18.8381	    5.8425	1.26308e+07	    78.878	        19	         6	1.32287e+08	   79.1342	   18.8455	   5.84965	1.69033e+07	
         R10	   3601	   79.6598	    18.691	   5.69931	1.20798e+08	   79.1374	   18.6909	   5.69929	1.19511e+08	    79.131	        19	         6	1.41689e+08	   79.6538	        19	         6	 1.2427e+08	   79.3986	   18.6909	    5.6993	1.18981e+08	   79.1342	   18.8455	   5.84965	1.23257e+07	   79.3924	        19	         6	1.32964e+08	   79.6568	   18.8455	   5.84965	2.23483e+07	
         R10	   3602	   80.1935	        19	         6	1.01633e+08	     80.75	        19	         6	2.84115e+07	     80.75	   18.6762	   5.68499	 4.0859e+07	   80.1999	    18.691	   5.69933	1.23106e+08	   80.4717	        19	         6	3.97632e+07	     80.75	   18.8381	    5.8425	2.65987e+07	    80.475	   18.6836	   5.69216	6.72394e+07	   80.1967	   18.8455	   5.84966	3.60835e+07	
         R10	   3603	   80.1999	    18.691	   5.69933	1.25296e+08	     80.75	   18.6762	   5.68499	4.73264e+07	     80.75	   18.3819	   5.39863	4.39471e+07	   80.1935	   18.3819	   5.39863	1.28749e+08	    80.475	   18.6836	   5.69216	6.57362e+07	     80.75	   18.5291	   5.54181	1.91173e+07	   80.4717	   18.3819	   5.39863	6.34663e+07	   80.1967	   18.5364	   5.54898	5.02187e+07	
         R10	   3604	   79.6538	   18.3819	   5.39863	 1.0451e+08	    79.131	   18.3819	   5.39863	9.54202e+07	   79.1374	   18.6909	   5.69929	1.07629e+08	   79.6598	    18.691	   5.69931	1.19015e+08	   79.3924	   18.3819	   5.39863	 9.9787e+07	   79.1342	   18.5364	   5.54896	8.34337e+06	   79.3986	   18.6909	    5.6993	1.12234e+08	   79.6568	   18.5364	   5.54897	2.54036e+07	
         R10	   3605	   79.6598	    18.691	   5.69931	 1.1515e+08	   79.6538	        19	         6	1.22998e+08	   80.1935	        19	         6	1.00563e+08	   80.1999	    18.691	   5.69933	1.21817e+08	   79.6568	   18.8455	   5.84965	4.53281e+06	   79.9236	        19	         6	1.11475e+08	   80.1967	   18.8455	   5.84966	 2.9611e+07	   79.9299	    18.691	   5.69932	1.15299e+08	
         R10	   3606	   79.6538	   18.3819	   5.39863	1.07139e+08	   79.6598	    18.691	   5.69931	1.10824e+08	   80.1999	    18.691	   5.69933	1.25256e+08	   80.1935	   18.3819	   5.39863	1.06811e+08	   79.6568	   18.5364	   5.54897	1.14277e+07	   79.9299	    18.691	   5.69932	1.15513e+08	   80.1967	   18.5364	   5.54898	3.57656e+07	   79.9236	   18.3819	   5.39863	1.06781e+08	
         R10	   3607	   80.1935	        19	      6.85	4.03177e+07	     80.75	        19	      6.85	5.03591e+07	     80.75	        19	         6	1.06936e+07	   80.1935	        19	         6	 3.2625e+07	   80.4717	        19	      6.85	2.56372e+07	     80.75	        19	     6.425	2.95342e+07	   80.4717	        19	         6	2.12551e+07	   80.1935	        19	     6.425	1.57143e+07	
         R10	   3608	   79.6538	        19	      6.85	1.40417e+07	   80.1935	        19	      6.85	1.79946e+07	   80.1935	        19	         6	 3.0288e+07	   79.6538	        19	         6	2.05573e+07	   79.9236	        19	      6.85	1.48149e+07	   80.1935	        19	     6.425	1.65589e+07	   79.9236	        19	         6	2.25038e+07	   79.6538	        19	     6.425	1.17632e+07	
         R10	   3609	    79.131	        19	      6.85	1.24752e+07	   79.6538	        19	      6.85	1.53905e+07	   79.6538	        19	         6	1.58072e+07	    79.131	        19	         6	2.21745e+07	   79.3924	        19	      6.85	1.35893e+07	   79.6538	        19	     6.425	8.28545e+06	   79.3924	        19	         6	1.78145e+07	    79.131	        19	     6.425	1.01752e+07	
         R10	   3610	    78.625	        19	   6.40476	1.35015e+07	    78.625	        19	      6.85	 1.2019e+07	    79.131	        19	      6.85	1.41923e+07	    79.131	        19	         6	 2.2467e+07	    78.625	        19	   6.62738	1.21198e+07	    78.878	        19	      6.85	1.28297e+07	    79.131	        19	     6.425	8.59501e+06	    78.878	        19	   6.20238	4.65949e+06	
         R10	   3611	    78.625	        19	   6.40476	5.99479e+07	    79.131	        19	         6	2.20225e+07	    78.625	        19	         6	 6.3164e+07	    78.878	        19	   6.20238	1.89737e+07	    78.878	        19	         6	4.06156e+07	    78.625	        19	   6.20238	 2.1196e+07	       N/A	       N/A	       N/A	        N/A	       N/A	       N/A	       N/A	        N/A	
         R10	   3612	      76.5	      9.35	       1.6	4.09592e+07	      76.5	      9.35	       2.4	5.84083e+07	      76.5	      10.2	       2.4	3.74989e+07	      76.5	      10.2	       1.6	  5.497e+07	      76.5	      9.35	         2	4.83432e+07	      76.5	     9.775	       2.4	3.99114e+07	      76.5	      10.2	         2	4.06424e+07	      76.5	     9.775	       1.6	4.60122e+07	
         R10	   3613	      76.5	      9.35	       0.8	4.80045e+07	      76.5	      9.35	       1.6	4.73013e+07	      76.5	      10.2	       1.6	5.04863e+07	      76.5	      10.2	       0.8	4.25927e+07	      76.5	      9.35	       1.2	4.75264e+07	      76.5	     9.775	       1.6	4.67607e+07	      76.5	      10.2	       1.2	4.63717e+07	      76.5	     9.775	       0.8	4.41664e+07	
         R10	   3614	      76.5	      9.35	         0	2.83241e+07	      76.5	      9.35	       0.8	4.49519e+07	      76.5	      10.2	       0.8	4.17604e+07	      76.5	      10.2	         0	6.49875e+07	      76.5	      9.35	       0.4	3.45576e+07	      76.5	     9.775	       0.8	4.19841e+07	      76.5	      10.2	       0.4	5.20569e+07	      76.5	     9.775	         0	4.33229e+07	
         R10	   3615	   80.0079	        19	       7.7	2.69491e+07	     80.75	        19	       7.7	3.77722e+07	     80.75	        19	      6.85	4.77278e+07	   80.1935	        19	      6.85	4.00849e+07	    80.379	        19	       7.7	1.93507e+07	     80.75	        19	     7.275	4.18437e+07	   80.4717	        19	      6.85	4.31421e+07	   80.1007	        19	     7.275	1.17659e+07	
         R10	   3616	   79.2996	        19	       7.7	1.21051e+07	   80.0079	        19	       7.7	3.17034e+07	   80.1935	        19	      6.85	 6.5867e+07	   79.6538	        19	      6.85	3.47539e+07	   79.6538	        19	       7.7	2.00448e+07	   80.1007	        19	     7.275	2.35521e+07	   79.9236	        19	      6.85	5.00371e+07	   79.4767	        19	     7.275	1.51889e+07	
         R10	   3617	    79.131	        19	      6.85	2.59491e+07	    78.625	        19	      6.85	2.21672e+07	    78.625	        19	       7.7	1.09765e+07	   79.2996	        19	       7.7	9.67893e+06	    78.878	        19	      6.85	2.31163e+07	    78.625	        19	     7.275	1.51273e+07	   78.9623	        19	       7.7	9.75536e+06	   79.2153	        19	     7.275	 1.3847e+07	
         R10	   3618	    79.131	        19	      6.85	 2.6925e+07	   79.2996	        19	       7.7	1.07695e+07	   79.6538	        19	      6.85	3.12519e+07	   79.2153	        19	     7.275	 1.3913e+07	   79.4767	        19	     7.275	1.46909e+07	   79.3924	        19	      6.85	2.86808e+07	       N/A	       N/A	       N/A	        N/A	       N/A	       N/A	       N/A	        N/A	
         R10	   3619	   80.0079	        19	      8.55	2.94946e+07	     80.75	        19	      8.55	3.49778e+07	     80.75	        19	       7.7	3.74542e+07	   80.0079	        19	       7.7	5.14052e+07	    80.379	        19	      8.55	1.65377e+07	     80.75	        19	     8.125	3.61269e+07	    80.379	        19	       7.7	3.99208e+07	   80.0079	        19	     8.125	1.22685e+07	
         R10	   3620	   79.2996	        19	      8.55	7.95684e+06	   80.0079	        19	      8.55	2.23223e+07	   80.0079	        19	       7.7	4.80817e+07	   79.2996	        19	       7.7	1.58742e+07	   79.6538	        19	      8.55	1.31764e+07	   80.0079	        19	     8.125	1.64501e+07	   79.6538	        19	       7.7	3.12962e+07	   79.2996	        19	     8.125	6.82492e+06	
         R10	   3621	    78.625	        19	      8.55	1.08152e+07	   79.2996	        19	      8.55	8.74661e+06	   79.2996	        19	       7.7	1.79641e+07	    78.625	        19	       7.7	8.80649e+06	   78.9623	        19	      8.55	8.97347e+06	   79.2996	        19	     8.125	7.64574e+06	   78.9623	        19	       7.7	 1.0569e+07	    78.625	        19	     8.125	9.78258e+06	
         R10	   3622	   80.0079	        19	       9.4	1.91321e+07	     80.75	        19	       9.4	2.14503e+07	     80.75	        19	      8.55	3.41965e+07	   80.0079	        19	      8.55	3.93262e+07	    80.379	        19	       9.4	9.73633e+06	     80.75	        19	     8.975	2.75901e+07	    80.379	        19	      8.55	3.35615e+07	   80.0079	        19	     8.975	1.07134e+07	
         R10	   3623	   79.2996	        19	       9.4	1.39868e+07	   80.0079	        19	       9.4	3.00413e+07	   80.0079	        19	      8.55	4.75821e+07	   79.2996	        19	      8.55	1.70744e+07	   79.6538	        19	       9.4	1.88855e+07	   80.0079	        19	     8.975	1.08515e+07	   79.6538	        19	      8.55	3.15135e+07	   79.2996	        19	     8.975	9.86811e+06	
         R10	   3624	    78.625	        19	       9.4	1.17243e+07	   79.2996	        19	       9.4	1.47073e+07	   79.2996	        19	      8.55	1.63468e+07	    78.625	        19	      8.55	 1.0929e+07	   78.9623	        19	       9.4	1.30003e+07	   79.2996	        19	     8.975	9.68054e+06	   78.9623	        19	      8.55	1.13228e+07	    78.625	        19	     8.975	1.09408e+07	
         R10	   3625	      76.5	      10.2	       1.6	4.03086e+07	      76.5	      10.2	       2.4	 7.6703e+07	      76.5	     11.05	       2.4	4.79415e+07	      76.5	     11.05	   1.67602	5.82373e+07	      76.5	      10.2	         2	5.60911e+07	      76.5	    10.625	       2.4	4.44432e+07	      76.5	     11.05	   2.03801	3.92692e+07	      76.5	    10.625	   1.63801	4.75112e+07	
         R10	   3626	      76.5	      10.2	       0.8	5.37849e+07	      76.5	      10.2	       1.6	 4.1285e+07	      76.5	     11.05	   1.67602	5.49946e+07	      76.5	     11.05	  0.876018	4.34092e+07	      76.5	      10.2	       1.2	4.66473e+07	      76.5	    10.625	   1.63801	4.68204e+07	      76.5	     11.05	   1.27602	4.90224e+07	      76.5	    10.625	  0.838009	4.83142e+07	
         R10	   3627	      76.5	      10.2	         0	3.27221e+07	      76.5	      10.2	       0.8	5.05711e+07	      76.5	     11.05	  0.876018	4.40435e+07	      76.5	     11.05	         0	6.79516e+07	      76.5	      10.2	       0.4	 3.8327e+07	      76.5	    10.625	  0.838009	4.68706e+07	      76.5	     11.05	  0.438009	5.43277e+07	      76.5	    10.625	         0	4.39743e+07	
         R10	   3628	   80.0401	        19	     10.25	 8.3872e+06	     80.75	        19	     10.25	1.26424e+07	     80.75	        19	       9.4	2.86516e+07	   80.0079	        19	       9.4	3.79743e+07	   80.3951	        19	     10.25	 9.9754e+06	     80.75	        19	     9.825	 1.4803e+07	    80.379	        19	       9.4	2.77658e+07	    80.024	        19	     9.825	2.16273e+07	
         R10	   3629	   79.3318	        19	     10.25	1.61021e+07	   80.0401	        19	     10.25	2.86835e+06	   80.0079	        19	       9.4	 2.4401e+07	   79.2996	        19	       9.4	2.08956e+07	    79.686	        19	     10.25	8.89497e+06	    80.024	        19	     9.825	1.34732e+07	   79.6538	        19	       9.4	2.16717e+07	   79.3157	        19	     9.825	 1.4478e+07	
         R10	   3630	    78.625	        19	     10.25	3.16177e+07	   79.3318	        19	     10.25	1.53158e+07	   79.2996	        19	       9.4	 1.9788e+07	    78.625	        19	       9.4	 1.1251e+07	   78.9784	        19	     10.25	 2.3417e+07	   79.3157	        19	     9.825	1.34146e+07	   78.9623	        19	       9.4	1.34404e+07	    78.625	        19	     9.825	1.46887e+07	
         R10	   3631	      76.5	   11.5844	       2.4	5.86978e+07	      76.5	      11.9	       2.4	 1.1992e+08	      76.5	      11.9	   1.98816	6.62394e+07	      76.5	   11.5007	   2.01504	5.87156e+07	      76.5	   11.7422	       2.4	4.14055e+07	      76.5	      11.9	   2.19408	8.21702e+07	      76.5	   11.7004	    2.0016	5.64908e+07	      76.5	   11.5426	   2.20752	 1.1162e+07	
         R10	   3632	      76.5	      11.9	   0.54816	3.88832e+07	      76.5	      11.9	         0	9.29997e+07	      76.5	     11.05	         0	2.51539e+07	      76.5	     11.05	  0.876018	5.56561e+07	      76.5	      11.9	   0.27408	6.54748e+07	      76.5	    11.475	         0	5.21546e+07	      76.5	     11.05	  0.438009	3.57207e+07	      76.5	    11.475	  0.712089	4.72095e+07	
         R10	   3633	      76.5	      11.9	   1.06224	5.12304e+07	      76.5	      11.9	   0.54816	 5.0212e+07	      76.5	     11.05	  0.876018	5.67577e+07	      76.5	     11.05	   1.67602	4.55323e+07	      76.5	      11.9	    0.8052	5.06993e+07	      76.5	    11.475	  0.712089	5.31263e+07	      76.5	     11.05	   1.27602	 5.0737e+07	      76.5	    11.475	   1.36913	4.83258e+07	
         R10	   3634	      76.5	     11.05	   1.67602	5.86205e+07	      76.5	     11.05	       2.4	9.44843e+07	      76.5	   11.5844	       2.4	6.17594e+07	      76.5	   11.5007	   2.01504	4.05968e+07	      76.5	     11.05	   2.03801	7.55239e+07	      76.5	   11.3172	       2.4	6.62072e+07	      76.5	   11.5426	   2.20752	4.12309e+07	      76.5	   11.2754	   1.84553	4.82511e+07	
         R10	   3635	      76.5	     11.05	   1.67602	5.72529e+07	      76.5	   11.5007	   2.01504	3.87192e+07	      76.5	      11.9	   1.98816	5.58337e+07	      76.5	      11.9	   1.54224	4.90252e+07	      76.5	   11.2754	   1.84553	4.48316e+07	      76.5	   11.7004	    2.0016	 4.0358e+07	      76.5	      11.9	    1.7652	4.93224e+07	      76.5	    11.475	   1.60913	5.25158e+07	
         R10	   3636	      76.5	      11.9	   1.06224	5.21438e+07	      76.5	     11.05	   1.67602	5.09563e+07	      76.5	      11.9	   1.54224	 5.0022e+07	      76.5	    11.475	   1.36913	5.15094e+07	      76.5	    11.475	   1.60913	5.02428e+07	      76.5	      11.9	   1.30224	5.09732e+07	       N/A	       N/A	       N/A	        N/A	       N/A	       N/A	       N/A	        N/A	
         R10	   3637	      76.5	   12.3065	   1.07536	5.66259e+07	      76.5	      11.9	   1.06224	5.22583e+07	      76.5	      11.9	   1.54224	 5.1044e+07	      76.5	   12.3087	   1.53963	5.13574e+07	      76.5	   12.1032	    1.0688	5.42392e+07	      76.5	      11.9	   1.30224	5.14628e+07	      76.5	   12.1044	   1.54093	5.11752e+07	      76.5	   12.3076	   1.30749	5.39519e+07	
         R10	   3638	      76.5	   12.3087	   1.53963	5.34555e+07	      76.5	      11.9	   1.54224	4.95857e+07	      76.5	      11.9	   1.98816	7.10592e+07	      76.5	   12.2999	   1.96094	5.41596e+07	      76.5	   12.1044	   1.54093	5.14963e+07	      76.5	      11.9	    1.7652	 6.0042e+07	      76.5	   12.0999	   1.97455	6.00313e+07	      76.5	   12.3043	   1.75028	5.29993e+07	
         R10	   3639	      76.5	   12.2999	   1.96094	5.73147e+07	      76.5	      11.9	   1.98816	5.38985e+07	      76.5	      11.9	       2.4	1.52902e+08	      76.5	   12.2642	       2.4	5.25399e+07	      76.5	   12.0999	   1.97455	5.26398e+07	      76.5	      11.9	   2.19408	1.01711e+08	      76.5	   12.0821	       2.4	8.95273e+07	      76.5	    12.282	   2.18047	4.84839e+07	
         R10	   3640	      76.5	   12.5475	       2.4	3.79532e+07	      76.5	     12.75	       2.4	1.78429e+08	      76.5	     12.75	   2.18411	1.01889e+08	      76.5	    12.534	   2.18773	2.98581e+07	      76.5	   12.6488	       2.4	 7.6665e+07	      76.5	     12.75	   2.29206	1.19576e+08	      76.5	    12.642	   2.18592	5.10603e+07	      76.5	   12.5408	   2.29386	1.24384e+07	
         R10	   3641	      76.5	   12.3324	  0.555547	5.10794e+07	      76.5	     12.75	  0.469829	 5.3429e+07	      76.5	     12.75	         0	1.20295e+08	      76.5	   12.3452	         0	 7.7089e+07	      76.5	   12.5412	  0.512688	5.07061e+07	      76.5	     12.75	  0.234915	8.60807e+07	      76.5	   12.5476	         0	8.67332e+07	      76.5	   12.3388	  0.277773	5.56617e+07	
         R10	   3642	      76.5	   12.3324	  0.555547	5.92746e+07	      76.5	   12.3452	         0	1.79353e+07	      76.5	      11.9	         0	6.65172e+07	      76.5	      11.9	   0.54816	6.07291e+07	      76.5	   12.3388	  0.277773	2.51651e+07	      76.5	   12.1226	         0	2.43388e+07	      76.5	      11.9	   0.27408	5.95534e+07	      76.5	   12.1162	  0.551853	5.87135e+07	
         R10	   3643	      76.5	   12.3324	  0.555547	4.82559e+07	      76.5	      11.9	   0.54816	 5.2938e+07	      76.5	      11.9	   1.06224	4.91898e+07	      76.5	   12.3065	   1.07536	5.45528e+07	      76.5	   12.1162	  0.551853	4.94389e+07	      76.5	      11.9	    0.8052	5.05147e+07	      76.5	   12.1032	    1.0688	5.16531e+07	      76.5	   12.3194	  0.815455	5.08293e+07	
         R10	   3644	      76.5	   12.2999	   1.96094	6.89826e+07	      76.5	   12.2642	       2.4	1.64797e+07	      76.5	   12.5475	       2.4	7.06937e+07	      76.5	    12.534	   2.18773	3.41484e+07	      76.5	    12.282	   2.18047	2.94305e+07	      76.5	   12.4059	       2.4	3.07034e+07	      76.5	   12.5408	   2.29386	3.62098e+07	      76.5	   12.4169	   2.07434	4.44059e+07	
         R10	   3645	      76.5	   12.2999	   1.96094	4.28579e+07	      76.5	    12.534	   2.18773	3.11039e+07	      76.5	     12.75	   2.18411	8.73432e+07	      76.5	     12.75	   1.92591	5.04695e+07	      76.5	   12.4169	   2.07434	3.04349e+07	      76.5	    12.642	   2.18592	 4.9558e+07	      76.5	     12.75	   2.05501	6.73708e+07	      76.5	   12.5249	   1.94342	4.43457e+07	
         R10	   3646	      76.5	   12.3087	   1.53963	5.42755e+07	      76.5	   12.2999	   1.96094	3.72799e+07	      76.5	     12.75	   1.92591	5.37873e+07	      76.5	     12.75	   1.62537	5.13268e+07	      76.5	   12.3043	   1.75028	4.56969e+07	      76.5	   12.5249	   1.94342	4.45739e+07	      76.5	     12.75	   1.77564	5.20238e+07	      76.5	   12.5294	    1.5825	5.27722e+07	
         R10	   3647	      76.5	   12.3065	   1.07536	5.42753e+07	      76.5	   12.3087	   1.53963	5.20627e+07	      76.5	     12.75	   1.62537	5.26323e+07	      76.5	     12.75	   1.28252	5.49849e+07	      76.5	   12.3076	   1.30749	5.30691e+07	      76.5	   12.5294	    1.5825	5.23276e+07	      76.5	     12.75	   1.45394	5.37615e+07	      76.5	   12.5282	   1.17894	 5.4567e+07	
         R10	   3648	      76.5	   12.3324	  0.555547	5.13796e+07	      76.5	   12.3065	   1.07536	5.34012e+07	      76.5	     12.75	   1.28252	5.41951e+07	      76.5	     12.75	  0.897334	5.61112e+07	      76.5	   12.3194	  0.815455	5.22471e+07	      76.5	   12.5282	   1.17894	5.37008e+07	      76.5	     12.75	   1.08992	5.51014e+07	      76.5	   12.5412	   0.72644	5.35946e+07	
         R10	   3649	      76.5	     12.75	  0.469829	6.39712e+07	      76.5	   12.3324	  0.555547	5.83672e+07	      76.5	     12.75	  0.897334	5.22141e+07	      76.5	   12.5412	  0.512688	5.97517e+07	      76.5	   12.5412	   0.72644	5.45865e+07	      76.5	     12.75	  0.683582	5.80026e+07	       N/A	       N/A	       N/A	        N/A	       N/A	       N/A	       N/A	        N/A	
         R10	   3650	   79.9759	      21.5	      6.85	3.89491e+07	     80.75	      21.5	      6.85	3.76172e+07	     80.75	      21.5	         6	 2.7778e+07	   80.0094	      21.5	         6	2.03087e+07	   80.3629	      21.5	      6.85	3.29223e+07	     80.75	      21.5	     6.425	3.23533e+07	   80.3797	      21.5	         6	2.38824e+07	   79.9926	      21.5	     6.425	2.77369e+07	
         R10	   3651	   79.2675	      21.5	      6.85	1.25697e+07	   79.9759	      21.5	      6.85	2.50045e+07	   80.0094	      21.5	         6	1.74786e+07	   79.3011	      21.5	         6	1.93263e+07	   79.6217	      21.5	      6.85	1.84279e+07	   79.9926	      21.5	     6.425	 1.9854e+07	   79.6553	      21.5	         6	1.83513e+07	   79.2843	      21.5	     6.425	1.47975e+07	
         R10	   3652	    78.625	      21.5	      6.85	 6.7126e+06	   79.2675	      21.5	      6.85	1.11915e+07	   79.3011	      21.5	         6	1.74404e+07	    78.625	      21.5	         6	1.71635e+07	   78.9463	      21.5	      6.85	6.47731e+06	   79.2843	      21.5	     6.425	1.30537e+07	   78.9631	      21.5	         6	1.72567e+07	    78.625	      21.5	     6.425	1.09996e+07	
         R10	   3653	   79.9989	      21.5	       7.7	2.17596e+07	     80.75	      21.5	       7.7	3.58997e+07	     80.75	      21.5	      6.85	3.44787e+07	   79.9759	      21.5	      6.85	1.72929e+07	   80.3745	      21.5	       7.7	2.81713e+07	     80.75	      21.5	     7.275	3.40156e+07	   80.3629	      21.5	      6.85	2.44432e+07	   79.9874	      21.5	     7.275	1.74637e+07	
         R10	   3654	   79.2906	      21.5	       7.7	7.28772e+06	   79.9989	      21.5	       7.7	2.59126e+07	   79.9759	      21.5	      6.85	2.15277e+07	   79.2675	      21.5	      6.85	1.66556e+07	   79.6447	      21.5	       7.7	 1.6216e+07	   79.9874	      21.5	     7.275	1.64927e+07	   79.6217	      21.5	      6.85	1.80859e+07	    79.279	      21.5	     7.275	7.69874e+06	
         R10	   3655	    78.625	      21.5	       7.7	2.57532e+06	   79.2906	      21.5	       7.7	8.35093e+06	   79.2675	      21.5	      6.85	1.72375e+07	    78.625	      21.5	      6.85	1.47932e+07	   78.9578	      21.5	       7.7	4.11518e+06	    79.279	      21.5	     7.275	8.32635e+06	   78.9463	      21.5	      6.85	1.59362e+07	    78.625	      21.5	     7.275	6.92842e+06	
         R10	   3656	      76.5	   13.2385	         0	3.54576e+07	      76.5	     12.75	         0	 8.0292e+07	      76.5	     12.75	  0.469829	5.82184e+07	      76.5	   13.1725	  0.442726	5.70593e+07	      76.5	   12.9942	         0	2.93149e+07	      76.5	     12.75	  0.234915	5.89895e+07	      76.5	   12.9612	  0.456278	5.60806e+07	      76.5	   13.2055	  0.221363	3.62786e+07	
         R10	   3657	      76.5	   13.1725	  0.442726	4.68829e+07	      76.5	     12.75	  0.469829	5.93292e+07	      76.5	     12.75	  0.897334	5.62315e+07	      76.5	   13.0989	  0.880493	5.88659e+07	      76.5	   12.9612	  0.456278	5.05844e+07	      76.5	     12.75	  0.683582	5.73741e+07	      76.5	   12.9245	  0.888914	5.75112e+07	      76.5	   13.1357	   0.66161	5.14339e+07	
         R10	   3658	      76.5	   13.0989	  0.880493	5.95374e+07	      76.5	     12.75	  0.897334	5.80106e+07	      76.5	     12.75	   1.28252	5.42161e+07	      76.5	   13.0851	   1.26205	5.71673e+07	      76.5	   12.9245	  0.888914	5.87047e+07	      76.5	     12.75	   1.08992	5.60404e+07	      76.5	   12.9176	   1.27229	5.56911e+07	      76.5	    13.092	   1.07127	5.83146e+07	
         R10	   3659	      76.5	   13.0851	   1.26205	5.77376e+07	      76.5	     12.75	   1.28252	5.59166e+07	      76.5	     12.75	   1.62537	5.65864e+07	      76.5	    13.064	   1.61015	 5.5754e+07	      76.5	   12.9176	   1.27229	5.68185e+07	      76.5	     12.75	   1.45394	5.61944e+07	      76.5	    12.907	   1.61776	5.61172e+07	      76.5	   13.0746	    1.4361	5.67424e+07	
         R10	   3660	      76.5	    13.064	   1.61015	5.79053e+07	      76.5	     12.75	   1.62537	 5.4757e+07	      76.5	     12.75	   1.92591	6.35263e+07	      76.5	   13.0093	   1.92199	5.90156e+07	      76.5	    12.907	   1.61776	5.63039e+07	      76.5	     12.75	   1.77564	5.90308e+07	      76.5	   12.8797	   1.92395	6.09181e+07	      76.5	   13.0366	   1.76607	5.83802e+07	
         R10	   3661	      76.5	   13.0093	   1.92199	6.41679e+07	      76.5	     12.75	   1.92591	 6.2515e+07	      76.5	     12.75	   2.18411	9.61948e+07	      76.5	   12.9804	   2.17144	 7.9934e+07	      76.5	   12.8797	   1.92395	6.30939e+07	      76.5	     12.75	   2.05501	7.83284e+07	      76.5	   12.8652	   2.17778	7.94916e+07	      76.5	   12.9948	   2.04671	7.03082e+07	
         R10	   3662	      76.5	   12.9804	   2.17144	 8.3253e+07	      76.5	     12.75	   2.18411	9.17032e+07	      76.5	     12.75	       2.4	2.22126e+08	      76.5	    12.952	       2.4	5.36117e+07	      76.5	   12.8652	   2.17778	7.46823e+07	      76.5	     12.75	   2.29206	1.49988e+08	      76.5	    12.851	       2.4	1.24535e+08	      76.5	   12.9662	   2.28572	6.45901e+07	
         R10	   3663	      76.5	   13.1987	    2.2051	3.48339e+07	      76.5	   12.9804	   2.17144	 8.2674e+07	      76.5	    12.952	       2.4	2.22833e+07	      76.5	    13.138	       2.4	5.34953e+07	      76.5	   13.0895	   2.18827	5.87095e+07	      76.5	   12.9662	   2.28572	4.84749e+07	      76.5	    13.045	       2.4	3.59008e+07	      76.5	   13.1684	   2.30255	4.35788e+07	
         R10	   3664	      76.5	   13.4354	   2.23523	3.62309e+07	      76.5	    13.462	       2.4	2.95309e+07	      76.5	      13.6	       2.4	2.11918e+08	      76.5	      13.6	   2.24677	1.17609e+08	      76.5	   13.4487	   2.31761	1.44119e+07	      76.5	    13.531	       2.4	9.67702e+07	      76.5	      13.6	   2.32339	1.44592e+08	      76.5	   13.5177	     2.241	6.72887e+07	
         R10	   3665	      76.5	   13.4354	   2.23523	3.56053e+07	      76.5	      13.6	   2.24677	1.11243e+08	      76.5	      13.6	   2.08018	6.55365e+07	      76.5	   13.4267	   2.08274	4.65896e+07	      76.5	   13.5177	     2.241	 6.5488e+07	      76.5	      13.6	   2.16348	8.69892e+07	      76.5	   13.5134	   2.08146	5.58004e+07	      76.5	    13.431	   2.15898	3.53431e+07	
         R10	   3666	      76.5	   13.4267	   2.08274	4.38127e+07	      76.5	      13.6	   2.08018	6.89025e+07	      76.5	      13.6	   1.90023	6.09503e+07	      76.5	   13.4282	   1.89158	5.02679e+07	      76.5	   13.5134	   2.08146	5.62215e+07	      76.5	      13.6	   1.99021	6.45788e+07	      76.5	   13.5141	   1.89591	5.55079e+07	      76.5	   13.4275	   1.98716	4.63105e+07	
         R10	   3667	      76.5	   13.4282	   1.89158	4.96766e+07	      76.5	      13.6	   1.90023	6.08348e+07	      76.5	      13.6	   1.70691	5.82867e+07	      76.5	   13.3988	   1.70786	5.19975e+07	      76.5	   13.5141	   1.89591	5.51675e+07	      76.5	      13.6	   1.80357	5.93633e+07	      76.5	   13.4994	   1.70739	5.51279e+07	      76.5	   13.4135	   1.79972	5.07056e+07	
         R10	   3668	      76.5	   13.3988	   1.70786	5.37515e+07	      76.5	      13.6	   1.70691	5.85022e+07	      76.5	      13.6	   1.50023	5.83626e+07	      76.5	    13.369	   1.50062	5.45062e+07	      76.5	   13.4994	   1.70739	5.61069e+07	      76.5	      13.6	   1.60357	5.83659e+07	      76.5	   13.4845	   1.50043	5.64303e+07	      76.5	   13.3839	   1.60424	5.40792e+07	
         R10	   3669	      76.5	    13.369	   1.50062	  5.635e+07	      76.5	      13.6	   1.50023	5.83592e+07	      76.5	      13.6	   1.28018	5.89299e+07	      76.5	     13.37	     1.301	5.67221e+07	      76.5	   13.4845	   1.50043	5.73496e+07	      76.5	      13.6	   1.39021	5.86159e+07	      76.5	    13.485	   1.29059	5.78164e+07	      76.5	   13.3695	   1.40081	5.65207e+07	
         R10	   3670	      76.5	     13.37	     1.301	5.77941e+07	      76.5	      13.6	   1.28018	5.89363e+07	      76.5	      13.6	   1.04677	 5.8572e+07	      76.5	   13.3711	   1.04676	5.80059e+07	      76.5	    13.485	   1.29059	5.83602e+07	      76.5	      13.6	   1.16348	5.87194e+07	      76.5	   13.4856	   1.04677	5.82855e+07	      76.5	   13.3706	   1.17388	5.78909e+07	
         R10	   3671	      76.5	   13.3711	   1.04676	5.92855e+07	      76.5	      13.6	   1.04677	5.84041e+07	      76.5	      13.6	       0.8	6.02533e+07	      76.5	   13.3646	  0.822447	5.65596e+07	      76.5	   13.4856	   1.04677	5.88418e+07	      76.5	      13.6	  0.923387	5.93243e+07	      76.5	   13.4823	  0.811224	 5.8358e+07	      76.5	   13.3679	  0.934604	 5.7847e+07	
         R10	   3672	      76.5	      13.6	  0.316892	6.85418e+07	      76.5	      13.6	         0	1.52943e+08	      76.5	   13.2385	         0	8.22868e+07	      76.5	   13.1725	  0.442726	5.82642e+07	      76.5	      13.6	  0.158446	1.09461e+08	      76.5	   13.4192	         0	9.81689e+07	      76.5	   13.2055	  0.221363	5.98173e+07	      76.5	   13.3862	  0.379809	6.07979e+07	
         R10	   3673	      76.5	   13.2413	   1.96962	4.33402e+07	      76.5	   13.0093	   1.92199	 5.9117e+07	      76.5	   12.9804	   2.17144	5.93669e+07	      76.5	   13.1987	    2.2051	3.74566e+07	      76.5	   13.1253	    1.9458	5.11722e+07	      76.5	   12.9948	   2.04671	5.89899e+07	      76.5	   13.0895	   2.18827	4.83451e+07	      76.5	     13.22	   2.08736	4.02211e+07	
         R10	   3674	      76.5	   13.1987	    2.2051	4.00799e+07	      76.5	    13.308	       2.4	 3.5774e+07	      76.5	    13.462	       2.4	3.74493e+07	      76.5	   13.4354	   2.23523	 3.9061e+07	      76.5	   13.2534	   2.30255	3.63923e+07	      76.5	    13.385	       2.4	3.54336e+07	      76.5	   13.4487	   2.31761	2.11981e+07	      76.5	    13.317	   2.22016	2.73906e+07	
         R10	   3675	      76.5	   13.2413	   1.96962	 4.0631e+07	      76.5	   13.1987	    2.2051	4.29417e+07	      76.5	   13.4354	   2.23523	2.38431e+07	      76.5	   13.4267	   2.08274	3.99598e+07	      76.5	     13.22	   2.08736	4.12494e+07	      76.5	    13.317	   2.22016	2.95155e+07	      76.5	    13.431	   2.15898	3.16345e+07	      76.5	    13.334	   2.02618	3.91849e+07	
         R10	   3676	      76.5	   13.3938	   0.61712	6.49978e+07	      76.5	      13.6	  0.583559	 6.1852e+07	      76.5	      13.6	  0.316892	 7.2353e+07	      76.5	   13.1725	  0.442726	6.44153e+07	      76.5	   13.4969	  0.600339	6.33609e+07	      76.5	      13.6	  0.450225	6.65566e+07	      76.5	   13.3862	  0.379809	6.52704e+07	      76.5	   13.2831	  0.529923	6.36579e+07	
         R10	   3677	      76.5	   13.3938	   0.61712	5.93191e+07	      76.5	   13.1725	  0.442726	5.96113e+07	      76.5	   13.0989	  0.880493	5.68008e+07	      76.5	   13.3646	  0.822447	6.09841e+07	      76.5	   13.2831	  0.529923	5.83119e+07	      76.5	   13.1357	   0.66161	5.65964e+07	      76.5	   13.2318	   0.85147	5.87243e+07	      76.5	   13.3792	  0.719784	6.01406e+07	
         R10	   3678	      76.5	   13.3938	   0.61712	6.15327e+07	      76.5	   13.3646	  0.822447	5.71272e+07	      76.5	      13.6	       0.8	 5.8938e+07	      76.5	      13.6	  0.583559	6.01501e+07	      76.5	   13.3792	  0.719784	5.92658e+07	      76.5	   13.4823	  0.811224	5.79835e+07	      76.5	      13.6	  0.691779	5.94384e+07	      76.5	   13.4969	  0.600339	 6.0648e+07	
         R10	   3679	      76.5	   13.0851	   1.26205	 5.6911e+07	      76.5	   13.3711	   1.04676	 5.8793e+07	      76.5	   13.3646	  0.822447	5.98285e+07	      76.5	   13.0989	  0.880493	5.63361e+07	      76.5	   13.2281	   1.15441	5.78257e+07	      76.5	   13.3679	  0.934604	5.92909e+07	      76.5	   13.2318	   0.85147	5.80669e+07	      76.5	    13.092	   1.07127	5.65842e+07	
         R10	   3680	      76.5	    13.064	   1.61015	5.39529e+07	      76.5	    13.369	   1.50062	5.59937e+07	      76.5	     13.37	     1.301	5.73136e+07	      76.5	   13.0851	   1.26205	5.76616e+07	      76.5	   13.2165	   1.55539	5.49702e+07	      76.5	   13.3695	   1.40081	5.66328e+07	      76.5	   13.2276	   1.28153	5.74851e+07	      76.5	   13.0746	    1.4361	5.57994e+07	
         R10	   3681	      76.5	   13.2413	   1.76153	4.99233e+07	      76.5	   13.3988	   1.70786	5.40708e+07	      76.5	    13.369	   1.50062	5.49234e+07	      76.5	    13.064	   1.61015	5.62317e+07	      76.5	   13.3201	    1.7347	5.19456e+07	      76.5	   13.3839	   1.60424	5.44406e+07	      76.5	   13.2165	   1.55539	5.55775e+07	      76.5	   13.1527	   1.68584	5.30773e+07	
         R10	   3682	      76.5	   13.2413	   1.76153	 5.3462e+07	      76.5	    13.064	   1.61015	5.65415e+07	      76.5	   13.0093	   1.92199	5.80349e+07	      76.5	   13.2413	   1.96962	4.38127e+07	      76.5	   13.1527	   1.68584	5.49919e+07	      76.5	   13.0366	   1.76607	5.72275e+07	      76.5	   13.1253	    1.9458	5.09125e+07	      76.5	   13.2413	   1.86557	4.86138e+07	
         R10	   3683	      76.5	   13.2413	   1.76153	5.29875e+07	      76.5	   13.2413	   1.96962	4.14536e+07	      76.5	   13.4282	   1.89158	5.07401e+07	      76.5	   13.3988	   1.70786	5.29842e+07	      76.5	   13.2413	   1.86557	4.71782e+07	      76.5	   13.3348	    1.9306	4.57376e+07	      76.5	   13.4135	   1.79972	5.17355e+07	      76.5	   13.3201	    1.7347	5.29719e+07	
         R10	   3684	      76.5	   13.1987	    2.2051	3.24867e+07	      76.5	    13.138	       2.4	4.65882e+07	      76.5	    13.308	       2.4	4.63971e+07	      76.5	   13.1684	   2.30255	3.82388e+07	      76.5	    13.223	       2.4	4.63637e+07	      76.5	   13.2534	   2.30255	3.87765e+07	       N/A	       N/A	       N/A	        N/A	       N/A	       N/A	       N/A	        N/A	
         R10	   3685	      76.5	   13.2413	   1.96962	4.03775e+07	      76.5	   13.4267	   2.08274	4.37231e+07	      76.5	   13.4282	   1.89158	4.98812e+07	      76.5	    13.334	   2.02618	4.09566e+07	      76.5	   13.4275	   1.98716	4.64789e+07	      76.5	   13.3348	    1.9306	4.47772e+07	       N/A	       N/A	       N/A	        N/A	       N/A	       N/A	       N/A	        N/A	
         R10	   3686	      76.5	     13.37	     1.301	5.85022e+07	      76.5	   13.3711	   1.04676	5.79785e+07	      76.5	   13.0851	   1.26205	5.76398e+07	      76.5	   13.3706	   1.17388	5.82206e+07	      76.5	   13.2281	   1.15441	5.77693e+07	      76.5	   13.2276	   1.28153	 5.8066e+07	       N/A	       N/A	       N/A	        N/A	       N/A	       N/A	       N/A	        N/A	
         R10	   3687	      76.5	   13.9103	         0	3.72192e+07	      76.5	      13.6	         0	1.15509e+08	      76.5	      13.6	  0.316892	 7.5954e+07	      76.5	    13.869	  0.288542	3.51971e+07	      76.5	   13.7551	         0	4.37785e+07	      76.5	      13.6	  0.158446	7.66521e+07	      76.5	   13.7345	  0.302717	5.08679e+07	      76.5	   13.8896	  0.144271	2.69479e+07	
         R10	   3688	      76.5	    13.869	  0.288542	4.57755e+07	      76.5	      13.6	  0.316892	6.44748e+07	      76.5	      13.6	  0.583559	6.18045e+07	      76.5	   13.8461	  0.560848	5.20998e+07	      76.5	   13.7345	  0.302717	5.09065e+07	      76.5	      13.6	  0.450225	6.24295e+07	      76.5	   13.7231	  0.572203	5.69302e+07	      76.5	   13.8576	  0.424695	4.64982e+07	
         R10	   3689	      76.5	   13.8461	  0.560848	5.36213e+07	      76.5	      13.6	  0.583559	6.20265e+07	      76.5	      13.6	       0.8	5.95812e+07	      76.5	   13.8427	       0.8	5.97103e+07	      76.5	   13.7231	  0.572203	5.77961e+07	      76.5	      13.6	  0.691779	6.07598e+07	      76.5	   13.7213	       0.8	5.95877e+07	      76.5	   13.8444	  0.680424	5.65986e+07	
         R10	   3690	      76.5	   14.1522	  0.573376	6.18837e+07	      76.5	   13.8461	  0.560848	5.27156e+07	      76.5	   13.8427	       0.8	5.79335e+07	      76.5	   14.0652	       0.8	5.93404e+07	      76.5	   13.9992	  0.567112	5.69532e+07	      76.5	   13.8444	  0.680424	5.50878e+07	      76.5	    13.954	       0.8	5.86224e+07	      76.5	   14.1087	  0.686688	 6.0428e+07	
         R10	   3691	      76.5	   14.1522	  0.573376	6.33077e+07	      76.5	   14.2677	       0.8	5.86827e+07	      76.5	     14.45	       0.8	 5.6383e+07	      76.5	     14.45	  0.595698	 5.8721e+07	      76.5	   14.2099	  0.686688	6.09916e+07	      76.5	   14.3588	       0.8	5.75304e+07	      76.5	     14.45	  0.697849	5.75047e+07	      76.5	   14.3011	  0.584537	6.09843e+07	
         R10	   3692	      76.5	   14.1673	  0.304207	7.36931e+07	      76.5	   14.1522	  0.573376	6.71174e+07	      76.5	     14.45	  0.595698	5.75138e+07	      76.5	     14.45	  0.329031	 7.1719e+07	      76.5	   14.1597	  0.438792	6.89464e+07	      76.5	   14.3011	  0.584537	6.22953e+07	      76.5	     14.45	  0.462364	 6.3571e+07	      76.5	   14.3086	  0.316619	6.81546e+07	
         R10	   3693	      76.5	   14.1673	  0.304207	7.63169e+07	      76.5	     14.45	  0.329031	7.00011e+07	      76.5	     14.45	         0	1.64204e+08	      76.5	   14.1936	         0	8.77542e+07	      76.5	   14.3086	  0.316619	6.38447e+07	      76.5	     14.45	  0.164515	 1.1383e+08	      76.5	   14.3218	         0	1.16418e+08	      76.5	   14.1804	  0.152104	8.10315e+07	
         R10	   3694	      76.5	   14.1673	  0.304207	 8.9453e+07	      76.5	   14.1936	         0	2.16747e+07	      76.5	   13.9103	         0	9.98046e+07	      76.5	    13.869	  0.288542	4.43119e+07	      76.5	   14.1804	  0.152104	4.92555e+07	      76.5	   14.0519	         0	5.08708e+07	      76.5	   13.8896	  0.144271	5.79188e+07	      76.5	   14.0181	  0.296375	5.97223e+07	
         R10	   3695	      76.5	   14.1522	  0.573376	6.31401e+07	      76.5	   14.1673	  0.304207	6.98441e+07	      76.5	    13.869	  0.288542	4.12832e+07	      76.5	   13.8461	  0.560848	4.91168e+07	      76.5	   14.1597	  0.438792	6.63539e+07	      76.5	   14.0181	  0.296375	5.53578e+07	      76.5	   13.8576	  0.424695	4.48747e+07	      76.5	   13.9992	  0.567112	5.58302e+07	
         R10	   3696	      76.5	   14.1522	  0.573376	6.11348e+07	      76.5	   14.0652	       0.8	 5.9911e+07	      76.5	   14.2677	       0.8	6.01748e+07	      76.5	   14.1087	  0.686688	6.04856e+07	      76.5	   14.1665	       0.8	6.00207e+07	      76.5	   14.2099	  0.686688	6.05903e+07	       N/A	       N/A	       N/A	        N/A	       N/A	       N/A	       N/A	        N/A	
         R10	   3697	   79.1058	      16.9	         0	7.21493e+07	    78.625	      16.9	         0	 8.3683e+07	    78.625	    17.281	         0	9.82635e+07	   79.0656	   17.2928	         0	8.71731e+07	   78.8654	      16.9	         0	7.78568e+07	    78.625	   17.0905	         0	1.54965e+07	   78.8453	   17.2869	         0	9.26249e+07	   79.0857	   17.0964	         0	1.64783e+07	
         R10	   3698	   79.0656	   17.2928	         0	1.09539e+08	    78.625	    17.281	         0	1.13186e+08	    78.625	      17.7	         0	7.76751e+07	   79.1058	      17.7	         0	8.02885e+07	   78.8453	   17.2869	         0	1.11318e+08	    78.625	   17.4905	         0	2.28801e+07	   78.8654	      17.7	         0	7.89446e+07	   79.0857	   17.4964	         0	2.09779e+07	
         R10	   3699	   79.5585	   17.3058	         0	5.55961e+07	   79.0656	   17.2928	         0	1.10323e+08	   79.1058	      17.7	         0	7.97439e+07	   79.6202	      17.7	         0	 3.2429e+07	   79.3121	   17.2993	         0	7.74032e+07	   79.0857	   17.4964	         0	1.83697e+07	    79.363	      17.7	         0	5.29025e+07	   79.5893	   17.5029	         0	3.28966e+07	
         R10	   3700	   80.1683	      17.7	         0	4.43175e+07	     80.75	      17.7	         0	6.37975e+07	     80.75	      16.9	         0	6.72797e+07	   80.1683	      16.9	         0	4.87062e+07	   80.4591	      17.7	         0	5.28123e+07	     80.75	      17.3	         0	6.55329e+07	   80.4591	      16.9	         0	5.53827e+07	   80.1683	      17.3	         0	4.06436e+07	
         R10	   3701	   79.6202	      16.9	         0	3.17419e+07	   79.1058	      16.9	         0	7.19094e+07	   79.0656	   17.2928	         0	8.80773e+07	   79.5585	   17.3058	         0	6.22103e+07	    79.363	      16.9	         0	5.01455e+07	   79.0857	   17.0964	         0	1.33402e+07	   79.3121	   17.2993	         0	7.07711e+07	   79.5893	   17.1029	         0	3.31393e+07	
         R10	   3702	   80.1683	      16.9	         0	4.74306e+07	   79.5585	   17.3058	         0	4.58927e+07	   79.6202	      17.7	         0	3.17261e+07	   80.1683	      17.7	         0	4.41293e+07	   79.8634	   17.1029	         0	4.29125e+07	   79.5893	   17.5029	         0	2.98972e+07	   79.8942	      17.7	         0	3.42436e+07	   80.1683	      17.3	         0	4.21252e+07	
         R10	   3703	   80.1683	      16.9	         0	4.30596e+07	   79.6202	      16.9	         0	3.33734e+07	   79.5585	   17.3058	         0	5.82519e+07	   79.8942	      16.9	         0	3.50349e+07	   79.5893	   17.1029	         0	2.79915e+07	   79.8634	   17.1029	         0	4.24123e+07	       N/A	       N/A	       N/A	        N/A	       N/A	       N/A	       N/A	        N/A	
         R10	   3704	   79.1058	      17.7	         0	1.91462e+07	    78.625	      17.7	         0	6.53172e+07	    78.625	   18.0999	         0	1.01777e+08	   79.0744	   18.1108	         0	7.09211e+07	   78.8654	      17.7	         0	4.05688e+07	    78.625	      17.9	         0	2.13827e+07	   78.8497	   18.1054	         0	8.41965e+07	   79.0901	   17.9054	         0	3.44724e+07	
         R10	   3705	   79.0744	   18.1108	         0	5.65609e+07	    78.625	   18.0999	         0	1.17824e+08	    78.625	      18.5	         0	8.41802e+07	   79.1563	      18.5	         0	2.59295e+07	   78.8497	   18.1054	         0	8.42542e+07	    78.625	      18.3	         0	2.00769e+07	   78.8906	      18.5	         0	5.33145e+07	   79.1153	   18.3054	         0	2.73438e+07	
         R10	   3706	   80.2188	      18.5	         0	4.42312e+07	     80.75	      18.5	         0	7.88537e+07	     80.75	    18.138	         0	7.84929e+07	   80.2832	   18.1085	         0	5.54929e+07	   80.4844	      18.5	         0	6.04923e+07	     80.75	    18.319	         0	7.86622e+07	   80.5166	   18.1232	         0	5.64207e+07	    80.251	   18.3043	         0	3.75367e+07	
         R10	   3707	   80.2832	   18.1085	         0	2.58515e+07	     80.75	    18.138	         0	7.70198e+07	     80.75	      17.7	         0	6.92294e+07	   80.1683	      17.7	         0	5.09972e+07	   80.5166	   18.1232	         0	 4.6808e+07	     80.75	    17.919	         0	7.31174e+07	   80.4591	      17.7	         0	5.96227e+07	   80.2257	   17.9043	         0	3.62194e+07	
         R10	   3708	   79.6202	      17.7	         0	4.51744e+07	   79.0744	   18.1108	         0	4.94167e+07	   79.1563	      18.5	         0	2.23976e+07	   79.6875	      18.5	         0	3.25012e+07	   79.3473	   17.9054	         0	4.52661e+07	   79.1153	   18.3054	         0	2.50977e+07	   79.4219	      18.5	         0	2.25035e+07	   79.6538	      18.1	         0	3.77232e+07	
         R10	   3709	   79.6875	      18.5	         0	2.92393e+07	   80.2832	   18.1085	         0	6.62652e+07	   80.1683	      17.7	         0	4.58817e+07	   79.6202	      17.7	         0	3.86501e+07	   79.9853	   18.3043	         0	4.52156e+07	   80.2257	   17.9043	         0	  5.545e+07	   79.8942	      17.7	         0	4.14942e+07	   79.6538	      18.1	         0	3.06739e+07	
         R10	   3710	   79.6202	      17.7	         0	2.73825e+07	   79.1058	      17.7	         0	2.06117e+07	   79.0744	   18.1108	         0	6.82691e+07	    79.363	      17.7	         0	1.97644e+07	   79.0901	   17.9054	         0	2.94936e+07	   79.3473	   17.9054	         0	 4.3332e+07	       N/A	       N/A	       N/A	        N/A	       N/A	       N/A	       N/A	        N/A	
         R10	   3711	   79.6875	      18.5	         0	2.55286e+07	   80.2188	      18.5	         0	4.02758e+07	   80.2832	   18.1085	         0	6.77138e+07	   79.9531	      18.5	         0	3.20586e+07	    80.251	   18.3043	         0	4.65849e+07	   79.9853	   18.3043	         0	4.47669e+07	       N/A	       N/A	       N/A	        N/A	       N/A	       N/A	       N/A	        N/A	
         R10	   3712	   79.1563	      18.5	         0	7.22168e+07	    78.625	      18.5	         0	8.88252e+07	    78.625	    18.919	         0	1.35126e+08	   79.0748	   18.8873	         0	9.77297e+07	   78.8906	      18.5	         0	8.04576e+07	    78.625	   18.7095	         0	2.76702e+07	   78.8499	   18.9032	         0	 1.1638e+08	   79.1155	   18.6936	         0	1.93883e+07	
         R10	   3713	   79.0748	   18.8873	         0	1.20418e+08	    78.625	    18.919	         0	1.08573e+08	    78.625	      19.3	         0	3.85233e+07	     79.05	      19.3	         0	3.67332e+07	   78.8499	   18.9032	         0	1.14233e+08	    78.625	   19.1095	         0	4.09518e+07	   78.8375	      19.3	         0	3.76004e+07	   79.0624	   19.0936	         0	4.70212e+07	
         R10	   3714	   79.0748	   18.8873	         0	1.20191e+08	     79.05	      19.3	         0	3.68018e+07	    79.475	      19.3	         0	3.34919e+07	   79.4621	   18.9378	         0	1.09321e+08	   79.0624	   19.0936	         0	4.71148e+07	   79.2625	      19.3	         0	3.48742e+07	   79.4686	   19.1189	         0	  4.809e+07	   79.2684	   18.9125	         0	  1.143e+08	
         R10	   3715	   79.4621	   18.9378	         0	1.10522e+08	    79.475	      19.3	         0	3.25614e+07	      79.9	      19.3	         0	3.69861e+07	   79.9116	   18.9377	         0	1.09122e+08	   79.4686	   19.1189	         0	4.94219e+07	   79.6875	      19.3	         0	  3.458e+07	   79.9058	   19.1188	         0	5.43496e+07	   79.6869	   18.9377	         0	1.07921e+08	
         R10	   3716	   79.9116	   18.9377	         0	9.87674e+07	      79.9	      19.3	         0	3.76009e+07	    80.325	      19.3	         0	5.00464e+07	   80.2991	   18.8874	         0	1.03354e+08	   79.9058	   19.1188	         0	 4.3535e+07	   80.1125	      19.3	         0	4.37684e+07	   80.3121	   19.0937	         0	5.61834e+07	   80.1054	   18.9125	         0	9.88116e+07	
         R10	   3717	   80.2991	   18.8874	         0	1.00822e+08	    80.325	      19.3	         0	5.96299e+07	     80.75	      19.3	         0	6.68816e+07	     80.75	    18.919	         0	1.22289e+08	   80.3121	   19.0937	         0	3.79298e+07	   80.5375	      19.3	         0	5.84153e+07	     80.75	   19.1095	         0	9.40431e+07	   80.5246	   18.9032	         0	6.69497e+07	
         R10	   3718	   80.2991	   18.8874	         0	9.59363e+07	     80.75	    18.919	         0	1.22584e+08	     80.75	      18.5	         0	7.65739e+07	   80.2188	      18.5	         0	6.96672e+07	   80.5246	   18.9032	         0	6.11382e+07	     80.75	   18.7095	         0	9.94026e+07	   80.4844	      18.5	         0	6.32809e+07	   80.2589	   18.6937	         0	1.90869e+07	
         R10	   3719	   79.9116	   18.9377	         0	6.66391e+07	   80.2991	   18.8874	         0	9.86567e+07	   80.2188	      18.5	         0	6.42214e+07	   79.6875	      18.5	         0	3.42565e+07	   80.1054	   18.9125	         0	8.14069e+07	   80.2589	   18.6937	         0	5.25381e+07	   79.9531	      18.5	         0	4.85336e+07	   79.7996	   18.7188	         0	3.52594e+07	
         R10	   3720	   79.6875	      18.5	         0	3.41604e+07	   79.1563	      18.5	         0	 6.9507e+07	   79.0748	   18.8873	         0	9.38742e+07	   79.4621	   18.9378	         0	6.75257e+07	   79.4219	      18.5	         0	4.88469e+07	   79.1155	   18.6936	         0	1.88479e+07	   79.2684	   18.9125	         0	7.98476e+07	   79.5748	   18.7189	         0	3.39787e+07	
         R10	   3721	   79.9116	   18.9377	         0	6.73366e+07	   79.6875	      18.5	         0	4.49258e+07	   79.4621	   18.9378	         0	5.76861e+07	   79.7996	   18.7188	         0	4.39126e+07	   79.5748	   18.7189	         0	3.60581e+07	   79.6869	   18.9377	         0	6.07807e+07	       N/A	       N/A	       N/A	        N/A	       N/A	       N/A	       N/A	        N/A	
         R10	   3722	   79.3034	     11.05	         0	2.27604e+07	    78.625	     11.05	         0	1.50797e+07	    78.625	      11.9	         0	1.65652e+07	   79.2698	      11.9	         0	1.95897e+07	   78.9642	     11.05	         0	1.80517e+07	    78.625	    11.475	         0	1.33481e+07	   78.9474	      11.9	         0	1.79143e+07	   79.2866	    11.475	         0	  1.902e+07	
         R10	   3723	   80.0118	     11.05	         0	4.32503e+07	   79.3034	     11.05	         0	2.37348e+07	   79.2698	      11.9	         0	1.81718e+07	   79.9782	      11.9	         0	3.23055e+07	   79.6576	     11.05	         0	3.33997e+07	   79.2866	    11.475	         0	1.83753e+07	    79.624	      11.9	         0	2.49862e+07	    79.995	    11.475	         0	3.30123e+07	
         R10	   3724	     80.75	     11.05	         0	6.05183e+07	   80.0118	     11.05	         0	 4.3378e+07	   79.9782	      11.9	         0	3.49869e+07	     80.75	      11.9	         0	6.02934e+07	   80.3809	     11.05	         0	  5.087e+07	    79.995	    11.475	         0	3.48259e+07	   80.3641	      11.9	         0	4.58877e+07	     80.75	    11.475	         0	 6.0405e+07	
         R10	   3725	   79.2698	      11.9	         0	2.03695e+07	    78.625	      11.9	         0	1.37452e+07	    78.625	     12.75	         0	2.11346e+07	   79.2327	     12.75	         0	1.99183e+07	   78.9474	      11.9	         0	1.62791e+07	    78.625	    12.325	         0	1.55796e+07	   78.9289	     12.75	         0	2.01838e+07	   79.2513	    12.325	         0	1.90398e+07	
         R10	   3726	   79.9782	      11.9	         0	4.17295e+07	   79.2698	      11.9	         0	1.93107e+07	   79.2327	     12.75	         0	 1.9482e+07	   79.9411	     12.75	         0	3.24704e+07	    79.624	      11.9	         0	3.02639e+07	   79.2513	    12.325	         0	 1.8215e+07	   79.5869	     12.75	         0	2.55447e+07	   79.9596	    12.325	         0	3.17675e+07	
         R10	   3727	     80.75	      11.9	         0	6.02079e+07	   79.9782	      11.9	         0	4.27061e+07	   79.9411	     12.75	         0	3.63681e+07	     80.75	     12.75	         0	6.24812e+07	   80.3641	      11.9	         0	5.03185e+07	   79.9596	    12.325	         0	3.46191e+07	   80.3455	     12.75	         0	4.72334e+07	     80.75	    12.325	         0	6.13428e+07	
         R10	   3728	   79.2327	     12.75	         0	1.86345e+07	    78.625	     12.75	         0	9.65134e+07	    78.625	   13.1952	         0	 1.1731e+08	   79.0097	   13.2119	         0	3.32113e+07	   78.9289	     12.75	         0	5.34782e+07	    78.625	   12.9726	         0	1.98377e+07	   78.8173	   13.2036	         0	7.49631e+07	   79.1212	    12.981	         0	1.72937e+07	
         R10	   3729	   79.0097	   13.2119	         0	5.89591e+07	    78.625	   13.1952	         0	9.99797e+07	    78.625	      13.6	         0	9.75193e+07	   79.0808	      13.6	         0	4.03003e+07	   78.8173	   13.2036	         0	7.79419e+07	    78.625	   13.3976	         0	1.46729e+07	   78.8529	      13.6	         0	6.78067e+07	   79.0452	    13.406	         0	 2.3286e+07	
         R10	   3730	   79.2327	     12.75	         0	3.61741e+07	   79.0097	   13.2119	         0	6.22702e+07	   79.0808	      13.6	         0	 3.0237e+07	   79.5869	      13.6	         0	2.31622e+07	   79.1212	    12.981	         0	4.55218e+07	   79.0452	    13.406	         0	3.29828e+07	   79.3339	      13.6	         0	1.89973e+07	   79.4098	    13.175	         0	2.87537e+07	
         R10	   3731	   79.9411	     12.75	         0	4.19605e+07	   79.2327	     12.75	         0	2.22503e+07	   79.5869	      13.6	         0	2.21221e+07	   80.1433	      13.6	         0	  4.086e+07	   79.5869	     12.75	         0	3.16639e+07	   79.4098	    13.175	         0	2.08503e+07	   79.8651	      13.6	         0	3.13691e+07	   80.0422	    13.175	         0	3.60276e+07	
         R10	   3732	     80.75	     12.75	         0	6.26074e+07	   79.9411	     12.75	         0	4.44617e+07	   80.1433	      13.6	         0	4.11342e+07	     80.75	      13.6	         0	6.56462e+07	   80.3455	     12.75	         0	5.22274e+07	   80.0422	    13.175	         0	3.71847e+07	   80.4467	      13.6	         0	5.05723e+07	     80.75	    13.175	         0	  6.409e+07	
         R10	   3733	      76.5	   14.7736	         0	5.51591e+07	      76.5	     14.45	         0	1.15181e+08	      76.5	     14.45	  0.329031	6.56521e+07	      76.5	   14.7449	  0.288565	3.66796e+07	      76.5	   14.6118	         0	4.24558e+07	      76.5	     14.45	  0.164515	6.76688e+07	      76.5	   14.5974	  0.308798	4.20651e+07	      76.5	   14.7592	  0.144282	4.05205e+07	
         R10	   3734	      76.5	   14.7449	  0.288565	4.09719e+07	      76.5	     14.45	  0.329031	6.77711e+07	      76.5	     14.45	  0.595698	 5.5649e+07	      76.5	   14.6661	    0.5615	4.85101e+07	      76.5	   14.5974	  0.308798	4.63334e+07	      76.5	     14.45	  0.462364	6.10977e+07	      76.5	    14.558	  0.578599	5.20491e+07	      76.5	   14.7055	  0.425033	4.04689e+07	
         R10	   3735	      76.5	   14.6661	    0.5615	5.08187e+07	      76.5	     14.45	  0.595698	5.69946e+07	      76.5	     14.45	       0.8	5.70484e+07	      76.5	   14.6362	       0.8	5.50509e+07	      76.5	    14.558	  0.578599	5.38941e+07	      76.5	     14.45	  0.697849	5.69507e+07	      76.5	   14.5431	       0.8	5.59259e+07	      76.5	   14.6511	   0.68075	5.28835e+07	
         R10	   3736	      76.5	   14.8822	   0.61217	4.92307e+07	      76.5	   14.6661	    0.5615	4.59498e+07	      76.5	   14.6362	       0.8	5.49961e+07	      76.5	   14.8142	       0.8	5.10762e+07	      76.5	   14.7741	  0.586835	4.68331e+07	      76.5	   14.6511	   0.68075	5.01022e+07	      76.5	   14.7252	       0.8	5.29261e+07	      76.5	   14.8482	  0.706085	5.00058e+07	
         R10	   3737	      76.5	   15.1139	  0.621311	5.07814e+07	      76.5	   15.1462	       0.8	5.14594e+07	      76.5	      15.3	       0.8	5.05689e+07	      76.5	      15.3	  0.637669	5.32116e+07	      76.5	     15.13	  0.710655	5.10833e+07	      76.5	   15.2231	       0.8	5.09874e+07	      76.5	      15.3	  0.718834	5.18852e+07	      76.5	    15.207	   0.62949	 5.1995e+07	
         R10	   3738	      76.5	   15.1139	  0.621311	5.09332e+07	      76.5	      15.3	  0.637669	5.13227e+07	      76.5	      15.3	  0.450225	 5.2625e+07	      76.5	   15.0849	  0.425928	5.00825e+07	      76.5	    15.207	   0.62949	 5.1115e+07	      76.5	      15.3	  0.543947	5.19599e+07	      76.5	   15.1925	  0.438077	5.13402e+07	      76.5	   15.0994	   0.52362	5.04863e+07	
         R10	   3739	      76.5	   15.0849	  0.425928	 5.1178e+07	      76.5	      15.3	  0.450225	5.29406e+07	      76.5	      15.3	  0.237669	5.48729e+07	      76.5	   15.0432	  0.219832	4.89902e+07	      76.5	   15.1925	  0.438077	5.20477e+07	      76.5	      15.3	  0.343947	5.38515e+07	      76.5	   15.1716	  0.228751	 5.1502e+07	      76.5	    15.064	   0.32288	4.97964e+07	
         R10	   3740	      76.5	   15.0432	  0.219832	5.32949e+07	      76.5	      15.3	  0.237669	5.30706e+07	      76.5	      15.3	         0	5.14996e+07	      76.5	   15.0569	         0	5.39535e+07	      76.5	   15.1716	  0.228751	5.26989e+07	      76.5	      15.3	  0.118834	5.18331e+07	      76.5	   15.1784	         0	5.15011e+07	      76.5	     15.05	  0.109916	5.29747e+07	
         R10	   3741	      76.5	   15.0432	  0.219832	5.66408e+07	      76.5	   15.0569	         0	2.76519e+07	      76.5	   14.7736	         0	6.78311e+07	      76.5	   14.7449	  0.288565	  3.803e+07	      76.5	     15.05	  0.109916	4.10241e+07	      76.5	   14.9152	         0	 4.5225e+07	      76.5	   14.7592	  0.144282	4.74528e+07	      76.5	    14.894	  0.254198	4.40108e+07	
         R10	   3742	      76.5	   14.8822	   0.61217	4.72493e+07	      76.5	   14.9842	       0.8	5.14807e+07	      76.5	   15.1462	       0.8	5.19503e+07	      76.5	   15.1139	  0.621311	5.14522e+07	      76.5	   14.9332	  0.706085	4.93076e+07	      76.5	   15.0652	       0.8	 5.1667e+07	      76.5	     15.13	  0.710655	5.16789e+07	      76.5	   14.9981	   0.61674	4.92338e+07	
         R10	   3743	      76.5	   14.8822	   0.61217	  4.813e+07	      76.5	   15.1139	  0.621311	5.15514e+07	      76.5	   15.0849	  0.425928	  4.838e+07	      76.5	   14.9088	  0.452798	 4.8114e+07	      76.5	   14.9981	   0.61674	4.97985e+07	      76.5	   15.0994	   0.52362	4.99284e+07	      76.5	   14.9969	  0.439363	4.81742e+07	      76.5	   14.8955	  0.532484	4.80878e+07	
         R10	   3744	      76.5	   14.7449	  0.288565	4.32186e+07	      76.5	   14.6661	    0.5615	 4.3757e+07	      76.5	   14.8822	   0.61217	 4.8438e+07	      76.5	   14.9088	  0.452798	4.69311e+07	      76.5	   14.7055	  0.425033	4.20107e+07	      76.5	   14.7741	  0.586835	4.52461e+07	      76.5	   14.8955	  0.532484	4.76557e+07	      76.5	   14.8268	  0.370681	4.50022e+07	
         R10	   3745	      76.5	   15.0432	  0.219832	5.02044e+07	      76.5	   14.7449	  0.288565	3.63547e+07	      76.5	   14.9088	  0.452798	4.90151e+07	      76.5	   15.0849	  0.425928	 4.9389e+07	      76.5	    14.894	  0.254198	4.31404e+07	      76.5	   14.8268	  0.370681	4.26296e+07	      76.5	   14.9969	  0.439363	4.91605e+07	      76.5	    15.064	   0.32288	4.97948e+07	
         R10	   3746	      76.5	   14.8822	   0.61217	4.75814e+07	      76.5	   14.8142	       0.8	5.16744e+07	      76.5	   14.9842	       0.8	5.17264e+07	      76.5	   14.8482	  0.706085	4.94248e+07	      76.5	   14.8992	       0.8	5.15285e+07	      76.5	   14.9332	  0.706085	4.96012e+07	       N/A	       N/A	       N/A	        N/A	       N/A	       N/A	       N/A	        N/A	
         R10	   3747	   79.0808	      13.6	         0	7.25515e+07	    78.625	      13.6	         0	8.99201e+07	    78.625	   14.0452	         0	1.18908e+08	     79.05	   14.0452	         0	9.58815e+07	   78.8529	      13.6	         0	8.11454e+07	    78.625	   13.8226	         0	1.96395e+07	   78.8375	   14.0452	         0	1.07297e+08	   79.0654	   13.8226	         0	1.76984e+07	
         R10	   3748	     79.05	   14.0452	         0	1.18207e+08	    78.625	   14.0452	         0	1.19707e+08	    78.625	     14.45	         0	9.22594e+07	   79.0808	     14.45	         0	8.65311e+07	   78.8375	   14.0452	         0	1.18901e+08	    78.625	   14.2476	         0	1.90594e+07	   78.8529	     14.45	         0	8.93835e+07	   79.0654	   14.2476	         0	2.09553e+07	
         R10	   3749	   79.5123	   14.0436	         0	6.52135e+07	     79.05	   14.0452	         0	1.17999e+08	   79.0808	     14.45	         0	 8.6763e+07	   79.5869	     14.45	         0	  3.425e+07	   79.2811	   14.0444	         0	8.63635e+07	   79.0654	   14.2476	         0	1.94059e+07	   79.3339	     14.45	         0	5.78546e+07	   79.5496	   14.2468	         0	3.44867e+07	
         R10	   3750	   80.1433	     14.45	         0	3.83481e+07	     80.75	     14.45	         0	6.30619e+07	     80.75	      13.6	         0	6.74245e+07	   80.1433	      13.6	         0	4.61179e+07	   80.4467	     14.45	         0	5.06495e+07	     80.75	    14.025	         0	6.46339e+07	   80.4467	      13.6	         0	5.65047e+07	   80.1433	    14.025	         0	 4.0955e+07	
         R10	   3751	   79.5869	      13.6	         0	 2.7135e+07	   79.0808	      13.6	         0	7.16766e+07	     79.05	   14.0452	         0	9.89306e+07	   79.5123	   14.0436	         0	5.99445e+07	   79.3339	      13.6	         0	4.68057e+07	   79.0654	   13.8226	         0	1.65679e+07	   79.2811	   14.0444	         0	7.30298e+07	   79.5496	   13.8218	         0	 3.4539e+07	
         R10	   3752	   80.1433	      13.6	         0	4.77238e+07	   79.5123	   14.0436	         0	5.20029e+07	   79.5869	     14.45	         0	3.16935e+07	   80.1433	     14.45	         0	4.04728e+07	   79.8278	   13.8218	         0	4.31114e+07	   79.5496	   14.2468	         0	2.91403e+07	   79.8651	     14.45	         0	2.99732e+07	   80.1433	    14.025	         0	4.00896e+07	
         R10	   3753	   80.1433	      13.6	         0	4.22929e+07	   79.5869	      13.6	         0	2.77571e+07	   79.5123	   14.0436	         0	 5.1875e+07	   79.8651	      13.6	         0	3.19817e+07	   79.5496	   13.8218	         0	2.50817e+07	   79.8278	   13.8218	         0	3.98179e+07	       N/A	       N/A	       N/A	        N/A	       N/A	       N/A	       N/A	        N/A	
         R10	   3754	   79.0808	     14.45	         0	5.93754e+07	    78.625	     14.45	         0	4.57003e+07	    78.625	    14.955	         0	1.11538e+08	   79.0769	    14.872	         0	1.15569e+08	   78.8529	     14.45	         0	5.25148e+07	    78.625	   14.7025	         0	 3.7486e+07	    78.851	   14.9135	         0	1.11477e+08	   79.0789	    14.661	         0	3.41486e+07	
         R10	   3755	   79.0769	    14.872	         0	4.73816e+07	    78.625	    14.955	         0	4.18304e+07	    78.625	      15.3	         0	4.37319e+07	   78.9125	      15.3	         0	6.24528e+07	    78.851	   14.9135	         0	 4.1289e+07	    78.625	   15.1275	         0	2.41474e+07	   78.7687	      15.3	         0	5.18151e+07	   78.9947	    15.086	         0	2.13761e+07	
         R10	   3756	   79.0769	    14.872	         0	5.10122e+07	   79.2266	      15.3	         0	6.27164e+07	   79.5674	      15.3	         0	 7.0228e+07	   79.4829	   14.9087	         0	9.78638e+07	   79.1518	    15.086	         0	2.21659e+07	    79.397	      15.3	         0	6.49904e+07	   79.5252	   15.1044	         0	3.08876e+07	   79.2799	   14.8904	         0	7.40664e+07	
         R10	   3757	   79.4829	   14.9087	         0	8.81399e+07	   79.5674	      15.3	         0	6.90503e+07	   79.9349	      15.3	         0	 9.6359e+07	   79.9129	   14.9069	         0	 1.1588e+08	   79.5252	   15.1044	         0	2.69143e+07	   79.7512	      15.3	         0	8.26704e+07	   79.9239	   15.1034	         0	3.41706e+07	   79.6979	   14.9078	         0	1.01897e+08	
         R10	   3758	   79.9129	   14.9069	         0	1.14865e+08	   79.9349	      15.3	         0	 8.9328e+07	   80.3291	      15.3	         0	6.53215e+07	   80.2919	   14.8536	         0	9.05156e+07	   79.9239	   15.1034	         0	2.75012e+07	    80.132	      15.3	         0	7.41182e+07	   80.3105	   15.0768	         0	 4.1472e+07	   80.1024	   14.8803	         0	1.02224e+08	
         R10	   3759	   80.2919	   14.8536	         0	1.02218e+08	   80.3291	      15.3	         0	5.14315e+07	     80.75	      15.3	         0	7.20876e+07	     80.75	   14.9353	         0	1.06424e+08	   80.3105	   15.0768	         0	3.97611e+07	   80.5396	      15.3	         0	4.86243e+07	     80.75	   15.1177	         0	8.87965e+07	   80.5209	   14.8945	         0	7.53926e+07	
         R10	   3760	   80.2919	   14.8536	         0	8.05229e+07	     80.75	   14.9353	         0	 1.0591e+08	     80.75	     14.45	         0	6.86902e+07	   80.1433	     14.45	         0	6.80969e+07	   80.5209	   14.8945	         0	6.27181e+07	     80.75	   14.6927	         0	8.70265e+07	   80.4467	     14.45	         0	5.79128e+07	   80.2176	   14.6518	         0	2.76015e+07	
         R10	   3761	   79.9129	   14.9069	         0	5.91074e+07	   80.2919	   14.8536	         0	9.02564e+07	   80.1433	     14.45	         0	6.38458e+07	   79.5869	     14.45	         0	3.02494e+07	   80.1024	   14.8803	         0	7.37153e+07	   80.2176	   14.6518	         0	 4.4032e+07	   79.8651	     14.45	         0	4.48919e+07	   79.7499	   14.6784	         0	 3.6953e+07	
         R10	   3762	   79.5869	     14.45	         0	2.38377e+07	   79.0808	     14.45	         0	5.88524e+07	   79.0769	    14.872	         0	 1.1408e+08	   79.4829	   14.9087	         0	6.84522e+07	   79.3339	     14.45	         0	3.89525e+07	   79.0789	    14.661	         0	3.06147e+07	   79.2799	   14.8904	         0	8.68072e+07	   79.5349	   14.6794	         0	3.64062e+07	
         R10	   3763	   79.0769	    14.872	         0	7.86848e+07	   78.9125	      15.3	         0	4.49475e+07	   79.2266	      15.3	         0	5.00375e+07	   78.9947	    15.086	         0	 3.1992e+07	   79.0695	      15.3	         0	4.55246e+07	   79.1518	    15.086	         0	3.99874e+07	       N/A	       N/A	       N/A	        N/A	       N/A	       N/A	       N/A	        N/A	
         R10	   3764	   79.9129	   14.9069	         0	6.35656e+07	   79.5869	     14.45	         0	3.72582e+07	   79.4829	   14.9087	         0	6.35287e+07	   79.7499	   14.6784	         0	3.79788e+07	   79.5349	   14.6794	         0	3.73489e+07	   79.6979	   14.9078	         0	6.34339e+07	       N/A	       N/A	       N/A	        N/A	       N/A	       N/A	       N/A	        N/A	
         R10	   3765	   78.9125	      15.3	         0	7.09622e+07	    78.625	      15.3	         0	8.09703e+07	    78.625	    15.662	         0	6.14761e+07	   79.0479	   15.6893	         0	4.26617e+07	   78.7687	      15.3	         0	7.41043e+07	    78.625	    15.481	         0	2.02414e+07	   78.8365	   15.6757	         0	5.16716e+07	   78.9802	   15.4947	         0	3.11333e+07	
         R10	   3766	   79.0479	   15.6893	         0	1.22024e+08	    78.625	    15.662	         0	1.09929e+08	    78.625	      16.1	         0	4.76399e+07	   78.9896	      16.1	         0	5.65282e+07	   78.8365	   15.6757	         0	1.15247e+08	    78.625	    15.881	         0	3.46784e+07	   78.8073	      16.1	         0	5.20774e+07	   79.0188	   15.8947	         0	3.82014e+07	
         R10	   3767	   79.4741	   15.7067	         0	1.07142e+08	   79.0479	   15.6893	         0	1.19426e+08	   78.9896	      16.1	         0	5.79168e+07	   79.3845	      16.1	         0	6.11879e+07	    79.261	    15.698	         0	1.12629e+08	   79.0188	   15.8947	         0	3.52368e+07	   79.1871	      16.1	         0	5.94581e+07	   79.4293	   15.9034	         0	3.52807e+07	
         R10	   3768	   79.4741	   15.7067	         0	9.94604e+07	   79.3845	      16.1	         0	6.11372e+07	   79.8095	      16.1	         0	 7.9722e+07	   79.8829	   15.7071	         0	1.10936e+08	   79.4293	   15.9034	         0	2.87353e+07	    79.597	      16.1	         0	7.02772e+07	   79.8462	   15.9036	         0	3.28419e+07	   79.6785	   15.7069	         0	1.05181e+08	
         R10	   3769	   79.8829	   15.7071	         0	1.09581e+08	   79.8095	      16.1	         0	7.94604e+07	   80.2646	      16.1	         0	7.49295e+07	   80.3121	   15.7072	         0	9.11673e+07	   79.8462	   15.9036	         0	3.18016e+07	   80.0371	      16.1	         0	7.64124e+07	   80.2884	   15.9036	         0	3.93824e+07	   80.0975	   15.7071	         0	1.00222e+08	
         R10	   3770	   80.3121	   15.7072	         0	8.81304e+07	   80.2646	      16.1	         0	7.62053e+07	     80.75	      16.1	         0	7.60542e+07	     80.75	    15.681	         0	1.10048e+08	   80.2884	   15.9036	         0	1.94312e+07	   80.5073	      16.1	         0	6.32669e+07	     80.75	   15.8905	         0	9.29169e+07	   80.5311	   15.6941	         0	6.83446e+07	
         R10	   3771	   80.3121	   15.7072	         0	1.13255e+08	     80.75	    15.681	         0	1.07874e+08	     80.75	      15.3	         0	6.91891e+07	   80.3291	      15.3	         0	7.57562e+07	   80.5311	   15.6941	         0	7.93203e+07	     80.75	   15.4905	         0	8.83897e+07	   80.5396	      15.3	         0	4.97137e+07	   80.3206	   15.5036	         0	2.53362e+07	
         R10	   3772	   79.8829	   15.7071	         0	1.07221e+08	   80.3121	   15.7072	         0	1.10054e+08	   80.3291	      15.3	         0	8.75277e+07	   79.9349	      15.3	         0	7.33546e+07	   80.0975	   15.7071	         0	1.08611e+08	   80.3206	   15.5036	         0	4.13194e+07	    80.132	      15.3	         0	7.95422e+07	   79.9089	   15.5036	         0	2.82211e+07	
         R10	   3773	   79.4741	   15.7067	         0	9.77304e+07	   79.8829	   15.7071	         0	 1.0575e+08	   79.9349	      15.3	         0	8.11944e+07	   79.5674	      15.3	         0	7.95121e+07	   79.6785	   15.7069	         0	1.01719e+08	   79.9089	   15.5036	         0	3.30805e+07	   79.7512	      15.3	         0	7.97574e+07	   79.5208	   15.5034	         0	2.27337e+07	
         R10	   3774	   79.0479	   15.6893	         0	4.12458e+07	   79.4741	   15.7067	         0	1.02443e+08	   79.5674	      15.3	         0	7.97592e+07	   79.2266	      15.3	         0	7.01044e+07	    79.261	    15.698	         0	7.16421e+07	   79.5208	   15.5034	         0	2.49367e+07	    79.397	      15.3	         0	7.33805e+07	   79.1373	   15.4947	         0	2.96636e+07	
         R10	   3775	   78.9125	      15.3	         0	5.46272e+07	   79.0479	   15.6893	         0	6.70152e+07	   79.2266	      15.3	         0	5.68331e+07	   78.9802	   15.4947	         0	2.97532e+07	   79.1373	   15.4947	         0	3.96175e+07	   79.0695	      15.3	         0	5.30558e+07	       N/A	       N/A	       N/A	        N/A	       N/A	       N/A	       N/A	        N/A	
         R10	   3776	   78.9896	      16.1	         0	5.88361e+07	    78.625	      16.1	         0	5.97745e+07	    78.625	    16.462	         0	8.63973e+07	   79.0346	   16.5155	         0	1.10699e+08	   78.8073	      16.1	         0	5.93016e+07	    78.625	    16.281	         0	2.27862e+07	   78.8298	   16.4887	         0	9.73657e+07	   79.0121	   16.3077	         0	2.75381e+07	
         R10	   3777	   79.0346	   16.5155	         0	8.20508e+07	    78.625	    16.462	         0	1.23947e+08	    78.625	      16.9	         0	6.60919e+07	   79.1058	      16.9	         0	4.98143e+07	   78.8298	   16.4887	         0	1.02413e+08	    78.625	    16.681	         0	3.32736e+07	   78.8654	      16.9	         0	5.77891e+07	   79.0702	   16.7077	         0	1.85171e+07	
         R10	   3778	   80.1683	      16.9	         0	4.73372e+07	     80.75	      16.9	         0	7.24273e+07	     80.75	    16.481	         0	9.82111e+07	   80.3745	   16.4631	         0	 4.5737e+07	   80.4591	      16.9	         0	5.97803e+07	     80.75	   16.6905	         0	8.49607e+07	   80.5622	    16.472	         0	4.72995e+07	   80.2714	   16.6815	         0	2.92409e+07	
         R10	   3779	   80.3745	   16.4631	         0	4.60244e+07	     80.75	    16.481	         0	1.00208e+08	     80.75	      16.1	         0	7.47318e+07	   80.2646	      16.1	         0	4.70245e+07	   80.5622	    16.472	         0	5.06623e+07	     80.75	   16.2905	         0	8.73882e+07	   80.5073	      16.1	         0	6.08283e+07	   80.3195	   16.2815	         0	2.92816e+07	
         R10	   3780	   79.3661	   16.4659	         0	6.52906e+07	   79.3845	      16.1	         0	2.78325e+07	   78.9896	      16.1	         0	6.05112e+07	   79.0346	   16.5155	         0	1.10531e+08	   79.3753	   16.2829	         0	  2.595e+07	   79.1871	      16.1	         0	4.26859e+07	   79.0121	   16.3077	         0	2.99816e+07	   79.2004	   16.4907	         0	8.74852e+07	
         R10	   3781	   79.3661	   16.4659	         0	  4.289e+07	   79.0346	   16.5155	         0	8.74929e+07	   79.1058	      16.9	         0	4.75022e+07	   79.6202	      16.9	         0	2.61697e+07	   79.2004	   16.4907	         0	6.49544e+07	   79.0702	   16.7077	         0	 2.8041e+07	    79.363	      16.9	         0	2.52795e+07	   79.4931	   16.6829	         0	3.15724e+07	
         R10	   3782	   79.8095	      16.1	         0	4.14867e+07	   79.3845	      16.1	         0	2.50022e+07	   79.3661	   16.4659	         0	6.79738e+07	   79.6202	      16.9	         0	4.05459e+07	    79.597	      16.1	         0	2.63296e+07	   79.3753	   16.2829	         0	3.83698e+07	   79.4931	   16.6829	         0	5.21604e+07	   79.7148	      16.5	         0	4.00115e+07	
         R10	   3783	   80.1683	      16.9	         0	4.14258e+07	   80.3745	   16.4631	         0	9.50726e+07	   80.2646	      16.1	         0	4.11991e+07	   79.8095	      16.1	         0	3.92858e+07	   80.2714	   16.6815	         0	6.55717e+07	   80.3195	   16.2815	         0	6.66449e+07	   80.0371	      16.1	         0	 3.9841e+07	   79.9889	      16.5	         0	3.51336e+07	
         R10	   3784	   79.6202	      16.9	         0	3.06471e+07	   80.1683	      16.9	         0	4.54212e+07	   79.8095	      16.1	         0	4.63433e+07	   79.8942	      16.9	         0	3.76369e+07	   79.9889	      16.5	         0	4.41415e+07	   79.7148	      16.5	         0	3.69219e+07	       N/A	       N/A	       N/A	        N/A	       N/A	       N/A	       N/A	        N/A	
         R10	   3785	      76.5	   17.6508	         2	7.12169e+07	      76.5	    17.451	         2	7.65393e+07	      76.5	    17.415	   2.19311	8.07582e+07	      76.5	   17.6349	   2.20314	9.13989e+07	      76.5	   17.5509	         2	7.09873e+07	      76.5	    17.433	   2.09655	7.82617e+07	      76.5	   17.5249	   2.19813	8.46528e+07	      76.5	   17.6428	   2.10157	8.13072e+07	
         R10	   3786	      76.5	   17.8674	    2.2369	1.38231e+08	      76.5	   18.1279	    2.0616	1.09471e+08	      76.5	   18.1431	         2	5.05132e+07	      76.5	   17.8815	         2	7.28881e+07	      76.5	    17.989	   2.13635	1.09418e+08	      76.5	   18.1355	    2.0308	7.87522e+07	      76.5	   18.0123	         2	5.61199e+07	      76.5	   17.8745	   2.11845	1.04849e+08	
         R10	   3787	      76.5	   17.6349	   2.20314	9.62281e+07	      76.5	   17.8674	    2.2369	1.33735e+08	      76.5	   17.8815	         2	 7.0379e+07	      76.5	   17.6508	         2	7.77945e+07	      76.5	   17.7512	   2.22002	1.06431e+08	      76.5	   17.8745	   2.11845	1.00714e+08	      76.5	   17.7662	         2	7.23914e+07	      76.5	   17.6428	   2.10157	8.70022e+07	
         R10	   3788	      76.5	   17.5664	   2.36682	1.04376e+08	      76.5	   17.3778	   2.39265	  7.766e+07	      76.5	   17.3394	   2.59863	8.50071e+07	      76.5	   17.6945	   2.49892	1.58041e+08	      76.5	   17.4721	   2.37974	9.00621e+07	      76.5	   17.3586	   2.49564	8.11482e+07	      76.5	    17.517	   2.54878	1.20631e+08	      76.5	   17.6305	   2.43287	1.31157e+08	
         R10	   3789	      76.5	   17.5664	   2.36682	1.07738e+08	      76.5	   17.6945	   2.49892	1.82049e+08	      76.5	   17.8674	    2.2369	 1.4417e+08	      76.5	   17.6349	   2.20314	8.95802e+07	      76.5	   17.6305	   2.43287	 1.4486e+08	      76.5	    17.768	   2.35935	1.55803e+08	      76.5	   17.7512	   2.22002	1.10838e+08	      76.5	   17.6007	   2.28498	 9.8589e+07	
         R10	   3790	      76.5	   17.5664	   2.36682	1.17543e+08	      76.5	   17.6349	   2.20314	9.13385e+07	      76.5	    17.415	   2.19311	7.79804e+07	      76.5	   17.3778	   2.39265	8.04912e+07	      76.5	   17.6007	   2.28498	1.04096e+08	      76.5	   17.5249	   2.19813	8.33226e+07	      76.5	   17.3964	   2.29288	7.91986e+07	      76.5	   17.4721	   2.37974	9.80505e+07	
         R10	   3791	      76.5	   17.2999	   2.81105	 9.0046e+07	      76.5	   17.6357	   2.80731	1.55896e+08	      76.5	   17.6945	   2.49892	1.80423e+08	      76.5	   17.3394	   2.59863	7.50946e+07	      76.5	   17.4678	   2.80918	  1.121e+08	      76.5	   17.6498	    2.6502	1.62415e+08	      76.5	    17.517	   2.54878	 1.2741e+08	      76.5	   17.3196	   2.70484	7.99838e+07	
         R10	   3792	      76.5	   17.6578	   3.15932	6.92757e+07	      76.5	   17.7001	   3.11456	1.07863e+08	      76.5	   17.6357	   2.80731	1.62021e+08	      76.5	   17.4652	   2.97188	8.66453e+07	      76.5	    17.679	   3.13694	8.63563e+07	      76.5	   17.6527	   2.96412	1.21638e+08	      76.5	   17.5504	   2.88959	1.23379e+08	      76.5	   17.5615	    3.0656	7.41575e+07	
         R10	   3793	      76.5	   17.6578	   3.15932	7.92264e+07	      76.5	   17.8778	   3.37338	1.59793e+08	      76.5	   17.7001	   3.11456	9.42219e+07	      76.5	   17.7678	   3.26635	7.28868e+07	      76.5	   17.7761	   3.25277	 1.1044e+08	      76.5	    17.679	   3.13694	7.70886e+07	       N/A	       N/A	       N/A	        N/A	       N/A	       N/A	       N/A	        N/A	
         R10	   3794	      76.5	   18.4357	         2	 1.7128e+08	      76.5	   18.1431	         2	5.25263e+07	      76.5	   18.1279	    2.0616	1.00879e+08	      76.5	   18.2894	         2	8.32691e+07	      76.5	   18.1355	    2.0308	6.83446e+07	      76.5	   18.2787	   2.01555	1.25251e+08	       N/A	       N/A	       N/A	        N/A	       N/A	       N/A	       N/A	        N/A	
         R10	   3795	      76.5	   17.2999	   2.81105	8.63992e+07	      76.5	   17.4652	   2.97188	8.85381e+07	      76.5	   17.6357	   2.80731	1.45341e+08	      76.5	   17.3825	   2.89147	8.42342e+07	      76.5	   17.5504	   2.88959	1.15969e+08	      76.5	   17.4678	   2.80918	1.09173e+08	       N/A	       N/A	       N/A	        N/A	       N/A	       N/A	       N/A	        N/A	
         R10	   3796	   79.7576	   20.2712	  0.135735	3.67218e+07	   79.2012	   20.2467	  0.125959	3.51919e+07	   79.1563	   20.7284	  0.396646	3.70398e+07	   79.6875	   20.7284	  0.396646	3.56464e+07	   79.4794	    20.259	  0.130807	3.59287e+07	   79.1787	    20.497	  0.244587	3.59997e+07	   79.4219	   20.7284	  0.396646	3.63157e+07	   79.7226	   20.5084	   0.25108	3.61838e+07	
         R10	   3797	   80.2601	   20.2722	  0.136157	4.18233e+07	   79.7576	   20.2712	  0.135735	3.40425e+07	   79.6875	   20.7284	  0.396646	 3.4646e+07	   80.2188	   20.7284	  0.396646	3.99097e+07	   80.0089	   20.2717	  0.135946	3.79253e+07	   79.7226	   20.5084	   0.25108	 3.4334e+07	   79.9531	   20.7284	  0.396646	3.72346e+07	   80.2394	   20.5089	  0.251358	4.08484e+07	
         R10	   3798	     80.75	   20.2104	   0.11214	4.60835e+07	   80.2601	   20.2722	  0.136157	3.03374e+07	   80.2188	   20.7284	  0.396646	2.92714e+07	     80.75	   20.7284	  0.396646	4.06023e+07	    80.505	   20.2414	  0.123892	3.47435e+07	   80.2394	   20.5089	  0.251358	2.97602e+07	   80.4844	   20.7284	  0.396646	3.33911e+07	     80.75	     20.48	  0.235152	4.31665e+07	
         R10	   3799	    80.325	   19.7344	         0	3.77125e+07	   80.2601	   20.2722	  0.136157	3.11858e+07	     80.75	   20.2104	   0.11214	 4.5143e+07	     80.75	   19.7344	         0	5.30298e+07	   80.2925	   20.0081	 0.0493405	3.23858e+07	    80.505	   20.2414	  0.123892	3.32813e+07	     80.75	   19.9759	  0.041468	 4.8871e+07	   80.5375	   19.7344	         0	4.45393e+07	
         R10	   3800	      79.9	   19.7344	         0	4.12901e+07	   79.7576	   20.2712	  0.135735	3.72057e+07	   80.2601	   20.2722	  0.136157	4.60052e+07	    80.325	   19.7344	         0	2.84729e+07	   79.8288	   20.0075	 0.0492034	3.78859e+07	   80.0089	   20.2717	  0.135946	4.15668e+07	   80.2925	   20.0081	 0.0493405	3.66329e+07	   80.1125	   19.7344	         0	3.29702e+07	
         R10	   3801	    79.475	   19.7344	         0	3.18109e+07	   79.2012	   20.2467	  0.125959	 3.3977e+07	   79.7576	   20.2712	  0.135735	 3.7318e+07	      79.9	   19.7344	         0	3.12289e+07	   79.3381	   19.9947	 0.0460147	3.23262e+07	   79.4794	    20.259	  0.130807	3.55748e+07	   79.8288	   20.0075	 0.0492034	3.38203e+07	   79.6875	   19.7344	         0	3.13308e+07	
         R10	   3802	    78.625	   20.2104	   0.11214	3.62607e+07	   79.2012	   20.2467	  0.125959	3.39169e+07	     79.05	   19.7344	         0	2.96292e+07	    78.625	   19.7344	         0	2.71029e+07	   78.9131	   20.2286	  0.118962	3.49794e+07	   79.1256	   19.9947	 0.0460147	3.16524e+07	   78.8375	   19.7344	         0	2.80599e+07	    78.625	   19.9759	  0.041468	3.03249e+07	
         R10	   3803	    78.625	   20.7284	  0.396646	 3.5912e+07	   79.1563	   20.7284	  0.396646	3.66704e+07	   79.2012	   20.2467	  0.125959	3.57438e+07	    78.625	   20.2104	   0.11214	3.48044e+07	   78.8906	   20.7284	  0.396646	3.62903e+07	   79.1787	    20.497	  0.244587	3.61118e+07	   78.9131	   20.2286	  0.118962	3.52605e+07	    78.625	     20.48	  0.235152	3.53058e+07	
         R10	   3804	     79.05	   19.7344	         0	2.46049e+07	   79.2012	   20.2467	  0.125959	 4.2044e+07	    79.475	   19.7344	         0	3.08415e+07	   79.1256	   19.9947	 0.0460147	3.23274e+07	   79.3381	   19.9947	 0.0460147	3.56028e+07	   79.2625	   19.7344	         0	 2.7639e+07	       N/A	       N/A	       N/A	        N/A	       N/A	       N/A	       N/A	        N/A	
         R10	   3805	   80.0094	      21.5	         6	 1.8986e+07	     80.75	      21.5	         6	2.72726e+07	     80.75	      21.5	      5.25	4.44897e+07	   80.0323	      21.5	      5.25	3.10621e+07	   80.3797	      21.5	         6	2.27437e+07	     80.75	      21.5	     5.625	3.56179e+07	   80.3911	      21.5	      5.25	3.24325e+07	   80.0209	      21.5	     5.625	2.02692e+07	
         R10	   3806	   79.3011	      21.5	         6	1.24522e+07	   80.0094	      21.5	         6	1.54869e+07	   80.0323	      21.5	      5.25	2.39535e+07	    79.324	      21.5	      5.25	1.65834e+07	   79.6553	      21.5	         6	1.34559e+07	   80.0209	      21.5	     5.625	1.76951e+07	   79.6781	      21.5	      5.25	1.96932e+07	   79.3125	      21.5	     5.625	1.17148e+07	
         R10	   3807	    78.625	      21.5	         6	1.27722e+07	   79.3011	      21.5	         6	1.21249e+07	    79.324	      21.5	      5.25	1.62325e+07	    78.625	      21.5	      5.25	1.89232e+07	   78.9631	      21.5	         6	1.21178e+07	   79.3125	      21.5	     5.625	1.20599e+07	   78.9745	      21.5	      5.25	1.72671e+07	    78.625	      21.5	     5.625	 9.6626e+06	
         R10	   3808	      76.5	   14.6362	       0.8	5.46096e+07	      76.5	     14.45	       0.8	5.77206e+07	      76.5	     14.45	  0.970451	5.94931e+07	      76.5	   14.6305	  0.958123	5.72167e+07	      76.5	   14.5431	       0.8	5.60119e+07	      76.5	     14.45	  0.885226	5.85883e+07	      76.5	   14.5403	  0.964287	5.82623e+07	      76.5	   14.6333	  0.879061	5.58771e+07	
         R10	   3809	      76.5	   14.6305	  0.958123	5.82382e+07	      76.5	     14.45	  0.970451	5.95835e+07	      76.5	     14.45	   1.12606	6.15567e+07	      76.5	   14.6213	   1.10565	  5.998e+07	      76.5	   14.5403	  0.964287	5.88234e+07	      76.5	     14.45	   1.04825	6.05533e+07	      76.5	   14.5356	   1.11585	6.06889e+07	      76.5	   14.6259	   1.03189	5.90873e+07	
         R10	   3810	      76.5	   14.6213	   1.10565	6.07289e+07	      76.5	     14.45	   1.12606	6.15784e+07	      76.5	     14.45	   1.26681	6.33155e+07	      76.5	    14.596	   1.24398	6.28159e+07	      76.5	   14.5356	   1.11585	6.10708e+07	      76.5	     14.45	   1.19643	6.24286e+07	      76.5	    14.523	   1.25539	6.29942e+07	      76.5	   14.6087	   1.17481	6.17457e+07	
         R10	   3811	      76.5	    14.596	   1.24398	6.33997e+07	      76.5	     14.45	   1.26681	6.33139e+07	      76.5	     14.45	   1.39272	6.48967e+07	      76.5	   14.5731	   1.37461	6.54386e+07	      76.5	    14.523	   1.25539	6.32849e+07	      76.5	     14.45	   1.32977	6.40863e+07	      76.5	   14.5115	   1.38366	6.51098e+07	      76.5	   14.5846	   1.30929	6.43892e+07	
         R10	   3812	      76.5	   14.5731	   1.37461	6.58403e+07	      76.5	     14.45	   1.39272	6.48903e+07	      76.5	     14.45	   1.50378	6.62693e+07	      76.5	   14.5604	      1.49	6.76862e+07	      76.5	   14.5115	   1.38366	6.53085e+07	      76.5	     14.45	   1.44825	6.55585e+07	      76.5	   14.5052	   1.49689	6.69206e+07	      76.5	   14.5668	    1.4323	6.67391e+07	
         R10	   3813	      76.5	   14.5604	      1.49	6.79603e+07	      76.5	     14.45	   1.50378	6.62416e+07	      76.5	     14.45	       1.6	6.75399e+07	      76.5	   14.5579	       1.6	6.98523e+07	      76.5	   14.5052	   1.49689	6.70448e+07	      76.5	     14.45	   1.55189	6.68703e+07	      76.5	   14.5039	       1.6	6.86421e+07	      76.5	   14.5591	     1.545	6.88807e+07	
         R10	   3814	      76.5	   14.6527	   1.50338	6.75739e+07	      76.5	   14.5604	      1.49	6.63911e+07	      76.5	   14.5579	       1.6	6.85306e+07	      76.5	   14.6624	       1.6	6.95248e+07	      76.5	   14.6066	   1.49669	  6.695e+07	      76.5	   14.5591	     1.545	6.74343e+07	      76.5	   14.6101	       1.6	6.89706e+07	      76.5	   14.6575	   1.55169	6.85365e+07	
         R10	   3815	      76.5	   14.6527	   1.50338	6.65838e+07	      76.5	   14.6624	       1.6	6.87171e+07	      76.5	   14.7635	       1.6	6.82768e+07	      76.5	   14.7639	   1.50448	6.65099e+07	      76.5	   14.6575	   1.55169	6.76387e+07	      76.5	   14.7129	       1.6	6.84416e+07	      76.5	   14.7637	   1.55224	6.73764e+07	      76.5	   14.7083	   1.50393	6.64907e+07	
         R10	   3816	      76.5	   14.7639	   1.50448	6.59861e+07	      76.5	   14.7635	       1.6	6.79602e+07	      76.5	   14.8613	       1.6	6.66395e+07	      76.5	   14.8483	   1.49128	6.46846e+07	      76.5	   14.7637	   1.55224	6.69595e+07	      76.5	   14.8124	       1.6	6.72522e+07	      76.5	   14.8548	   1.54564	6.56478e+07	      76.5	   14.8061	   1.49788	6.52971e+07	
         R10	   3817	      76.5	   14.8483	   1.49128	6.45622e+07	      76.5	   14.8613	       1.6	6.66782e+07	      76.5	   14.9557	       1.6	6.43675e+07	      76.5	   14.9485	   1.49216	6.31712e+07	      76.5	   14.8548	   1.54564	6.56037e+07	      76.5	   14.9085	       1.6	 6.5481e+07	      76.5	   14.9521	   1.54608	6.37515e+07	      76.5	   14.8984	   1.49172	6.38282e+07	
         R10	   3818	      76.5	   14.9485	   1.49216	6.28501e+07	      76.5	   14.9557	       1.6	6.50252e+07	      76.5	   15.0468	       1.6	6.16538e+07	      76.5	   15.0386	   1.49537	6.15412e+07	      76.5	   14.9521	   1.54608	6.39188e+07	      76.5	   15.0013	       1.6	6.33086e+07	      76.5	   15.0427	   1.54769	6.15771e+07	      76.5	   14.9936	   1.49377	6.21679e+07	
         R10	   3819	      76.5	   15.0386	   1.49537	6.10957e+07	      76.5	   15.0468	       1.6	6.31531e+07	      76.5	   15.1346	       1.6	5.84656e+07	      76.5	    15.128	   1.50259	5.99564e+07	      76.5	   15.0427	   1.54769	6.21011e+07	      76.5	   15.0907	       1.6	6.07934e+07	      76.5	   15.1313	   1.55129	5.91932e+07	      76.5	   15.0833	   1.49898	 6.0504e+07	
         R10	   3820	      76.5	    15.128	   1.50259	5.90898e+07	      76.5	   15.1346	       1.6	6.18407e+07	      76.5	    15.219	       1.6	5.38964e+07	      76.5	   15.2137	   1.50938	6.05712e+07	      76.5	   15.1313	   1.55129	6.04442e+07	      76.5	   15.1768	       1.6	5.78427e+07	      76.5	   15.2163	   1.55469	5.71529e+07	      76.5	   15.1709	   1.50598	5.98139e+07	
         R10	   3821	      76.5	   15.2137	   1.50938	 6.0482e+07	      76.5	    15.219	       1.6	 5.9023e+07	      76.5	      15.3	       1.6	6.14182e+07	      76.5	      15.3	   1.52248	5.88003e+07	      76.5	   15.2163	   1.55469	5.96104e+07	      76.5	   15.2595	       1.6	5.98077e+07	      76.5	      15.3	   1.56124	5.80895e+07	      76.5	   15.2569	   1.51593	5.89891e+07	
         R10	   3822	      76.5	   15.2148	   1.41622	5.63342e+07	      76.5	   15.2137	   1.50938	5.73031e+07	      76.5	      15.3	   1.52248	5.55508e+07	      76.5	      15.3	   1.43271	5.39748e+07	      76.5	   15.2143	    1.4628	5.67517e+07	      76.5	   15.2569	   1.51593	5.63679e+07	      76.5	      15.3	    1.4776	5.46835e+07	      76.5	   15.2574	   1.42447	5.50888e+07	
         R10	   3823	      76.5	   15.2148	   1.41622	5.60551e+07	      76.5	      15.3	   1.43271	5.34887e+07	      76.5	      15.3	   1.33068	5.28399e+07	      76.5	   15.2038	      1.31	5.47955e+07	      76.5	   15.2574	   1.42447	5.47638e+07	      76.5	      15.3	    1.3817	5.31463e+07	      76.5	   15.2519	   1.32034	5.37908e+07	      76.5	   15.2093	   1.36311	5.54066e+07	
         R10	   3824	      76.5	   15.2038	      1.31	5.50878e+07	      76.5	      15.3	   1.33068	5.27132e+07	      76.5	      15.3	    1.2164	5.20325e+07	      76.5	   15.1734	   1.19556	5.40263e+07	      76.5	   15.2519	   1.32034	5.38816e+07	      76.5	      15.3	   1.27354	5.23609e+07	      76.5	   15.2367	   1.20598	5.30005e+07	      76.5	   15.1886	   1.25278	5.45442e+07	
         R10	   3825	      76.5	   15.1734	   1.19556	5.41886e+07	      76.5	      15.3	    1.2164	5.22847e+07	      76.5	      15.3	   1.08986	5.13528e+07	      76.5	   15.1518	   1.07681	5.33196e+07	      76.5	   15.2367	   1.20598	5.32102e+07	      76.5	      15.3	   1.15313	5.18037e+07	      76.5	   15.2259	   1.08333	5.23036e+07	      76.5	   15.1626	   1.13618	 5.3743e+07	
         R10	   3826	      76.5	   15.1518	   1.07681	5.33128e+07	      76.5	      15.3	   1.08986	5.22034e+07	      76.5	      15.3	  0.951056	5.07603e+07	      76.5	   15.1432	  0.941626	5.23062e+07	      76.5	   15.2259	   1.08333	5.27277e+07	      76.5	      15.3	   1.02046	5.14645e+07	      76.5	   15.2216	  0.946341	5.15073e+07	      76.5	   15.1475	   1.00922	5.27929e+07	
         R10	   3827	      76.5	   15.1432	  0.941626	5.21332e+07	      76.5	      15.3	  0.951056	5.27063e+07	      76.5	      15.3	       0.8	5.03753e+07	      76.5	   15.1462	       0.8	5.14729e+07	      76.5	   15.2216	  0.946341	5.24001e+07	      76.5	      15.3	  0.875528	 5.1507e+07	      76.5	   15.2231	       0.8	5.09004e+07	      76.5	   15.1447	  0.870813	5.17844e+07	
         R10	   3828	      76.5	   14.9759	    0.9491	5.32194e+07	      76.5	   15.1432	  0.941626	5.26586e+07	      76.5	   15.1462	       0.8	5.12969e+07	      76.5	   14.9842	       0.8	5.14194e+07	      76.5	   15.0595	  0.945363	5.28783e+07	      76.5	   15.1447	  0.870813	5.19516e+07	      76.5	   15.0652	       0.8	5.12929e+07	      76.5	     14.98	   0.87455	5.22964e+07	
         R10	   3829	      76.5	   14.9759	    0.9491	5.40734e+07	      76.5	   14.9842	       0.8	5.15388e+07	      76.5	   14.8142	       0.8	  5.201e+07	      76.5	   14.8078	  0.957289	5.40238e+07	      76.5	     14.98	   0.87455	5.27629e+07	      76.5	   14.8992	       0.8	5.16643e+07	      76.5	    14.811	  0.878644	5.29944e+07	      76.5	   14.8919	  0.953194	5.39538e+07	
         R10	   3830	      76.5	   14.8078	  0.957289	5.53908e+07	      76.5	   14.8142	       0.8	5.12714e+07	      76.5	   14.6362	       0.8	5.52953e+07	      76.5	   14.6305	  0.958123	5.59644e+07	      76.5	    14.811	  0.878644	5.32901e+07	      76.5	   14.7252	       0.8	5.31473e+07	      76.5	   14.6333	  0.879061	5.56119e+07	      76.5	   14.7192	  0.957706	5.55582e+07	
         R10	   3831	      76.5	   14.8152	   1.11757	5.80669e+07	      76.5	   14.8078	  0.957289	5.55919e+07	      76.5	   14.6305	  0.958123	5.68331e+07	      76.5	   14.6213	   1.10565	5.89902e+07	      76.5	   14.8115	   1.03743	5.67989e+07	      76.5	   14.7192	  0.957706	5.60957e+07	      76.5	   14.6259	   1.03189	  5.789e+07	      76.5	   14.7183	   1.11161	5.84144e+07	
         R10	   3832	      76.5	   14.8152	   1.11757	 5.8041e+07	      76.5	   14.6213	   1.10565	5.99983e+07	      76.5	    14.596	   1.24398	6.17147e+07	      76.5	   14.7102	   1.26299	6.21383e+07	      76.5	   14.7183	   1.11161	5.88927e+07	      76.5	   14.6087	   1.17481	 6.0819e+07	      76.5	   14.6531	   1.25348	6.18678e+07	      76.5	   14.7627	   1.19028	5.99921e+07	
         R10	   3833	      76.5	   14.7102	   1.26299	 6.2465e+07	      76.5	    14.596	   1.24398	6.19317e+07	      76.5	   14.5731	   1.37461	6.42956e+07	      76.5	   14.7073	   1.38846	6.45677e+07	      76.5	   14.6531	   1.25348	6.21512e+07	      76.5	   14.5846	   1.30929	 6.3081e+07	      76.5	   14.6402	   1.38153	  6.437e+07	      76.5	   14.7087	   1.32572	6.34916e+07	
         R10	   3834	      76.5	   14.7073	   1.38846	6.44936e+07	      76.5	   14.5731	   1.37461	6.47854e+07	      76.5	   14.5604	      1.49	 6.6341e+07	      76.5	   14.6527	   1.50338	6.74196e+07	      76.5	   14.6402	   1.38153	6.45719e+07	      76.5	   14.5668	    1.4323	6.55349e+07	      76.5	   14.6066	   1.49669	6.68395e+07	      76.5	     14.68	   1.44592	6.59019e+07	
         R10	   3835	      76.5	   14.8316	   1.38653	6.28293e+07	      76.5	   14.8483	   1.49128	6.44999e+07	      76.5	   14.9485	   1.49216	6.30543e+07	      76.5	   14.9474	   1.37609	6.10805e+07	      76.5	   14.8399	   1.43891	6.36536e+07	      76.5	   14.8984	   1.49172	6.37339e+07	      76.5	    14.948	   1.43413	6.20439e+07	      76.5	   14.8895	   1.38131	6.18983e+07	
         R10	   3836	      76.5	   14.9474	   1.37609	6.08566e+07	      76.5	   14.9485	   1.49216	6.27817e+07	      76.5	   15.0386	   1.49537	6.15341e+07	      76.5	   15.0347	    1.3776	5.96033e+07	      76.5	    14.948	   1.43413	6.17968e+07	      76.5	   14.9936	   1.49377	6.21273e+07	      76.5	   15.0367	   1.43649	6.05404e+07	      76.5	   14.9911	   1.37684	6.01997e+07	
         R10	   3837	      76.5	   15.0347	    1.3776	5.94815e+07	      76.5	   15.0386	   1.49537	6.10543e+07	      76.5	    15.128	   1.50259	6.02243e+07	      76.5	   15.1242	   1.40045	 5.8142e+07	      76.5	   15.0367	   1.43649	6.02424e+07	      76.5	   15.0833	   1.49898	6.06194e+07	      76.5	   15.1261	   1.45152	5.91504e+07	      76.5	   15.0795	   1.38902	5.87802e+07	
         R10	   3838	      76.5	   15.1242	   1.40045	5.80895e+07	      76.5	    15.128	   1.50259	5.96601e+07	      76.5	   15.2137	   1.50938	5.85819e+07	      76.5	   15.2148	   1.41622	5.59291e+07	      76.5	   15.1261	   1.45152	5.88517e+07	      76.5	   15.1709	   1.50598	5.90636e+07	      76.5	   15.2143	    1.4628	5.72165e+07	      76.5	   15.1695	   1.40834	 5.6993e+07	
         R10	   3839	      76.5	   15.0384	   1.23029	5.70252e+07	      76.5	   15.1734	   1.19556	5.43499e+07	      76.5	   15.1518	   1.07681	5.36988e+07	      76.5	   14.9939	   1.08971	5.52194e+07	      76.5	   15.1059	   1.21293	5.56265e+07	      76.5	   15.1626	   1.13618	5.40115e+07	      76.5	   15.0729	   1.08326	 5.4393e+07	      76.5	   15.0162	      1.16	5.61068e+07	
         R10	   3840	      76.5	   14.9939	   1.08971	5.52461e+07	      76.5	   15.1518	   1.07681	5.36684e+07	      76.5	   15.1432	  0.941626	5.28917e+07	      76.5	   14.9759	    0.9491	5.30828e+07	      76.5	   15.0729	   1.08326	5.43896e+07	      76.5	   15.1475	   1.00922	5.32647e+07	      76.5	   15.0595	  0.945363	5.29269e+07	      76.5	   14.9849	    1.0194	5.41414e+07	
         R10	   3841	      76.5	   14.9939	   1.08971	5.54932e+07	      76.5	   14.9759	    0.9491	5.39443e+07	      76.5	   14.8078	  0.957289	5.43517e+07	      76.5	   14.8152	   1.11757	5.76047e+07	      76.5	   14.9849	    1.0194	 5.4702e+07	      76.5	   14.8919	  0.953194	5.40553e+07	      76.5	   14.8115	   1.03743	5.59502e+07	      76.5	   14.9046	   1.10364	5.64305e+07	
         R10	   3842	      76.5	   14.7073	   1.38846	6.42817e+07	      76.5	   14.7639	   1.50448	6.56988e+07	      76.5	   14.8483	   1.49128	6.46731e+07	      76.5	   14.8316	   1.38653	6.31281e+07	      76.5	   14.7356	   1.44647	6.49726e+07	      76.5	   14.8061	   1.49788	6.51553e+07	      76.5	   14.8399	   1.43891	 6.3888e+07	      76.5	   14.7694	    1.3875	 6.3636e+07	
         R10	   3843	      76.5	   14.8237	   1.29541	6.10519e+07	      76.5	   14.8316	   1.38653	6.25416e+07	      76.5	   14.9474	   1.37609	 6.0977e+07	      76.5	   14.9386	   1.24981	5.89455e+07	      76.5	   14.8277	   1.34097	6.17884e+07	      76.5	   14.8895	   1.38131	6.17026e+07	      76.5	    14.943	   1.31295	5.99407e+07	      76.5	   14.8811	   1.27261	5.99263e+07	
         R10	   3844	      76.5	   14.7102	   1.26299	 6.1154e+07	      76.5	   14.7073	   1.38846	 6.4041e+07	      76.5	   14.8316	   1.38653	6.25796e+07	      76.5	   14.8237	   1.29541	 6.1856e+07	      76.5	   14.7087	   1.32572	6.25794e+07	      76.5	   14.7694	    1.3875	6.32481e+07	      76.5	   14.8277	   1.34097	6.22025e+07	      76.5	   14.7669	    1.2792	6.14592e+07	
         R10	   3845	      76.5	   15.1285	   1.31838	5.67003e+07	      76.5	   15.2038	      1.31	5.49476e+07	      76.5	   15.1734	   1.19556	5.42357e+07	      76.5	   15.0384	   1.23029	5.71344e+07	      76.5	   15.1662	   1.31419	5.58041e+07	      76.5	   15.1886	   1.25278	5.45791e+07	      76.5	   15.1059	   1.21293	5.56189e+07	      76.5	   15.0835	   1.27433	5.69042e+07	
         R10	   3846	      76.5	   15.1285	   1.31838	5.67285e+07	      76.5	   15.0384	   1.23029	5.67644e+07	      76.5	   15.0347	    1.3776	5.95001e+07	      76.5	   15.1242	   1.40045	5.81072e+07	      76.5	   15.0835	   1.27433	5.67269e+07	      76.5	   15.0365	   1.30394	5.80947e+07	      76.5	   15.0795	   1.38902	5.87817e+07	      76.5	   15.1264	   1.35941	5.74033e+07	
         R10	   3847	      76.5	   15.1285	   1.31838	5.66551e+07	      76.5	   15.1242	   1.40045	5.81277e+07	      76.5	   15.2148	   1.41622	 5.6279e+07	      76.5	   15.2038	      1.31	5.46343e+07	      76.5	   15.1264	   1.35941	5.73766e+07	      76.5	   15.1695	   1.40834	5.71722e+07	      76.5	   15.2093	   1.36311	5.54327e+07	      76.5	   15.1662	   1.31419	5.56302e+07	
         R10	   3848	      76.5	   15.0384	   1.23029	5.67968e+07	      76.5	   14.9386	   1.24981	5.87582e+07	      76.5	   14.9474	   1.37609	6.07124e+07	      76.5	   15.0347	    1.3776	5.96524e+07	      76.5	   14.9885	   1.24005	5.77373e+07	      76.5	    14.943	   1.31295	5.97135e+07	      76.5	   14.9911	   1.37684	6.01516e+07	      76.5	   15.0365	   1.30394	5.81877e+07	
         R10	   3849	      76.5	   14.9386	   1.24981	5.87604e+07	      76.5	   15.0384	   1.23029	5.69886e+07	      76.5	   14.9939	   1.08971	5.56176e+07	      76.5	   14.8152	   1.11757	5.77423e+07	      76.5	   14.9885	   1.24005	5.78331e+07	      76.5	   15.0162	      1.16	5.62889e+07	      76.5	   14.9046	   1.10364	5.65536e+07	      76.5	   14.8769	   1.18369	5.82139e+07	
         R10	   3850	      76.5	   14.7073	   1.38846	6.38382e+07	      76.5	   14.6527	   1.50338	6.67576e+07	      76.5	   14.7639	   1.50448	6.62787e+07	      76.5	     14.68	   1.44592	6.52425e+07	      76.5	   14.7083	   1.50393	6.64552e+07	      76.5	   14.7356	   1.44647	6.50456e+07	       N/A	       N/A	       N/A	        N/A	       N/A	       N/A	       N/A	        N/A	
         R10	   3851	      76.5	   14.8152	   1.11757	5.75195e+07	      76.5	   14.7102	   1.26299	6.15778e+07	      76.5	   14.8237	   1.29541	6.12157e+07	      76.5	   14.7627	   1.19028	5.94462e+07	      76.5	   14.7669	    1.2792	6.13398e+07	      76.5	   14.8195	   1.20649	5.93361e+07	       N/A	       N/A	       N/A	        N/A	       N/A	       N/A	       N/A	        N/A	
         R10	   3852	      76.5	   14.8152	   1.11757	5.80569e+07	      76.5	   14.8237	   1.29541	 6.0604e+07	      76.5	   14.9386	   1.24981	5.88739e+07	      76.5	   14.8195	   1.20649	5.92805e+07	      76.5	   14.8811	   1.27261	5.96761e+07	      76.5	   14.8769	   1.18369	 5.8425e+07	       N/A	       N/A	       N/A	        N/A	       N/A	       N/A	       N/A	        N/A	
         R10	   3853	   80.2188	      21.5	         3	3.94866e+07	     80.75	      21.5	         3	6.40535e+07	     80.75	      21.5	      2.25	5.54426e+07	   80.2188	      21.5	      2.25	5.03775e+07	   80.4844	      21.5	         3	5.07254e+07	     80.75	      21.5	     2.625	5.88744e+07	   80.4844	      21.5	      2.25	  4.985e+07	   80.2188	      21.5	     2.625	4.21373e+07	
         R10	   3854	   79.6875	      21.5	         3	1.76992e+07	   80.2188	      21.5	         3	3.68695e+07	   80.2188	      21.5	      2.25	5.30425e+07	   79.6875	      21.5	      2.25	  6.353e+07	   79.9531	      21.5	         3	2.68937e+07	   80.2188	      21.5	     2.625	4.17398e+07	   79.9531	      21.5	      2.25	5.76223e+07	   79.6875	      21.5	     2.625	3.49741e+07	
         R10	   3855	   79.1563	      21.5	         3	9.34523e+06	   79.6875	      21.5	         3	1.88959e+07	   79.6875	      21.5	      2.25	6.34726e+07	   79.1563	      21.5	      2.25	6.64203e+07	   79.4219	      21.5	         3	1.36773e+07	   79.6875	      21.5	     2.625	3.50601e+07	   79.4219	      21.5	      2.25	6.48452e+07	   79.1563	      21.5	     2.625	3.17693e+07	
         R10	   3856	    78.625	      21.5	         3	 5.8528e+06	   79.1563	      21.5	         3	9.54883e+06	   79.1563	      21.5	      2.25	6.65099e+07	    78.625	      21.5	      2.25	6.58882e+07	   78.8906	      21.5	         3	7.54173e+06	   79.1563	      21.5	     2.625	3.18744e+07	   78.8906	      21.5	      2.25	6.61924e+07	    78.625	      21.5	     2.625	3.10369e+07	
         R10	   3857	   80.2188	      21.5	      3.75	4.28515e+07	     80.75	      21.5	      3.75	6.24202e+07	     80.75	      21.5	         3	6.34209e+07	   80.2188	      21.5	         3	4.66782e+07	   80.4844	      21.5	      3.75	5.17956e+07	     80.75	      21.5	     3.375	6.27627e+07	   80.4844	      21.5	         3	5.38915e+07	   80.2188	      21.5	     3.375	4.04134e+07	
         R10	   3858	   79.6875	      21.5	      3.75	2.52038e+07	   80.2188	      21.5	      3.75	3.96346e+07	   80.2188	      21.5	         3	4.64617e+07	   79.6875	      21.5	         3	2.93617e+07	   79.9531	      21.5	      3.75	3.20852e+07	   80.2188	      21.5	     3.375	3.85889e+07	   79.9531	      21.5	         3	3.77488e+07	   79.6875	      21.5	     3.375	2.46892e+07	
         R10	   3859	   79.1563	      21.5	      3.75	1.90082e+07	   79.6875	      21.5	      3.75	2.63204e+07	   79.6875	      21.5	         3	2.96917e+07	   79.1563	      21.5	         3	1.79404e+07	   79.4219	      21.5	      3.75	 2.2355e+07	   79.6875	      21.5	     3.375	2.53747e+07	   79.4219	      21.5	         3	2.36964e+07	   79.1563	      21.5	     3.375	1.68462e+07	
         R10	   3860	    78.625	      21.5	      3.75	1.60483e+07	   79.1563	      21.5	      3.75	1.83972e+07	   79.1563	      21.5	         3	1.78367e+07	    78.625	      21.5	         3	1.23602e+07	   78.8906	      21.5	      3.75	1.69716e+07	   79.1563	      21.5	     3.375	1.66093e+07	   78.8906	      21.5	         3	1.47631e+07	    78.625	      21.5	     3.375	1.41174e+07	
         R10	   3861	   80.0417	      21.5	       4.5	3.51851e+07	     80.75	      21.5	       4.5	5.08687e+07	     80.75	      21.5	      3.75	5.96842e+07	   80.2188	      21.5	      3.75	4.62068e+07	   80.3958	      21.5	       4.5	4.10254e+07	     80.75	      21.5	     4.125	5.52468e+07	   80.4844	      21.5	      3.75	5.08549e+07	   80.1302	      21.5	     4.125	 3.4707e+07	
         R10	   3862	   79.3333	      21.5	       4.5	1.70631e+07	   80.0417	      21.5	       4.5	3.18459e+07	   80.2188	      21.5	      3.75	4.28107e+07	   79.6875	      21.5	      3.75	2.47965e+07	   79.6875	      21.5	       4.5	2.34949e+07	   80.1302	      21.5	     4.125	3.20322e+07	   79.9531	      21.5	      3.75	3.37517e+07	   79.5104	      21.5	     4.125	1.88641e+07	
         R10	   3863	   79.1563	      21.5	      3.75	1.82812e+07	    78.625	      21.5	      3.75	1.65135e+07	    78.625	      21.5	       4.5	1.13603e+07	   79.3333	      21.5	       4.5	1.69339e+07	   78.8906	      21.5	      3.75	1.70553e+07	    78.625	      21.5	     4.125	1.39275e+07	   78.9792	      21.5	       4.5	1.36241e+07	   79.2448	      21.5	     4.125	1.60558e+07	
         R10	   3864	   79.1563	      21.5	      3.75	1.79894e+07	   79.3333	      21.5	       4.5	1.84099e+07	   79.6875	      21.5	      3.75	 2.4419e+07	   79.2448	      21.5	     4.125	1.64395e+07	   79.5104	      21.5	     4.125	1.98443e+07	   79.4219	      21.5	      3.75	2.08699e+07	       N/A	       N/A	       N/A	        N/A	       N/A	       N/A	       N/A	        N/A	
         R10	   3865	   80.0323	      21.5	      5.25	2.45469e+07	     80.75	      21.5	      5.25	4.47328e+07	     80.75	      21.5	       4.5	4.95298e+07	   80.0417	      21.5	       4.5	 3.0548e+07	   80.3911	      21.5	      5.25	3.41367e+07	     80.75	      21.5	     4.875	4.66002e+07	   80.3958	      21.5	       4.5	3.89184e+07	    80.037	      21.5	     4.875	2.62511e+07	
         R10	   3866	    79.324	      21.5	      5.25	 2.6211e+07	   80.0323	      21.5	      5.25	3.25935e+07	   80.0417	      21.5	       4.5	3.18829e+07	   79.3333	      21.5	       4.5	1.28521e+07	   79.6781	      21.5	      5.25	2.79475e+07	    80.037	      21.5	     4.875	2.81708e+07	   79.6875	      21.5	       4.5	2.22569e+07	   79.3286	      21.5	     4.875	1.85385e+07	
         R10	   3867	    78.625	      21.5	      5.25	2.37272e+07	    79.324	      21.5	      5.25	2.63031e+07	   79.3333	      21.5	       4.5	1.33197e+07	    78.625	      21.5	       4.5	9.90222e+06	   78.9745	      21.5	      5.25	2.47785e+07	   79.3286	      21.5	     4.875	1.86439e+07	   78.9792	      21.5	       4.5	1.13008e+07	    78.625	      21.5	     4.875	1.67367e+07	
         R10	   3868	   80.0326	      21.5	      8.55	2.57302e+07	     80.75	      21.5	      8.55	2.68834e+07	     80.75	      21.5	       7.7	3.64571e+07	   79.9989	      21.5	       7.7	1.73578e+07	   80.3913	      21.5	      8.55	2.44582e+07	     80.75	      21.5	     8.125	3.15502e+07	   80.3745	      21.5	       7.7	2.23035e+07	   80.0157	      21.5	     8.125	1.33444e+07	
         R10	   3869	   79.3243	      21.5	      8.55	9.47507e+06	   80.0326	      21.5	      8.55	2.17458e+07	   79.9989	      21.5	       7.7	1.26018e+07	   79.2906	      21.5	       7.7	3.81664e+06	   79.6784	      21.5	      8.55	1.54531e+07	   80.0157	      21.5	     8.125	1.25903e+07	   79.6447	      21.5	       7.7	7.50228e+06	   79.3074	      21.5	     8.125	3.42543e+06	
         R10	   3870	    78.625	      21.5	      8.55	3.44177e+06	   79.3243	      21.5	      8.55	8.18657e+06	   79.2906	      21.5	       7.7	3.57948e+06	    78.625	      21.5	       7.7	2.74037e+06	   78.9746	      21.5	      8.55	4.09022e+06	   79.3074	      21.5	     8.125	3.12944e+06	   78.9578	      21.5	       7.7	2.61005e+06	    78.625	      21.5	     8.125	2.65444e+06	
         R10	   3871	   79.6875	      21.5	       9.4	 8.1737e+06	     80.75	      21.5	       9.4	2.41836e+07	     80.75	      21.5	      8.55	2.87559e+07	   80.0326	      21.5	      8.55	1.08895e+07	   80.2188	      21.5	       9.4	1.55553e+07	     80.75	      21.5	     8.975	2.60324e+07	   80.3913	      21.5	      8.55	 1.9068e+07	   79.8601	      21.5	     8.975	7.20295e+06	
         R10	   3872	   79.3243	      21.5	      8.55	5.26785e+06	    78.625	      21.5	      8.55	3.58464e+06	    78.625	      21.5	       9.4	4.44976e+06	   79.6875	      21.5	       9.4	1.48261e+07	   78.9746	      21.5	      8.55	3.85146e+06	    78.625	      21.5	     8.975	3.81514e+06	   79.1563	      21.5	       9.4	5.76701e+06	   79.5059	      21.5	     8.975	5.45553e+06	
         R10	   3873	   79.3243	      21.5	      8.55	4.77156e+06	   79.6875	      21.5	       9.4	1.63672e+07	   80.0326	      21.5	      8.55	8.22057e+06	   79.5059	      21.5	     8.975	6.16807e+06	   79.8601	      21.5	     8.975	8.51627e+06	   79.6784	      21.5	      8.55	 5.2601e+06	       N/A	       N/A	       N/A	        N/A	       N/A	       N/A	       N/A	        N/A	
         R10	   3874	   79.6875	      21.5	     10.25	8.93838e+06	     80.75	      21.5	     10.25	1.03659e+07	     80.75	      21.5	       9.4	2.45601e+07	   79.6875	      21.5	       9.4	 1.4384e+07	   80.2188	      21.5	     10.25	9.60935e+06	     80.75	      21.5	     9.825	1.64231e+07	   80.2188	      21.5	       9.4	1.20386e+07	   79.6875	      21.5	     9.825	8.70177e+06	
         R10	   3875	    78.625	      21.5	     10.25	1.18161e+07	   79.6875	      21.5	     10.25	1.06508e+07	   79.6875	      21.5	       9.4	4.11717e+06	    78.625	      21.5	       9.4	4.70945e+06	   79.1563	      21.5	     10.25	1.12207e+07	   79.6875	      21.5	     9.825	6.74525e+06	   79.1563	      21.5	       9.4	3.46036e+06	    78.625	      21.5	     9.825	5.88285e+06	
         R10	   3876	      76.5	   13.8427	       0.8	5.85304e+07	      76.5	      13.6	       0.8	5.99668e+07	      76.5	      13.6	   1.04677	6.01505e+07	      76.5	   13.8323	   1.03695	6.06494e+07	      76.5	   13.7213	       0.8	5.92086e+07	      76.5	      13.6	  0.923387	6.00544e+07	      76.5	   13.7161	   1.04186	6.03826e+07	      76.5	   13.8375	  0.918473	5.95393e+07	
         R10	   3877	      76.5	   13.8323	   1.03695	6.05436e+07	      76.5	      13.6	   1.04677	6.04465e+07	      76.5	      13.6	   1.28018	6.03561e+07	      76.5	   13.7811	   1.28003	6.17136e+07	      76.5	   13.7161	   1.04186	6.04882e+07	      76.5	      13.6	   1.16348	6.03819e+07	      76.5	   13.6905	   1.28011	6.10199e+07	      76.5	   13.8067	   1.15849	6.10946e+07	
         R10	   3878	      76.5	   13.7811	   1.28003	6.15437e+07	      76.5	      13.6	   1.28018	 6.0295e+07	      76.5	      13.6	   1.50023	6.02208e+07	      76.5	   13.7727	   1.49169	6.22274e+07	      76.5	   13.6905	   1.28011	 6.0909e+07	      76.5	      13.6	   1.39021	6.02214e+07	      76.5	   13.6863	   1.49596	6.12078e+07	      76.5	   13.7769	   1.38586	 6.1866e+07	
         R10	   3879	      76.5	   13.7727	   1.49169	6.18557e+07	      76.5	      13.6	   1.50023	6.02339e+07	      76.5	      13.6	   1.70691	6.08033e+07	      76.5	   13.7649	   1.69543	6.32558e+07	      76.5	   13.6863	   1.49596	6.10322e+07	      76.5	      13.6	   1.60357	6.04721e+07	      76.5	   13.6824	   1.70117	 6.1989e+07	      76.5	   13.7688	   1.59356	6.25352e+07	
         R10	   3880	      76.5	   13.7649	   1.69543	 6.2929e+07	      76.5	      13.6	   1.70691	6.07304e+07	      76.5	      13.6	   1.90023	6.52114e+07	      76.5	   13.7606	   1.88646	6.67378e+07	      76.5	   13.6824	   1.70117	 6.1796e+07	      76.5	      13.6	   1.80357	6.28596e+07	      76.5	   13.6803	   1.89334	6.57331e+07	      76.5	   13.7628	   1.79094	 6.4832e+07	
         R10	   3881	      76.5	   13.7606	   1.88646	  6.631e+07	      76.5	      13.6	   1.90023	6.39085e+07	      76.5	      13.6	   2.08018	7.65387e+07	      76.5	   13.7562	   2.06552	 7.6383e+07	      76.5	   13.6803	   1.89334	6.48948e+07	      76.5	      13.6	   1.99021	7.01229e+07	      76.5	   13.6781	   2.07285	7.57443e+07	      76.5	   13.7584	   1.97599	7.13028e+07	
         R10	   3882	      76.5	   13.7562	   2.06552	8.13837e+07	      76.5	      13.6	   2.08018	7.63478e+07	      76.5	      13.6	   2.24677	1.25049e+08	      76.5	   13.7537	   2.23641	 1.0187e+08	      76.5	   13.6781	   2.07285	7.82836e+07	      76.5	      13.6	   2.16348	1.00107e+08	      76.5	   13.6768	   2.24159	1.02144e+08	      76.5	   13.7549	   2.15096	 8.9114e+07	
         R10	   3883	      76.5	   13.7537	   2.23641	1.07637e+08	      76.5	      13.6	   2.24677	1.15245e+08	      76.5	      13.6	       2.4	2.59895e+08	      76.5	   13.7605	       2.4	6.91455e+07	      76.5	   13.6768	   2.24159	9.81606e+07	      76.5	      13.6	   2.32339	1.76682e+08	      76.5	   13.6802	       2.4	 1.4495e+08	      76.5	   13.7571	   2.31821	8.15663e+07	
         R10	   3884	      76.5	   13.8986	     2.237	4.51498e+07	      76.5	   13.7537	   2.23641	1.05726e+08	      76.5	   13.7605	       2.4	2.63385e+07	      76.5	    13.908	       2.4	5.48623e+07	      76.5	   13.8262	    2.2367	7.48892e+07	      76.5	   13.7571	   2.31821	5.98064e+07	      76.5	   13.8342	       2.4	3.56696e+07	      76.5	   13.9033	    2.3185	 4.8719e+07	
         R10	   3885	      76.5	   13.8986	     2.237	4.50897e+07	      76.5	    13.908	       2.4	4.93481e+07	      76.5	   14.0424	       2.4	4.67974e+07	      76.5	   14.0294	   2.24985	4.19503e+07	      76.5	   13.9033	    2.3185	4.55433e+07	      76.5	   13.9752	       2.4	4.77758e+07	      76.5	   14.0359	   2.32493	4.36027e+07	      76.5	    13.964	   2.24342	4.29495e+07	
         R10	   3886	      76.5	   14.0294	   2.24985	4.17965e+07	      76.5	   14.0424	       2.4	4.72278e+07	      76.5	   14.1639	       2.4	3.48689e+07	      76.5	   14.1475	   2.27638	3.37206e+07	      76.5	   14.0359	   2.32493	4.39113e+07	      76.5	   14.1031	       2.4	4.06497e+07	      76.5	   14.1557	   2.33819	3.37899e+07	      76.5	   14.0884	   2.26312	3.76451e+07	
         R10	   3887	      76.5	   14.1475	   2.27638	3.16437e+07	      76.5	   14.1639	       2.4	4.54499e+07	      76.5	   14.2723	       2.4	 3.2541e+07	      76.5	    14.259	   2.29782	2.20026e+07	      76.5	   14.1557	   2.33819	3.82871e+07	      76.5	   14.2181	       2.4	3.87544e+07	      76.5	   14.2656	   2.34891	2.66972e+07	      76.5	   14.2033	    2.2871	2.67218e+07	
         R10	   3888	      76.5	    14.259	   2.29782	1.98722e+07	      76.5	   14.2723	       2.4	2.57396e+07	      76.5	   14.3676	       2.4	2.37585e+07	      76.5	   14.3566	   2.30621	 7.2937e+07	      76.5	   14.2656	   2.34891	2.14718e+07	      76.5	   14.3199	       2.4	2.32657e+07	      76.5	   14.3621	   2.35311	3.19176e+07	      76.5	   14.3078	   2.30202	3.84132e+07	
         R10	   3889	      76.5	   14.3566	   2.30621	7.46632e+07	      76.5	   14.3676	       2.4	5.05475e+07	      76.5	     14.45	       2.4	2.70743e+08	      76.5	     14.45	   2.32373	1.67988e+08	      76.5	   14.3621	   2.35311	5.27336e+07	      76.5	   14.4088	       2.4	1.39751e+08	      76.5	     14.45	   2.36187	2.02084e+08	      76.5	   14.4033	   2.31497	1.10553e+08	
         R10	   3890	      76.5	   14.3607	   2.19553	7.38887e+07	      76.5	   14.3566	   2.30621	6.58151e+07	      76.5	     14.45	   2.32373	1.59812e+08	      76.5	     14.45	   2.24431	1.04126e+08	      76.5	   14.3586	   2.25087	 6.2334e+07	      76.5	   14.4033	   2.31497	 1.0431e+08	      76.5	     14.45	   2.28402	1.31132e+08	      76.5	   14.4053	   2.21992	8.86338e+07	
         R10	   3891	      76.5	   14.3479	   2.09043	5.94728e+07	      76.5	     14.45	     2.076	7.84016e+07	      76.5	     14.45	   1.98711	7.22614e+07	      76.5	   14.3422	   1.99574	5.92768e+07	      76.5	    14.399	   2.08322	6.86978e+07	      76.5	     14.45	   2.03156	7.51331e+07	      76.5	   14.3961	   1.99143	6.56815e+07	      76.5	   14.3451	   2.04309	5.90482e+07	
         R10	   3892	      76.5	   14.3422	   1.99574	 5.9468e+07	      76.5	     14.45	   1.98711	7.22084e+07	      76.5	     14.45	   1.89507	6.93228e+07	      76.5	    14.358	   1.90738	6.14565e+07	      76.5	   14.3961	   1.99143	6.57329e+07	      76.5	     14.45	   1.94109	7.06314e+07	      76.5	    14.404	   1.90122	6.53239e+07	      76.5	   14.3501	   1.95156	 6.0308e+07	
         R10	   3893	      76.5	    14.358	   1.90738	6.07676e+07	      76.5	     14.45	   1.89507	6.94582e+07	      76.5	     14.45	   1.79987	6.72169e+07	      76.5	    14.332	   1.79861	6.02435e+07	      76.5	    14.404	   1.90122	6.50633e+07	      76.5	     14.45	   1.84747	 6.8259e+07	      76.5	    14.391	   1.79924	6.37073e+07	      76.5	    14.345	   1.85299	6.03764e+07	
         R10	   3894	      76.5	    14.332	   1.79861	6.06517e+07	      76.5	     14.45	   1.79987	6.71816e+07	      76.5	     14.45	   1.70151	6.61489e+07	      76.5	   14.3569	   1.70302	6.19558e+07	      76.5	    14.391	   1.79924	6.38805e+07	      76.5	     14.45	   1.75069	6.66058e+07	      76.5	   14.4035	   1.70227	6.40257e+07	      76.5	   14.3445	   1.75081	6.12496e+07	
         R10	   3895	      76.5	   14.3569	   1.70302	6.16937e+07	      76.5	     14.45	   1.70151	6.61441e+07	      76.5	     14.45	       1.6	6.50761e+07	      76.5	    14.345	    1.5985	6.15597e+07	      76.5	   14.4035	   1.70227	6.38997e+07	      76.5	     14.45	   1.65076	6.55709e+07	      76.5	   14.3975	   1.59925	6.32963e+07	      76.5	   14.3509	   1.65076	6.15934e+07	
         R10	   3896	      76.5	    14.345	    1.5985	6.13238e+07	      76.5	     14.45	       1.6	6.51134e+07	      76.5	     14.45	   1.50378	6.40407e+07	      76.5	   14.3263	   1.50488	6.12448e+07	      76.5	   14.3975	   1.59925	6.31998e+07	      76.5	     14.45	   1.55189	6.45553e+07	      76.5	   14.3882	   1.50433	6.26231e+07	      76.5	   14.3356	   1.55169	6.12624e+07	
         R10	   3897	      76.5	   14.3263	   1.50488	6.11159e+07	      76.5	     14.45	   1.50378	6.40335e+07	      76.5	     14.45	   1.39272	6.28041e+07	      76.5	   14.3167	   1.38081	6.10797e+07	      76.5	   14.3882	   1.50433	6.25529e+07	      76.5	     14.45	   1.44825	6.33968e+07	      76.5	   14.3833	   1.38677	6.19248e+07	      76.5	   14.3215	   1.44284	6.10724e+07	
         R10	   3898	      76.5	   14.3167	   1.38081	6.07998e+07	      76.5	     14.45	   1.39272	6.27659e+07	      76.5	     14.45	   1.26681	6.14468e+07	      76.5	   14.3003	   1.24948	6.04201e+07	      76.5	   14.3833	   1.38677	6.17629e+07	      76.5	     14.45	   1.32977	6.20863e+07	      76.5	   14.3752	   1.25815	6.09156e+07	      76.5	   14.3085	   1.31515	  6.059e+07	
         R10	   3899	      76.5	   14.3003	   1.24948	5.99938e+07	      76.5	     14.45	   1.26681	6.14794e+07	      76.5	     14.45	   1.12606	5.99174e+07	      76.5	   14.2797	   1.10619	6.00075e+07	      76.5	   14.3752	   1.25815	6.07171e+07	      76.5	     14.45	   1.19643	 6.0681e+07	      76.5	   14.3649	   1.11612	5.99455e+07	      76.5	     14.29	   1.17784	5.99805e+07	
         R10	   3900	      76.5	   14.2797	   1.10619	5.93544e+07	      76.5	     14.45	   1.12606	 5.9869e+07	      76.5	     14.45	  0.970451	5.82327e+07	      76.5	   14.2641	  0.955469	5.97781e+07	      76.5	   14.3649	   1.11612	5.95921e+07	      76.5	     14.45	   1.04825	 5.9027e+07	      76.5	    14.357	   0.96296	5.89918e+07	      76.5	   14.2719	   1.03083	5.95552e+07	
         R10	   3901	      76.5	   14.2641	  0.955469	 5.9156e+07	      76.5	     14.45	  0.970451	5.82214e+07	      76.5	     14.45	       0.8	5.78075e+07	      76.5	   14.2677	       0.8	5.93073e+07	      76.5	    14.357	   0.96296	5.86699e+07	      76.5	     14.45	  0.885226	5.80052e+07	      76.5	   14.3588	       0.8	5.85536e+07	      76.5	   14.2659	  0.877735	5.92013e+07	
         R10	   3902	      76.5	   14.0615	  0.962639	6.01249e+07	      76.5	   14.2641	  0.955469	6.03387e+07	      76.5	   14.2677	       0.8	6.07485e+07	      76.5	   14.0652	       0.8	5.93927e+07	      76.5	   14.1628	  0.959054	6.02242e+07	      76.5	   14.2659	  0.877735	6.05343e+07	      76.5	   14.1665	       0.8	6.00496e+07	      76.5	   14.0634	   0.88132	5.97192e+07	
         R10	   3903	      76.5	   14.0615	  0.962639	 6.0726e+07	      76.5	   14.0652	       0.8	5.88715e+07	      76.5	   13.8427	       0.8	5.82389e+07	      76.5	   13.8323	   1.03695	6.00873e+07	      76.5	   14.0634	   0.88132	5.97607e+07	      76.5	    13.954	       0.8	5.85139e+07	      76.5	   13.8375	  0.918473	5.91077e+07	      76.5	   13.9469	  0.999793	6.03826e+07	
         R10	   3904	      76.5	   13.9694	   1.31825	6.15882e+07	      76.5	   13.7811	   1.28003	6.07195e+07	      76.5	   13.7727	   1.49169	6.13557e+07	      76.5	   13.9302	   1.51756	6.17449e+07	      76.5	   13.8752	   1.29914	6.11446e+07	      76.5	   13.7769	   1.38586	6.10161e+07	      76.5	   13.8514	   1.50462	 6.1538e+07	      76.5	   13.9498	    1.4179	6.16497e+07	
         R10	   3905	      76.5	   13.9302	   1.51756	6.18322e+07	      76.5	   13.7727	   1.49169	6.09004e+07	      76.5	   13.7649	   1.69543	6.24422e+07	      76.5	   13.9239	   1.70443	 6.1241e+07	      76.5	   13.8514	   1.50462	6.13582e+07	      76.5	   13.7688	   1.59356	6.16586e+07	      76.5	   13.8444	   1.69993	6.18287e+07	      76.5	    13.927	     1.611	6.15309e+07	
         R10	   3906	      76.5	   13.9239	   1.70443	6.11698e+07	      76.5	   13.7649	   1.69543	6.20253e+07	      76.5	   13.7606	   1.88646	6.51151e+07	      76.5	   13.9134	   1.89339	6.10185e+07	      76.5	   13.8444	   1.69993	6.15862e+07	      76.5	   13.7628	   1.79094	6.35646e+07	      76.5	    13.837	   1.88993	6.30084e+07	      76.5	   13.9186	   1.79891	6.10853e+07	
         R10	   3907	      76.5	   13.9134	   1.89339	6.10461e+07	      76.5	   13.7606	   1.88646	6.45843e+07	      76.5	   13.7562	   2.06552	 7.5409e+07	      76.5	   13.9054	   2.06835	5.92016e+07	      76.5	    13.837	   1.88993	6.27606e+07	      76.5	   13.7584	   1.97599	6.99755e+07	      76.5	   13.8308	   2.06693	6.70936e+07	      76.5	   13.9094	   1.98087	 6.0007e+07	
         R10	   3908	      76.5	   13.9054	   2.06835	5.83778e+07	      76.5	   13.7562	   2.06552	7.72286e+07	      76.5	   13.7537	   2.23641	7.50705e+07	      76.5	   13.8986	     2.237	5.46296e+07	      76.5	   13.8308	   2.06693	6.76085e+07	      76.5	   13.7549	   2.15096	7.58052e+07	      76.5	   13.8262	    2.2367	6.48347e+07	      76.5	    13.902	   2.15267	5.64383e+07	
         R10	   3909	      76.5	   14.0593	   2.07831	 4.5274e+07	      76.5	   13.9054	   2.06835	5.63479e+07	      76.5	   13.8986	     2.237	5.92906e+07	      76.5	   14.0294	   2.24985	3.79949e+07	      76.5	   13.9824	   2.07333	 5.0786e+07	      76.5	    13.902	   2.15267	5.76427e+07	      76.5	    13.964	   2.24342	4.84528e+07	      76.5	   14.0444	   2.16408	 4.1523e+07	
         R10	   3910	      76.5	   14.0593	   2.07831	4.54357e+07	      76.5	   14.0294	   2.24985	 3.8566e+07	      76.5	   14.1475	   2.27638	3.41117e+07	      76.5	   14.1648	   2.16587	3.45906e+07	      76.5	   14.0444	   2.16408	4.18347e+07	      76.5	   14.0884	   2.26312	3.63149e+07	      76.5	   14.1561	   2.22112	3.40671e+07	      76.5	   14.1121	   2.12209	3.97013e+07	
         R10	   3911	      76.5	   14.1648	   2.16587	3.29627e+07	      76.5	   14.1475	   2.27638	3.26382e+07	      76.5	    14.259	   2.29782	2.56519e+07	      76.5	   14.2728	   2.20423	3.74431e+07	      76.5	   14.1561	   2.22112	3.25155e+07	      76.5	   14.2033	    2.2871	2.75856e+07	      76.5	   14.2659	   2.25102	3.15164e+07	      76.5	   14.2188	   2.18505	3.42876e+07	
         R10	   3912	      76.5	   14.2728	   2.20423	 3.4208e+07	      76.5	    14.259	   2.29782	2.50149e+07	      76.5	   14.3566	   2.30621	5.31778e+07	      76.5	   14.3607	   2.19553	6.68288e+07	      76.5	   14.2659	   2.25102	2.93677e+07	      76.5	   14.3078	   2.30202	3.57066e+07	      76.5	   14.3586	   2.25087	 5.7606e+07	      76.5	   14.3167	   2.19988	5.03608e+07	
         R10	   3913	      76.5	   14.3607	   2.19553	6.55449e+07	      76.5	     14.45	   2.16173	9.07344e+07	      76.5	     14.45	     2.076	  7.854e+07	      76.5	   14.3479	   2.09043	6.01417e+07	      76.5	   14.4053	   2.17863	7.68707e+07	      76.5	     14.45	   2.11887	8.44137e+07	      76.5	    14.399	   2.08322	6.91264e+07	      76.5	   14.3543	   2.14298	6.18471e+07	
         R10	   3914	      76.5	   14.2728	   2.20423	3.44776e+07	      76.5	   14.3607	   2.19553	6.42582e+07	      76.5	   14.3479	   2.09043	5.94545e+07	      76.5	   14.2441	   2.10023	4.27268e+07	      76.5	   14.3167	   2.19988	4.91948e+07	      76.5	   14.3543	   2.14298	6.09803e+07	      76.5	    14.296	   2.09533	5.10131e+07	      76.5	   14.2585	   2.15223	3.81449e+07	
         R10	   3915	      76.5	   14.2441	   2.10023	4.21257e+07	      76.5	   14.3479	   2.09043	5.93293e+07	      76.5	   14.3422	   1.99574	5.89466e+07	      76.5	   14.1988	   2.00205	 4.6265e+07	      76.5	    14.296	   2.09533	5.06088e+07	      76.5	   14.3451	   2.04309	5.88356e+07	      76.5	   14.2705	   1.99889	5.24345e+07	      76.5	   14.2215	   2.05114	4.39242e+07	
         R10	   3916	      76.5	   14.1988	   2.00205	4.67598e+07	      76.5	   14.3422	   1.99574	5.89796e+07	      76.5	    14.358	   1.90738	6.16045e+07	      76.5	   14.2569	    1.8888	5.55617e+07	      76.5	   14.2705	   1.99889	5.27104e+07	      76.5	   14.3501	   1.95156	6.01115e+07	      76.5	   14.3075	   1.89809	 5.8556e+07	      76.5	   14.2279	   1.94542	5.11341e+07	
         R10	   3917	      76.5	   14.2372	   1.76844	5.82496e+07	      76.5	    14.332	   1.79861	6.10388e+07	      76.5	   14.3569	   1.70302	6.25286e+07	      76.5	   14.2208	    1.6547	5.96252e+07	      76.5	   14.2846	   1.78352	 5.9615e+07	      76.5	   14.3445	   1.75081	6.17274e+07	      76.5	   14.2889	   1.67886	6.10595e+07	      76.5	    14.229	   1.71157	5.89172e+07	
         R10	   3918	      76.5	   14.2069	   1.54193	 6.0548e+07	      76.5	   14.3263	   1.50488	6.25882e+07	      76.5	   14.3167	   1.38081	6.22366e+07	      76.5	   14.1896	    1.3927	6.07731e+07	      76.5	   14.2666	   1.52341	 6.1555e+07	      76.5	   14.3215	   1.44284	6.23878e+07	      76.5	   14.2531	   1.38675	6.14946e+07	      76.5	   14.1983	   1.46731	6.06334e+07	
         R10	   3919	      76.5	   14.1896	    1.3927	6.10959e+07	      76.5	   14.3167	   1.38081	6.19644e+07	      76.5	   14.3003	   1.24948	6.17768e+07	      76.5	   14.1528	   1.26353	6.02757e+07	      76.5	   14.2531	   1.38675	6.15219e+07	      76.5	   14.3085	   1.31515	6.18498e+07	      76.5	   14.2266	   1.25651	6.10134e+07	      76.5	   14.1712	   1.32811	6.06718e+07	
         R10	   3920	      76.5	   14.1528	   1.26353	6.07267e+07	      76.5	   14.3003	   1.24948	6.13346e+07	      76.5	   14.2797	   1.10619	6.11138e+07	      76.5	   14.1089	   1.12081	5.99721e+07	      76.5	   14.2266	   1.25651	6.10201e+07	      76.5	     14.29	   1.17784	6.12072e+07	      76.5	   14.1943	    1.1135	6.05335e+07	      76.5	   14.1309	   1.19217	6.03297e+07	
         R10	   3921	      76.5	   14.1089	   1.12081	6.07757e+07	      76.5	   14.2797	   1.10619	6.04487e+07	      76.5	   14.2641	  0.955469	6.09952e+07	      76.5	   14.0615	  0.962639	 5.9242e+07	      76.5	   14.1943	    1.1135	6.06008e+07	      76.5	   14.2719	   1.03083	6.07042e+07	      76.5	   14.1628	  0.959054	6.01104e+07	      76.5	   14.0852	   1.04173	5.99853e+07	
         R10	   3922	      76.5	   13.8323	   1.03695	6.00303e+07	      76.5	   13.7811	   1.28003	6.10559e+07	      76.5	   13.9694	   1.31825	6.14429e+07	      76.5	   13.9747	   1.16007	6.15113e+07	      76.5	   13.8067	   1.15849	6.05123e+07	      76.5	   13.8752	   1.29914	6.12405e+07	      76.5	    13.972	   1.23916	6.14652e+07	      76.5	   13.9035	   1.09851	6.07527e+07	
         R10	   3923	      76.5	    14.073	    1.5543	6.12767e+07	      76.5	   13.9302	   1.51756	  6.089e+07	      76.5	   13.9239	   1.70443	6.05487e+07	      76.5	   14.0747	   1.71447	 5.8861e+07	      76.5	   14.0016	   1.53593	6.10781e+07	      76.5	    13.927	     1.611	 6.0716e+07	      76.5	   13.9993	   1.70945	5.96998e+07	      76.5	   14.0738	   1.63438	 6.0059e+07	
         R10	   3924	      76.5	   14.0747	   1.71447	 5.9127e+07	      76.5	   13.9239	   1.70443	6.03718e+07	      76.5	   13.9134	   1.89339	5.93861e+07	      76.5	   14.0399	   1.90877	5.43115e+07	      76.5	   13.9993	   1.70945	5.97453e+07	      76.5	   13.9186	   1.79891	5.98748e+07	      76.5	   13.9766	   1.90108	5.68447e+07	      76.5	   14.0573	   1.81162	5.67177e+07	
         R10	   3925	      76.5	   14.0399	   1.90877	5.44608e+07	      76.5	   13.9134	   1.89339	6.00944e+07	      76.5	   13.9054	   2.06835	 5.8104e+07	      76.5	   14.0593	   2.07831	4.52244e+07	      76.5	   13.9766	   1.90108	 5.7274e+07	      76.5	   13.9094	   1.98087	5.90105e+07	      76.5	   13.9824	   2.07333	5.16148e+07	      76.5	   14.0496	   1.99354	 4.9823e+07	
         R10	   3926	      76.5	   14.1846	   1.82715	5.54132e+07	      76.5	   14.2569	    1.8888	5.49045e+07	      76.5	    14.332	   1.79861	6.14394e+07	      76.5	   14.2372	   1.76844	5.82114e+07	      76.5	   14.2208	   1.85798	5.50955e+07	      76.5	   14.2945	    1.8437	5.81487e+07	      76.5	   14.2846	   1.78352	5.98042e+07	      76.5	   14.2109	   1.79779	5.68109e+07	
         R10	   3927	      76.5	   14.2208	    1.6547	5.96427e+07	      76.5	    14.345	    1.5985	6.28915e+07	      76.5	   14.3263	   1.50488	6.28078e+07	      76.5	   14.2069	   1.54193	 6.0319e+07	      76.5	   14.2829	    1.6266	6.12487e+07	      76.5	   14.3356	   1.55169	6.28325e+07	      76.5	   14.2666	   1.52341	6.15517e+07	      76.5	   14.2139	   1.59831	5.99534e+07	
         R10	   3928	      76.5	   14.1089	   1.12081	6.16055e+07	      76.5	   14.0615	  0.962639	6.02374e+07	      76.5	   13.8323	   1.03695	5.98297e+07	      76.5	   13.9747	   1.16007	6.01751e+07	      76.5	   14.0852	   1.04173	6.08927e+07	      76.5	   13.9469	  0.999793	5.99962e+07	      76.5	   13.9035	   1.09851	5.99801e+07	      76.5	   14.0418	   1.14044	6.08896e+07	
         R10	   3929	      76.5	   14.1528	   1.26353	6.18098e+07	      76.5	   14.1089	   1.12081	  6.085e+07	      76.5	   13.9747	   1.16007	6.03403e+07	      76.5	   13.9694	   1.31825	6.08852e+07	      76.5	   14.1309	   1.19217	6.13135e+07	      76.5	   14.0418	   1.14044	 6.0581e+07	      76.5	    13.972	   1.23916	6.05945e+07	      76.5	   14.0611	   1.29089	 6.1335e+07	
         R10	   3930	      76.5	   14.0842	   1.42163	6.06325e+07	      76.5	   14.1896	    1.3927	6.19705e+07	      76.5	   14.1528	   1.26353	6.14182e+07	      76.5	   13.9694	   1.31825	6.09555e+07	      76.5	   14.1369	   1.40716	6.13007e+07	      76.5	   14.1712	   1.32811	 6.1679e+07	      76.5	   14.0611	   1.29089	 6.1171e+07	      76.5	   14.0268	   1.36994	6.07814e+07	
         R10	   3931	      76.5	   14.0842	   1.42163	6.17448e+07	      76.5	   13.9694	   1.31825	6.11961e+07	      76.5	   13.9302	   1.51756	 6.0976e+07	      76.5	    14.073	    1.5543	6.09398e+07	      76.5	   14.0268	   1.36994	6.14609e+07	      76.5	   13.9498	    1.4179	6.10685e+07	      76.5	   14.0016	   1.53593	 6.0952e+07	      76.5	   14.0786	   1.48796	 6.1334e+07	
         R10	   3932	      76.5	   14.0842	   1.42163	6.09034e+07	      76.5	    14.073	    1.5543	6.00633e+07	      76.5	   14.2069	   1.54193	6.16487e+07	      76.5	   14.1896	    1.3927	6.15864e+07	      76.5	   14.0786	   1.48796	6.04735e+07	      76.5	     14.14	   1.54812	6.08498e+07	      76.5	   14.1983	   1.46731	6.15923e+07	      76.5	   14.1369	   1.40716	6.12355e+07	
         R10	   3933	      76.5	   14.0747	   1.71447	5.82352e+07	      76.5	   14.2208	    1.6547	6.03399e+07	      76.5	   14.2069	   1.54193	6.14219e+07	      76.5	    14.073	    1.5543	6.03557e+07	      76.5	   14.1477	   1.68458	5.92839e+07	      76.5	   14.2139	   1.59831	6.08597e+07	      76.5	     14.14	   1.54812	6.08796e+07	      76.5	   14.0738	   1.63438	5.92846e+07	
         R10	   3934	      76.5	   14.1846	   1.82715	5.57286e+07	      76.5	   14.2372	   1.76844	5.86601e+07	      76.5	   14.2208	    1.6547	6.02127e+07	      76.5	   14.0747	   1.71447	5.81054e+07	      76.5	   14.2109	   1.79779	5.71902e+07	      76.5	    14.229	   1.71157	5.93961e+07	      76.5	   14.1477	   1.68458	5.91552e+07	      76.5	   14.1297	   1.77081	5.68794e+07	
         R10	   3935	      76.5	   14.1361	   1.91932	5.08928e+07	      76.5	   14.1988	   2.00205	4.72955e+07	      76.5	   14.2569	    1.8888	5.58916e+07	      76.5	   14.1846	   1.82715	5.56071e+07	      76.5	   14.1675	   1.96069	4.89339e+07	      76.5	   14.2279	   1.94542	5.15673e+07	      76.5	   14.2208	   1.85798	5.56905e+07	      76.5	   14.1604	   1.87324	5.32425e+07	
         R10	   3936	      76.5	   14.1361	   1.91932	 5.1014e+07	      76.5	   14.1846	   1.82715	5.58343e+07	      76.5	   14.0747	   1.71447	5.88933e+07	      76.5	   14.0399	   1.90877	5.38164e+07	      76.5	   14.1604	   1.87324	5.34207e+07	      76.5	   14.1297	   1.77081	5.73232e+07	      76.5	   14.0573	   1.81162	5.63543e+07	      76.5	    14.088	   1.91405	5.23749e+07	
         R10	   3937	      76.5	   14.1361	   1.91932	5.17823e+07	      76.5	   14.0399	   1.90877	5.42727e+07	      76.5	   14.0593	   2.07831	4.35437e+07	      76.5	   14.1988	   2.00205	4.65538e+07	      76.5	    14.088	   1.91405	5.29771e+07	      76.5	   14.0496	   1.99354	4.89025e+07	      76.5	   14.1291	   2.04018	 4.4707e+07	      76.5	   14.1675	   1.96069	4.90658e+07	
         R10	   3938	      76.5	   14.1648	   2.16587	3.43943e+07	      76.5	   14.2441	   2.10023	4.35746e+07	      76.5	   14.1988	   2.00205	4.62457e+07	      76.5	   14.0593	   2.07831	4.41747e+07	      76.5	   14.2045	   2.13305	3.85151e+07	      76.5	   14.2215	   2.05114	4.45978e+07	      76.5	   14.1291	   2.04018	4.48407e+07	      76.5	   14.1121	   2.12209	3.91295e+07	
         R10	   3939	      76.5	   14.3607	   2.19553	6.86962e+07	      76.5	     14.45	   2.24431	1.04131e+08	      76.5	     14.45	   2.16173	8.97679e+07	      76.5	   14.4053	   2.21992	8.62502e+07	      76.5	     14.45	   2.20302	9.60617e+07	      76.5	   14.4053	   2.17863	7.79102e+07	       N/A	       N/A	       N/A	        N/A	       N/A	       N/A	       N/A	        N/A	
         R10	   3940	      76.5	   14.2569	    1.8888	5.52704e+07	      76.5	    14.358	   1.90738	6.15564e+07	      76.5	    14.332	   1.79861	6.16724e+07	      76.5	   14.3075	   1.89809	5.83918e+07	      76.5	    14.345	   1.85299	 6.1501e+07	      76.5	   14.2945	    1.8437	5.84041e+07	       N/A	       N/A	       N/A	        N/A	       N/A	       N/A	       N/A	        N/A	
         R10	   3941	      76.5	   14.2208	    1.6547	5.94599e+07	      76.5	   14.3569	   1.70302	6.26158e+07	      76.5	    14.345	    1.5985	6.30299e+07	      76.5	   14.2889	   1.67886	 6.1022e+07	      76.5	   14.3509	   1.65076	6.27905e+07	      76.5	   14.2829	    1.6266	6.12257e+07	       N/A	       N/A	       N/A	        N/A	       N/A	       N/A	       N/A	        N/A	
         R10	   3942	      76.5	   14.1648	   2.16587	 3.3667e+07	      76.5	   14.2728	   2.20423	3.76139e+07	      76.5	   14.2441	   2.10023	4.31735e+07	      76.5	   14.2188	   2.18505	3.44566e+07	      76.5	   14.2585	   2.15223	4.01538e+07	      76.5	   14.2045	   2.13305	 3.7976e+07	       N/A	       N/A	       N/A	        N/A	       N/A	       N/A	       N/A	        N/A	
         R10	   3943	      76.5	    17.154	         0	4.25807e+07	      76.5	      16.9	         0	 1.7626e+08	      76.5	    16.834	  0.304533	5.49121e+07	      76.5	   17.1152	  0.341878	5.41206e+07	      76.5	    17.027	         0	8.59056e+07	      76.5	    16.867	  0.152267	9.93473e+07	      76.5	   16.9746	  0.323206	3.96295e+07	      76.5	   17.1346	  0.170939	 3.4587e+07	
         R10	   3944	      76.5	   17.1216	  0.574847	3.76664e+07	      76.5	   17.1358	       0.8	3.77299e+07	      76.5	   17.3612	       0.8	  3.929e+07	      76.5	   17.3688	  0.563152	 3.4367e+07	      76.5	   17.1287	  0.687424	3.72642e+07	      76.5	   17.2485	       0.8	3.83797e+07	      76.5	    17.365	  0.681576	3.64668e+07	      76.5	   17.2452	     0.569	3.49395e+07	
         R10	   3945	      76.5	   17.3688	  0.563152	 3.4265e+07	      76.5	   17.3612	       0.8	4.11979e+07	      76.5	   17.6004	       0.8	4.17454e+07	      76.5	   17.6304	  0.558673	3.85926e+07	      76.5	    17.365	  0.681576	3.76207e+07	      76.5	   17.4808	       0.8	 4.1407e+07	      76.5	   17.6154	  0.679336	3.99926e+07	      76.5	   17.4996	  0.560912	3.64134e+07	
         R10	   3946	      76.5	   17.3652	  0.307495	4.48684e+07	      76.5	   17.3688	  0.563152	 3.6733e+07	      76.5	   17.6304	  0.558673	3.82634e+07	      76.5	   17.6636	  0.292006	5.13132e+07	      76.5	    17.367	  0.435323	3.73187e+07	      76.5	   17.4996	  0.560912	3.74891e+07	      76.5	    17.647	  0.425339	4.40288e+07	      76.5	   17.5144	   0.29975	4.06172e+07	
         R10	   3947	      76.5	   17.3652	  0.307495	3.99136e+07	      76.5	   17.6636	  0.292006	 4.8519e+07	      76.5	      17.7	         0	1.23066e+08	      76.5	   17.4206	         0	2.36301e+07	      76.5	   17.5144	   0.29975	3.27132e+07	      76.5	   17.6818	  0.146003	8.15744e+07	      76.5	   17.5603	         0	6.60715e+07	      76.5	   17.3929	  0.153747	2.70703e+07	
         R10	   3948	      76.5	   17.3652	  0.307495	3.92997e+07	      76.5	   17.4206	         0	4.06293e+07	      76.5	    17.154	         0	4.15838e+07	      76.5	   17.1152	  0.341878	6.61737e+07	      76.5	   17.3929	  0.153747	3.05852e+07	      76.5	   17.2873	         0	2.02669e+07	      76.5	   17.1346	  0.170939	2.13209e+07	      76.5	   17.2402	  0.324686	4.07931e+07	
         R10	   3949	      76.5	   16.7761	    0.5712	3.92108e+07	      76.5	   16.9242	       0.8	3.70359e+07	      76.5	   17.1358	       0.8	3.94943e+07	      76.5	   17.1216	  0.574847	3.63983e+07	      76.5	   16.8502	    0.6856	3.79922e+07	      76.5	     17.03	       0.8	3.81336e+07	      76.5	   17.1287	  0.687424	3.78409e+07	      76.5	   16.9488	  0.573023	3.77736e+07	
         R10	   3950	      76.5	   17.1216	  0.574847	3.64538e+07	      76.5	   17.3688	  0.563152	3.77835e+07	      76.5	   17.3652	  0.307495	2.95092e+07	      76.5	   17.1152	  0.341878	2.61234e+07	      76.5	   17.2452	     0.569	3.57451e+07	      76.5	    17.367	  0.435323	3.29224e+07	      76.5	   17.2402	  0.324686	2.56736e+07	      76.5	   17.1184	  0.458363	3.11014e+07	
         R10	   3951	      76.5	   16.7761	    0.5712	3.74178e+07	      76.5	   17.1216	  0.574847	 3.9428e+07	      76.5	   17.1152	  0.341878	4.85747e+07	      76.5	    16.834	  0.304533	5.35869e+07	      76.5	   16.9488	  0.573023	3.83602e+07	      76.5	   17.1184	  0.458363	4.10954e+07	      76.5	   16.9746	  0.323206	4.32775e+07	      76.5	    16.805	  0.437866	4.44357e+07	
         R10	   3952	      76.5	   16.7761	    0.5712	 3.8145e+07	      76.5	   16.7265	       0.8	3.75088e+07	      76.5	   16.9242	       0.8	3.76231e+07	      76.5	   16.7513	    0.6856	3.77783e+07	      76.5	   16.8254	       0.8	3.75224e+07	      76.5	   16.8502	    0.6856	3.78058e+07	       N/A	       N/A	       N/A	        N/A	       N/A	       N/A	       N/A	        N/A	
         R10	   3953	      76.5	    15.554	         0	2.28596e+07	      76.5	      15.3	         0	3.29026e+07	      76.5	      15.3	  0.237669	2.56858e+07	      76.5	   15.5629	  0.231698	2.98722e+07	      76.5	    15.427	         0	2.70605e+07	      76.5	      15.3	  0.118834	2.92326e+07	      76.5	   15.4315	  0.234683	2.72683e+07	      76.5	   15.5584	  0.115849	2.57449e+07	
         R10	   3954	      76.5	   15.5629	  0.231698	3.04688e+07	      76.5	      15.3	  0.237669	2.66148e+07	      76.5	      15.3	  0.450225	2.73871e+07	      76.5	   15.5432	  0.440834	2.48631e+07	      76.5	   15.4315	  0.234683	2.78174e+07	      76.5	      15.3	  0.343947	2.68336e+07	      76.5	   15.4216	   0.44553	2.61111e+07	      76.5	   15.5531	  0.336266	 2.7484e+07	
         R10	   3955	      76.5	   15.5432	  0.440834	2.50004e+07	      76.5	      15.3	  0.450225	2.77124e+07	      76.5	      15.3	  0.637669	2.45617e+07	      76.5	   15.4981	   0.61914	2.38767e+07	      76.5	   15.4216	   0.44553	2.63405e+07	      76.5	      15.3	  0.543947	2.61351e+07	      76.5	    15.399	  0.628404	2.41328e+07	      76.5	   15.5206	  0.529987	2.43964e+07	
         R10	   3956	      76.5	   15.4981	   0.61914	2.37423e+07	      76.5	      15.3	  0.637669	2.44308e+07	      76.5	      15.3	       0.8	 2.2859e+07	      76.5	   15.4447	       0.8	2.23025e+07	      76.5	    15.399	  0.628404	2.40603e+07	      76.5	      15.3	  0.718834	2.36181e+07	      76.5	   15.3724	       0.8	2.25512e+07	      76.5	   15.4714	   0.70957	2.30061e+07	
         R10	   3957	      76.5	   15.6821	  0.652991	2.25887e+07	      76.5	   15.4981	   0.61914	2.40966e+07	      76.5	   15.4447	       0.8	2.18148e+07	      76.5	   15.5991	       0.8	 2.0518e+07	      76.5	   15.5901	  0.636065	2.29596e+07	      76.5	   15.4714	   0.70957	2.28996e+07	      76.5	   15.5219	       0.8	2.10954e+07	      76.5	   15.6406	  0.726495	 2.1481e+07	
         R10	   3958	      76.5	   15.9326	  0.640757	2.77901e+07	      76.5	   15.9365	       0.8	 2.6719e+07	      76.5	   16.1196	       0.8	3.16633e+07	      76.5	   16.1125	  0.604497	3.51605e+07	      76.5	   15.9346	  0.720379	2.71026e+07	      76.5	    16.028	       0.8	2.91029e+07	      76.5	    16.116	  0.702249	3.33547e+07	      76.5	   16.0226	  0.622627	3.11623e+07	
         R10	   3959	      76.5	   16.1125	  0.604497	3.52864e+07	      76.5	   16.1196	       0.8	3.24991e+07	      76.5	   16.3123	       0.8	3.58318e+07	      76.5	   16.3297	  0.570973	3.81428e+07	      76.5	    16.116	  0.702249	3.38258e+07	      76.5	    16.216	       0.8	3.41213e+07	      76.5	    16.321	  0.685486	3.68166e+07	      76.5	   16.2211	  0.587735	3.65189e+07	
         R10	   3960	      76.5	   16.3297	  0.570973	3.71919e+07	      76.5	   16.3123	       0.8	3.60161e+07	      76.5	   16.5146	       0.8	3.78364e+07	      76.5	    16.552	  0.537142	3.52971e+07	      76.5	    16.321	  0.685486	3.65239e+07	      76.5	   16.4135	       0.8	3.69061e+07	      76.5	   16.5333	  0.668571	3.61587e+07	      76.5	   16.4409	  0.554057	3.59788e+07	
         R10	   3961	      76.5	    16.552	  0.537142	3.36001e+07	      76.5	   16.5146	       0.8	3.90242e+07	      76.5	   16.7265	       0.8	3.90469e+07	      76.5	   16.7761	    0.5712	3.87666e+07	      76.5	   16.5333	  0.668571	3.61886e+07	      76.5	   16.6206	       0.8	3.88157e+07	      76.5	   16.7513	    0.6856	3.86692e+07	      76.5	   16.6641	  0.554171	3.60773e+07	
         R10	   3962	      76.5	    16.552	  0.537142	  3.586e+07	      76.5	   16.7761	    0.5712	3.51985e+07	      76.5	    16.834	  0.304533	4.79209e+07	      76.5	    16.571	  0.285904	4.59818e+07	      76.5	   16.6641	  0.554171	3.52497e+07	      76.5	    16.805	  0.437866	4.04772e+07	      76.5	   16.7025	  0.295219	3.70071e+07	      76.5	   16.5615	  0.411523	3.64338e+07	
         R10	   3963	      76.5	    16.571	  0.285904	3.95971e+07	      76.5	    16.834	  0.304533	4.94075e+07	      76.5	      16.9	         0	1.25418e+08	      76.5	    16.608	         0	 1.4802e+07	      76.5	   16.7025	  0.295219	2.93231e+07	      76.5	    16.867	  0.152267	8.20179e+07	      76.5	    16.754	         0	6.10818e+07	      76.5	   16.5895	  0.142952	2.17561e+07	
         R10	   3964	      76.5	    16.315	  0.171296	7.49793e+07	      76.5	    16.571	  0.285904	3.40568e+07	      76.5	    16.608	         0	5.49196e+07	      76.5	   16.3413	         0	5.28797e+07	      76.5	    16.443	    0.2286	4.48671e+07	      76.5	   16.5895	  0.142952	3.50274e+07	      76.5	   16.4747	         0	2.33137e+07	      76.5	   16.3282	  0.085648	2.44624e+07	
         R10	   3965	      76.5	    16.315	  0.171296	 1.0251e+08	      76.5	   16.3413	         0	6.21176e+07	      76.5	      16.1	         0	2.56806e+08	      76.5	   16.0536	  0.215017	9.03319e+07	      76.5	   16.3282	  0.085648	6.74777e+07	      76.5	   16.2207	         0	 1.1682e+08	      76.5	   16.0768	  0.107508	1.51636e+08	      76.5	   16.1843	  0.193157	5.28071e+07	
         R10	   3966	      76.5	   16.0536	  0.215017	7.68786e+07	      76.5	      16.1	         0	1.87079e+08	      76.5	   15.8206	         0	4.20116e+07	      76.5	   15.8108	  0.235053	5.50125e+07	      76.5	   16.0768	  0.107508	1.16358e+08	      76.5	   15.9603	         0	7.85203e+07	      76.5	   15.8157	  0.117527	3.64279e+07	      76.5	   15.9322	  0.225035	 3.7426e+07	
         R10	   3967	      76.5	   15.8108	  0.235053	4.13062e+07	      76.5	   15.8206	         0	3.71327e+07	      76.5	    15.554	         0	2.80879e+07	      76.5	   15.5629	  0.231698	3.07277e+07	      76.5	   15.8157	  0.117527	2.68173e+07	      76.5	   15.6873	         0	2.27347e+07	      76.5	   15.5584	  0.115849	2.53874e+07	      76.5	   15.6868	  0.233375	3.12587e+07	
         R10	   3968	      76.5	   15.7949	  0.452914	2.87914e+07	      76.5	   15.8108	  0.235053	 2.6215e+07	      76.5	   15.5629	  0.231698	2.60208e+07	      76.5	   15.5432	  0.440834	2.66536e+07	      76.5	   15.8028	  0.343984	2.62419e+07	      76.5	   15.6868	  0.233375	 2.5335e+07	      76.5	   15.5531	  0.336266	2.63157e+07	      76.5	   15.6691	  0.446874	2.64616e+07	
         R10	   3969	      76.5	   15.7949	  0.452914	2.68614e+07	      76.5	   15.5432	  0.440834	2.59137e+07	      76.5	   15.4981	   0.61914	2.38867e+07	      76.5	   15.6821	  0.652991	2.17756e+07	      76.5	   15.6691	  0.446874	2.53783e+07	      76.5	   15.5206	  0.529987	2.48797e+07	      76.5	   15.5901	  0.636065	2.25437e+07	      76.5	   15.7385	  0.552952	2.38642e+07	
         R10	   3970	      76.5	   15.6821	  0.652991	 2.2639e+07	      76.5	    15.763	       0.8	2.18106e+07	      76.5	   15.9365	       0.8	2.61009e+07	      76.5	   15.9326	  0.640757	2.65892e+07	      76.5	   15.7225	  0.726495	2.18352e+07	      76.5	   15.8497	       0.8	2.36971e+07	      76.5	   15.9346	  0.720379	2.62784e+07	      76.5	   15.8073	  0.646874	2.34809e+07	
         R10	   3971	      76.5	   15.7949	  0.452914	2.34151e+07	      76.5	   15.9326	  0.640757	 2.7296e+07	      76.5	   16.1125	  0.604497	3.59081e+07	      76.5	   16.0746	  0.429174	 4.0201e+07	      76.5	   15.8638	  0.546836	2.48548e+07	      76.5	   16.0226	  0.622627	3.11415e+07	      76.5	   16.0936	  0.516835	 3.7349e+07	      76.5	   15.9348	  0.441044	  3.108e+07	
         R10	   3972	      76.5	   16.0746	  0.429174	3.90865e+07	      76.5	   16.1125	  0.604497	3.52229e+07	      76.5	   16.3297	  0.570973	3.93209e+07	      76.5	   16.3133	  0.416652	 4.2104e+07	      76.5	   16.0936	  0.516835	3.70684e+07	      76.5	   16.2211	  0.587735	3.71948e+07	      76.5	   16.3215	  0.493812	4.05265e+07	      76.5	   16.1939	  0.422913	4.01506e+07	
         R10	   3973	      76.5	   16.0536	  0.215017	6.88246e+07	      76.5	   15.8108	  0.235053	5.77457e+07	      76.5	   15.7949	  0.452914	2.61116e+07	      76.5	   16.0746	  0.429174	3.10721e+07	      76.5	   15.9322	  0.225035	4.34115e+07	      76.5	   15.8028	  0.343984	3.82515e+07	      76.5	   15.9348	  0.441044	2.81578e+07	      76.5	   16.0641	  0.322095	 4.8471e+07	
         R10	   3974	      76.5	    16.315	  0.171296	9.08912e+07	      76.5	   16.0536	  0.215017	8.10393e+07	      76.5	   16.0746	  0.429174	4.45984e+07	      76.5	   16.3133	  0.416652	4.78443e+07	      76.5	   16.1843	  0.193157	6.07097e+07	      76.5	   16.0641	  0.322095	5.93966e+07	      76.5	   16.1939	  0.422913	4.58814e+07	      76.5	   16.3141	  0.293974	6.44515e+07	
         R10	   3975	      76.5	    16.571	  0.285904	2.50136e+07	      76.5	   16.3133	  0.416652	 5.1508e+07	      76.5	   16.3297	  0.570973	3.63839e+07	      76.5	    16.552	  0.537142	 3.5172e+07	      76.5	   16.4421	  0.351278	 3.5897e+07	      76.5	   16.3215	  0.493812	4.34256e+07	      76.5	   16.4409	  0.554057	3.55766e+07	      76.5	   16.5615	  0.411523	2.88584e+07	
         R10	   3976	      76.5	   15.6821	  0.652991	2.20837e+07	      76.5	   15.5991	       0.8	2.10168e+07	      76.5	    15.763	       0.8	2.23209e+07	      76.5	   15.6406	  0.726495	 2.1444e+07	      76.5	    15.681	       0.8	2.13155e+07	      76.5	   15.7225	  0.726495	 2.1892e+07	       N/A	       N/A	       N/A	        N/A	       N/A	       N/A	       N/A	        N/A	
         R10	   3977	      76.5	   15.7949	  0.452914	2.59894e+07	      76.5	   15.6821	  0.652991	2.23456e+07	      76.5	   15.9326	  0.640757	2.75128e+07	      76.5	   15.7385	  0.552952	2.38004e+07	      76.5	   15.8073	  0.646874	2.37265e+07	      76.5	   15.8638	  0.546836	2.57641e+07	       N/A	       N/A	       N/A	        N/A	       N/A	       N/A	       N/A	        N/A	
         R10	   3978	      76.5	    16.571	  0.285904	1.91356e+07	      76.5	    16.315	  0.171296	4.22888e+07	      76.5	   16.3133	  0.416652	5.11146e+07	      76.5	    16.443	    0.2286	2.81172e+07	      76.5	   16.3141	  0.293974	4.61114e+07	      76.5	   16.4421	  0.351278	3.15945e+07	       N/A	       N/A	       N/A	        N/A	       N/A	       N/A	       N/A	        N/A	
         R10	   3979	    80.325	   19.7344	         0	5.69055e+07	     80.75	   19.7344	         0	4.71802e+07	     80.75	      19.3	         0	6.09683e+07	    80.325	      19.3	         0	5.02814e+07	   80.5375	   19.7344	         0	4.75386e+07	     80.75	   19.5172	         0	5.38323e+07	   80.5375	      19.3	         0	5.32066e+07	    80.325	   19.5172	         0	4.67014e+07	
         R10	   3980	      79.9	   19.7344	         0	 5.7171e+07	    80.325	   19.7344	         0	5.02812e+07	    80.325	      19.3	         0	4.73846e+07	      79.9	      19.3	         0	3.65206e+07	   80.1125	   19.7344	         0	5.33348e+07	    80.325	   19.5172	         0	4.03078e+07	   80.1125	      19.3	         0	 4.1827e+07	      79.9	   19.5172	         0	3.93858e+07	
         R10	   3981	    79.475	   19.7344	         0	4.42397e+07	      79.9	   19.7344	         0	5.12566e+07	      79.9	      19.3	         0	3.57634e+07	    79.475	      19.3	         0	3.04534e+07	   79.6875	   19.7344	         0	4.76408e+07	      79.9	   19.5172	         0	3.46888e+07	   79.6875	      19.3	         0	3.30359e+07	    79.475	   19.5172	         0	3.03898e+07	
         R10	   3982	     79.05	   19.7344	         0	3.78291e+07	    79.475	   19.7344	         0	4.26874e+07	    79.475	      19.3	         0	3.08844e+07	     79.05	      19.3	         0	2.68014e+07	   79.2625	   19.7344	         0	4.02027e+07	    79.475	   19.5172	         0	2.94051e+07	   79.2625	      19.3	         0	2.85976e+07	     79.05	   19.5172	         0	2.37615e+07	
         R10	   3983	    78.625	   19.7344	         0	3.79182e+07	     79.05	   19.7344	         0	4.05974e+07	     79.05	      19.3	         0	2.63962e+07	    78.625	      19.3	         0	2.54959e+07	   78.8375	   19.7344	         0	  3.918e+07	     79.05	   19.5172	         0	2.55052e+07	   78.8375	      19.3	         0	2.57612e+07	    78.625	   19.5172	         0	2.15911e+07	
         R10	   3984	   79.6875	   21.0994	  0.764833	3.25861e+07	   79.1563	   21.0994	  0.764835	3.58618e+07	   79.1563	   21.3636	    1.2195	2.96906e+07	   79.6875	   21.3636	    1.2195	3.68885e+07	   79.4219	   21.0994	  0.764834	3.42038e+07	   79.1563	   21.2465	  0.983449	3.27598e+07	   79.4219	   21.3636	    1.2195	 3.3233e+07	   79.6875	   21.2465	  0.983448	3.46988e+07	
         R10	   3985	   80.2188	   21.0994	  0.764835	 3.7831e+07	   79.6875	   21.0994	  0.764833	3.47868e+07	   79.6875	   21.3636	    1.2195	2.94561e+07	   80.2188	   21.3636	    1.2195	3.83967e+07	   79.9531	   21.0994	  0.764834	3.62982e+07	   79.6875	   21.2465	  0.983448	3.20785e+07	   79.9531	   21.3636	    1.2195	3.38385e+07	   80.2188	   21.2465	  0.983449	3.81109e+07	
         R10	   3986	     80.75	   21.0996	  0.765063	4.03892e+07	   80.2188	   21.0994	  0.764835	2.96076e+07	   80.2188	   21.3636	    1.2195	2.99624e+07	     80.75	   21.3636	    1.2195	3.75288e+07	   80.4844	   21.0995	  0.764949	3.36808e+07	   80.2188	   21.2465	  0.983449	2.97059e+07	   80.4844	   21.3636	    1.2195	 3.1488e+07	     80.75	   21.2466	  0.983574	3.89423e+07	
         R10	   3987	   80.2188	   20.7284	  0.396646	3.02873e+07	   80.2188	   21.0994	  0.764835	3.06463e+07	     80.75	   21.0996	  0.765063	4.04032e+07	     80.75	   20.7284	  0.396646	4.11214e+07	   80.2188	    20.926	  0.568568	3.04298e+07	   80.4844	   21.0995	  0.764949	3.39906e+07	     80.75	   20.9261	   0.56867	4.06919e+07	   80.4844	   20.7284	  0.396646	3.36814e+07	
         R10	   3988	   79.6875	   20.7284	  0.396646	3.41926e+07	   79.6875	   21.0994	  0.764833	3.40347e+07	   80.2188	   21.0994	  0.764835	3.82219e+07	   80.2188	   20.7284	  0.396646	4.09482e+07	   79.6875	    20.926	  0.568567	3.41015e+07	   79.9531	   21.0994	  0.764834	3.61184e+07	   80.2188	    20.926	  0.568568	 3.9583e+07	   79.9531	   20.7284	  0.396646	 3.7551e+07	
         R10	   3989	   79.1563	   20.7284	  0.396646	3.53045e+07	   79.1563	   21.0994	  0.764835	3.53103e+07	   79.6875	   21.0994	  0.764833	3.37066e+07	   79.6875	   20.7284	  0.396646	3.65155e+07	   79.1563	    20.926	  0.568568	3.52861e+07	   79.4219	   21.0994	  0.764834	3.44865e+07	   79.6875	    20.926	  0.568567	 3.5102e+07	   79.4219	   20.7284	  0.396646	3.59054e+07	
         R10	   3990	    78.625	   21.0996	  0.765063	 3.4651e+07	   79.1563	   21.0994	  0.764835	3.31739e+07	   79.1563	   20.7284	  0.396646	 3.5649e+07	    78.625	   20.7284	  0.396646	3.51396e+07	   78.8906	   21.0995	  0.764949	3.38846e+07	   79.1563	    20.926	  0.568568	3.44072e+07	   78.8906	   20.7284	  0.396646	3.53918e+07	    78.625	   20.9261	   0.56867	3.48834e+07	
         R10	   3991	    78.625	   21.3636	    1.2195	3.14912e+07	   79.1563	   21.3636	    1.2195	3.42863e+07	   79.1563	   21.0994	  0.764835	 3.3632e+07	    78.625	   21.0996	  0.765063	3.48325e+07	   78.8906	   21.3636	    1.2195	3.28725e+07	   79.1563	   21.2465	  0.983449	3.39157e+07	   78.8906	   21.0995	  0.764949	3.42085e+07	    78.625	   21.2466	  0.983574	3.31568e+07	
         R10	   3992	      76.5	   15.4447	       0.8	2.15664e+07	      76.5	      15.3	       0.8	2.23645e+07	      76.5	      15.3	  0.951056	1.98405e+07	      76.5	   15.4471	  0.948442	1.95663e+07	      76.5	   15.3724	       0.8	2.19473e+07	      76.5	      15.3	  0.875528	2.10807e+07	      76.5	   15.3736	  0.949749	1.95582e+07	      76.5	   15.4459	  0.874221	2.05211e+07	
         R10	   3993	      76.5	   15.4471	  0.948442	1.94362e+07	      76.5	      15.3	  0.951056	2.04719e+07	      76.5	      15.3	   1.08986	 1.7801e+07	      76.5	   15.4372	   1.08661	1.77701e+07	      76.5	   15.3736	  0.949749	1.99092e+07	      76.5	      15.3	   1.02046	1.91353e+07	      76.5	   15.3686	   1.08823	1.76548e+07	      76.5	   15.4422	   1.01753	1.85664e+07	
         R10	   3994	      76.5	   15.4372	   1.08661	1.76987e+07	      76.5	      15.3	   1.08986	1.81576e+07	      76.5	      15.3	    1.2164	1.57485e+07	      76.5	   15.4238	   1.21291	1.60738e+07	      76.5	   15.3686	   1.08823	1.78498e+07	      76.5	      15.3	   1.15313	 1.6948e+07	      76.5	   15.3619	   1.21465	1.57844e+07	      76.5	   15.4305	   1.14976	1.68553e+07	
         R10	   3995	      76.5	   15.4238	   1.21291	1.60311e+07	      76.5	      15.3	    1.2164	1.58823e+07	      76.5	      15.3	   1.33068	1.36748e+07	      76.5	   15.4108	   1.32815	1.43122e+07	      76.5	   15.3619	   1.21465	1.58473e+07	      76.5	      15.3	   1.27354	1.47685e+07	      76.5	   15.3554	   1.32942	1.38729e+07	      76.5	   15.4173	   1.27053	1.51413e+07	
         R10	   3996	      76.5	   15.4108	   1.32815	 1.4452e+07	      76.5	      15.3	   1.33068	1.35747e+07	      76.5	      15.3	   1.43271	1.16472e+07	      76.5	    15.399	   1.42981	1.27553e+07	      76.5	   15.3554	   1.32942	1.38391e+07	      76.5	      15.3	    1.3817	1.26073e+07	      76.5	   15.3495	   1.43126	1.20586e+07	      76.5	   15.4049	   1.37898	1.35487e+07	
         R10	   3997	      76.5	    15.399	   1.42981	1.30853e+07	      76.5	      15.3	   1.43271	1.15898e+07	      76.5	      15.3	   1.52248	7.14976e+06	      76.5	    15.387	   1.52533	1.52448e+07	      76.5	   15.3495	   1.43126	1.18403e+07	      76.5	      15.3	    1.4776	8.91786e+06	      76.5	   15.3435	   1.52391	1.10139e+07	      76.5	    15.393	   1.47757	1.39971e+07	
         R10	   3998	      76.5	    15.387	   1.52533	1.52039e+07	      76.5	      15.3	   1.52248	1.44935e+07	      76.5	      15.3	       1.6	2.53788e+07	      76.5	   15.3728	   1.62497	1.49448e+07	      76.5	   15.3435	   1.52391	1.17169e+07	      76.5	      15.3	   1.56124	1.18308e+07	      76.5	   15.3364	   1.61249	1.73989e+07	      76.5	   15.3799	   1.57515	1.48647e+07	
         R10	   3999	      76.5	   15.4773	   1.54028	1.46543e+07	      76.5	    15.387	   1.52533	1.27643e+07	      76.5	   15.3728	   1.62497	1.38698e+07	      76.5	   15.4484	   1.65091	1.45699e+07	      76.5	   15.4321	   1.53281	1.34405e+07	      76.5	   15.3799	   1.57515	1.33111e+07	      76.5	   15.4106	   1.63794	1.38254e+07	      76.5	   15.4628	    1.5956	1.44581e+07	
         R10	   4000	      76.5	   15.4773	   1.54028	 1.4594e+07	      76.5	   15.4484	   1.65091	1.38959e+07	      76.5	   15.5269	   1.67782	1.69696e+07	      76.5	   15.5552	   1.58707	1.66438e+07	      76.5	   15.4628	    1.5956	1.40872e+07	      76.5	   15.4877	   1.66437	 1.5193e+07	      76.5	    15.541	   1.63244	1.67036e+07	      76.5	   15.5162	   1.56367	1.54678e+07	
         R10	   4001	      76.5	   15.5552	   1.58707	 1.6614e+07	      76.5	   15.5269	   1.67782	1.70902e+07	      76.5	   15.6082	   1.70569	2.06831e+07	      76.5	   15.6383	   1.61981	1.97029e+07	      76.5	    15.541	   1.63244	1.67557e+07	      76.5	   15.5675	   1.69176	1.87297e+07	      76.5	   15.6232	   1.66275	2.01231e+07	      76.5	   15.5967	   1.60344	1.80525e+07	
         R10	   4002	      76.5	   15.6383	   1.61981	1.98247e+07	      76.5	   15.6082	   1.70569	2.07002e+07	      76.5	   15.6922	   1.73453	 2.4378e+07	      76.5	   15.7227	    1.6478	2.32391e+07	      76.5	   15.6232	   1.66275	2.01962e+07	      76.5	   15.6502	   1.72011	 2.2419e+07	      76.5	   15.7075	   1.69116	2.37547e+07	      76.5	   15.6805	    1.6338	2.14416e+07	
         R10	   4003	      76.5	   15.7227	    1.6478	2.33873e+07	      76.5	   15.6922	   1.73453	2.43949e+07	      76.5	   15.7791	   1.76433	2.80499e+07	      76.5	   15.8106	   1.67476	 2.6832e+07	      76.5	   15.7075	   1.69116	2.38394e+07	      76.5	   15.7357	   1.74943	2.61199e+07	      76.5	   15.7949	   1.71955	2.73968e+07	      76.5	   15.7667	   1.66128	2.50341e+07	
         R10	   4004	      76.5	   15.8106	   1.67476	2.70725e+07	      76.5	   15.7791	   1.76433	2.80556e+07	      76.5	   15.8689	    1.7951	3.15594e+07	      76.5	   15.9018	   1.70209	3.02297e+07	      76.5	   15.7949	   1.71955	2.75197e+07	      76.5	    15.824	   1.77972	2.97206e+07	      76.5	   15.8853	   1.74859	3.08542e+07	      76.5	   15.8562	   1.68842	 2.8583e+07	
         R10	   4005	      76.5	   15.9018	   1.70209	3.05593e+07	      76.5	   15.8689	    1.7951	3.15648e+07	      76.5	   15.9614	   1.82684	3.47047e+07	      76.5	   15.9952	   1.73026	3.34054e+07	      76.5	   15.8853	   1.74859	3.10232e+07	      76.5	   15.9151	   1.81097	3.30591e+07	      76.5	   15.9783	   1.77855	3.40153e+07	      76.5	   15.9485	   1.71617	3.19248e+07	
         R10	   4006	      76.5	   15.9952	   1.73026	3.38488e+07	      76.5	   15.9614	   1.82684	3.46967e+07	      76.5	   16.0567	   1.85954	3.74772e+07	      76.5	    16.091	   1.76071	 3.6203e+07	      76.5	   15.9783	   1.77855	3.42336e+07	      76.5	   16.0091	   1.84319	3.60222e+07	      76.5	   16.0739	   1.81012	3.68028e+07	      76.5	   16.0431	   1.74548	3.49726e+07	
         R10	   4007	      76.5	    16.091	   1.76071	 3.6828e+07	      76.5	   16.0567	   1.85954	3.74688e+07	      76.5	   16.1549	    1.8932	 3.9638e+07	      76.5	   16.1873	   1.79422	3.86687e+07	      76.5	   16.0739	   1.81012	3.71059e+07	      76.5	   16.1058	   1.87637	3.84977e+07	      76.5	   16.1711	   1.84371	 3.9119e+07	      76.5	   16.1391	   1.77747	3.76971e+07	
         R10	   4008	      76.5	   16.1873	   1.79422	3.96012e+07	      76.5	   16.1549	    1.8932	3.96255e+07	      76.5	   16.2559	   1.92784	4.10631e+07	      76.5	   16.2882	   1.82816	4.07639e+07	      76.5	   16.1711	   1.84371	3.95615e+07	      76.5	   16.2054	   1.91052	4.03012e+07	      76.5	    16.272	     1.878	 4.0881e+07	      76.5	   16.2377	   1.81119	4.01318e+07	
         R10	   4009	      76.5	   16.2882	   1.82816	4.20909e+07	      76.5	   16.2559	   1.92784	4.10586e+07	      76.5	   16.3597	   1.96344	4.15214e+07	      76.5	    16.394	   1.85418	4.21848e+07	      76.5	    16.272	     1.878	4.15055e+07	      76.5	   16.3078	   1.94564	4.12649e+07	      76.5	   16.3768	   1.90881	4.18187e+07	      76.5	   16.3411	   1.84117	4.20663e+07	
         R10	   4010	      76.5	    16.394	   1.85418	4.44106e+07	      76.5	   16.3597	   1.96344	4.15822e+07	      76.5	   16.4663	         2	4.07134e+07	      76.5	   16.4915	   1.88373	4.30536e+07	      76.5	   16.3768	   1.90881	4.29436e+07	      76.5	    16.413	   1.98172	4.10935e+07	      76.5	   16.4789	   1.94186	 4.1806e+07	      76.5	   16.4427	   1.86895	 4.3669e+07	
         R10	   4011	      76.5	    16.394	   1.85418	4.41172e+07	      76.5	   16.4915	   1.88373	4.35195e+07	      76.5	   16.5207	   1.74907	4.56207e+07	      76.5	    16.385	   1.71129	4.34748e+07	      76.5	   16.4427	   1.86895	4.36992e+07	      76.5	   16.5061	    1.8164	4.45254e+07	      76.5	   16.4528	   1.73018	4.45053e+07	      76.5	   16.3895	   1.78273	4.37511e+07	
         R10	   4012	      76.5	    16.385	   1.71129	4.33464e+07	      76.5	   16.5207	   1.74907	4.56734e+07	      76.5	   16.5539	   1.59602	4.59253e+07	      76.5	   16.4042	   1.54963	4.31394e+07	      76.5	   16.4528	   1.73018	4.44648e+07	      76.5	   16.5373	   1.67255	 4.5794e+07	      76.5	    16.479	   1.57283	4.44771e+07	      76.5	   16.3946	   1.63046	4.32245e+07	
         R10	   4013	      76.5	   16.4042	   1.54963	 4.3255e+07	      76.5	   16.5539	   1.59602	4.59806e+07	      76.5	   16.5911	    1.4246	4.55106e+07	      76.5	   16.4147	   1.38067	4.18046e+07	      76.5	    16.479	   1.57283	4.45577e+07	      76.5	   16.5725	   1.51031	4.57422e+07	      76.5	   16.5029	   1.40264	4.35765e+07	      76.5	   16.4095	   1.46515	4.25123e+07	
         R10	   4014	      76.5	   16.4147	   1.38067	4.21422e+07	      76.5	   16.5911	    1.4246	4.54173e+07	      76.5	   16.6322	   1.23478	4.39646e+07	      76.5	   16.4414	   1.19228	4.06322e+07	      76.5	   16.5029	   1.40264	4.36965e+07	      76.5	   16.6116	   1.32969	4.46814e+07	      76.5	   16.5368	   1.21353	4.21989e+07	      76.5	   16.4281	   1.28648	4.13614e+07	
         R10	   4015	      76.5	   16.4414	   1.19228	4.08978e+07	      76.5	   16.6322	   1.23478	4.39141e+07	      76.5	   16.6774	   1.02658	4.17693e+07	      76.5	   16.4758	  0.989053	3.94431e+07	      76.5	   16.5368	   1.21353	4.23015e+07	      76.5	   16.6548	   1.13068	4.28068e+07	      76.5	   16.5766	   1.00782	 4.0514e+07	      76.5	   16.4586	   1.09067	 4.0137e+07	
         R10	   4016	      76.5	   16.4758	  0.989053	3.97254e+07	      76.5	   16.6774	   1.02658	4.16465e+07	      76.5	   16.7265	       0.8	 3.9373e+07	      76.5	   16.5146	       0.8	3.81301e+07	      76.5	   16.5766	   1.00782	4.05714e+07	      76.5	   16.7019	  0.913292	 4.0458e+07	      76.5	   16.6206	       0.8	3.86025e+07	      76.5	   16.4952	  0.894527	3.88489e+07	
         R10	   4017	      76.5	   16.4758	  0.989053	3.87388e+07	      76.5	   16.5146	       0.8	 3.7383e+07	      76.5	   16.3123	       0.8	3.66675e+07	      76.5	   16.3016	  0.989632	 3.6257e+07	      76.5	   16.4952	  0.894527	3.80226e+07	      76.5	   16.4135	       0.8	3.69634e+07	      76.5	    16.307	  0.894816	3.64098e+07	      76.5	   16.3887	  0.989343	3.74654e+07	
         R10	   4018	      76.5	   16.3016	  0.989632	3.55611e+07	      76.5	   16.3123	       0.8	3.58148e+07	      76.5	   16.1196	       0.8	3.23514e+07	      76.5	   16.1185	  0.979508	3.20205e+07	      76.5	    16.307	  0.894816	 3.5669e+07	      76.5	    16.216	       0.8	3.40551e+07	      76.5	    16.119	  0.889754	3.21351e+07	      76.5	     16.21	   0.98457	3.37438e+07	
         R10	   4019	      76.5	   16.1185	  0.979508	3.15777e+07	      76.5	   16.1196	       0.8	3.17327e+07	      76.5	   15.9365	       0.8	2.65726e+07	      76.5	   15.9358	  0.973854	2.60987e+07	      76.5	    16.119	  0.889754	3.15914e+07	      76.5	    16.028	       0.8	2.90736e+07	      76.5	   15.9362	  0.886927	2.62755e+07	      76.5	   16.0272	  0.976681	2.87417e+07	
         R10	   4020	      76.5	   15.9358	  0.973854	2.56283e+07	      76.5	   15.9365	       0.8	2.63325e+07	      76.5	    15.763	       0.8	2.17249e+07	      76.5	    15.766	  0.966955	2.18155e+07	      76.5	   15.9362	  0.886927	2.58882e+07	      76.5	   15.8497	       0.8	 2.3788e+07	      76.5	   15.7645	  0.883477	2.16767e+07	      76.5	   15.8509	  0.970404	2.35278e+07	
         R10	   4021	      76.5	    15.766	  0.966955	2.14521e+07	      76.5	    15.763	       0.8	2.16799e+07	      76.5	   15.5991	       0.8	 2.1288e+07	      76.5	   15.6016	  0.956263	1.95921e+07	      76.5	   15.7645	  0.883477	2.14424e+07	      76.5	    15.681	       0.8	2.12172e+07	      76.5	   15.6003	  0.878131	2.03805e+07	      76.5	   15.6838	  0.961609	2.02537e+07	
         R10	   4022	      76.5	   15.6016	  0.956263	1.94853e+07	      76.5	   15.5991	       0.8	2.11125e+07	      76.5	   15.4447	       0.8	2.16006e+07	      76.5	   15.4471	  0.948442	1.98473e+07	      76.5	   15.6003	  0.878131	2.02263e+07	      76.5	   15.5219	       0.8	2.12212e+07	      76.5	   15.4459	  0.874221	2.06796e+07	      76.5	   15.5244	  0.952353	1.95285e+07	
         R10	   4023	      76.5	   15.5936	   1.10089	1.83607e+07	      76.5	   15.6016	  0.956263	1.96266e+07	      76.5	   15.4471	  0.948442	1.96082e+07	      76.5	   15.4372	   1.08661	1.79909e+07	      76.5	   15.5976	   1.02857	1.89513e+07	      76.5	   15.5244	  0.952353	1.94379e+07	      76.5	   15.4422	   1.01753	1.87582e+07	      76.5	   15.5154	   1.09375	1.80061e+07	
         R10	   4024	      76.5	   15.5936	   1.10089	1.84273e+07	      76.5	   15.4372	   1.08661	1.78021e+07	      76.5	   15.4238	   1.21291	1.61751e+07	      76.5	   15.5577	   1.22648	1.70739e+07	      76.5	   15.5154	   1.09375	1.79134e+07	      76.5	   15.4305	   1.14976	1.69619e+07	      76.5	   15.4908	   1.21969	1.64662e+07	      76.5	   15.5757	   1.16368	1.77212e+07	
         R10	   4025	      76.5	   15.5577	   1.22648	1.71371e+07	      76.5	   15.4238	   1.21291	1.60342e+07	      76.5	   15.4108	   1.32815	 1.4444e+07	      76.5	   15.5314	   1.34239	1.60942e+07	      76.5	   15.4908	   1.21969	1.64073e+07	      76.5	   15.4173	   1.27053	1.52118e+07	      76.5	   15.4711	   1.33527	1.50893e+07	      76.5	   15.5446	   1.28443	1.65804e+07	
         R10	   4026	      76.5	   15.5314	   1.34239	1.59562e+07	      76.5	   15.4108	   1.32815	1.44187e+07	      76.5	    15.399	   1.42981	  1.321e+07	      76.5	   15.5038	   1.44587	1.52858e+07	      76.5	   15.4711	   1.33527	1.50232e+07	      76.5	   15.4049	   1.37898	1.37667e+07	      76.5	   15.4514	   1.43784	1.39838e+07	      76.5	   15.5176	   1.39413	1.55862e+07	
         R10	   4027	      76.5	   15.5038	   1.44587	1.51204e+07	      76.5	    15.399	   1.42981	1.34647e+07	      76.5	    15.387	   1.52533	1.28224e+07	      76.5	   15.4773	   1.54028	1.39956e+07	      76.5	   15.4514	   1.43784	 1.4113e+07	      76.5	    15.393	   1.47757	1.30759e+07	      76.5	   15.4321	   1.53281	1.32112e+07	      76.5	   15.4905	   1.49307	1.45193e+07	
         R10	   4028	      76.5	   15.6036	    1.4761	1.75178e+07	      76.5	   15.5038	   1.44587	1.49028e+07	      76.5	   15.4773	   1.54028	1.47698e+07	      76.5	   15.5552	   1.58707	 1.6832e+07	      76.5	   15.5537	   1.46098	1.60532e+07	      76.5	   15.4905	   1.49307	1.47918e+07	      76.5	   15.5162	   1.56367	1.56325e+07	      76.5	   15.5794	   1.53159	1.71151e+07	
         R10	   4029	      76.5	   15.6036	    1.4761	1.76228e+07	      76.5	   15.5552	   1.58707	1.68381e+07	      76.5	   15.6383	   1.61981	1.98962e+07	      76.5	   15.6651	   1.52806	1.97798e+07	      76.5	   15.5794	   1.53159	 1.7169e+07	      76.5	   15.5967	   1.60344	1.82679e+07	      76.5	   15.6517	   1.57393	1.97853e+07	      76.5	   15.6344	   1.50208	1.86157e+07	
         R10	   4030	      76.5	   15.6651	   1.52806	1.98702e+07	      76.5	   15.6383	   1.61981	1.99177e+07	      76.5	   15.7227	    1.6478	2.33196e+07	      76.5	   15.7541	   1.55755	2.31841e+07	      76.5	   15.6517	   1.57393	1.98397e+07	      76.5	   15.6805	    1.6338	  2.153e+07	      76.5	   15.7384	   1.60268	2.32132e+07	      76.5	   15.7096	   1.54281	2.14492e+07	
         R10	   4031	      76.5	   15.7541	   1.55755	2.31336e+07	      76.5	   15.7227	    1.6478	2.34881e+07	      76.5	   15.8106	   1.67476	2.68477e+07	      76.5	    15.837	   1.57675	2.64058e+07	      76.5	   15.7384	   1.60268	2.32708e+07	      76.5	   15.7667	   1.66128	2.50945e+07	      76.5	   15.8238	   1.62576	2.65879e+07	      76.5	   15.7956	   1.56715	2.47218e+07	
         R10	   4032	      76.5	    15.837	   1.57675	2.62287e+07	      76.5	   15.8106	   1.67476	2.70787e+07	      76.5	   15.9018	   1.70209	3.04102e+07	      76.5	    15.933	    1.6028	2.99062e+07	      76.5	   15.8238	   1.62576	2.66144e+07	      76.5	   15.8562	   1.68842	2.86763e+07	      76.5	   15.9174	   1.65244	3.01243e+07	      76.5	    15.885	   1.58978	2.80206e+07	
         R10	   4033	      76.5	    15.933	    1.6028	2.94785e+07	      76.5	   15.9018	   1.70209	3.07667e+07	      76.5	   15.9952	   1.73026	3.34915e+07	      76.5	    16.021	   1.62568	3.31666e+07	      76.5	   15.9174	   1.65244	3.00889e+07	      76.5	   15.9485	   1.71617	3.20748e+07	      76.5	   16.0081	   1.67797	3.32997e+07	      76.5	    15.977	   1.61424	3.12877e+07	
         R10	   4034	      76.5	    16.021	   1.62568	3.29595e+07	      76.5	   15.9952	   1.73026	3.38891e+07	      76.5	    16.091	   1.76071	3.64119e+07	      76.5	   16.1253	   1.65386	3.60345e+07	      76.5	   16.0081	   1.67797	3.33893e+07	      76.5	   16.0431	   1.74548	3.50952e+07	      76.5	   16.1081	   1.70728	3.61912e+07	      76.5	   16.0732	   1.63977	3.44619e+07	
         R10	   4035	      76.5	   16.1253	   1.65386	3.58746e+07	      76.5	    16.091	   1.76071	3.71118e+07	      76.5	   16.1873	   1.79422	3.87511e+07	      76.5	   16.2151	   1.67809	3.86369e+07	      76.5	   16.1081	   1.70728	3.64717e+07	      76.5	   16.1391	   1.77747	3.78775e+07	      76.5	   16.2012	   1.73616	3.86452e+07	      76.5	   16.1702	   1.66598	3.72378e+07	
         R10	   4036	      76.5	   16.2453	   1.53875	  3.873e+07	      76.5	   16.4042	   1.54963	4.22029e+07	      76.5	   16.4147	   1.38067	4.08355e+07	      76.5	   16.2435	   1.35799	 3.7284e+07	      76.5	   16.3248	   1.54419	4.03891e+07	      76.5	   16.4095	   1.46515	4.15026e+07	      76.5	   16.3291	   1.36933	3.89857e+07	      76.5	   16.2444	   1.44837	3.79655e+07	
         R10	   4037	      76.5	   16.2435	   1.35799	3.70857e+07	      76.5	   16.4147	   1.38067	4.10515e+07	      76.5	   16.4414	   1.19228	3.96329e+07	      76.5	   16.2504	   1.17397	 3.6073e+07	      76.5	   16.3291	   1.36933	3.90021e+07	      76.5	   16.4281	   1.28648	4.03215e+07	      76.5	   16.3459	   1.18313	3.77743e+07	      76.5	   16.2469	   1.26598	3.65468e+07	
         R10	   4038	      76.5	   16.2504	   1.17397	 3.6154e+07	      76.5	   16.4414	   1.19228	3.98166e+07	      76.5	   16.4758	  0.989053	3.83853e+07	      76.5	   16.3016	  0.989632	3.66072e+07	      76.5	   16.3459	   1.18313	3.79209e+07	      76.5	   16.4586	   1.09067	3.90543e+07	      76.5	   16.3887	  0.989343	3.74471e+07	      76.5	    16.276	    1.0818	3.63597e+07	
         R10	   4039	      76.5	   16.0856	   1.15142	3.15129e+07	      76.5	   16.2504	   1.17397	3.50577e+07	      76.5	   16.3016	  0.989632	3.56218e+07	      76.5	   16.1185	  0.979508	3.16951e+07	      76.5	    16.168	   1.16269	3.32227e+07	      76.5	    16.276	    1.0818	3.53154e+07	      76.5	     16.21	   0.98457	3.36277e+07	      76.5	   16.1021	   1.06546	3.15623e+07	
         R10	   4040	      76.5	   16.0856	   1.15142	3.06731e+07	      76.5	   16.1185	  0.979508	3.10376e+07	      76.5	   15.9358	  0.973854	2.62955e+07	      76.5	   15.9247	   1.15055	2.62703e+07	      76.5	   16.1021	   1.06546	3.08166e+07	      76.5	   16.0272	  0.976681	 2.8568e+07	      76.5	   15.9303	    1.0622	2.62175e+07	      76.5	   16.0052	   1.15098	2.84005e+07	
         R10	   4041	      76.5	   15.9247	   1.15055	2.55968e+07	      76.5	   15.9358	  0.973854	2.58253e+07	      76.5	    15.766	  0.966955	2.17339e+07	      76.5	   15.7561	   1.13048	2.15322e+07	      76.5	   15.9303	    1.0622	2.56562e+07	      76.5	   15.8509	  0.970404	 2.3578e+07	      76.5	    15.761	   1.04872	2.15453e+07	      76.5	   15.8404	   1.14051	2.33967e+07	
         R10	   4042	      76.5	   15.7561	   1.13048	2.10082e+07	      76.5	    15.766	  0.966955	2.13915e+07	      76.5	   15.6016	  0.956263	1.98045e+07	      76.5	   15.5936	   1.10089	1.85432e+07	      76.5	    15.761	   1.04872	2.11249e+07	      76.5	   15.6838	  0.961609	2.03517e+07	      76.5	   15.5976	   1.02857	 1.9122e+07	      76.5	   15.6749	   1.11568	1.95306e+07	
         R10	   4043	      76.5	   15.7285	   1.27024	2.05298e+07	      76.5	   15.7561	   1.13048	2.10008e+07	      76.5	   15.5936	   1.10089	  1.869e+07	      76.5	   15.5577	   1.22648	1.72499e+07	      76.5	   15.7423	   1.20036	2.07093e+07	      76.5	   15.6749	   1.11568	 1.9614e+07	      76.5	   15.5757	   1.16368	1.79452e+07	      76.5	   15.6431	   1.24836	1.85792e+07	
         R10	   4044	      76.5	   15.7285	   1.27024	2.05379e+07	      76.5	   15.5577	   1.22648	1.73164e+07	      76.5	   15.5314	   1.34239	 1.6017e+07	      76.5	   15.6542	   1.36791	1.89225e+07	      76.5	   15.6431	   1.24836	1.86188e+07	      76.5	   15.5446	   1.28443	1.66405e+07	      76.5	   15.5928	   1.35515	 1.7284e+07	      76.5	   15.6913	   1.31907	1.96977e+07	
         R10	   4045	      76.5	   15.6542	   1.36791	1.88881e+07	      76.5	   15.5314	   1.34239	1.59901e+07	      76.5	   15.5038	   1.44587	1.50837e+07	      76.5	   15.6036	    1.4761	1.76384e+07	      76.5	   15.5928	   1.35515	1.72588e+07	      76.5	   15.5176	   1.39413	1.55098e+07	      76.5	   15.5537	   1.46098	1.62135e+07	      76.5	   15.6289	   1.42201	1.82237e+07	
         R10	   4046	      76.5	   15.7532	   1.42698	2.21138e+07	      76.5	   15.6542	   1.36791	1.86869e+07	      76.5	   15.6036	    1.4761	1.76245e+07	      76.5	   15.6651	   1.52806	1.98145e+07	      76.5	   15.7037	   1.39745	2.02697e+07	      76.5	   15.6289	   1.42201	1.81198e+07	      76.5	   15.6344	   1.50208	1.86376e+07	      76.5	   15.7092	   1.47752	2.08978e+07	
         R10	   4047	      76.5	   15.7532	   1.42698	2.19833e+07	      76.5	   15.7541	   1.55755	2.30977e+07	      76.5	    15.837	   1.57675	2.62782e+07	      76.5	   15.8607	   1.48147	2.60658e+07	      76.5	   15.7537	   1.49227	2.24679e+07	      76.5	   15.7956	   1.56715	2.46387e+07	      76.5	   15.8488	   1.52911	2.61469e+07	      76.5	   15.8069	   1.45423	2.39148e+07	
         R10	   4048	      76.5	   15.8607	   1.48147	2.65925e+07	      76.5	    15.837	   1.57675	2.59454e+07	      76.5	    15.933	    1.6028	3.01869e+07	      76.5	   15.9614	   1.49047	2.89279e+07	      76.5	   15.8488	   1.52911	2.62391e+07	      76.5	    15.885	   1.58978	2.80128e+07	      76.5	   15.9472	   1.54664	2.95314e+07	      76.5	    15.911	   1.48597	2.77092e+07	
         R10	   4049	      76.5	   15.9614	   1.49047	2.97842e+07	      76.5	    15.933	    1.6028	2.98581e+07	      76.5	    16.021	   1.62568	3.28171e+07	      76.5	   16.0793	   1.49729	 3.3044e+07	      76.5	   15.9472	   1.54664	2.97911e+07	      76.5	    15.977	   1.61424	3.13096e+07	      76.5	   16.0502	   1.56148	3.28832e+07	      76.5	   16.0204	   1.49388	3.13507e+07	
         R10	   4050	      76.5	   16.0854	   1.34952	3.25909e+07	      76.5	   16.2435	   1.35799	3.63071e+07	      76.5	   16.2504	   1.17397	3.53088e+07	      76.5	   16.0856	   1.15142	  3.107e+07	      76.5	   16.1644	   1.35376	3.43698e+07	      76.5	   16.2469	   1.26598	3.57732e+07	      76.5	    16.168	   1.16269	3.31337e+07	      76.5	   16.0855	   1.25047	3.17743e+07	
         R10	   4051	      76.5	   16.0854	   1.34952	3.19696e+07	      76.5	   16.0856	   1.15142	 3.0345e+07	      76.5	   15.9247	   1.15055	2.64062e+07	      76.5	   15.9138	   1.31243	2.65818e+07	      76.5	   16.0855	   1.25047	3.10865e+07	      76.5	   16.0052	   1.15098	2.82915e+07	      76.5	   15.9193	   1.23149	2.64421e+07	      76.5	   15.9996	   1.33097	2.91735e+07	
         R10	   4052	      76.5	   15.9138	   1.31243	2.61781e+07	      76.5	   15.9247	   1.15055	 2.5729e+07	      76.5	   15.7561	   1.13048	2.15422e+07	      76.5	   15.7285	   1.27024	 2.0808e+07	      76.5	   15.9193	   1.23149	2.58979e+07	      76.5	   15.8404	   1.14051	2.34669e+07	      76.5	   15.7423	   1.20036	2.11301e+07	      76.5	   15.8212	   1.29133	2.32801e+07	
         R10	   4053	      76.5	   15.9138	   1.31243	2.63175e+07	      76.5	   15.7285	   1.27024	2.09575e+07	      76.5	   15.6542	   1.36791	1.87514e+07	      76.5	   15.7532	   1.42698	2.20186e+07	      76.5	   15.8212	   1.29133	2.34276e+07	      76.5	   15.6913	   1.31907	1.98152e+07	      76.5	   15.7037	   1.39745	2.02566e+07	      76.5	   15.8335	   1.36971	2.40637e+07	
         R10	   4054	      76.5	   16.0854	   1.34952	3.17609e+07	      76.5	   15.9138	   1.31243	2.64819e+07	      76.5	   15.9614	   1.49047	2.96423e+07	      76.5	   16.0793	   1.49729	3.31667e+07	      76.5	   15.9996	   1.33097	2.90032e+07	      76.5	   15.9376	   1.40145	2.79606e+07	      76.5	   16.0204	   1.49388	3.13527e+07	      76.5	   16.0823	   1.42341	3.24295e+07	
         R10	   4055	      76.5	   16.2453	   1.53875	3.78524e+07	      76.5	   16.2435	   1.35799	3.65629e+07	      76.5	   16.0854	   1.34952	3.23591e+07	      76.5	   16.0793	   1.49729	3.36937e+07	      76.5	   16.2444	   1.44837	3.71742e+07	      76.5	   16.1644	   1.35376	3.43951e+07	      76.5	   16.0823	   1.42341	3.29852e+07	      76.5	   16.1623	   1.51802	3.56784e+07	
         R10	   4056	      76.5	   16.2947	   1.73752	4.09469e+07	      76.5	   16.2151	   1.67809	 3.8586e+07	      76.5	   16.1873	   1.79422	3.96366e+07	      76.5	   16.2882	   1.82816	4.11192e+07	      76.5	   16.2549	   1.70781	3.97396e+07	      76.5	   16.2012	   1.73616	3.90913e+07	      76.5	   16.2377	   1.81119	4.03134e+07	      76.5	   16.2915	   1.78284	4.09969e+07	
         R10	   4057	      76.5	   16.2947	   1.73752	4.12694e+07	      76.5	   16.2882	   1.82816	4.19036e+07	      76.5	    16.394	   1.85418	4.28398e+07	      76.5	    16.385	   1.71129	4.29629e+07	      76.5	   16.2915	   1.78284	4.15716e+07	      76.5	   16.3411	   1.84117	4.23159e+07	      76.5	   16.3895	   1.78273	4.28435e+07	      76.5	   16.3399	    1.7244	4.20973e+07	
         R10	   4058	      76.5	   16.2947	   1.73752	4.07168e+07	      76.5	    16.385	   1.71129	4.25407e+07	      76.5	   16.2453	   1.53875	3.92206e+07	      76.5	   16.2151	   1.67809	3.82992e+07	      76.5	   16.3399	    1.7244	4.16231e+07	      76.5	   16.3152	   1.62502	4.07558e+07	      76.5	   16.2302	   1.60842	3.87357e+07	      76.5	   16.2549	   1.70781	3.94752e+07	
         R10	   4059	      76.5	   16.0793	   1.49729	3.33719e+07	      76.5	   16.1253	   1.65386	3.63331e+07	      76.5	   16.2151	   1.67809	3.86514e+07	      76.5	   16.2453	   1.53875	3.84128e+07	      76.5	   16.1023	   1.57558	3.47647e+07	      76.5	   16.1702	   1.66598	3.74792e+07	      76.5	   16.2302	   1.60842	3.85098e+07	      76.5	   16.1623	   1.51802	3.57757e+07	
         R10	   4060	      76.5	   15.7532	   1.42698	2.18463e+07	      76.5	   15.6651	   1.52806	1.97815e+07	      76.5	   15.7541	   1.55755	2.32156e+07	      76.5	   15.7092	   1.47752	2.07472e+07	      76.5	   15.7096	   1.54281	2.14132e+07	      76.5	   15.7537	   1.49227	2.24442e+07	       N/A	       N/A	       N/A	        N/A	       N/A	       N/A	       N/A	        N/A	
         R10	   4061	      76.5	   15.9138	   1.31243	2.68345e+07	      76.5	   15.7532	   1.42698	2.19183e+07	      76.5	   15.8607	   1.48147	2.55625e+07	      76.5	   15.8335	   1.36971	 2.4268e+07	      76.5	   15.8069	   1.45423	2.36468e+07	      76.5	   15.8873	   1.39695	2.61196e+07	       N/A	       N/A	       N/A	        N/A	       N/A	       N/A	       N/A	        N/A	
         R10	   4062	      76.5	   15.9138	   1.31243	 2.6099e+07	      76.5	   15.8607	   1.48147	2.60889e+07	      76.5	   15.9614	   1.49047	2.93718e+07	      76.5	   15.8873	   1.39695	2.60044e+07	      76.5	    15.911	   1.48597	2.76682e+07	      76.5	   15.9376	   1.40145	2.76167e+07	       N/A	       N/A	       N/A	        N/A	       N/A	       N/A	       N/A	        N/A	
         R10	   4063	      76.5	   16.0793	   1.49729	 3.3113e+07	      76.5	    16.021	   1.62568	3.27216e+07	      76.5	   16.1253	   1.65386	3.64723e+07	      76.5	   16.0502	   1.56148	3.28768e+07	      76.5	   16.0732	   1.63977	3.45589e+07	      76.5	   16.1023	   1.57558	3.47283e+07	       N/A	       N/A	       N/A	        N/A	       N/A	       N/A	       N/A	        N/A	
         R10	   4064	      76.5	    16.385	   1.71129	4.25054e+07	      76.5	   16.4042	   1.54963	4.19606e+07	      76.5	   16.2453	   1.53875	3.89614e+07	      76.5	   16.3946	   1.63046	4.22065e+07	      76.5	   16.3248	   1.54419	4.03899e+07	      76.5	   16.3152	   1.62502	4.05881e+07	       N/A	       N/A	       N/A	        N/A	       N/A	       N/A	       N/A	        N/A	
         R10	   4065	      76.5	   16.4719	   2.23625	4.80648e+07	      76.5	   16.3535	     2.205	4.61418e+07	      76.5	   16.2993	   2.30363	5.03941e+07	      76.5	    16.412	   2.34672	5.12492e+07	      76.5	   16.4127	   2.22063	4.70689e+07	      76.5	   16.3264	   2.25431	4.81667e+07	      76.5	   16.3556	   2.32517	5.07652e+07	      76.5	   16.4419	   2.29148	4.95371e+07	
         R10	   4066	      76.5	    16.412	   2.34672	5.13993e+07	      76.5	   16.2993	   2.30363	5.03208e+07	      76.5	   16.2464	   2.39967	5.53055e+07	      76.5	   16.3458	   2.45114	 5.5716e+07	      76.5	   16.3556	   2.32517	5.07987e+07	      76.5	   16.2729	   2.35165	 5.2708e+07	      76.5	   16.2961	   2.42541	5.54474e+07	      76.5	   16.3789	   2.39893	 5.3445e+07	
         R10	   4067	      76.5	   16.3458	   2.45114	5.57691e+07	      76.5	   16.2464	   2.39967	5.53262e+07	      76.5	    16.195	   2.49314	6.13195e+07	      76.5	   16.2928	   2.54344	6.04489e+07	      76.5	   16.2961	   2.42541	5.54832e+07	      76.5	   16.2207	    2.4464	5.82277e+07	      76.5	   16.2439	   2.51829	6.08082e+07	      76.5	   16.3193	   2.49729	5.80102e+07	
         R10	   4068	      76.5	   16.2928	   2.54344	6.05151e+07	      76.5	    16.195	   2.49314	6.13273e+07	      76.5	    16.145	   2.58402	6.86836e+07	      76.5	    16.244	   2.63689	6.54255e+07	      76.5	   16.2439	   2.51829	6.08478e+07	      76.5	     16.17	   2.53858	6.49143e+07	      76.5	   16.1945	   2.61046	6.69383e+07	      76.5	   16.2684	   2.59016	6.28434e+07	
         R10	   4069	      76.5	    16.244	   2.63689	6.56692e+07	      76.5	    16.145	   2.58402	6.85648e+07	      76.5	   16.0965	   2.67232	7.80486e+07	      76.5	   16.1955	   2.72176	7.13795e+07	      76.5	   16.1945	   2.61046	    6.7e+07	      76.5	   16.1208	   2.62817	7.32099e+07	      76.5	    16.146	   2.69704	7.45262e+07	      76.5	   16.2198	   2.67933	6.83719e+07	
         R10	   4070	      76.5	   16.1955	   2.72176	7.13325e+07	      76.5	   16.0965	   2.67232	7.80596e+07	      76.5	   16.0493	   2.75805	 9.3208e+07	      76.5	   16.1435	   2.80872	7.86519e+07	      76.5	    16.146	   2.69704	7.45278e+07	      76.5	   16.0729	   2.71519	 8.5525e+07	      76.5	   16.0964	   2.78338	8.53363e+07	      76.5	   16.1695	   2.76524	7.46162e+07	
         R10	   4071	      76.5	   16.1435	   2.80872	8.01407e+07	      76.5	   16.0493	   2.75805	9.34398e+07	      76.5	   16.0036	   2.84119	1.13575e+08	      76.5	   16.0944	   2.89592	 9.4335e+07	      76.5	   16.0964	   2.78338	 8.6152e+07	      76.5	   16.0265	   2.79962	1.03184e+08	      76.5	    16.049	   2.86855	1.02161e+08	      76.5	   16.1189	   2.85232	8.64027e+07	
         R10	   4072	      76.5	   16.0944	   2.89592	1.03427e+08	      76.5	   16.0036	   2.84119	1.15034e+08	      76.5	   15.9593	   2.92175	1.88757e+08	      76.5	   16.0432	   2.97903	1.01056e+08	      76.5	    16.049	   2.86855	1.06626e+08	      76.5	   15.9814	   2.88147	1.50824e+08	      76.5	   16.0012	   2.95039	1.29086e+08	      76.5	   16.0688	   2.93748	9.41727e+07	
         R10	   4073	      76.5	   16.0432	   2.97903	1.24772e+08	      76.5	   15.9593	   2.92175	2.03591e+08	      76.5	   15.9164	   2.99973	3.60839e+08	      76.5	   15.9761	   3.05784	5.65116e+07	      76.5	   16.0012	   2.95039	1.36163e+08	      76.5	   15.9378	   2.96074	2.40065e+08	      76.5	   15.9462	   3.02878	1.87788e+08	      76.5	   16.0097	   3.01843	7.61944e+07	
         R10	   4074	      76.5	   16.1238	   3.04399	1.45369e+07	      76.5	   16.0432	   2.97903	1.12119e+08	      76.5	   15.9761	   3.05784	2.28449e+07	      76.5	   16.0453	   3.12513	3.13449e+07	      76.5	   16.0835	   3.01151	5.87404e+07	      76.5	   16.0097	   3.01843	 4.9837e+07	      76.5	   16.0107	   3.09148	2.32567e+07	      76.5	   16.0845	   3.08456	2.25906e+07	
         R10	   4075	      76.5	   16.1238	   3.04399	 2.2269e+07	      76.5	   16.0453	   3.12513	4.52375e+07	      76.5	   16.1239	   3.20162	4.70747e+07	      76.5	   16.2126	   3.11834	4.05704e+07	      76.5	   16.0845	   3.08456	 3.3126e+07	      76.5	   16.0846	   3.16338	4.59005e+07	      76.5	   16.1683	   3.15998	 4.3366e+07	      76.5	   16.1682	   3.08117	3.10428e+07	
         R10	   4076	      76.5	   16.2126	   3.11834	3.90031e+07	      76.5	   16.1239	   3.20162	5.00022e+07	      76.5	   16.2119	    3.2873	5.42925e+07	      76.5	   16.3122	   3.19848	5.31416e+07	      76.5	   16.1683	   3.15998	4.40513e+07	      76.5	   16.1679	   3.24446	5.21384e+07	      76.5	   16.2621	   3.24289	5.30955e+07	      76.5	   16.2624	   3.15841	4.58288e+07	
         R10	   4077	      76.5	   16.3122	   3.19848	5.21839e+07	      76.5	   16.2119	    3.2873	5.77285e+07	      76.5	   16.3094	   3.38216	 6.4349e+07	      76.5	   16.4214	   3.28461	5.88107e+07	      76.5	   16.2621	   3.24289	5.45884e+07	      76.5	   16.2607	   3.33473	6.10049e+07	      76.5	   16.3654	   3.33338	6.01248e+07	      76.5	   16.3668	   3.24154	5.49293e+07	
         R10	   4078	      76.5	   16.4214	   3.28461	5.92289e+07	      76.5	   16.3094	   3.38216	7.24283e+07	      76.5	   16.4164	   3.48621	4.26496e+07	      76.5	    16.534	   3.37969	1.29803e+08	      76.5	   16.3654	   3.33338	6.54151e+07	      76.5	   16.3629	   3.43418	5.33574e+07	      76.5	   16.4752	   3.43295	7.91931e+07	      76.5	   16.4777	   3.33215	9.40938e+07	
         R10	   4079	      76.5	    16.534	   3.37969	1.32164e+08	      76.5	   16.4164	   3.48621	9.31659e+07	      76.5	   16.5328	   3.59945	2.81639e+08	      76.5	   16.6425	   3.48671	1.36274e+08	      76.5	   16.4752	   3.43295	1.08013e+08	      76.5	   16.4746	   3.54283	1.70932e+08	      76.5	   16.5876	   3.54308	2.00546e+08	      76.5	   16.5883	    3.4332	1.22704e+08	
         R10	   4080	      76.5	   16.6485	   3.25506	1.07861e+08	      76.5	    16.534	   3.37969	1.25562e+08	      76.5	   16.6425	   3.48671	1.49093e+08	      76.5	   16.7594	    3.3665	1.03316e+08	      76.5	   16.5913	   3.31738	1.14329e+08	      76.5	   16.5883	    3.4332	1.28245e+08	      76.5	   16.7009	   3.42661	1.25682e+08	      76.5	   16.7039	   3.31078	1.05278e+08	
         R10	   4081	      76.5	   16.6485	   3.25506	 1.0229e+08	      76.5	   16.7594	    3.3665	1.01084e+08	      76.5	   16.8836	   3.23884	9.61431e+07	      76.5	   16.7633	    3.1187	9.08349e+07	      76.5	   16.7039	   3.31078	 1.0114e+08	      76.5	   16.8215	   3.30267	9.85219e+07	      76.5	   16.8235	   3.17877	9.34239e+07	      76.5	   16.7059	   3.18688	9.64421e+07	
         R10	   4082	      76.5	   16.7633	    3.1187	9.16793e+07	      76.5	   16.8836	   3.23884	9.61575e+07	      76.5	   17.0151	   3.10371	9.23802e+07	      76.5	   16.8874	   2.96713	8.65214e+07	      76.5	   16.8235	   3.17877	9.38315e+07	      76.5	   16.9494	   3.17127	9.42023e+07	      76.5	   16.9512	   3.03542	8.94465e+07	      76.5	   16.8254	   3.04292	8.89853e+07	
         R10	   4083	      76.5	   16.8874	   2.96713	 8.6671e+07	      76.5	   17.0151	   3.10371	9.29699e+07	      76.5	   17.1539	   2.96111	9.02654e+07	      76.5	   17.0151	    2.8181	8.51743e+07	      76.5	   16.9512	   3.03542	8.98181e+07	      76.5	   17.0845	   3.03241	9.14801e+07	      76.5	   17.0845	   2.88961	8.76956e+07	      76.5	   16.9512	   2.89261	8.58729e+07	
         R10	   4084	      76.5	   17.0151	    2.8181	8.72518e+07	      76.5	   17.1539	   2.96111	8.94404e+07	      76.5	   17.2999	   2.81105	1.03402e+08	      76.5	   17.1425	   2.65791	7.91614e+07	      76.5	   17.0845	   2.88961	8.83277e+07	      76.5	   17.2269	   2.88608	9.61221e+07	      76.5	   17.2212	   2.73448	8.99398e+07	      76.5	   17.0788	     2.738	8.26707e+07	
         R10	   4085	      76.5	   16.8806	   2.68278	7.08655e+07	      76.5	   17.0151	    2.8181	8.16928e+07	      76.5	   17.1425	   2.65791	7.99541e+07	      76.5	   16.9978	   2.51719	6.41652e+07	      76.5	   16.9479	   2.75044	7.62535e+07	      76.5	   17.0788	     2.738	8.06327e+07	      76.5	   17.0702	   2.58755	7.20374e+07	      76.5	   16.9392	   2.59998	6.73417e+07	
         R10	   4086	      76.5	   16.8806	   2.68278	6.90209e+07	      76.5	   16.9978	   2.51719	 6.4322e+07	      76.5	    16.866	    2.3889	5.51564e+07	      76.5	   16.7494	   2.54656	5.91796e+07	      76.5	   16.9392	   2.59998	6.65062e+07	      76.5	   16.9319	   2.45305	5.96692e+07	      76.5	   16.8077	   2.46773	5.70081e+07	      76.5	    16.815	   2.61467	6.40397e+07	
         R10	   4087	      76.5	   16.7494	   2.54656	5.83104e+07	      76.5	    16.866	    2.3889	5.54394e+07	      76.5	   16.7469	   2.27304	5.01691e+07	      76.5	   16.6786	   2.37849	5.25112e+07	      76.5	   16.8077	   2.46773	5.67151e+07	      76.5	   16.8064	   2.33097	5.26813e+07	      76.5	   16.7128	   2.32576	5.12361e+07	      76.5	    16.714	   2.46252	5.53015e+07	
         R10	   4088	      76.5	    16.547	   2.07859	4.46112e+07	      76.5	   16.4092	   2.10379	4.31318e+07	      76.5	   16.3535	     2.205	4.60505e+07	      76.5	   16.4719	   2.23625	4.76139e+07	      76.5	   16.4781	   2.09119	4.38417e+07	      76.5	   16.3814	   2.15439	4.44789e+07	      76.5	   16.4127	   2.22063	4.68113e+07	      76.5	   16.5095	   2.15742	4.59336e+07	
         R10	   4089	      76.5	   16.6406	    2.1696	 4.7261e+07	      76.5	    16.547	   2.07859	4.39265e+07	      76.5	   16.4719	   2.23625	4.69807e+07	      76.5	   16.5717	   2.27604	4.84161e+07	      76.5	   16.5938	   2.12409	4.55045e+07	      76.5	   16.5095	   2.15742	4.52415e+07	      76.5	   16.5218	   2.25615	4.76577e+07	      76.5	   16.6061	   2.22282	4.77556e+07	
         R10	   4090	      76.5	   16.5717	   2.27604	4.89732e+07	      76.5	   16.4719	   2.23625	4.74002e+07	      76.5	    16.412	   2.34672	5.07916e+07	      76.5	   16.5324	   2.42737	5.29776e+07	      76.5	   16.5218	   2.25615	4.81547e+07	      76.5	   16.4419	   2.29148	4.89839e+07	      76.5	   16.4722	   2.38704	5.18141e+07	      76.5	   16.5521	    2.3517	5.07868e+07	
         R10	   4091	      76.5	   16.5324	   2.42737	5.28193e+07	      76.5	    16.412	   2.34672	5.08046e+07	      76.5	   16.3458	   2.45114	5.51862e+07	      76.5	   16.4463	   2.50592	5.58519e+07	      76.5	   16.4722	   2.38704	5.17417e+07	      76.5	   16.3789	   2.39893	5.28784e+07	      76.5	    16.396	   2.47853	5.54733e+07	      76.5	   16.4893	   2.46664	5.42725e+07	
         R10	   4092	      76.5	   16.4463	   2.50592	5.57758e+07	      76.5	   16.3458	   2.45114	5.53614e+07	      76.5	   16.2928	   2.54344	5.99857e+07	      76.5	   16.3874	   2.60499	 5.8627e+07	      76.5	    16.396	   2.47853	5.55228e+07	      76.5	   16.3193	   2.49729	5.75834e+07	      76.5	   16.3401	   2.57421	5.92632e+07	      76.5	   16.4168	   2.55546	5.71046e+07	
         R10	   4093	      76.5	   16.3874	   2.60499	5.87575e+07	      76.5	   16.2928	   2.54344	5.99318e+07	      76.5	    16.244	   2.63689	  6.503e+07	      76.5	   16.3503	   2.69142	6.03842e+07	      76.5	   16.3401	   2.57421	5.92974e+07	      76.5	   16.2684	   2.59016	6.23525e+07	      76.5	   16.2971	   2.66416	6.26661e+07	      76.5	   16.3688	   2.64821	5.95038e+07	
         R10	   4094	      76.5	   16.3503	   2.69142	6.01479e+07	      76.5	    16.244	   2.63689	6.49839e+07	      76.5	   16.1955	   2.72176	7.03234e+07	      76.5	   16.2898	   2.77208	6.15444e+07	      76.5	   16.2971	   2.66416	 6.2526e+07	      76.5	   16.2198	   2.67933	6.74846e+07	      76.5	   16.2427	   2.74692	6.59122e+07	      76.5	     16.32	   2.73175	6.07373e+07	
         R10	   4095	      76.5	   16.2898	   2.77208	6.21109e+07	      76.5	   16.1955	   2.72176	7.03614e+07	      76.5	   16.1435	   2.80872	7.83591e+07	      76.5	   16.2344	   2.86806	5.85152e+07	      76.5	   16.2427	   2.74692	6.62051e+07	      76.5	   16.1695	   2.76524	7.40614e+07	      76.5	   16.1889	   2.83839	6.83616e+07	      76.5	   16.2621	   2.82007	5.99634e+07	
         R10	   4096	      76.5	   16.2344	   2.86806	5.94776e+07	      76.5	   16.1435	   2.80872	7.77061e+07	      76.5	   16.0944	   2.89592	 8.7148e+07	      76.5	   16.1861	    2.9565	4.72808e+07	      76.5	   16.1889	   2.83839	6.84976e+07	      76.5	   16.1189	   2.85232	8.12355e+07	      76.5	   16.1402	   2.92621	6.71189e+07	      76.5	   16.2102	   2.91228	5.31381e+07	
         R10	   4097	      76.5	   16.1861	    2.9565	4.60713e+07	      76.5	   16.0944	   2.89592	8.75552e+07	      76.5	   16.0432	   2.97903	7.15407e+07	      76.5	   16.1238	   3.04399	3.32225e+07	      76.5	   16.1402	   2.92621	6.66666e+07	      76.5	   16.0688	   2.93748	7.81782e+07	      76.5	   16.0835	   3.01151	5.15986e+07	      76.5	   16.1549	   3.00025	3.95265e+07	
         R10	   4098	      76.5	   16.2916	   3.02067	3.97172e+07	      76.5	   16.1861	    2.9565	4.85247e+07	      76.5	   16.1238	   3.04399	 3.2258e+07	      76.5	   16.2126	   3.11834	4.07265e+07	      76.5	   16.2388	   2.98858	4.30241e+07	      76.5	   16.1549	   3.00025	3.99529e+07	      76.5	   16.1682	   3.08117	3.20246e+07	      76.5	   16.2521	   3.06951	3.96128e+07	
         R10	   4099	      76.5	   16.2916	   3.02067	4.14423e+07	      76.5	   16.2126	   3.11834	3.92943e+07	      76.5	   16.3122	   3.19848	 4.9995e+07	      76.5	   16.4084	   3.08616	5.44609e+07	      76.5	   16.2521	   3.06951	4.00098e+07	      76.5	   16.2624	   3.15841	4.45099e+07	      76.5	   16.3603	   3.14232	5.20098e+07	      76.5	     16.35	   3.05342	4.73087e+07	
         R10	   4100	      76.5	   16.4084	   3.08616	5.54263e+07	      76.5	   16.3122	   3.19848	4.85228e+07	      76.5	   16.4214	   3.28461	7.43304e+07	      76.5	   16.5262	   3.16116	7.15529e+07	      76.5	   16.3603	   3.14232	5.17437e+07	      76.5	   16.3668	   3.24154	6.09468e+07	      76.5	   16.4738	   3.22288	 7.2599e+07	      76.5	   16.4673	   3.12366	6.34813e+07	
         R10	   4101	      76.5	   16.5262	   3.16116	7.44271e+07	      76.5	   16.4214	   3.28461	7.02366e+07	      76.5	    16.534	   3.37969	9.83254e+07	      76.5	   16.6485	   3.25506	1.01091e+08	      76.5	   16.4738	   3.22288	 7.2126e+07	      76.5	   16.4777	   3.33215	 8.4221e+07	      76.5	   16.5913	   3.31738	9.91653e+07	      76.5	   16.5873	   3.20811	8.76169e+07	
         R10	   4102	      76.5	    16.629	   3.02683	7.59265e+07	      76.5	   16.5262	   3.16116	 7.5646e+07	      76.5	   16.6485	   3.25506	9.95585e+07	      76.5	   16.7633	    3.1187	8.78908e+07	      76.5	   16.5776	     3.094	7.55021e+07	      76.5	   16.5873	   3.20811	8.74222e+07	      76.5	   16.7059	   3.18688	9.36081e+07	      76.5	   16.6962	   3.07277	8.18797e+07	
         R10	   4103	      76.5	    16.629	   3.02683	7.54994e+07	      76.5	   16.7633	    3.1187	8.87397e+07	      76.5	   16.8874	   2.96713	 8.5139e+07	      76.5	   16.7503	   2.84737	7.32837e+07	      76.5	   16.6962	   3.07277	8.20919e+07	      76.5	   16.8254	   3.04292	8.68572e+07	      76.5	   16.8188	   2.90725	7.92054e+07	      76.5	   16.6896	    2.9371	7.42071e+07	
         R10	   4104	      76.5	   16.7503	   2.84737	7.27482e+07	      76.5	   16.8874	   2.96713	 8.5276e+07	      76.5	   17.0151	    2.8181	8.08367e+07	      76.5	   16.8806	   2.68278	7.02188e+07	      76.5	   16.8188	   2.90725	7.90082e+07	      76.5	   16.9512	   2.89261	8.28988e+07	      76.5	   16.9479	   2.75044	7.54867e+07	      76.5	   16.8155	   2.76507	7.13825e+07	
         R10	   4105	      76.5	   16.6786	   2.37849	5.24777e+07	      76.5	   16.7469	   2.27304	5.00872e+07	      76.5	   16.6406	    2.1696	4.72819e+07	      76.5	   16.5717	   2.27604	4.80388e+07	      76.5	   16.7128	   2.32576	5.11834e+07	      76.5	   16.6937	   2.22132	4.86248e+07	      76.5	   16.6061	   2.22282	4.75827e+07	      76.5	   16.6252	   2.32726	5.01564e+07	
         R10	   4106	      76.5	   16.5974	    2.5288	5.62585e+07	      76.5	   16.5324	   2.42737	5.24531e+07	      76.5	   16.4463	   2.50592	5.56132e+07	      76.5	   16.5353	    2.6252	5.80865e+07	      76.5	   16.5649	   2.47808	5.42833e+07	      76.5	   16.4893	   2.46664	5.39451e+07	      76.5	   16.4908	   2.56556	5.68031e+07	      76.5	   16.5664	     2.577	5.71361e+07	
         R10	   4107	      76.5	   16.4558	   2.76874	5.82849e+07	      76.5	   16.3503	   2.69142	 5.9863e+07	      76.5	   16.2898	   2.77208	6.10274e+07	      76.5	   16.3693	   2.82845	5.58388e+07	      76.5	    16.403	   2.73008	  5.905e+07	      76.5	     16.32	   2.73175	6.03123e+07	      76.5	   16.3296	   2.80026	5.83413e+07	      76.5	   16.4126	    2.7986	5.70361e+07	
         R10	   4108	      76.5	   16.3693	   2.82845	5.58872e+07	      76.5	   16.2898	   2.77208	 6.1233e+07	      76.5	   16.2344	   2.86806	5.80017e+07	      76.5	   16.3472	   2.92205	4.94409e+07	      76.5	   16.3296	   2.80026	5.84908e+07	      76.5	   16.2621	   2.82007	5.94351e+07	      76.5	   16.2908	   2.89505	5.33597e+07	      76.5	   16.3583	   2.87525	5.26632e+07	
         R10	   4109	      76.5	   16.3472	   2.92205	4.92251e+07	      76.5	   16.2344	   2.86806	5.91157e+07	      76.5	   16.1861	    2.9565	4.82199e+07	      76.5	   16.2916	   3.02067	4.11082e+07	      76.5	   16.2908	   2.89505	5.38284e+07	      76.5	   16.2102	   2.91228	5.34522e+07	      76.5	   16.2388	   2.98858	4.32497e+07	      76.5	   16.3194	   2.97136	4.51076e+07	
         R10	   4110	      76.5	   16.4904	   2.95847	5.81673e+07	      76.5	   16.3472	   2.92205	5.01277e+07	      76.5	   16.2916	   3.02067	4.26477e+07	      76.5	   16.4084	   3.08616	5.33871e+07	      76.5	   16.4188	   2.94026	5.38406e+07	      76.5	   16.3194	   2.97136	4.63518e+07	      76.5	     16.35	   3.05342	4.76539e+07	      76.5	   16.4494	   3.02231	5.56623e+07	
         R10	   4111	      76.5	   16.4904	   2.95847	5.95215e+07	      76.5	   16.4084	   3.08616	5.49421e+07	      76.5	   16.5262	   3.16116	7.27908e+07	      76.5	    16.629	   3.02683	7.44238e+07	      76.5	   16.4494	   3.02231	5.70916e+07	      76.5	   16.4673	   3.12366	6.38409e+07	      76.5	   16.5776	     3.094	7.33767e+07	      76.5	   16.5597	   2.99265	6.69621e+07	
         R10	   4112	      76.5	   16.7494	   2.54656	5.85992e+07	      76.5	   16.6786	   2.37849	5.22546e+07	      76.5	   16.5324	   2.42737	5.26469e+07	      76.5	   16.5974	    2.5288	5.54394e+07	      76.5	    16.714	   2.46252	5.52878e+07	      76.5	   16.6055	   2.40293	 5.2408e+07	      76.5	   16.5649	   2.47808	5.39943e+07	      76.5	   16.6734	   2.53768	5.69456e+07	
         R10	   4113	      76.5	   16.7494	   2.54656	5.88928e+07	      76.5	   16.5974	    2.5288	5.66744e+07	      76.5	   16.5353	    2.6252	5.79104e+07	      76.5	   16.6639	   2.68752	6.21497e+07	      76.5	   16.6734	   2.53768	5.77083e+07	      76.5	   16.5664	     2.577	5.72553e+07	      76.5	   16.5996	   2.65636	6.00238e+07	      76.5	   16.7066	   2.61704	6.04313e+07	
         R10	   4114	      76.5	   16.5353	    2.6252	5.84183e+07	      76.5	   16.3874	   2.60499	 5.8436e+07	      76.5	   16.3503	   2.69142	5.97933e+07	      76.5	   16.4558	   2.76874	5.79807e+07	      76.5	   16.4614	    2.6151	  5.839e+07	      76.5	   16.3688	   2.64821	5.90421e+07	      76.5	    16.403	   2.73008	 5.8862e+07	      76.5	   16.4956	   2.69697	5.81384e+07	
         R10	   4115	      76.5	   16.6639	   2.68752	6.21897e+07	      76.5	   16.5353	    2.6252	5.82193e+07	      76.5	   16.4558	   2.76874	5.81303e+07	      76.5	    16.584	   2.83342	6.28644e+07	      76.5	   16.5996	   2.65636	6.01985e+07	      76.5	   16.4956	   2.69697	5.81195e+07	      76.5	   16.5199	   2.80108	 6.0446e+07	      76.5	   16.6239	   2.76047	6.25031e+07	
         R10	   4116	      76.5	   16.4558	   2.76874	5.79643e+07	      76.5	   16.3693	   2.82845	5.63725e+07	      76.5	   16.3472	   2.92205	5.03424e+07	      76.5	   16.4904	   2.95847	5.78084e+07	      76.5	   16.4126	    2.7986	5.70793e+07	      76.5	   16.3583	   2.87525	5.33451e+07	      76.5	   16.4188	   2.94026	5.37807e+07	      76.5	   16.4731	   2.86361	5.77247e+07	
         R10	   4117	      76.5	   16.7503	   2.84737	7.15479e+07	      76.5	   16.8806	   2.68278	6.89918e+07	      76.5	   16.7494	   2.54656	5.97282e+07	      76.5	   16.6639	   2.68752	6.22522e+07	      76.5	   16.8155	   2.76507	 7.0183e+07	      76.5	    16.815	   2.61467	6.43202e+07	      76.5	   16.7066	   2.61704	6.09312e+07	      76.5	   16.7071	   2.76745	6.68901e+07	
         R10	   4118	      76.5	   16.4904	   2.95847	5.95063e+07	      76.5	    16.629	   3.02683	7.37642e+07	      76.5	   16.7503	   2.84737	7.22814e+07	      76.5	    16.584	   2.83342	6.40348e+07	      76.5	   16.5597	   2.99265	 6.6619e+07	      76.5	   16.6896	    2.9371	7.28723e+07	      76.5	   16.6672	    2.8404	6.81514e+07	      76.5	   16.5372	   2.89595	6.17343e+07	
         R10	   4119	      76.5	    16.547	   2.07859	4.33093e+07	      76.5	   16.4663	         2	4.11183e+07	      76.5	   16.4092	   2.10379	4.31716e+07	      76.5	   16.5067	   2.03929	4.21074e+07	      76.5	   16.4377	   2.05189	  4.202e+07	      76.5	   16.4781	   2.09119	4.32111e+07	       N/A	       N/A	       N/A	        N/A	       N/A	       N/A	       N/A	        N/A	
         R10	   4120	      76.5	   16.6786	   2.37849	5.22486e+07	      76.5	   16.5717	   2.27604	4.87545e+07	      76.5	   16.5324	   2.42737	5.26752e+07	      76.5	   16.6252	   2.32726	5.04243e+07	      76.5	   16.5521	    2.3517	 5.0551e+07	      76.5	   16.6055	   2.40293	 5.2405e+07	       N/A	       N/A	       N/A	        N/A	       N/A	       N/A	       N/A	        N/A	
         R10	   4121	      76.5	   16.5353	    2.6252	5.75653e+07	      76.5	   16.4463	   2.50592	5.55825e+07	      76.5	   16.3874	   2.60499	5.83212e+07	      76.5	   16.4908	   2.56556	5.65302e+07	      76.5	   16.4168	   2.55546	5.68723e+07	      76.5	   16.4614	    2.6151	5.79112e+07	       N/A	       N/A	       N/A	        N/A	       N/A	       N/A	       N/A	        N/A	
         R10	   4122	      76.5	   16.7503	   2.84737	7.12955e+07	      76.5	   16.6639	   2.68752	6.25412e+07	      76.5	    16.584	   2.83342	6.36795e+07	      76.5	   16.7071	   2.76745	6.69018e+07	      76.5	   16.6239	   2.76047	6.30715e+07	      76.5	   16.6672	    2.8404	6.74809e+07	       N/A	       N/A	       N/A	        N/A	       N/A	       N/A	       N/A	        N/A	
         R10	   4123	      76.5	   16.4558	   2.76874	5.81715e+07	      76.5	   16.4904	   2.95847	5.82086e+07	      76.5	    16.584	   2.83342	6.35791e+07	      76.5	   16.4731	   2.86361	5.80819e+07	      76.5	   16.5372	   2.89595	6.08684e+07	      76.5	   16.5199	   2.80108	6.08079e+07	       N/A	       N/A	       N/A	        N/A	       N/A	       N/A	       N/A	        N/A	
         R10	   4124	      76.5	   16.9242	       0.8	3.96593e+07	      76.5	   16.7265	       0.8	 3.8068e+07	      76.5	   16.6774	   1.02658	3.97512e+07	      76.5	   16.8857	   1.03255	 4.2169e+07	      76.5	   16.8254	       0.8	3.87981e+07	      76.5	   16.7019	  0.913292	3.88213e+07	      76.5	   16.7815	   1.02957	4.08886e+07	      76.5	    16.905	  0.916273	4.08606e+07	
         R10	   4125	      76.5	   16.8857	   1.03255	4.29909e+07	      76.5	   16.6774	   1.02658	 3.9917e+07	      76.5	   16.6322	   1.23478	4.21456e+07	      76.5	   16.8499	   1.25503	4.53259e+07	      76.5	   16.7815	   1.02957	 4.1395e+07	      76.5	   16.6548	   1.13068	4.10021e+07	      76.5	   16.7411	   1.24491	4.36425e+07	      76.5	   16.8678	   1.14379	4.41229e+07	
         R10	   4126	      76.5	   16.8499	   1.25503	4.61913e+07	      76.5	   16.6322	   1.23478	4.21344e+07	      76.5	   16.5911	    1.4246	4.36062e+07	      76.5	   16.7969	   1.44166	4.75794e+07	      76.5	   16.7411	   1.24491	 4.4093e+07	      76.5	   16.6116	   1.32969	4.28624e+07	      76.5	    16.694	   1.43313	4.55094e+07	      76.5	   16.8234	   1.34835	4.68708e+07	
         R10	   4127	      76.5	   16.7969	   1.44166	4.80996e+07	      76.5	   16.5911	    1.4246	4.36398e+07	      76.5	   16.5539	   1.59602	4.41931e+07	      76.5	   16.7297	   1.62516	4.78931e+07	      76.5	    16.694	   1.43313	4.58241e+07	      76.5	   16.5725	   1.51031	4.39125e+07	      76.5	   16.6418	   1.61059	4.59804e+07	      76.5	   16.7633	   1.53341	4.79916e+07	
         R10	   4128	      76.5	   16.7297	   1.62516	4.90071e+07	      76.5	   16.5539	   1.59602	 4.4238e+07	      76.5	   16.5207	   1.74907	 4.4134e+07	      76.5	   16.6942	   1.81267	4.76483e+07	      76.5	   16.6418	   1.61059	4.66006e+07	      76.5	   16.5373	   1.67255	4.41815e+07	      76.5	   16.6074	   1.78087	4.58006e+07	      76.5	   16.7119	   1.71892	4.82774e+07	
         R10	   4129	      76.5	   16.8707	   1.81703	5.23982e+07	      76.5	   16.8764	         2	5.04906e+07	      76.5	   17.0496	         2	 5.5625e+07	      76.5	   17.0595	   1.78526	5.94952e+07	      76.5	   16.8736	   1.90851	 5.1372e+07	      76.5	    16.963	         2	5.30532e+07	      76.5	   17.0546	   1.89263	5.75381e+07	      76.5	   16.9651	   1.80114	5.59148e+07	
         R10	   4130	      76.5	   17.0595	   1.78526	5.97421e+07	      76.5	   17.0496	         2	5.63715e+07	      76.5	   17.2412	         2	6.58907e+07	      76.5	   17.2503	   1.77589	6.37066e+07	      76.5	   17.0546	   1.89263	5.80492e+07	      76.5	   17.1454	         2	6.10416e+07	      76.5	   17.2458	   1.88795	6.47818e+07	      76.5	   17.1549	   1.78058	6.16735e+07	
         R10	   4131	      76.5	   17.2503	   1.77589	6.62401e+07	      76.5	   17.2412	         2	6.92603e+07	      76.5	    17.451	         2	7.19996e+07	      76.5	   17.4766	   1.79408	6.72742e+07	      76.5	   17.2458	   1.88795	6.75967e+07	      76.5	   17.3461	         2	6.86816e+07	      76.5	   17.4638	   1.89704	 6.9015e+07	      76.5	   17.3635	   1.78499	6.65167e+07	
         R10	   4132	      76.5	   17.2558	   1.54195	5.81419e+07	      76.5	   17.2503	   1.77589	6.40575e+07	      76.5	   17.4766	   1.79408	6.60538e+07	      76.5	   17.5044	   1.57112	6.11483e+07	      76.5	   17.2531	   1.65892	6.10505e+07	      76.5	   17.3635	   1.78499	6.48446e+07	      76.5	   17.4905	    1.6826	6.35858e+07	      76.5	   17.3801	   1.55654	5.94151e+07	
         R10	   4133	      76.5	   17.2558	   1.54195	5.82891e+07	      76.5	   17.5044	   1.57112	6.13037e+07	      76.5	   17.5343	   1.33112	5.37096e+07	      76.5	   17.2908	   1.31056	5.25757e+07	      76.5	   17.3801	   1.55654	 5.9621e+07	      76.5	   17.5193	   1.45112	5.74788e+07	      76.5	   17.4125	   1.32084	5.29304e+07	      76.5	   17.2733	   1.42625	5.54274e+07	
         R10	   4134	      76.5	   17.2908	   1.31056	5.25851e+07	      76.5	   17.5343	   1.33112	5.37222e+07	      76.5	   17.5663	   1.07408	4.68042e+07	      76.5	   17.3367	   1.04767	4.55656e+07	      76.5	   17.4125	   1.32084	5.30144e+07	      76.5	   17.5503	    1.2026	5.02374e+07	      76.5	   17.4515	   1.06088	 4.6074e+07	      76.5	   17.3138	   1.17911	 4.9011e+07	
         R10	   4135	      76.5	   17.3367	   1.04767	4.57731e+07	      76.5	   17.5663	   1.07408	4.66238e+07	      76.5	   17.6004	       0.8	4.14187e+07	      76.5	   17.3612	       0.8	3.88006e+07	      76.5	   17.4515	   1.06088	4.61125e+07	      76.5	   17.5833	   0.93704	4.39699e+07	      76.5	   17.4808	       0.8	4.00285e+07	      76.5	   17.3489	  0.923835	4.21368e+07	
         R10	   4136	      76.5	   17.1045	   1.03384	  4.408e+07	      76.5	   17.3367	   1.04767	4.58472e+07	      76.5	   17.3612	       0.8	3.86829e+07	      76.5	   17.1358	       0.8	3.96192e+07	      76.5	   17.2206	   1.04076	4.48142e+07	      76.5	   17.3489	  0.923835	4.21354e+07	      76.5	   17.2485	       0.8	3.90159e+07	      76.5	   17.1201	  0.916922	4.17241e+07	
         R10	   4137	      76.5	   17.1045	   1.03384	 4.3969e+07	      76.5	   17.1358	       0.8	3.96704e+07	      76.5	   16.9242	       0.8	4.03524e+07	      76.5	   16.8857	   1.03255	4.24951e+07	      76.5	   17.1201	  0.916922	4.16991e+07	      76.5	     17.03	       0.8	3.99066e+07	      76.5	    16.905	  0.916273	4.14117e+07	      76.5	   16.9951	    1.0332	4.31399e+07	
         R10	   4138	      76.5	   17.0655	   1.28611	4.99275e+07	      76.5	   17.1045	   1.03384	4.41824e+07	      76.5	   16.8857	   1.03255	4.32015e+07	      76.5	   16.8499	   1.25503	4.57378e+07	      76.5	    17.085	   1.15998	4.70184e+07	      76.5	   16.9951	    1.0332	4.36142e+07	      76.5	   16.8678	   1.14379	4.44347e+07	      76.5	   16.9577	   1.27057	4.77333e+07	
         R10	   4139	      76.5	   17.0217	   1.52723	5.34611e+07	      76.5	   16.7969	   1.44166	4.89783e+07	      76.5	   16.7297	   1.62516	4.87783e+07	      76.5	   16.8577	   1.66989	5.16096e+07	      76.5	   16.9093	   1.48444	5.10945e+07	      76.5	   16.7633	   1.53341	4.88758e+07	      76.5	   16.7937	   1.64753	5.01569e+07	      76.5	   16.9397	   1.59856	5.25206e+07	
         R10	   4140	      76.5	   16.6942	   1.81267	 4.6775e+07	      76.5	   16.5207	   1.74907	4.43662e+07	      76.5	   16.4915	   1.88373	 4.2781e+07	      76.5	   16.5847	         2	4.27602e+07	      76.5	   16.6074	   1.78087	4.55473e+07	      76.5	   16.5061	    1.8164	4.35399e+07	      76.5	   16.5381	   1.94186	 4.2522e+07	      76.5	   16.6395	   1.90633	4.45636e+07	
         R10	   4141	      76.5	   16.6942	   1.81267	4.75675e+07	      76.5	   16.7214	         2	4.65245e+07	      76.5	   16.8764	         2	5.05543e+07	      76.5	   16.8707	   1.81703	5.22594e+07	      76.5	   16.7078	   1.90633	4.68809e+07	      76.5	   16.7989	         2	 4.8533e+07	      76.5	   16.8736	   1.90851	5.13325e+07	      76.5	   16.7825	   1.81485	4.98735e+07	
         R10	   4142	      76.5	   17.2908	   1.31056	5.25799e+07	      76.5	   17.3367	   1.04767	4.54901e+07	      76.5	   17.1045	   1.03384	4.41273e+07	      76.5	   17.0655	   1.28611	4.98496e+07	      76.5	   17.3138	   1.17911	4.89803e+07	      76.5	   17.2206	   1.04076	4.46636e+07	      76.5	    17.085	   1.15998	4.69226e+07	      76.5	   17.1781	   1.29833	5.10692e+07	
         R10	   4143	      76.5	   17.0655	   1.28611	4.97896e+07	      76.5	   16.8499	   1.25503	4.67122e+07	      76.5	   16.7969	   1.44166	4.82688e+07	      76.5	   17.0217	   1.52723	 5.4085e+07	      76.5	   16.9577	   1.27057	4.81515e+07	      76.5	   16.8234	   1.34835	4.74852e+07	      76.5	   16.9093	   1.48444	5.10645e+07	      76.5	   17.0436	   1.40667	5.19162e+07	
         R10	   4144	      76.5	   16.8577	   1.66989	5.31532e+07	      76.5	   16.7297	   1.62516	4.94609e+07	      76.5	   16.6942	   1.81267	4.78796e+07	      76.5	   16.8707	   1.81703	5.13676e+07	      76.5	   16.7937	   1.64753	 5.1254e+07	      76.5	   16.7119	   1.71892	4.85952e+07	      76.5	   16.7825	   1.81485	4.96008e+07	      76.5	   16.8642	   1.74346	5.22426e+07	
         R10	   4145	      76.5	   17.2558	   1.54195	5.83852e+07	      76.5	   17.2908	   1.31056	5.25709e+07	      76.5	   17.0655	   1.28611	4.99294e+07	      76.5	   17.0217	   1.52723	5.42192e+07	      76.5	   17.2733	   1.42625	5.54497e+07	      76.5	   17.1781	   1.29833	5.11304e+07	      76.5	   17.0436	   1.40667	5.20625e+07	      76.5	   17.1387	   1.53459	5.61106e+07	
         R10	   4146	      76.5	   17.0595	   1.78526	5.77621e+07	      76.5	   17.2503	   1.77589	6.37462e+07	      76.5	   17.2558	   1.54195	5.84441e+07	      76.5	   17.0217	   1.52723	5.45762e+07	      76.5	   17.1549	   1.78058	6.07077e+07	      76.5	   17.2531	   1.65892	6.10944e+07	      76.5	   17.1387	   1.53459	5.63532e+07	      76.5	   17.0406	   1.65624	5.61408e+07	
         R10	   4147	      76.5	   17.0217	   1.52723	5.45683e+07	      76.5	   16.8577	   1.66989	5.30335e+07	      76.5	   16.8707	   1.81703	 5.2406e+07	      76.5	   17.0595	   1.78526	5.80213e+07	      76.5	   16.9397	   1.59856	5.37699e+07	      76.5	   16.8642	   1.74346	5.26808e+07	      76.5	   16.9651	   1.80114	5.51918e+07	      76.5	   17.0406	   1.65624	5.62778e+07	
         R10	   4148	      76.5	   16.4915	   1.88373	 4.2601e+07	      76.5	   16.4663	         2	3.94934e+07	      76.5	   16.5847	         2	4.04597e+07	      76.5	   16.4789	   1.94186	4.09232e+07	      76.5	   16.5255	         2	3.99723e+07	      76.5	   16.5381	   1.94186	4.13545e+07	       N/A	       N/A	       N/A	        N/A	       N/A	       N/A	       N/A	        N/A	
         R10	   4149	      76.5	   16.6942	   1.81267	4.72178e+07	      76.5	   16.5847	         2	4.39868e+07	      76.5	   16.7214	         2	4.65135e+07	      76.5	   16.6395	   1.90633	 4.5443e+07	      76.5	   16.6531	         2	 4.5244e+07	      76.5	   16.7078	   1.90633	 4.6669e+07	       N/A	       N/A	       N/A	        N/A	       N/A	       N/A	       N/A	        N/A	
         R10	   4150	      76.5	   16.6425	   3.48671	1.26104e+08	      76.5	   16.5328	   3.59945	 1.9422e+08	      76.5	   16.6578	   3.72114	5.14017e+07	      76.5	   16.8233	   3.57317	4.38486e+07	      76.5	   16.5876	   3.54308	1.37335e+08	      76.5	   16.5953	    3.6603	 7.6038e+07	      76.5	   16.7406	   3.64716	3.03141e+07	      76.5	   16.7329	   3.52994	8.31379e+07	
         R10	   4151	      76.5	   16.8233	   3.57317	5.72824e+07	      76.5	   16.6578	   3.72114	7.89202e+07	      76.5	   16.8023	   3.86166	6.02728e+07	      76.5	   16.9663	   3.73393	7.38424e+07	      76.5	   16.7406	   3.64716	5.64166e+07	      76.5	   16.7301	    3.7914	6.76055e+07	      76.5	   16.8843	    3.7978	6.47511e+07	      76.5	   16.8948	   3.65355	5.64943e+07	
         R10	   4152	      76.5	   16.9663	   3.73393	6.88607e+07	      76.5	   16.8023	   3.86166	9.69641e+07	      76.5	    16.966	   4.02101	3.98932e+07	      76.5	   17.1388	   3.85298	1.26849e+08	      76.5	   16.8843	    3.7978	8.23899e+07	      76.5	   16.8841	   3.94133	6.60743e+07	      76.5	   17.0524	   3.93699	8.00576e+07	      76.5	   17.0525	   3.79346	9.73924e+07	
         R10	   4153	      76.5	   17.1388	   3.85298	1.24055e+08	      76.5	    16.966	   4.02101	8.52125e+07	      76.5	   17.1492	   4.19918	2.44242e+08	      76.5	    17.314	   4.01234	1.06071e+08	      76.5	   17.0524	   3.93699	1.01319e+08	      76.5	   17.0576	   4.11009	1.51168e+08	      76.5	   17.2316	   4.10576	1.71351e+08	      76.5	   17.2264	   3.93266	1.07713e+08	
         R10	   4154	      76.5	   17.3062	   3.66701	 1.0451e+08	      76.5	   17.1388	   3.85298	1.21716e+08	      76.5	    17.314	   4.01234	1.13815e+08	      76.5	   17.4904	   3.81243	8.93326e+07	      76.5	   17.2225	   3.75999	 1.1164e+08	      76.5	   17.2264	   3.93266	1.11444e+08	      76.5	   17.4022	   3.91239	9.98722e+07	      76.5	   17.3983	   3.73972	9.69153e+07	
         R10	   4155	      76.5	   17.3062	   3.66701	9.94519e+07	      76.5	   17.4904	   3.81243	8.61444e+07	      76.5	   17.6783	   3.59945	7.19002e+07	      76.5	   17.4629	    3.4053	9.59731e+07	      76.5	   17.3983	   3.73972	9.27679e+07	      76.5	   17.5844	   3.70594	7.87574e+07	      76.5	   17.5706	   3.50237	  8.365e+07	      76.5	   17.3846	   3.53616	9.76837e+07	
         R10	   4156	      76.5	   17.4629	    3.4053	1.06191e+08	      76.5	   17.6783	   3.59945	7.60384e+07	      76.5	   17.8778	   3.37338	2.11869e+07	      76.5	   17.6578	   3.15932	7.39103e+07	      76.5	   17.5706	   3.50237	9.03122e+07	      76.5	   17.7781	   3.48641	4.56296e+07	      76.5	   17.7678	   3.26635	4.20981e+07	      76.5	   17.5604	   3.28231	8.57069e+07	
         R10	   4157	      76.5	   17.2856	   3.18699	9.55321e+07	      76.5	   17.4629	    3.4053	1.07896e+08	      76.5	   17.6578	   3.15932	7.85598e+07	      76.5	   17.4652	   2.97188	 1.0487e+08	      76.5	   17.3743	   3.29614	1.01434e+08	      76.5	   17.5604	   3.28231	8.94421e+07	      76.5	   17.5615	    3.0656	8.74456e+07	      76.5	   17.3754	   3.07943	9.98791e+07	
         R10	   4158	      76.5	   17.2856	   3.18699	9.55583e+07	      76.5	   17.4652	   2.97188	1.10971e+08	      76.5	   17.2999	   2.81105	8.38819e+07	      76.5	   17.1539	   2.96111	9.03243e+07	      76.5	   17.3754	   3.07943	1.02361e+08	      76.5	   17.3825	   2.89147	9.57989e+07	      76.5	   17.2269	   2.88608	8.69264e+07	      76.5	   17.2197	   3.07405	9.23434e+07	
         R10	   4159	      76.5	   17.0339	   3.35426	 8.6285e+07	      76.5	   17.2856	   3.18699	9.66459e+07	      76.5	   17.1539	   2.96111	8.89002e+07	      76.5	   17.0151	   3.10371	9.11793e+07	      76.5	   17.1597	   3.27062	 9.1446e+07	      76.5	   17.2197	   3.07405	9.21327e+07	      76.5	   17.0845	   3.03241	8.97724e+07	      76.5	   17.0245	   3.22898	8.86019e+07	
         R10	   4160	      76.5	   17.1116	   3.56952	8.60639e+07	      76.5	   16.9663	   3.73393	7.27159e+07	      76.5	   17.1388	   3.85298	9.76779e+07	      76.5	   17.3062	   3.66701	1.03484e+08	      76.5	   17.0389	   3.65172	7.90602e+07	      76.5	   17.0525	   3.79346	8.51372e+07	      76.5	   17.2225	   3.75999	1.00351e+08	      76.5	   17.2089	   3.61826	9.45306e+07	
         R10	   4161	      76.5	    17.189	   3.45412	9.26908e+07	      76.5	   17.1116	   3.56952	9.14729e+07	      76.5	   17.3062	   3.66701	1.02708e+08	      76.5	   17.4629	    3.4053	9.09072e+07	      76.5	   17.1503	   3.51182	9.09501e+07	      76.5	   17.2089	   3.61826	9.69966e+07	      76.5	   17.3846	   3.53616	9.67364e+07	      76.5	    17.326	   3.42971	9.07783e+07	
         R10	   4162	      76.5	    17.189	   3.45412	9.63237e+07	      76.5	   17.4629	    3.4053	9.30215e+07	      76.5	   17.2856	   3.18699	 1.0237e+08	      76.5	   17.0339	   3.35426	8.53902e+07	      76.5	    17.326	   3.42971	9.45775e+07	      76.5	   17.3743	   3.29614	9.70995e+07	      76.5	   17.1597	   3.27062	9.36989e+07	      76.5	   17.1114	   3.40419	8.99445e+07	
         R10	   4163	      76.5	    17.189	   3.45412	8.54509e+07	      76.5	   17.0339	   3.35426	8.62256e+07	      76.5	   16.8233	   3.57317	6.06108e+07	      76.5	   17.1116	   3.56952	8.43395e+07	      76.5	   17.1114	   3.40419	8.53478e+07	      76.5	   16.9286	   3.46371	7.33891e+07	      76.5	   16.9674	   3.57134	7.13875e+07	      76.5	   17.1503	   3.51182	8.46854e+07	
         R10	   4164	      76.5	   17.0339	   3.35426	8.64269e+07	      76.5	   16.7594	    3.3665	8.83504e+07	      76.5	   16.6425	   3.48671	 1.1864e+08	      76.5	   16.8233	   3.57317	4.47602e+07	      76.5	   16.8966	   3.36038	8.71348e+07	      76.5	   16.7009	   3.42661	 1.0223e+08	      76.5	   16.7329	   3.52994	 7.8853e+07	      76.5	   16.9286	   3.46371	6.40533e+07	
         R10	   4165	      76.5	   17.0339	   3.35426	8.55068e+07	      76.5	   17.0151	   3.10371	9.11222e+07	      76.5	   16.8836	   3.23884	9.10066e+07	      76.5	   17.0245	   3.22898	8.82864e+07	      76.5	   16.9494	   3.17127	9.10454e+07	      76.5	   16.9587	   3.29655	8.81732e+07	       N/A	       N/A	       N/A	        N/A	       N/A	       N/A	       N/A	        N/A	
         R10	   4166	      76.5	   17.0339	   3.35426	8.30705e+07	      76.5	   16.8836	   3.23884	9.15297e+07	      76.5	   16.7594	    3.3665	8.94567e+07	      76.5	   16.9587	   3.29655	8.71654e+07	      76.5	   16.8215	   3.30267	9.02112e+07	      76.5	   16.8966	   3.36038	8.55215e+07	       N/A	       N/A	       N/A	        N/A	       N/A	       N/A	       N/A	        N/A	
         R10	   4167	      76.5	   16.9663	   3.73393	8.54738e+07	      76.5	   17.1116	   3.56952	8.87402e+07	      76.5	   16.8233	   3.57317	4.98322e+07	      76.5	   17.0389	   3.65172	8.64159e+07	      76.5	   16.9674	   3.57134	6.89811e+07	      76.5	   16.8948	   3.65355	6.60843e+07	       N/A	       N/A	       N/A	        N/A	       N/A	       N/A	       N/A	        N/A	
         R10	   4168	      76.5	   16.8565	   2.16031	4.90396e+07	      76.5	   16.7469	   2.27304	4.91177e+07	      76.5	    16.866	    2.3889	5.52332e+07	      76.5	   16.9881	   2.26347	5.16835e+07	      76.5	   16.8017	   2.21667	4.89185e+07	      76.5	   16.8064	   2.33097	5.20661e+07	      76.5	    16.927	   2.32618	5.32537e+07	      76.5	   16.9223	   2.21189	5.02332e+07	
         R10	   4169	      76.5	   16.9881	   2.26347	5.25337e+07	      76.5	    16.866	    2.3889	5.51652e+07	      76.5	   16.9978	   2.51719	 6.0271e+07	      76.5	   17.1323	   2.37892	6.50186e+07	      76.5	    16.927	   2.32618	5.37307e+07	      76.5	   16.9319	   2.45305	5.76819e+07	      76.5	   17.0651	   2.44805	6.25546e+07	      76.5	   17.0602	   2.32119	5.86874e+07	
         R10	   4170	      76.5	   17.2187	   2.15653	5.87066e+07	      76.5	    17.415	   2.19311	  7.898e+07	      76.5	    17.451	         2	7.58195e+07	      76.5	   17.2412	         2	5.73122e+07	      76.5	   17.3168	   2.17482	6.87533e+07	      76.5	    17.433	   2.09655	 7.7092e+07	      76.5	   17.3461	         2	6.45668e+07	      76.5	   17.2299	   2.07826	5.73722e+07	
         R10	   4171	      76.5	   17.1323	   2.37892	6.79707e+07	      76.5	   16.9978	   2.51719	5.73383e+07	      76.5	   17.1425	   2.65791	7.31167e+07	      76.5	   17.3394	   2.59863	7.71262e+07	      76.5	   17.0651	   2.44805	6.23043e+07	      76.5	   17.0702	   2.58755	6.51845e+07	      76.5	    17.241	   2.62827	7.50422e+07	      76.5	   17.2359	   2.48878	7.21062e+07	
         R10	   4172	      76.5	   17.1323	   2.37892	5.49177e+07	      76.5	   17.3778	   2.39265	7.96465e+07	      76.5	    17.415	   2.19311	7.63005e+07	      76.5	   17.2187	   2.15653	6.10844e+07	      76.5	   17.2551	   2.38578	6.71884e+07	      76.5	   17.3964	   2.29288	 7.7889e+07	      76.5	   17.3168	   2.17482	 6.8413e+07	      76.5	   17.1755	   2.26772	5.77254e+07	
         R10	   4173	      76.5	   17.0855	      2.14	5.45364e+07	      76.5	   17.2187	   2.15653	6.16258e+07	      76.5	   17.2412	         2	5.89552e+07	      76.5	   17.0496	         2	5.55816e+07	      76.5	   17.1521	   2.14826	5.79441e+07	      76.5	   17.2299	   2.07826	5.98974e+07	      76.5	   17.1454	         2	5.72185e+07	      76.5	   17.0676	      2.07	5.48352e+07	
         R10	   4174	      76.5	   17.0855	      2.14	5.41651e+07	      76.5	   17.0496	         2	 5.5973e+07	      76.5	   16.8565	   2.16031	4.77373e+07	      76.5	   16.9881	   2.26347	 5.0667e+07	      76.5	   17.0676	      2.07	5.49089e+07	      76.5	   16.9531	   2.08016	5.16637e+07	      76.5	   16.9223	   2.21189	4.91377e+07	      76.5	   17.0368	   2.20173	5.23044e+07	
         R10	   4175	      76.5	   17.0855	      2.14	5.39848e+07	      76.5	   16.9881	   2.26347	5.11302e+07	      76.5	   17.1323	   2.37892	5.55993e+07	      76.5	   17.2187	   2.15653	6.20454e+07	      76.5	   17.0368	   2.20173	5.24068e+07	      76.5	   17.0602	   2.32119	5.32643e+07	      76.5	   17.1755	   2.26772	5.85046e+07	      76.5	   17.1521	   2.14826	5.79801e+07	
         R10	   4176	      76.5	   16.7395	   2.10997	4.64176e+07	      76.5	   16.6406	    2.1696	4.60146e+07	      76.5	   16.7469	   2.27304	4.95266e+07	      76.5	   16.8565	   2.16031	4.91196e+07	      76.5	     16.69	   2.13978	4.61803e+07	      76.5	   16.6937	   2.22132	 4.7659e+07	      76.5	   16.8017	   2.21667	4.91201e+07	      76.5	    16.798	   2.13514	4.77342e+07	
         R10	   4177	      76.5	   16.7395	   2.10997	4.66809e+07	      76.5	   16.8565	   2.16031	4.79307e+07	      76.5	   16.8764	         2	5.00329e+07	      76.5	   16.7214	         2	4.57449e+07	      76.5	    16.798	   2.13514	4.72813e+07	      76.5	   16.8665	   2.08016	4.87114e+07	      76.5	   16.7989	         2	4.78841e+07	      76.5	   16.7305	   2.05499	4.59749e+07	
         R10	   4178	      76.5	   16.7395	   2.10997	 4.7118e+07	      76.5	   16.7214	         2	4.53248e+07	      76.5	   16.5847	         2	4.19526e+07	      76.5	   16.6406	    2.1696	4.66806e+07	      76.5	   16.7305	   2.05499	4.60338e+07	      76.5	   16.6531	         2	4.36319e+07	      76.5	   16.6126	    2.0848	4.40759e+07	      76.5	     16.69	   2.13978	4.68874e+07	
         R10	   4179	      76.5	   17.1425	   2.65791	6.72082e+07	      76.5	   17.2999	   2.81105	9.92681e+07	      76.5	   17.3394	   2.59863	9.29727e+07	      76.5	   17.2212	   2.73448	8.27443e+07	      76.5	   17.3196	   2.70484	9.59207e+07	      76.5	    17.241	   2.62827	7.97766e+07	       N/A	       N/A	       N/A	        N/A	       N/A	       N/A	       N/A	        N/A	
         R10	   4180	      76.5	   17.1323	   2.37892	6.76328e+07	      76.5	   17.3394	   2.59863	8.91653e+07	      76.5	   17.3778	   2.39265	7.23942e+07	      76.5	   17.2359	   2.48878	7.77861e+07	      76.5	   17.3586	   2.49564	8.00681e+07	      76.5	   17.2551	   2.38578	6.99535e+07	       N/A	       N/A	       N/A	        N/A	       N/A	       N/A	       N/A	        N/A	
         R10	   4181	      76.5	   17.0496	         2	5.51822e+07	      76.5	   16.8764	         2	4.98449e+07	      76.5	   16.8565	   2.16031	4.81946e+07	      76.5	    16.963	         2	5.25081e+07	      76.5	   16.8665	   2.08016	4.88147e+07	      76.5	   16.9531	   2.08016	5.15124e+07	       N/A	       N/A	       N/A	        N/A	       N/A	       N/A	       N/A	        N/A	
         R10	   4182	      76.5	    16.547	   2.07859	4.51594e+07	      76.5	   16.6406	    2.1696	4.72773e+07	      76.5	   16.5847	         2	4.24357e+07	      76.5	   16.5938	   2.12409	4.61956e+07	      76.5	   16.6126	    2.0848	4.41954e+07	      76.5	   16.5659	   2.03929	4.32938e+07	       N/A	       N/A	       N/A	        N/A	       N/A	       N/A	       N/A	        N/A	
         R10	   4183	      76.5	    16.547	   2.07859	4.51723e+07	      76.5	   16.5847	         2	4.01317e+07	      76.5	   16.4663	         2	4.08167e+07	      76.5	   16.5659	   2.03929	4.23126e+07	      76.5	   16.5255	         2	4.04559e+07	      76.5	   16.5067	   2.03929	4.27954e+07	       N/A	       N/A	       N/A	        N/A	       N/A	       N/A	       N/A	        N/A	
         R10	   4184	      76.5	    17.314	   4.01234	 1.1333e+08	      76.5	   17.1492	   4.19918	1.77848e+08	      76.5	   17.3254	    4.3707	4.93854e+07	      76.5	   17.5528	    4.1818	2.79049e+07	      76.5	   17.2316	   4.10576	1.13581e+08	      76.5	   17.2373	   4.28494	6.45421e+07	      76.5	   17.4391	   4.27625	2.69807e+07	      76.5	   17.4334	   4.09707	6.19324e+07	
         R10	   4185	      76.5	   17.5528	    4.1818	3.27724e+07	      76.5	   17.3254	    4.3707	8.22233e+07	      76.5	   17.5309	   4.57061	1.42386e+07	      76.5	   17.7936	   4.35121	6.61479e+07	      76.5	   17.4391	   4.27625	5.01599e+07	      76.5	   17.4282	   4.47065	3.94319e+07	      76.5	   17.6622	   4.46091	3.03015e+07	      76.5	   17.6732	    4.2665	4.65754e+07	
         R10	   4186	      76.5	   17.7936	   4.35121	6.20149e+07	      76.5	   17.5309	   4.57061	4.38639e+07	      76.5	   17.7655	    4.7989	1.81101e+08	      76.5	   18.0091	   4.54862	6.09303e+07	      76.5	   17.6622	   4.46091	5.10989e+07	      76.5	   17.6482	   4.68475	1.01377e+08	      76.5	   17.8873	   4.67376	1.03823e+08	      76.5	   17.9013	   4.44991	3.79032e+07	
         R10	   4187	      76.5	   18.0158	   4.03916	4.36012e+07	      76.5	   17.7936	   4.35121	5.90625e+07	      76.5	   18.0091	   4.54862	5.82743e+07	      76.5	   18.2648	   4.28582	3.41958e+07	      76.5	   17.9047	   4.19518	4.40176e+07	      76.5	   17.9013	   4.44991	4.53506e+07	      76.5	   18.1369	   4.41722	4.49229e+07	      76.5	   18.1403	   4.16249	3.71408e+07	
         R10	   4188	      76.5	   18.0158	   4.03916	4.01231e+07	      76.5	   18.2648	   4.28582	3.16927e+07	      76.5	   18.5326	    4.0105	6.94183e+07	      76.5	   18.2936	   3.77795	6.67901e+07	      76.5	   18.1403	   4.16249	3.34885e+07	      76.5	   18.3987	   4.14816	4.96658e+07	      76.5	   18.4131	   3.89423	6.80572e+07	      76.5	   18.1547	   3.90855	5.03153e+07	
         R10	   4189	      76.5	   18.0158	   4.03916	 3.9941e+07	      76.5	   18.2936	   3.77795	6.80347e+07	      76.5	   18.0753	   3.56557	5.70444e+07	      76.5	   17.9332	   3.74037	4.27783e+07	      76.5	   18.1547	   3.90855	5.00794e+07	      76.5	   18.1845	   3.67176	6.24701e+07	      76.5	   18.0043	   3.65297	4.74891e+07	      76.5	   17.9745	   3.88976	4.11607e+07	
         R10	   4190	      76.5	   17.9332	   3.74037	4.00458e+07	      76.5	   18.0753	   3.56557	5.67093e+07	      76.5	   17.8778	   3.37338	2.85412e+07	      76.5	   17.6783	   3.59945	6.98345e+07	      76.5	   18.0043	   3.65297	4.53085e+07	      76.5	   17.9766	   3.46948	4.22915e+07	      76.5	   17.7781	   3.48641	4.20531e+07	      76.5	   17.8058	   3.66991	5.24661e+07	
         R10	   4191	      76.5	   17.4904	   3.81243	7.83829e+07	      76.5	    17.314	   4.01234	9.92786e+07	      76.5	   17.5528	    4.1818	4.12879e+07	      76.5	   17.7033	   3.97408	5.09105e+07	      76.5	   17.4022	   3.91239	8.58962e+07	      76.5	   17.4334	   4.09707	 6.0511e+07	      76.5	    17.628	   4.07794	3.94564e+07	      76.5	   17.5968	   3.89326	6.40238e+07	
         R10	   4192	      76.5	   17.7033	   3.97408	4.71265e+07	      76.5	   17.5528	    4.1818	 3.6809e+07	      76.5	   17.7936	   4.35121	4.50076e+07	      76.5	   18.0158	   4.03916	3.41723e+07	      76.5	    17.628	   4.07794	 4.1344e+07	      76.5	   17.6732	    4.2665	4.07039e+07	      76.5	   17.9047	   4.19518	 3.8566e+07	      76.5	   17.8596	   4.00662	 3.9888e+07	
         R10	   4193	      76.5	   17.7033	   3.97408	4.83166e+07	      76.5	   18.0158	   4.03916	3.72846e+07	      76.5	   17.9332	   3.74037	 4.5546e+07	      76.5	   17.6783	   3.59945	6.31434e+07	      76.5	   17.8596	   4.00662	4.19847e+07	      76.5	   17.9745	   3.88976	4.13272e+07	      76.5	   17.8058	   3.66991	5.21306e+07	      76.5	   17.6908	   3.78676	5.56536e+07	
         R10	   4194	      76.5	   17.4904	   3.81243	7.86232e+07	      76.5	   17.7033	   3.97408	5.18859e+07	      76.5	   17.6783	   3.59945	6.84679e+07	      76.5	   17.5968	   3.89326	 6.4954e+07	      76.5	   17.6908	   3.78676	5.99181e+07	      76.5	   17.5844	   3.70594	7.30338e+07	       N/A	       N/A	       N/A	        N/A	       N/A	       N/A	       N/A	        N/A	
         R10	   4195	      76.5	    17.869	  0.812795	3.83824e+07	      76.5	   17.6004	       0.8	4.09214e+07	      76.5	   17.5663	   1.07408	4.64955e+07	      76.5	   17.8503	   1.08642	4.51478e+07	      76.5	   17.7347	  0.806398	3.95396e+07	      76.5	   17.5833	   0.93704	 4.3683e+07	      76.5	   17.7083	   1.08025	4.57177e+07	      76.5	   17.8596	  0.949606	 4.1587e+07	
         R10	   4196	      76.5	   17.8503	   1.08642	4.40766e+07	      76.5	   17.5663	   1.07408	4.71189e+07	      76.5	   17.5343	   1.33112	5.42216e+07	      76.5	   17.7994	   1.31999	5.01292e+07	      76.5	   17.7083	   1.08025	4.55033e+07	      76.5	   17.5503	    1.2026	5.05834e+07	      76.5	   17.6668	   1.32556	5.18691e+07	      76.5	   17.8248	   1.20321	4.70615e+07	
         R10	   4197	      76.5	   17.7994	   1.31999	 5.3027e+07	      76.5	   17.5343	   1.33112	5.42398e+07	      76.5	   17.5044	   1.57112	6.14814e+07	      76.5	     17.79	   1.61423	 6.0397e+07	      76.5	   17.6668	   1.32556	 5.3354e+07	      76.5	   17.5193	   1.45112	5.78562e+07	      76.5	   17.6472	   1.59267	6.01804e+07	      76.5	   17.7947	   1.46711	5.65317e+07	
         R10	   4198	      76.5	     17.79	   1.61423	 6.5079e+07	      76.5	   17.5044	   1.57112	6.16503e+07	      76.5	   17.4766	   1.79408	6.66567e+07	      76.5	   17.6866	   1.80975	6.87962e+07	      76.5	   17.6472	   1.59267	6.27005e+07	      76.5	   17.4905	    1.6826	6.41535e+07	      76.5	   17.5816	   1.80192	6.71289e+07	      76.5	   17.7383	   1.71199	6.69107e+07	
         R10	   4199	      76.5	   17.6866	   1.80975	7.44807e+07	      76.5	   17.4766	   1.79408	6.69837e+07	      76.5	    17.451	         2	7.07885e+07	      76.5	   17.6508	         2	8.39181e+07	      76.5	   17.5816	   1.80192	7.02862e+07	      76.5	   17.4638	   1.89704	6.84649e+07	      76.5	   17.5509	         2	7.51511e+07	      76.5	   17.6687	   1.90488	7.90334e+07	
         R10	   4200	      76.5	   17.9593	   1.74572	5.84823e+07	      76.5	   17.8815	         2	7.86572e+07	      76.5	   18.1431	         2	5.30544e+07	      76.5	   18.1641	   1.70362	  5.833e+07	      76.5	   17.9204	   1.87286	6.84729e+07	      76.5	   18.0123	         2	5.96716e+07	      76.5	   18.1536	   1.85181	5.03995e+07	      76.5	   18.0617	   1.72467	5.81786e+07	
         R10	   4201	      76.5	   18.1641	   1.70362	5.70245e+07	      76.5	   18.1431	         2	5.32181e+07	      76.5	   18.4357	         2	 1.1863e+07	      76.5	   18.4454	   1.69834	 3.3367e+07	      76.5	   18.1536	   1.85181	4.97041e+07	      76.5	   18.2894	         2	3.06357e+07	      76.5	   18.4405	   1.84917	2.07425e+07	      76.5	   18.3047	   1.70098	4.20364e+07	
         R10	   4202	      76.5	   18.1641	   1.70362	4.46236e+07	      76.5	   18.4454	   1.69834	3.21777e+07	      76.5	   18.4555	   1.38401	3.04806e+07	      76.5	   18.1311	   1.39263	4.62437e+07	      76.5	   18.3047	   1.70098	3.62785e+07	      76.5	   18.4504	   1.54118	3.07311e+07	      76.5	   18.2933	   1.38832	3.73471e+07	      76.5	   18.1476	   1.54813	4.46779e+07	
         R10	   4203	      76.5	   18.1311	   1.39263	4.39056e+07	      76.5	   18.4555	   1.38401	2.99499e+07	      76.5	    18.466	   1.05701	2.82297e+07	      76.5	   18.1498	   1.05551	3.73681e+07	      76.5	   18.2933	   1.38832	 3.5905e+07	      76.5	   18.4608	   1.22051	2.85788e+07	      76.5	   18.3079	   1.05626	3.27215e+07	      76.5	   18.1405	   1.22407	4.03475e+07	
         R10	   4204	      76.5	   18.1498	   1.05551	3.82465e+07	      76.5	    18.466	   1.05701	 2.8036e+07	      76.5	   18.4769	  0.717345	3.15048e+07	      76.5	   18.1671	  0.727741	3.45875e+07	      76.5	   18.3079	   1.05626	3.30566e+07	      76.5	   18.4715	  0.887179	 2.9665e+07	      76.5	    18.322	  0.722543	3.29488e+07	      76.5	   18.1585	  0.891624	3.62996e+07	
         R10	   4205	      76.5	   18.1671	  0.727741	3.68641e+07	      76.5	   18.4769	  0.717345	3.16424e+07	      76.5	   18.4883	  0.365008	4.78252e+07	      76.5	   18.0962	  0.355216	4.70026e+07	      76.5	    18.322	  0.722543	3.42018e+07	      76.5	   18.4826	  0.541176	3.91426e+07	      76.5	   18.2922	  0.360112	4.16235e+07	      76.5	   18.1317	  0.541478	3.90262e+07	
         R10	   4206	      76.5	   18.0962	  0.355216	4.36118e+07	      76.5	   18.4883	  0.365008	3.25607e+07	      76.5	      18.5	         0	1.24454e+08	      76.5	    18.081	         0	3.31606e+07	      76.5	   18.2922	  0.360112	3.41784e+07	      76.5	   18.4941	  0.182504	7.67276e+07	      76.5	   18.2905	         0	6.17043e+07	      76.5	   18.0886	  0.177608	2.78516e+07	
         R10	   4207	      76.5	   18.0962	  0.355216	3.88098e+07	      76.5	    18.081	         0	4.05605e+07	      76.5	      17.7	         0	1.19487e+08	      76.5	   17.6636	  0.292006	4.10542e+07	      76.5	   18.0886	  0.177608	2.74686e+07	      76.5	   17.8905	         0	4.94601e+07	      76.5	   17.6818	  0.146003	7.41093e+07	      76.5	   17.8799	  0.323611	3.31211e+07	
         R10	   4208	      76.5	   18.0962	  0.355216	3.73826e+07	      76.5	   17.6636	  0.292006	4.84939e+07	      76.5	   17.6304	  0.558673	3.76803e+07	      76.5	   17.8661	  0.574572	3.81363e+07	      76.5	   17.8799	  0.323611	3.47939e+07	      76.5	    17.647	  0.425339	4.25472e+07	      76.5	   17.7483	  0.566622	  3.787e+07	      76.5	   17.9811	  0.464894	3.31916e+07	
         R10	   4209	      76.5	   17.8661	  0.574572	3.78689e+07	      76.5	   17.6304	  0.558673	3.82077e+07	      76.5	   17.6004	       0.8	4.14639e+07	      76.5	    17.869	  0.812795	3.60566e+07	      76.5	   17.7483	  0.566622	3.78633e+07	      76.5	   17.6154	  0.679336	3.96698e+07	      76.5	   17.7347	  0.806398	3.86026e+07	      76.5	   17.8676	  0.693684	3.67543e+07	
         R10	   4210	      76.5	     17.79	   1.61423	6.45843e+07	      76.5	   17.6866	   1.80975	6.85059e+07	      76.5	   17.8815	         2	7.90856e+07	      76.5	   17.9593	   1.74572	5.60587e+07	      76.5	   17.7383	   1.71199	6.64841e+07	      76.5	   17.7841	   1.90488	7.22888e+07	      76.5	   17.9204	   1.87286	 6.7525e+07	      76.5	   17.8747	   1.67998	5.95752e+07	
         R10	   4211	      76.5	   18.1671	  0.727741	4.01348e+07	      76.5	   18.0962	  0.355216	2.85649e+07	      76.5	   17.8661	  0.574572	 4.0414e+07	      76.5	    17.869	  0.812795	3.86926e+07	      76.5	   18.1317	  0.541478	3.01937e+07	      76.5	   17.9811	  0.464894	3.03487e+07	      76.5	   17.8676	  0.693684	3.94655e+07	      76.5	   18.0181	  0.770268	3.92626e+07	
         R10	   4212	      76.5	   18.1498	   1.05551	3.65195e+07	      76.5	   18.1671	  0.727741	3.62232e+07	      76.5	    17.869	  0.812795	3.69657e+07	      76.5	   17.8503	   1.08642	4.51291e+07	      76.5	   18.1585	  0.891624	3.62811e+07	      76.5	   18.0181	  0.770268	3.63411e+07	      76.5	   17.8596	  0.949606	4.08713e+07	      76.5	        18	   1.07096	4.07165e+07	
         R10	   4213	      76.5	   18.1311	   1.39263	 4.4894e+07	      76.5	   18.1498	   1.05551	3.72685e+07	      76.5	   17.8503	   1.08642	4.53961e+07	      76.5	   17.7994	   1.31999	 5.0776e+07	      76.5	   18.1405	   1.22407	4.08777e+07	      76.5	        18	   1.07096	 4.1215e+07	      76.5	   17.8248	   1.20321	4.79049e+07	      76.5	   17.9653	   1.35631	4.68814e+07	
         R10	   4214	      76.5	     17.79	   1.61423	6.20318e+07	      76.5	   17.9593	   1.74572	6.80248e+07	      76.5	   18.1641	   1.70362	4.65501e+07	      76.5	   18.1311	   1.39263	4.53936e+07	      76.5	   17.8747	   1.67998	6.43245e+07	      76.5	   18.0617	   1.72467	5.59586e+07	      76.5	   18.1476	   1.54813	4.49983e+07	      76.5	   17.9606	   1.50343	5.30588e+07	
         R10	   4215	      76.5	   17.6866	   1.80975	7.13334e+07	      76.5	   17.6508	         2	 8.0865e+07	      76.5	   17.8815	         2	8.17557e+07	      76.5	   17.6687	   1.90488	7.59879e+07	      76.5	   17.7662	         2	8.00625e+07	      76.5	   17.7841	   1.90488	7.45497e+07	       N/A	       N/A	       N/A	        N/A	       N/A	       N/A	       N/A	        N/A	
         R10	   4216	      76.5	   17.7994	   1.31999	5.29187e+07	      76.5	     17.79	   1.61423	6.12983e+07	      76.5	   18.1311	   1.39263	4.36897e+07	      76.5	   17.7947	   1.46711	5.70232e+07	      76.5	   17.9606	   1.50343	5.19386e+07	      76.5	   17.9653	   1.35631	4.74603e+07	       N/A	       N/A	       N/A	        N/A	       N/A	       N/A	       N/A	        N/A	
         R10	   4217	      76.5	   18.0091	   4.54862	5.56069e+07	      76.5	   17.7655	    4.7989	1.50434e+08	      76.5	   18.0444	   5.07027	3.86675e+07	      76.5	   18.3486	   4.81725	4.59584e+07	      76.5	   17.8873	   4.67376	 9.2458e+07	      76.5	    17.905	   4.93459	7.68664e+07	      76.5	   18.1965	   4.94376	3.76023e+07	      76.5	   18.1789	   4.68293	3.57185e+07	
         R10	   4218	      76.5	   18.3486	   4.81725	3.35194e+07	      76.5	   18.0444	   5.07027	1.82262e+07	      76.5	   18.3819	   5.39863	 8.6239e+07	      76.5	   18.6483	   5.16518	7.67991e+07	      76.5	   18.1965	   4.94376	 2.1025e+07	      76.5	   18.2132	   5.23445	3.61331e+07	      76.5	   18.5151	    5.2819	6.55216e+07	      76.5	   18.4985	   4.99121	5.05081e+07	
         R10	   4219	      76.5	   18.6102	   4.56092	3.90367e+07	      76.5	   18.3486	   4.81725	2.25758e+07	      76.5	   18.6483	   5.16518	 8.0266e+07	      76.5	    18.925	   4.92276	6.11757e+07	      76.5	   18.4794	   4.68908	2.58008e+07	      76.5	   18.4985	   4.99121	   4.72e+07	      76.5	   18.7867	   5.04397	 6.9542e+07	      76.5	   18.7676	   4.74184	4.86955e+07	
         R10	   4220	      76.5	   18.6102	   4.56092	3.53938e+07	      76.5	    18.925	   4.92276	6.80919e+07	      76.5	   19.2119	   4.67137	1.21508e+07	      76.5	   18.8436	   4.31303	5.88167e+07	      76.5	   18.7676	   4.74184	5.01236e+07	      76.5	   19.0684	   4.79706	3.84565e+07	      76.5	   19.0277	    4.4922	3.28981e+07	      76.5	   18.7269	   4.43697	4.29243e+07	
         R10	   4221	      76.5	   18.6102	   4.56092	3.61388e+07	      76.5	   18.8436	   4.31303	5.77196e+07	      76.5	   18.5326	    4.0105	6.99629e+07	      76.5	   18.2648	   4.28582	3.33188e+07	      76.5	   18.7269	   4.43697	4.41316e+07	      76.5	   18.6881	   4.16176	6.37325e+07	      76.5	   18.3987	   4.14816	5.08062e+07	      76.5	   18.4375	   4.42337	3.27272e+07	
         R10	   4222	      76.5	   18.3486	   4.81725	5.56336e+07	      76.5	   18.6102	   4.56092	4.02916e+07	      76.5	   18.2648	   4.28582	 3.3361e+07	      76.5	   18.0091	   4.54862	5.68019e+07	      76.5	   18.4794	   4.68908	4.30672e+07	      76.5	   18.4375	   4.42337	3.47941e+07	      76.5	   18.1369	   4.41722	4.38077e+07	      76.5	   18.1789	   4.68293	4.10018e+07	
         R10	   4223	      76.5	    18.862	         0	5.67364e+07	      76.5	      18.5	         0	1.14426e+08	      76.5	   18.4883	  0.365008	4.18131e+07	      76.5	   18.9329	  0.388645	3.83826e+07	      76.5	    18.681	         0	  5.654e+07	      76.5	   18.4941	  0.182504	7.31063e+07	      76.5	   18.7106	  0.376826	3.44017e+07	      76.5	   18.8974	  0.194322	3.11789e+07	
         R10	   4224	      76.5	   18.9329	  0.388645	3.51521e+07	      76.5	   18.4883	  0.365008	4.36086e+07	      76.5	   18.4769	  0.717345	2.85919e+07	      76.5	   18.9218	  0.762062	2.48004e+07	      76.5	   18.7106	  0.376826	3.20477e+07	      76.5	   18.4826	  0.541176	3.47519e+07	      76.5	   18.6993	  0.739703	2.60402e+07	      76.5	   18.9273	  0.575353	2.87018e+07	
         R10	   4225	      76.5	   18.9218	  0.762062	2.43034e+07	      76.5	   18.4769	  0.717345	3.01814e+07	      76.5	    18.466	   1.05701	2.72342e+07	      76.5	   18.8331	   1.04225	2.23865e+07	      76.5	   18.6993	  0.739703	2.68168e+07	      76.5	   18.4715	  0.887179	 2.8513e+07	      76.5	   18.6496	   1.04963	2.34719e+07	      76.5	   18.8774	  0.902158	2.32887e+07	
         R10	   4226	      76.5	   18.8331	   1.04225	2.17151e+07	      76.5	    18.466	   1.05701	2.72703e+07	      76.5	   18.4555	   1.38401	2.63018e+07	      76.5	   18.7431	   1.41462	1.92397e+07	      76.5	   18.6496	   1.04963	2.31787e+07	      76.5	   18.4608	   1.22051	2.63708e+07	      76.5	   18.5993	   1.39932	2.11353e+07	      76.5	   18.7881	   1.22844	 1.9896e+07	
         R10	   4227	      76.5	   18.7431	   1.41462	1.98376e+07	      76.5	   18.4555	   1.38401	2.69041e+07	      76.5	   18.4454	   1.69834	2.59167e+07	      76.5	   18.7838	   1.69431	1.40374e+07	      76.5	   18.5993	   1.39932	2.18689e+07	      76.5	   18.4504	   1.54118	2.58594e+07	      76.5	   18.6146	   1.69633	 1.8221e+07	      76.5	   18.7634	   1.55447	1.66218e+07	
         R10	   4228	      76.5	   18.7838	   1.69431	 1.6203e+07	      76.5	   18.4454	   1.69834	2.91927e+07	      76.5	   18.4357	         2	1.06354e+07	      76.5	   18.7687	         2	4.08997e+06	      76.5	   18.6146	   1.69633	2.06155e+07	      76.5	   18.4405	   1.84917	 1.8842e+07	      76.5	   18.6022	         2	 6.1975e+06	      76.5	   18.7762	   1.84716	9.31145e+06	
         R10	   4229	      76.5	   19.1661	   1.66259	2.41016e+07	      76.5	   18.7838	   1.69431	1.76697e+07	      76.5	   18.7687	         2	2.58556e+06	      76.5	   19.1568	         2	9.94639e+06	      76.5	    18.975	   1.67845	1.97821e+07	      76.5	   18.7762	   1.84716	1.00502e+07	      76.5	   18.9627	         2	6.21802e+06	      76.5	   19.1615	   1.83129	1.64159e+07	
         R10	   4230	      76.5	   19.1661	   1.66259	2.43795e+07	      76.5	   19.1568	         2	8.72073e+06	      76.5	      19.6	         2	3.54158e+07	      76.5	   19.5429	   1.61905	3.76554e+07	      76.5	   19.1615	   1.83129	1.55295e+07	      76.5	   19.3784	         2	2.16336e+07	      76.5	   19.5714	   1.80952	3.50177e+07	      76.5	   19.3545	   1.64082	3.07559e+07	
         R10	   4231	      76.5	   19.1119	   1.26138	2.49838e+07	      76.5	   19.1661	   1.66259	2.35338e+07	      76.5	   19.5429	   1.61905	3.57498e+07	      76.5	   19.4843	   1.22857	3.19325e+07	      76.5	    19.139	   1.46199	2.38892e+07	      76.5	   19.3545	   1.64082	 2.9412e+07	      76.5	   19.5136	   1.42381	3.36181e+07	      76.5	   19.2981	   1.24498	2.79673e+07	
         R10	   4232	      76.5	   19.3629	  0.419048	3.64449e+07	      76.5	      19.3	         0	8.71523e+07	      76.5	    18.862	         0	 4.7258e+07	      76.5	   18.9329	  0.388645	 3.6289e+07	      76.5	   19.3314	  0.209524	5.41436e+07	      76.5	    19.081	         0	5.28125e+07	      76.5	   18.8974	  0.194322	3.16753e+07	      76.5	   19.1479	  0.403846	3.00222e+07	
         R10	   4233	      76.5	   19.4243	  0.828571	2.75004e+07	      76.5	   19.3629	  0.419048	3.43601e+07	      76.5	   18.9329	  0.388645	3.43057e+07	      76.5	   18.9218	  0.762062	2.62437e+07	      76.5	   19.3936	   0.62381	2.83136e+07	      76.5	   19.1479	  0.403846	 2.6433e+07	      76.5	   18.9273	  0.575353	2.78525e+07	      76.5	    19.173	  0.795316	2.56391e+07	
         R10	   4234	      76.5	   18.7431	   1.41462	 1.9113e+07	      76.5	   18.7838	   1.69431	1.70412e+07	      76.5	   19.1661	   1.66259	2.27012e+07	      76.5	   19.1119	   1.26138	2.52885e+07	      76.5	   18.7634	   1.55447	1.77622e+07	      76.5	    18.975	   1.67845	1.87176e+07	      76.5	    19.139	   1.46199	2.36657e+07	      76.5	   18.9275	     1.338	2.03007e+07	
         R10	   4235	      76.5	   19.4243	  0.828571	 3.0037e+07	      76.5	   18.9218	  0.762062	2.43936e+07	      76.5	   18.8331	   1.04225	2.25669e+07	      76.5	   19.1119	   1.26138	2.34495e+07	      76.5	    19.173	  0.795316	2.58128e+07	      76.5	   18.8774	  0.902158	2.32499e+07	      76.5	   18.9725	   1.15182	2.21134e+07	      76.5	   19.2681	   1.04498	2.64567e+07	
         R10	   4236	      76.5	   18.8331	   1.04225	2.20467e+07	      76.5	   18.7431	   1.41462	1.87231e+07	      76.5	   19.1119	   1.26138	2.27462e+07	      76.5	   18.7881	   1.22844	1.99784e+07	      76.5	   18.9275	     1.338	1.92338e+07	      76.5	   18.9725	   1.15182	2.11409e+07	       N/A	       N/A	       N/A	        N/A	       N/A	       N/A	       N/A	        N/A	
         R10	   4237	      76.5	   19.4843	   1.22857	 3.2083e+07	      76.5	   19.4243	  0.828571	2.80529e+07	      76.5	   19.1119	   1.26138	2.51166e+07	      76.5	   19.4543	   1.02857	2.97204e+07	      76.5	   19.2681	   1.04498	2.59545e+07	      76.5	   19.2981	   1.24498	2.80171e+07	       N/A	       N/A	       N/A	        N/A	       N/A	       N/A	       N/A	        N/A	
         R10	   4238	      76.5	   19.1479	   5.36211	7.57883e+07	      76.5	   19.3758	   5.02378	7.72578e+07	      76.5	   19.2119	   4.67137	3.25007e+07	      76.5	    18.925	   4.92276	7.82763e+07	      76.5	   19.2619	   5.19295	7.58289e+07	      76.5	   19.2938	   4.84757	5.29795e+07	      76.5	   19.0684	   4.79706	5.34953e+07	      76.5	   19.0365	   5.14243	7.65097e+07	
         R10	   4239	      76.5	    18.767	   5.38027	7.40879e+07	      76.5	   19.1479	   5.36211	6.94314e+07	      76.5	    18.925	   4.92276	7.22065e+07	      76.5	   18.6483	   5.16518	8.65825e+07	      76.5	   18.9574	   5.37119	7.17449e+07	      76.5	   19.0365	   5.14243	7.07279e+07	      76.5	   18.7867	   5.04397	7.84225e+07	      76.5	   18.7076	   5.27272	7.99312e+07	
         R10	   4240	      76.5	   19.1479	   5.36211	6.97104e+07	      76.5	   19.5249	   5.34415	 5.2129e+07	      76.5	   19.3758	   5.02378	7.89229e+07	      76.5	   19.3364	   5.35313	5.85956e+07	      76.5	   19.4503	   5.18396	6.16335e+07	      76.5	   19.2619	   5.19295	7.29502e+07	       N/A	       N/A	       N/A	        N/A	       N/A	       N/A	       N/A	        N/A	
         R10	   4241	      76.5	   18.3819	   5.39863	1.22654e+08	      76.5	    18.767	   5.38027	7.01898e+07	      76.5	   18.6483	   5.16518	7.49339e+07	      76.5	   18.5744	   5.38945	9.25072e+07	      76.5	   18.7076	   5.27272	6.97158e+07	      76.5	   18.5151	    5.2819	9.85285e+07	       N/A	       N/A	       N/A	        N/A	       N/A	       N/A	       N/A	        N/A	
         R10	   4242	      76.5	        19	         6	7.64476e+07	      76.5	   19.1479	   5.36211	6.40619e+07	      76.5	    18.767	   5.38027	7.72273e+07	      76.5	   18.6649	   5.67392	4.44787e+07	      76.5	    19.074	   5.68106	6.34824e+07	      76.5	   18.9574	   5.37119	7.04614e+07	      76.5	   18.7159	   5.52709	5.94104e+07	      76.5	   18.8324	   5.83696	5.96099e+07	
         R10	   4243	      76.5	   19.4176	   5.67286	1.84085e+07	      76.5	   19.4348	         6	4.38982e+07	      76.5	     19.83	         6	4.45071e+07	      76.5	   19.6702	   5.65646	3.80439e+07	      76.5	   19.4262	   5.83643	2.74312e+07	      76.5	   19.6324	         6	4.36803e+07	      76.5	   19.7501	   5.82823	4.02996e+07	      76.5	   19.5439	   5.66466	2.59407e+07	
         R10	   4244	      76.5	   19.4176	   5.67286	  3.233e+07	      76.5	   19.6702	   5.65646	3.48798e+07	      76.5	   19.5249	   5.34415	3.94713e+07	      76.5	   19.1479	   5.36211	 6.6226e+07	      76.5	   19.5439	   5.66466	3.23972e+07	      76.5	   19.5975	    5.5003	3.49827e+07	      76.5	   19.3364	   5.35313	5.06399e+07	      76.5	   19.2828	   5.51748	4.63882e+07	
         R10	   4245	      76.5	   19.4176	   5.67286	 2.4186e+07	      76.5	   19.1479	   5.36211	7.36743e+07	      76.5	        19	         6	4.55409e+07	      76.5	   19.4348	         6	3.75492e+07	      76.5	   19.2828	   5.51748	4.64106e+07	      76.5	    19.074	   5.68106	4.50902e+07	      76.5	   19.2174	         6	2.85875e+07	      76.5	   19.4262	   5.83643	 2.9285e+07	
         R10	   4246	      76.5	    18.767	   5.38027	 8.0056e+07	      76.5	   18.3819	   5.39863	9.90469e+07	      76.5	   18.6649	   5.67392	4.91178e+07	      76.5	   18.5744	   5.38945	8.76925e+07	      76.5	   18.5234	   5.53627	6.19843e+07	      76.5	   18.7159	   5.52709	 5.9108e+07	       N/A	       N/A	       N/A	        N/A	       N/A	       N/A	       N/A	        N/A	
         R10	   4247	      76.5	   19.7063	  0.419101	3.27197e+07	      76.5	   19.7344	         0	1.56928e+07	      76.5	      19.3	         0	8.30285e+07	      76.5	   19.3629	  0.419048	2.54034e+07	      76.5	   19.7203	   0.20955	 1.4011e+07	      76.5	   19.5172	         0	3.53137e+07	      76.5	   19.3314	  0.209524	5.29984e+07	      76.5	   19.5346	  0.419074	2.57583e+07	
         R10	   4248	      76.5	   19.6787	  0.828651	3.18602e+07	      76.5	   19.7063	  0.419101	 3.7289e+07	      76.5	   19.3629	  0.419048	3.36024e+07	      76.5	   19.4243	  0.828571	2.86936e+07	      76.5	   19.6925	  0.623876	3.41157e+07	      76.5	   19.5346	  0.419074	3.20813e+07	      76.5	   19.3936	   0.62381	 2.9746e+07	      76.5	   19.5515	  0.828611	3.02407e+07	
         R10	   4249	      76.5	   19.6518	   1.22865	3.62282e+07	      76.5	   19.6787	  0.828651	3.19736e+07	      76.5	   19.4243	  0.828571	3.15058e+07	      76.5	   19.4843	   1.22857	3.35041e+07	      76.5	   19.6653	   1.02865	3.39655e+07	      76.5	   19.5515	  0.828611	3.16705e+07	      76.5	   19.4543	   1.02857	3.22946e+07	      76.5	   19.5681	   1.22861	3.48275e+07	
         R10	   4250	      76.5	   19.6256	    1.6191	3.87442e+07	      76.5	   19.6518	   1.22865	4.03055e+07	      76.5	   19.4843	   1.22857	 3.4618e+07	      76.5	   19.5429	   1.61905	 3.6945e+07	      76.5	   19.6387	   1.42388	3.89738e+07	      76.5	   19.5681	   1.22861	3.73719e+07	      76.5	   19.5136	   1.42381	3.56446e+07	      76.5	   19.5842	   1.61907	 3.7786e+07	
         R10	   4251	      76.5	      19.6	         2	5.14994e+07	      76.5	   19.6256	    1.6191	4.34079e+07	      76.5	   19.5429	   1.61905	3.73267e+07	      76.5	   19.6128	   1.80955	4.52233e+07	      76.5	   19.5842	   1.61907	4.02876e+07	      76.5	   19.5714	   1.80952	4.22081e+07	       N/A	       N/A	       N/A	        N/A	       N/A	       N/A	       N/A	        N/A	
         R10	   4252	      76.5	   19.5249	   5.34415	5.14617e+07	      76.5	   19.9109	   5.32574	3.63877e+07	      76.5	   19.9723	   4.81453	1.43432e+08	      76.5	   19.5705	   4.85758	 1.0478e+08	      76.5	   19.7179	   5.33495	4.10095e+07	      76.5	   19.9416	   5.07014	8.22428e+07	      76.5	   19.7746	   4.86568	1.16551e+08	      76.5	   19.5477	   5.10086	6.16156e+07	
         R10	   4253	      76.5	   19.5705	   4.85758	1.02841e+08	      76.5	   19.2119	   4.67137	4.79203e+07	      76.5	   19.3758	   5.02378	5.56154e+07	      76.5	   19.3774	   4.79092	5.27424e+07	      76.5	   19.2938	   4.84757	2.39561e+07	      76.5	   19.4732	   4.94068	7.58111e+07	       N/A	       N/A	       N/A	        N/A	       N/A	       N/A	       N/A	        N/A	
         R10	   4254	      76.5	   19.5705	   4.85758	8.26944e+07	      76.5	   19.3758	   5.02378	5.30622e+07	      76.5	   19.5249	   5.34415	6.14615e+07	      76.5	   19.4732	   4.94068	6.53441e+07	      76.5	   19.4503	   5.18396	 5.2342e+07	      76.5	   19.5477	   5.10086	 5.7849e+07	       N/A	       N/A	       N/A	        N/A	       N/A	       N/A	       N/A	        N/A	
         R10	   4255	      76.5	   19.8724	   5.64682	4.06179e+07	      76.5	   19.9109	   5.32574	4.75725e+07	      76.5	   19.5249	   5.34415	4.54561e+07	      76.5	   19.6702	   5.65646	3.60205e+07	      76.5	   19.8917	   5.48628	4.17734e+07	      76.5	   19.7179	   5.33495	4.51929e+07	      76.5	   19.5975	    5.5003	3.79458e+07	      76.5	   19.7713	   5.65164	3.80093e+07	
         R10	   4256	      76.5	     19.83	         6	4.84267e+07	      76.5	   19.8724	   5.64682	4.30521e+07	      76.5	   19.6702	   5.65646	4.00636e+07	      76.5	   19.8512	   5.82341	4.54254e+07	      76.5	   19.7713	   5.65164	 4.1182e+07	      76.5	   19.7501	   5.82823	4.36004e+07	       N/A	       N/A	       N/A	        N/A	       N/A	       N/A	       N/A	        N/A	
         R10	   4257	      76.5	   20.0835	  0.855856	2.43197e+07	      76.5	   19.6787	  0.828651	3.40098e+07	      76.5	   19.6518	   1.22865	3.53806e+07	      76.5	   20.0471	   1.25521	3.42057e+07	      76.5	   19.8811	  0.842253	2.91583e+07	      76.5	   19.6653	   1.02865	3.46055e+07	      76.5	   19.8495	   1.24193	3.46725e+07	      76.5	   20.0653	   1.05553	 2.9216e+07	
         R10	   4258	      76.5	   20.0471	   1.25521	  3.438e+07	      76.5	   19.6518	   1.22865	3.84649e+07	      76.5	   19.6256	    1.6191	4.26962e+07	      76.5	   20.0113	   1.64502	3.84449e+07	      76.5	   19.8495	   1.24193	3.63642e+07	      76.5	   19.6387	   1.42388	4.00414e+07	      76.5	   19.8184	   1.63206	3.98371e+07	      76.5	   20.0292	   1.45012	3.63716e+07	
         R10	   4259	      76.5	   20.0113	   1.64502	4.12196e+07	      76.5	   19.6256	    1.6191	4.67093e+07	      76.5	      19.6	         2	 3.7919e+07	      76.5	    19.981	         2	6.08366e+07	      76.5	   19.8184	   1.63206	4.30181e+07	      76.5	   19.6128	   1.80955	3.98078e+07	      76.5	   19.7905	         2	4.79574e+07	      76.5	   19.9961	   1.82251	4.88133e+07	
         R10	   4260	      76.5	   20.0113	   1.64502	4.46947e+07	      76.5	    19.981	         2	5.00332e+07	      76.5	      20.4	         2	4.42793e+07	      76.5	   20.4991	    1.5164	2.58361e+07	      76.5	   19.9961	   1.82251	4.59883e+07	      76.5	   20.1905	         2	4.68317e+07	      76.5	   20.4495	    1.7582	3.49117e+07	      76.5	   20.2552	   1.58071	3.52309e+07	
         R10	   4261	      76.5	   20.0471	   1.25521	3.31075e+07	      76.5	   20.0113	   1.64502	3.85788e+07	      76.5	   20.4991	    1.5164	3.05937e+07	      76.5	   20.6085	  0.981953	1.50643e+07	      76.5	   20.0292	   1.45012	3.57791e+07	      76.5	   20.2552	   1.58071	 3.4468e+07	      76.5	   20.5538	   1.24918	2.27268e+07	      76.5	   20.3278	   1.11858	2.39465e+07	
         R10	   4262	      76.5	   20.2104	   0.11214	5.38266e+06	      76.5	   19.7063	  0.419101	2.30863e+07	      76.5	   19.6787	  0.828651	3.47521e+07	      76.5	   20.0835	  0.855856	2.57215e+07	      76.5	   19.9583	   0.26562	1.31316e+07	      76.5	   19.6925	  0.623876	2.86025e+07	      76.5	   19.8811	  0.842253	3.02125e+07	      76.5	    20.147	  0.483998	1.41616e+07	
         R10	   4263	      76.5	   20.6085	  0.981953	1.50552e+07	      76.5	   20.7284	  0.396646	 5.3135e+06	      76.5	   20.2104	   0.11214	6.16032e+06	      76.5	   20.0835	  0.855856	2.61513e+07	      76.5	   20.6685	  0.689299	9.03723e+06	      76.5	     20.48	  0.235152	4.53972e+06	      76.5	    20.147	  0.483998	1.31115e+07	      76.5	    20.346	  0.918904	2.03639e+07	
         R10	   4264	      76.5	   20.2104	   0.11214	4.14464e+06	      76.5	   19.7344	         0	8.31075e+06	      76.5	   19.7063	  0.419101	3.25306e+07	      76.5	   19.9759	  0.041468	 5.4783e+06	      76.5	   19.7203	   0.20955	1.50958e+07	      76.5	   19.9583	   0.26562	1.64962e+07	       N/A	       N/A	       N/A	        N/A	       N/A	       N/A	       N/A	        N/A	
         R10	   4265	      76.5	   20.0471	   1.25521	3.38582e+07	      76.5	   20.6085	  0.981953	1.45788e+07	      76.5	   20.0835	  0.855856	2.55091e+07	      76.5	   20.3278	   1.11858	2.40858e+07	      76.5	    20.346	  0.918904	1.99147e+07	      76.5	   20.0653	   1.05553	2.96772e+07	       N/A	       N/A	       N/A	        N/A	       N/A	       N/A	       N/A	        N/A	
         R10	   4266	      76.5	   20.2721	   2.36604	7.65966e+07	      76.5	      20.4	         2	4.42614e+07	      76.5	    19.981	         2	4.87965e+07	      76.5	    19.965	   2.08814	 1.0196e+08	      76.5	    20.336	   2.18302	5.88234e+07	      76.5	   20.1905	         2	4.64763e+07	      76.5	    19.973	   2.04407	7.30483e+07	      76.5	   20.1369	   2.20688	 8.5737e+07	
         R10	   4267	      76.5	      20.4	   2.38095	4.78484e+07	      76.5	      20.4	         2	5.42435e+07	      76.5	   20.2721	   2.36604	6.23458e+07	      76.5	      20.4	   2.19048	4.93214e+07	      76.5	    20.336	   2.18302	5.40373e+07	      76.5	    20.336	    2.3735	5.46518e+07	       N/A	       N/A	       N/A	        N/A	       N/A	       N/A	       N/A	        N/A	
         R10	   4268	      76.5	      20.4	   2.38095	5.51621e+07	      76.5	   20.2721	   2.36604	7.26252e+07	      76.5	      20.4	       2.8	7.86602e+07	      76.5	    20.336	    2.3735	6.28936e+07	      76.5	   20.3674	   2.57379	4.79689e+07	      76.5	      20.4	   2.59048	3.46718e+07	       N/A	       N/A	       N/A	        N/A	       N/A	       N/A	       N/A	        N/A	
         R10	   4269	      76.5	    19.981	         2	7.58162e+07	      76.5	      19.6	         2	1.54682e+08	      76.5	    19.965	   2.08814	 9.8627e+07	      76.5	   19.7905	         2	7.46716e+07	      76.5	   19.7878	   2.02235	1.10204e+08	      76.5	    19.973	   2.04407	7.88848e+07	       N/A	       N/A	       N/A	        N/A	       N/A	       N/A	       N/A	        N/A	
         R10	   4270	      76.5	   20.2199	   5.31102	4.68993e+07	      76.5	   19.9109	   5.32574	4.80878e+07	      76.5	   19.8724	   5.64682	3.95176e+07	      76.5	    20.226	   5.67651	3.67098e+07	      76.5	   20.0654	   5.31838	4.68169e+07	      76.5	   19.8917	   5.48628	4.31111e+07	      76.5	   20.0492	   5.66166	3.77829e+07	      76.5	    20.223	   5.49376	4.08742e+07	
         R10	   4271	      76.5	    20.226	   5.67651	4.11601e+07	      76.5	   19.8724	   5.64682	4.22251e+07	      76.5	     19.83	         6	4.94973e+07	      76.5	   20.2252	         6	4.12558e+07	      76.5	   20.0492	   5.66166	4.14991e+07	      76.5	   19.8512	   5.82341	4.52889e+07	      76.5	   20.0276	         6	4.50679e+07	      76.5	   20.2256	   5.83825	4.08232e+07	
         R10	   4272	      76.5	    20.226	   5.67651	4.31065e+07	      76.5	   20.2252	         6	3.87485e+07	      76.5	     20.66	         6	3.59818e+07	      76.5	   20.6075	   5.63062	3.41137e+07	      76.5	   20.2256	   5.83825	 4.0671e+07	      76.5	   20.4426	         6	3.73376e+07	      76.5	   20.6338	   5.81531	3.46533e+07	      76.5	   20.4168	   5.65356	3.85122e+07	
         R10	   4273	      76.5	   20.2199	   5.31102	4.16342e+07	      76.5	    20.226	   5.67651	3.72234e+07	      76.5	   20.6075	   5.63062	3.17621e+07	      76.5	   20.5598	   5.29481	4.36166e+07	      76.5	    20.223	   5.49376	3.84071e+07	      76.5	   20.4168	   5.65356	3.43127e+07	      76.5	   20.5837	   5.46272	3.62914e+07	      76.5	   20.3899	   5.30292	4.16989e+07	
         R10	   4274	      76.5	   19.9723	   4.81453	1.17479e+08	      76.5	   20.2199	   5.31102	4.35433e+07	      76.5	   20.5598	   5.29481	3.54054e+07	      76.5	   20.5091	   4.93762	4.96588e+07	      76.5	   20.0961	   5.06277	7.58555e+07	      76.5	   20.3899	   5.30292	3.91538e+07	      76.5	   20.5345	   5.11622	4.19642e+07	      76.5	   20.2407	   4.87607	8.21149e+07	
         R10	   4275	      76.5	   20.2723	   4.57268	 1.5913e+08	      76.5	   19.9723	   4.81453	1.58204e+08	      76.5	   20.5091	   4.93762	4.66678e+07	      76.5	   20.4558	   4.56257	7.11706e+07	      76.5	   20.1393	   4.71466	1.48419e+08	      76.5	   20.2407	   4.87607	9.99819e+07	      76.5	   20.4825	    4.7501	5.76574e+07	      76.5	   20.3641	   4.56763	1.13016e+08	
         R10	   4276	      76.5	   19.9723	   4.81453	1.08606e+08	      76.5	   19.9109	   5.32574	4.24321e+07	      76.5	   20.2199	   5.31102	4.38678e+07	      76.5	   19.9416	   5.07014	7.16131e+07	      76.5	   20.0654	   5.31838	4.31265e+07	      76.5	   20.0961	   5.06277	7.15821e+07	       N/A	       N/A	       N/A	        N/A	       N/A	       N/A	       N/A	        N/A	
         R10	   4277	      76.5	      20.4	   4.16966	1.01564e+08	      76.5	   20.2723	   4.57268	1.53812e+08	      76.5	   20.4558	   4.56257	1.06213e+08	      76.5	   20.3673	   4.38104	1.01679e+08	      76.5	   20.3641	   4.56763	1.25241e+08	      76.5	   20.4279	   4.36612	 6.3116e+07	       N/A	       N/A	       N/A	        N/A	       N/A	       N/A	       N/A	        N/A	
         R10	   4278	      76.5	   20.9224	   2.11872	5.62343e+07	      76.5	      20.4	   2.38095	5.66873e+07	      76.5	      20.4	       2.8	1.96669e+07	      76.5	   20.9224	   2.89498	3.44147e+07	      76.5	   20.6612	   2.24984	5.62192e+07	      76.5	      20.4	   2.59048	3.60387e+07	      76.5	   20.6612	   2.84749	 2.5573e+07	      76.5	   20.9224	   2.50685	4.34553e+07	
         R10	   4279	      76.5	      21.5	      2.25	 3.9441e+07	      76.5	   20.9224	   2.11872	5.63539e+07	      76.5	   20.9224	   2.89498	3.24039e+07	      76.5	      21.5	         3	5.56114e+07	      76.5	   21.2112	   2.18436	3.87585e+07	      76.5	   20.9224	   2.50685	4.23332e+07	      76.5	   21.2112	   2.94749	 4.3576e+07	      76.5	      21.5	     2.625	4.40559e+07	
         R10	   4280	      76.5	   20.9224	   2.11872	4.21526e+07	      76.5	      20.4	         2	 3.9428e+07	      76.5	      20.4	   2.38095	5.98151e+07	      76.5	   20.6612	   2.05936	4.05024e+07	      76.5	      20.4	   2.19048	4.91276e+07	      76.5	   20.6612	   2.24984	5.09063e+07	       N/A	       N/A	       N/A	        N/A	       N/A	       N/A	       N/A	        N/A	
         R10	   4281	      76.5	   20.8752	   4.88562	4.41549e+07	      76.5	   20.5091	   4.93762	7.40047e+07	      76.5	   20.5598	   5.29481	3.72051e+07	      76.5	   20.9852	   5.27454	4.41632e+07	      76.5	   20.6922	   4.91162	5.88386e+07	      76.5	   20.5345	   5.11622	5.45866e+07	      76.5	   20.7725	   5.28468	3.95605e+07	      76.5	   20.9302	   5.08008	4.37321e+07	
         R10	   4282	      76.5	   20.9238	   4.32697	6.94594e+07	      76.5	   20.4558	   4.56257	8.48766e+07	      76.5	   20.5091	   4.93762	6.89838e+07	      76.5	   20.8752	   4.88562	5.80334e+07	      76.5	   20.6898	   4.44477	7.65493e+07	      76.5	   20.4825	    4.7501	7.54389e+07	      76.5	   20.6922	   4.91162	6.24269e+07	      76.5	   20.8995	   4.60629	6.33414e+07	
         R10	   4283	      76.5	      21.5	       4.5	7.52188e+07	      76.5	   20.8752	   4.88562	5.31711e+07	      76.5	   20.9852	   5.27454	3.58453e+07	      76.5	      21.5	      5.25	2.58688e+07	      76.5	   21.1876	   4.69281	6.18658e+07	      76.5	   20.9302	   5.08008	4.42076e+07	      76.5	   21.2426	   5.26227	 2.8179e+07	      76.5	      21.5	     4.875	4.33209e+07	
         R10	   4284	      76.5	   20.9238	   4.32697	6.64325e+07	      76.5	      20.4	   4.16966	6.83248e+07	      76.5	   20.4558	   4.56257	8.67064e+07	      76.5	   20.6619	   4.24831	6.31592e+07	      76.5	   20.4279	   4.36612	7.54035e+07	      76.5	   20.6898	   4.44477	7.54735e+07	       N/A	       N/A	       N/A	        N/A	       N/A	       N/A	       N/A	        N/A	
         R10	   4285	      76.5	      21.5	       4.5	6.37573e+07	      76.5	   20.9238	   4.32697	6.69866e+07	      76.5	   20.8752	   4.88562	6.30565e+07	      76.5	   21.2119	   4.41348	6.47126e+07	      76.5	   20.8995	   4.60629	  6.499e+07	      76.5	   21.1876	   4.69281	6.30164e+07	       N/A	       N/A	       N/A	        N/A	       N/A	       N/A	       N/A	        N/A	
         R10	   4286	      76.5	   20.9224	   2.89498	3.78642e+07	      76.5	      20.4	       2.8	1.02804e+07	      76.5	      20.4	   3.48483	1.32126e+07	      76.5	   20.9238	    3.6111	4.33171e+07	      76.5	   20.6612	   2.84749	2.11838e+07	      76.5	      20.4	   3.14242	9.34121e+06	      76.5	   20.6619	   3.54797	1.96592e+07	      76.5	   20.9231	   3.25304	2.49377e+07	
         R10	   4287	      76.5	      21.5	         3	5.93249e+07	      76.5	   20.9224	   2.89498	2.89077e+07	      76.5	   20.9238	    3.6111	4.28988e+07	      76.5	      21.5	      3.75	4.03182e+07	      76.5	   21.2112	   2.94749	3.53941e+07	      76.5	   20.9231	   3.25304	2.31477e+07	      76.5	   21.2119	   3.68055	3.62478e+07	      76.5	      21.5	     3.375	4.69948e+07	
         R10	   4288	      76.5	   20.9238	    3.6111	3.72448e+07	      76.5	      20.4	   3.48483	1.12735e+07	      76.5	      20.4	   4.16966	4.59072e+07	      76.5	   20.9238	   4.32697	8.76227e+07	      76.5	   20.6619	   3.54797	1.34247e+07	      76.5	      20.4	   3.82725	1.80861e+07	      76.5	   20.6619	   4.24831	6.20935e+07	      76.5	   20.9238	   3.96903	5.88621e+07	
         R10	   4289	      76.5	      21.5	      3.75	 8.6342e+07	      76.5	   20.9238	    3.6111	3.66251e+07	      76.5	   20.9238	   4.32697	7.68646e+07	      76.5	      21.5	       4.5	3.22387e+07	      76.5	   21.2119	   3.68055	5.98954e+07	      76.5	   20.9238	   3.96903	5.49758e+07	      76.5	   21.2119	   4.41348	5.29836e+07	      76.5	      21.5	     4.125	5.85624e+07	
         R10	   4290	      76.5	   20.9687	   1.65491	2.88039e+07	      76.5	   20.4991	    1.5164	2.75922e+07	      76.5	      20.4	         2	4.16949e+07	      76.5	   20.9224	   2.11872	4.42814e+07	      76.5	   20.7339	   1.58566	2.81105e+07	      76.5	   20.4495	    1.7582	3.44748e+07	      76.5	   20.6612	   2.05936	4.26195e+07	      76.5	   20.9456	   1.88682	3.58408e+07	
         R10	   4291	      76.5	   20.9687	   1.65491	2.76725e+07	      76.5	   20.9224	   2.11872	4.71156e+07	      76.5	      21.5	      2.25	5.81857e+07	      76.5	   21.5054	   1.77096	1.44893e+07	      76.5	   20.9456	   1.88682	3.61723e+07	      76.5	   21.2112	   2.18436	5.12549e+07	      76.5	   21.5171	   2.01064	3.43471e+07	      76.5	   21.2371	   1.71293	1.96853e+07	
         R10	   4292	      76.5	   20.6085	  0.981953	1.48557e+07	      76.5	   20.4991	    1.5164	2.87362e+07	      76.5	   20.9687	   1.65491	2.41498e+07	      76.5	   21.3636	    1.2195	7.44912e+06	      76.5	   20.5538	   1.24918	2.16882e+07	      76.5	   20.7339	   1.58566	2.64418e+07	      76.5	   21.1662	    1.4372	1.41552e+07	      76.5	   20.9861	   1.10073	1.00028e+07	
         R10	   4293	      76.5	   21.3636	    1.2195	8.82091e+06	      76.5	   21.1005	  0.766142	2.78143e+06	      76.5	   20.6085	  0.981953	1.52952e+07	      76.5	   21.2469	  0.984164	5.56139e+06	      76.5	   20.8545	  0.874048	8.48854e+06	      76.5	   20.9861	   1.10073	9.64558e+06	       N/A	       N/A	       N/A	        N/A	       N/A	       N/A	       N/A	        N/A	
         R10	   4294	      76.5	   20.9687	   1.65491	2.88574e+07	      76.5	   21.5054	   1.77096	 8.4902e+06	      76.5	   21.3636	    1.2195	 6.5054e+06	      76.5	   21.2371	   1.71293	1.63201e+07	      76.5	   21.4542	   1.49016	6.24233e+06	      76.5	   21.1662	    1.4372	1.74521e+07	       N/A	       N/A	       N/A	        N/A	       N/A	       N/A	       N/A	        N/A	
         R10	   4295	      76.5	   21.1005	  0.766142	7.49553e+06	      76.5	   20.7284	  0.396646	5.72899e+06	      76.5	   20.6085	  0.981953	1.33513e+07	      76.5	   20.9266	   0.56915	6.19242e+06	      76.5	   20.6685	  0.689299	7.45442e+06	      76.5	   20.8545	  0.874048	8.32943e+06	       N/A	       N/A	       N/A	        N/A	       N/A	       N/A	       N/A	        N/A	
         R10	   4296	      76.5	   20.9852	   5.27454	3.14243e+07	      76.5	   20.5598	   5.29481	3.95155e+07	      76.5	   20.6075	   5.63062	3.25003e+07	      76.5	   20.9926	   5.60528	3.19527e+07	      76.5	   20.7725	   5.28468	3.52552e+07	      76.5	   20.5837	   5.46272	3.50433e+07	      76.5	   20.8001	   5.61795	3.21487e+07	      76.5	   20.9889	   5.43991	3.05782e+07	
         R10	   4297	      76.5	   20.9926	   5.60528	2.59548e+07	      76.5	   20.6075	   5.63062	 3.3236e+07	      76.5	     20.66	         6	2.63094e+07	      76.5	     21.06	         6	3.29072e+07	      76.5	   20.8001	   5.61795	2.94373e+07	      76.5	   20.6338	   5.81531	2.94671e+07	      76.5	     20.86	         6	 2.9601e+07	      76.5	   21.0263	   5.80264	2.86163e+07	
         R10	   4298	      76.5	      21.5	      5.25	3.97109e+07	      76.5	   20.9926	   5.60528	2.95062e+07	      76.5	     21.06	         6	2.94246e+07	      76.5	      21.5	         6	2.34293e+07	      76.5	   21.2463	   5.42764	3.42133e+07	      76.5	   21.0263	   5.80264	2.68561e+07	      76.5	     21.28	         6	2.43994e+07	      76.5	      21.5	     5.625	2.98234e+07	
         R10	   4299	      76.5	      21.5	      5.25	3.96312e+07	      76.5	   20.9852	   5.27454	3.87652e+07	      76.5	   20.9926	   5.60528	3.31834e+07	      76.5	   21.2426	   5.26227	3.86573e+07	      76.5	   20.9889	   5.43991	3.44881e+07	      76.5	   21.2463	   5.42764	3.47603e+07	       N/A	       N/A	       N/A	        N/A	       N/A	       N/A	       N/A	        N/A	
         R10	   4300	      76.5	   19.4348	         6	7.57207e+07	      76.5	        19	         6	 1.2553e+08	      76.5	        19	   6.40476	6.02892e+07	      76.5	   19.5375	   6.41169	1.07556e+08	      76.5	   19.2174	         6	 9.5753e+07	      76.5	        19	   6.20238	9.18073e+07	      76.5	   19.2688	   6.40822	 8.1623e+07	      76.5	   19.4862	   6.20584	9.08039e+07	
         R10	   4301	      76.5	   19.5375	   6.41169	1.08221e+08	      76.5	        19	   6.40476	7.32602e+07	      76.5	        19	      6.85	1.33239e+08	      76.5	   19.4762	      6.85	7.76047e+07	      76.5	   19.2688	   6.40822	8.85806e+07	      76.5	        19	   6.62738	9.86158e+07	      76.5	   19.2381	      6.85	1.04243e+08	      76.5	   19.5069	   6.63084	8.98781e+07	
         R10	   4302	      76.5	   20.0663	   6.43324	8.08988e+07	      76.5	   19.5375	   6.41169	 9.6431e+07	      76.5	   19.4762	      6.85	 8.6036e+07	      76.5	   19.9643	      6.85	7.75448e+07	      76.5	   19.8019	   6.42247	8.85998e+07	      76.5	   19.5069	   6.63084	8.92993e+07	      76.5	   19.7202	      6.85	8.10594e+07	      76.5	   20.0153	   6.64162	7.87869e+07	
         R10	   4303	      76.5	   20.0663	   6.43324	7.97859e+07	      76.5	   19.9643	      6.85	7.78676e+07	      76.5	   20.4643	      6.85	6.59197e+07	      76.5	   20.5404	   6.43494	6.33507e+07	      76.5	   20.0153	   6.64162	7.82607e+07	      76.5	   20.2143	      6.85	7.17227e+07	      76.5	   20.5023	   6.64247	6.43365e+07	      76.5	   20.3033	   6.43409	7.14713e+07	
         R10	   4304	      76.5	   20.5404	   6.43494	6.37204e+07	      76.5	   20.4643	      6.85	6.30878e+07	      76.5	   20.9762	      6.85	5.28249e+07	      76.5	   21.0225	   6.43595	5.10007e+07	      76.5	   20.5023	   6.64247	6.31615e+07	      76.5	   20.7202	      6.85	5.77703e+07	      76.5	   20.9994	   6.64297	5.03699e+07	      76.5	   20.7814	   6.43544	5.69735e+07	
         R10	   4305	      76.5	   21.0225	   6.43595	 5.1505e+07	      76.5	   20.9762	      6.85	5.67287e+07	      76.5	      21.5	      6.85	4.96093e+07	      76.5	      21.5	   6.40476	1.25991e+07	      76.5	   20.9994	   6.64297	5.13019e+07	      76.5	   21.2381	      6.85	5.10668e+07	      76.5	      21.5	   6.62738	2.66501e+07	      76.5	   21.2613	   6.42035	3.13557e+07	
         R10	   4306	      76.5	   21.0225	   6.43595	3.91778e+07	      76.5	      21.5	   6.40476	8.52372e+07	      76.5	      21.5	         6	2.02427e+07	      76.5	     21.06	         6	5.36467e+07	      76.5	   21.2613	   6.42035	6.05407e+07	      76.5	      21.5	   6.20238	4.92847e+07	      76.5	     21.28	         6	3.55163e+07	      76.5	   21.0413	   6.21797	4.61933e+07	
         R10	   4307	      76.5	   20.5404	   6.43494	6.46394e+07	      76.5	   21.0225	   6.43595	4.14981e+07	      76.5	     21.06	         6	5.76121e+07	      76.5	     20.66	         6	5.92163e+07	      76.5	   20.7814	   6.43544	5.27964e+07	      76.5	   21.0413	   6.21797	 4.9275e+07	      76.5	     20.86	         6	5.76081e+07	      76.5	   20.6002	   6.21747	6.10807e+07	
         R10	   4308	      76.5	   20.0663	   6.43324	7.93485e+07	      76.5	   20.5404	   6.43494	6.24222e+07	      76.5	     20.66	         6	6.65362e+07	      76.5	   20.2252	         6	7.06501e+07	      76.5	   20.3033	   6.43409	7.06052e+07	      76.5	   20.6002	   6.21747	 6.4317e+07	      76.5	   20.4426	         6	6.85759e+07	      76.5	   20.1458	   6.21662	7.41374e+07	
         R10	   4309	      76.5	   19.5375	   6.41169	9.13117e+07	      76.5	   20.0663	   6.43324	8.21866e+07	      76.5	   20.2252	         6	7.60271e+07	      76.5	     19.83	         6	7.84622e+07	      76.5	   19.8019	   6.42247	8.65507e+07	      76.5	   20.1458	   6.21662	 7.8281e+07	      76.5	   20.0276	         6	7.67697e+07	      76.5	   19.6838	   6.20584	8.44118e+07	
         R10	   4310	      76.5	   19.4348	         6	 8.2083e+07	      76.5	   19.5375	   6.41169	9.75785e+07	      76.5	     19.83	         6	 7.4216e+07	      76.5	   19.4862	   6.20584	8.95123e+07	      76.5	   19.6838	   6.20584	8.48434e+07	      76.5	   19.6324	         6	7.78796e+07	       N/A	       N/A	       N/A	        N/A	       N/A	       N/A	       N/A	        N/A	
         R10	   4311	      76.5	   19.4762	      6.85	8.37189e+07	      76.5	        19	      6.85	 6.9614e+07	      76.5	        19	   7.25476	4.01868e+07	      76.5	   19.3837	   7.23636	6.62999e+07	      76.5	   19.2381	      6.85	6.61792e+07	      76.5	        19	   7.05238	3.62016e+07	      76.5	   19.1918	   7.24556	 5.0075e+07	      76.5	   19.4299	   7.04318	7.29108e+07	
         R10	   4312	      76.5	   19.3837	   7.23636	6.72827e+07	      76.5	        19	   7.25476	9.03462e+07	      76.5	        19	       7.7	9.28082e+07	      76.5	   19.5952	       7.7	  7.409e+07	      76.5	   19.1918	   7.24556	7.64304e+07	      76.5	        19	   7.47738	8.54018e+07	      76.5	   19.2976	       7.7	8.24124e+07	      76.5	   19.4895	   7.46818	6.89472e+07	
         R10	   4313	      76.5	   20.8452	       7.7	6.17297e+07	      76.5	      21.5	       7.7	2.32734e+07	      76.5	      21.5	      6.85	7.84967e+07	      76.5	   20.9762	      6.85	4.85053e+07	      76.5	   21.1726	       7.7	4.19749e+07	      76.5	      21.5	     7.275	5.03699e+07	      76.5	   21.2381	      6.85	6.34557e+07	      76.5	   20.9107	     7.275	5.49582e+07	
         R10	   4314	      76.5	   20.2103	       7.7	6.43346e+07	      76.5	   20.8452	       7.7	6.33494e+07	      76.5	   20.9762	      6.85	5.24008e+07	      76.5	   20.4643	      6.85	6.30024e+07	      76.5	   20.5278	       7.7	6.38039e+07	      76.5	   20.9107	     7.275	 5.7746e+07	      76.5	   20.7202	      6.85	 5.7612e+07	      76.5	   20.3373	     7.275	6.34091e+07	
         R10	   4315	      76.5	   19.9643	      6.85	7.41326e+07	      76.5	   19.4762	      6.85	 7.9321e+07	      76.5	   19.3837	   7.23636	5.45601e+07	      76.5	   19.5952	       7.7	7.54005e+07	      76.5	   19.7202	      6.85	7.51886e+07	      76.5	   19.4299	   7.04318	6.45819e+07	      76.5	   19.4895	   7.46818	6.33136e+07	      76.5	   19.7798	     7.275	7.38045e+07	
         R10	   4316	      76.5	   20.4643	      6.85	6.55919e+07	      76.5	   19.9643	      6.85	7.44122e+07	      76.5	   19.5952	       7.7	  6.319e+07	      76.5	   20.2103	       7.7	6.67899e+07	      76.5	   20.2143	      6.85	6.99376e+07	      76.5	   19.7798	     7.275	6.84703e+07	      76.5	   19.9028	       7.7	6.49066e+07	      76.5	   20.3373	     7.275	6.59409e+07	
         R10	   4317	      76.5	   19.5952	       7.7	6.83907e+07	      76.5	        19	       7.7	 3.2906e+07	      76.5	        19	      8.55	9.12401e+07	      76.5	   19.5952	      8.55	 4.9748e+07	      76.5	   19.2976	       7.7	4.39446e+07	      76.5	        19	     8.125	5.42031e+07	      76.5	   19.2976	      8.55	6.99659e+07	      76.5	   19.5952	     8.125	5.87482e+07	
         R10	   4318	      76.5	   20.2103	       7.7	6.35653e+07	      76.5	   19.5952	       7.7	6.63636e+07	      76.5	   19.5952	      8.55	4.76185e+07	      76.5	   20.2103	      8.55	5.41251e+07	      76.5	   19.9028	       7.7	6.49383e+07	      76.5	   19.5952	     8.125	 5.6924e+07	      76.5	   19.9028	      8.55	5.07849e+07	      76.5	   20.2103	     8.125	5.88363e+07	
         R10	   4319	      76.5	   20.8452	       7.7	5.12308e+07	      76.5	   20.2103	       7.7	6.10458e+07	      76.5	   20.2103	      8.55	5.38699e+07	      76.5	   20.8452	      8.55	5.37225e+07	      76.5	   20.5278	       7.7	5.61241e+07	      76.5	   20.2103	     8.125	5.74365e+07	      76.5	   20.5278	      8.55	5.37709e+07	      76.5	   20.8452	     8.125	5.24288e+07	
         R10	   4320	      76.5	      21.5	       7.7	6.80631e+07	      76.5	   20.8452	       7.7	5.10714e+07	      76.5	   20.8452	      8.55	5.20238e+07	      76.5	      21.5	      8.55	2.41894e+07	      76.5	   21.1726	       7.7	5.94225e+07	      76.5	   20.8452	     8.125	5.14773e+07	      76.5	   21.1726	      8.55	3.77691e+07	      76.5	      21.5	     8.125	4.54335e+07	
         R10	   4321	      76.5	   19.5952	      8.55	6.41193e+07	      76.5	        19	      8.55	2.98386e+07	      76.5	        19	       9.4	7.29479e+07	      76.5	   19.7937	       9.4	3.36308e+07	      76.5	   19.2976	      8.55	4.48238e+07	      76.5	        19	     8.975	4.84377e+07	      76.5	   19.3968	       9.4	5.32101e+07	      76.5	   19.6944	     8.975	4.88162e+07	
         R10	   4322	      76.5	   20.2103	      8.55	5.08395e+07	      76.5	   19.5952	      8.55	6.04193e+07	      76.5	   19.7937	       9.4	4.04738e+07	      76.5	    20.627	       9.4	4.35339e+07	      76.5	   19.9028	      8.55	5.56125e+07	      76.5	   19.6944	     8.975	5.02749e+07	      76.5	   20.2103	       9.4	 4.1785e+07	      76.5	   20.4187	     8.975	4.71596e+07	
         R10	   4323	      76.5	    20.627	       9.4	4.81535e+07	      76.5	      21.5	       9.4	2.49417e+07	      76.5	      21.5	      8.55	5.55061e+07	      76.5	   20.8452	      8.55	4.46993e+07	      76.5	   21.0635	       9.4	 3.5341e+07	      76.5	      21.5	     8.975	3.90534e+07	      76.5	   21.1726	      8.55	4.99711e+07	      76.5	   20.7361	     8.975	 4.6213e+07	
         R10	   4324	      76.5	   20.2103	      8.55	4.97301e+07	      76.5	    20.627	       9.4	 4.5567e+07	      76.5	   20.8452	      8.55	4.52188e+07	      76.5	   20.4187	     8.975	 4.7645e+07	      76.5	   20.7361	     8.975	4.53851e+07	      76.5	   20.5278	      8.55	4.74523e+07	       N/A	       N/A	       N/A	        N/A	       N/A	       N/A	       N/A	        N/A	
         R10	   4325	      76.5	   19.7937	       9.4	4.25158e+07	      76.5	        19	       9.4	3.75448e+07	      76.5	        19	     10.25	2.64533e+07	      76.5	   19.7937	     10.25	3.55246e+07	      76.5	   19.3968	       9.4	 3.7756e+07	      76.5	        19	     9.825	2.74116e+07	      76.5	   19.3968	     10.25	3.03836e+07	      76.5	   19.7937	     9.825	3.66652e+07	
         R10	   4326	      76.5	    20.627	       9.4	4.05984e+07	      76.5	   19.7937	       9.4	4.24976e+07	      76.5	   19.7937	     10.25	3.31011e+07	      76.5	    20.627	     10.25	3.76761e+07	      76.5	   20.2103	       9.4	 4.1509e+07	      76.5	   19.7937	     9.825	3.64564e+07	      76.5	   20.2103	     10.25	3.48078e+07	      76.5	    20.627	     9.825	3.87706e+07	
         R10	   4327	      76.5	      21.5	       9.4	4.36388e+07	      76.5	    20.627	       9.4	4.39437e+07	      76.5	    20.627	     10.25	3.27963e+07	      76.5	      21.5	     10.25	4.33566e+07	      76.5	   21.0635	       9.4	4.37586e+07	      76.5	    20.627	     9.825	3.78249e+07	      76.5	   21.0635	     10.25	3.63631e+07	      76.5	      21.5	     9.825	   4.18e+07	
         R10	   4328	      76.5	   15.3141	   2.23981	5.08155e+07	      76.5	      15.3	     2.247	5.06792e+07	      76.5	      15.3	     2.264	5.48193e+07	      76.5	   15.3153	   2.26308	5.67801e+07	      76.5	   15.3071	    2.2434	5.07306e+07	      76.5	      15.3	    2.2555	5.27465e+07	      76.5	   15.3077	   2.26354	5.57757e+07	      76.5	   15.3147	   2.25145	5.37917e+07	
         R10	   4329	      76.5	   15.3153	   2.26308	5.67604e+07	      76.5	      15.3	     2.264	5.48679e+07	      76.5	      15.3	     2.281	5.96046e+07	      76.5	   15.3166	   2.28111	6.24717e+07	      76.5	   15.3077	   2.26354	5.57894e+07	      76.5	      15.3	    2.2725	5.72332e+07	      76.5	   15.3083	   2.28105	6.10034e+07	      76.5	   15.3159	    2.2721	5.96109e+07	
         R10	   4330	      76.5	   15.3166	   2.28111	6.24295e+07	      76.5	      15.3	     2.281	5.96445e+07	      76.5	      15.3	     2.298	6.53504e+07	      76.5	   15.3171	   2.29756	 6.8626e+07	      76.5	   15.3083	   2.28105	6.10023e+07	      76.5	      15.3	    2.2895	6.24937e+07	      76.5	   15.3086	   2.29778	 6.6943e+07	      76.5	   15.3168	   2.28933	6.55229e+07	
         R10	   4331	      76.5	   15.3171	   2.29756	6.85247e+07	      76.5	      15.3	     2.298	6.53515e+07	      76.5	      15.3	     2.315	7.23638e+07	      76.5	    15.317	     2.315	7.64864e+07	      76.5	   15.3086	   2.29778	6.68923e+07	      76.5	      15.3	    2.3065	6.88524e+07	      76.5	   15.3085	     2.315	7.43679e+07	      76.5	   15.3171	   2.30628	7.24992e+07	
         R10	   4332	      76.5	    15.317	     2.315	7.64034e+07	      76.5	      15.3	     2.315	7.23411e+07	      76.5	      15.3	     2.332	8.13581e+07	      76.5	    15.317	     2.332	8.64834e+07	      76.5	   15.3085	     2.315	7.43142e+07	      76.5	      15.3	    2.3235	7.68418e+07	      76.5	   15.3085	     2.332	 8.3841e+07	      76.5	    15.317	    2.3235	8.14314e+07	
         R10	   4333	      76.5	    15.317	     2.332	8.63747e+07	      76.5	      15.3	     2.332	8.12598e+07	      76.5	      15.3	     2.349	 9.3753e+07	      76.5	    15.317	     2.349	 1.0022e+08	      76.5	   15.3085	     2.332	 8.3737e+07	      76.5	      15.3	    2.3405	8.74913e+07	      76.5	   15.3085	     2.349	9.68588e+07	      76.5	    15.317	    2.3405	9.32706e+07	
         R10	   4334	      76.5	    15.317	     2.349	1.00048e+08	      76.5	      15.3	     2.349	9.33636e+07	      76.5	      15.3	     2.366	1.12384e+08	      76.5	   15.3169	   2.36578	1.19374e+08	      76.5	   15.3085	     2.349	9.65783e+07	      76.5	      15.3	    2.3575	1.02843e+08	      76.5	   15.3084	   2.36589	1.15651e+08	      76.5	   15.3169	   2.35739	 1.0963e+08	
         R10	   4335	      76.5	   15.3169	   2.36578	1.19391e+08	      76.5	      15.3	     2.366	1.10992e+08	      76.5	      15.3	     2.383	1.43514e+08	      76.5	   15.3161	   2.38375	1.56042e+08	      76.5	   15.3084	   2.36589	 1.1496e+08	      76.5	      15.3	    2.3745	1.27032e+08	      76.5	   15.3081	   2.38337	1.48975e+08	      76.5	   15.3165	   2.37477	 1.3724e+08	
         R10	   4336	      76.5	   15.3161	   2.38375	1.42789e+08	      76.5	      15.3	       2.4	2.85896e+08	      76.5	   15.3122	   2.41185	1.37786e+08	      76.5	   15.3244	   2.40007	1.84058e+08	      76.5	   15.3081	   2.39187	2.05507e+08	      76.5	   15.3061	   2.40593	2.09982e+08	      76.5	   15.3183	   2.40596	1.57981e+08	      76.5	   15.3203	   2.39191	1.56267e+08	
         R10	   4337	      76.5	   15.3244	   2.40007	1.83341e+08	      76.5	   15.3122	   2.41185	1.53095e+08	      76.5	   15.3244	   2.42371	1.27165e+08	      76.5	   15.3361	   2.41077	1.43945e+08	      76.5	   15.3183	   2.40596	1.64351e+08	      76.5	   15.3183	   2.41778	1.39848e+08	      76.5	   15.3303	   2.41724	1.35003e+08	      76.5	   15.3303	   2.40542	1.61969e+08	
         R10	   4338	      76.5	   15.3361	   2.41077	1.41116e+08	      76.5	   15.3244	   2.42371	1.29105e+08	      76.5	   15.3366	   2.43556	1.07968e+08	      76.5	   15.3484	   2.42338	1.23198e+08	      76.5	   15.3303	   2.41724	1.34566e+08	      76.5	   15.3305	   2.42964	1.18226e+08	      76.5	   15.3425	   2.42947	1.15346e+08	      76.5	   15.3423	   2.41708	1.31764e+08	
         R10	   4339	      76.5	   15.3484	   2.42338	1.22527e+08	      76.5	   15.3366	   2.43556	1.08491e+08	      76.5	   15.3487	   2.44742	9.68413e+07	      76.5	   15.3606	   2.43524	1.07513e+08	      76.5	   15.3425	   2.42947	1.15255e+08	      76.5	   15.3426	   2.44149	1.02578e+08	      76.5	   15.3547	   2.44133	1.02088e+08	      76.5	   15.3545	   2.42931	1.14835e+08	
         R10	   4340	      76.5	   15.3606	   2.43524	1.07407e+08	      76.5	   15.3487	   2.44742	9.70279e+07	      76.5	   15.3609	   2.45928	8.86844e+07	      76.5	   15.3728	   2.44709	 9.6791e+07	      76.5	   15.3547	   2.44133	 1.0213e+08	      76.5	   15.3548	   2.45335	9.28101e+07	      76.5	   15.3668	   2.45318	9.26899e+07	      76.5	   15.3667	   2.44116	1.02027e+08	
         R10	   4341	      76.5	   15.3728	   2.44709	9.67196e+07	      76.5	   15.3609	   2.45928	8.88238e+07	      76.5	   15.3731	   2.47113	8.30112e+07	      76.5	    15.385	   2.45895	 8.8772e+07	      76.5	   15.3668	   2.45318	9.27252e+07	      76.5	    15.367	    2.4652	8.58968e+07	      76.5	    15.379	   2.46504	8.58651e+07	      76.5	   15.3789	   2.45302	9.27106e+07	
         R10	   4342	      76.5	    15.385	   2.45895	8.88124e+07	      76.5	   15.3731	   2.47113	8.29437e+07	      76.5	   15.3853	   2.48299	7.85509e+07	      76.5	   15.3971	    2.4708	8.27738e+07	      76.5	    15.379	   2.46504	8.58511e+07	      76.5	   15.3792	   2.47706	8.07372e+07	      76.5	   15.3912	   2.47689	8.06458e+07	      76.5	   15.3911	   2.46487	8.57755e+07	
         R10	   4343	      76.5	   15.3971	    2.4708	8.27942e+07	      76.5	   15.3853	   2.48299	7.85372e+07	      76.5	   15.3975	   2.49484	7.50945e+07	      76.5	   15.4093	   2.48266	7.81803e+07	      76.5	   15.3912	   2.47689	8.06491e+07	      76.5	   15.3914	   2.48891	 7.6809e+07	      76.5	   15.4034	   2.48875	7.66246e+07	      76.5	   15.4032	   2.47673	 8.0478e+07	
         R10	   4344	      76.5	   15.4093	   2.48266	 7.8233e+07	      76.5	   15.3975	   2.49484	7.51909e+07	      76.5	   15.4097	    2.5067	7.21134e+07	      76.5	   15.4215	   2.49451	7.45654e+07	      76.5	   15.4034	   2.48875	7.67001e+07	      76.5	   15.4036	   2.50077	7.36479e+07	      76.5	   15.4156	    2.5006	7.33306e+07	      76.5	   15.4154	   2.48858	7.63927e+07	
         R10	   4345	      76.5	   15.4215	   2.49451	7.45057e+07	      76.5	   15.4097	    2.5067	7.21175e+07	      76.5	   15.4218	   2.51855	7.02595e+07	      76.5	   15.4337	   2.50637	7.16042e+07	      76.5	   15.4156	    2.5006	7.33028e+07	      76.5	   15.4158	   2.51262	7.11857e+07	      76.5	   15.4278	   2.51246	7.09267e+07	      76.5	   15.4276	   2.50044	7.30505e+07	
         R10	   4346	      76.5	   15.4334	   2.48233	7.70343e+07	      76.5	   15.4215	   2.49451	7.47627e+07	      76.5	   15.4337	   2.50637	7.18019e+07	      76.5	   15.4456	   2.49418	7.37131e+07	      76.5	   15.4274	   2.48842	7.58754e+07	      76.5	   15.4276	   2.50044	7.32779e+07	      76.5	   15.4396	   2.50027	7.27393e+07	      76.5	   15.4395	   2.48826	7.53668e+07	
         R10	   4347	      76.5	   15.4334	   2.48233	7.70815e+07	      76.5	   15.4456	   2.49418	7.36914e+07	      76.5	   15.4574	     2.482	7.49997e+07	      76.5	   15.4452	   2.47014	7.84929e+07	      76.5	   15.4395	   2.48826	7.53796e+07	      76.5	   15.4515	   2.48809	7.43197e+07	      76.5	   15.4513	   2.47607	7.67356e+07	      76.5	   15.4393	   2.47624	7.77532e+07	
         R10	   4348	      76.5	   15.4452	   2.47014	7.85052e+07	      76.5	   15.4574	     2.482	7.50065e+07	      76.5	   15.4693	   2.46981	7.56118e+07	      76.5	   15.4571	   2.45796	7.90423e+07	      76.5	   15.4513	   2.47607	 7.6745e+07	      76.5	   15.4633	   2.47591	7.52787e+07	      76.5	   15.4632	   2.46389	7.73119e+07	      76.5	   15.4512	   2.46405	7.87346e+07	
         R10	   4349	      76.5	   15.4571	   2.45796	7.90348e+07	      76.5	   15.4693	   2.46981	7.56054e+07	      76.5	   15.4811	   2.45763	7.55671e+07	      76.5	   15.4689	   2.44577	7.87528e+07	      76.5	   15.4632	   2.46389	7.73049e+07	      76.5	   15.4752	   2.46372	7.55539e+07	      76.5	    15.475	    2.4517	7.71405e+07	      76.5	    15.463	   2.45187	 7.8854e+07	
         R10	   4350	      76.5	   15.4689	   2.44577	7.87323e+07	      76.5	   15.4811	   2.45763	 7.5561e+07	      76.5	    15.493	   2.44544	7.49653e+07	      76.5	   15.4808	   2.43359	7.78081e+07	      76.5	    15.475	    2.4517	7.71275e+07	      76.5	    15.487	   2.45154	7.52317e+07	      76.5	   15.4869	   2.43952	 7.6364e+07	      76.5	   15.4749	   2.43968	7.82329e+07	
         R10	   4351	      76.5	   15.4808	   2.43359	7.77842e+07	      76.5	    15.493	   2.44544	7.49614e+07	      76.5	   15.5048	   2.43326	7.39446e+07	      76.5	    15.493	   2.42083	7.63502e+07	      76.5	   15.4869	   2.43952	7.63502e+07	      76.5	   15.4989	   2.43935	7.44239e+07	      76.5	   15.4989	   2.42704	7.51204e+07	      76.5	   15.4869	   2.42721	7.70316e+07	
         R10	   4352	      76.5	    15.493	   2.42083	7.63265e+07	      76.5	   15.5048	   2.43326	7.39337e+07	      76.5	   15.5167	   2.42108	7.26073e+07	      76.5	   15.5047	   2.41021	7.45752e+07	      76.5	   15.4989	   2.42704	7.51029e+07	      76.5	   15.5108	   2.42717	7.32442e+07	      76.5	   15.5107	   2.41564	7.35701e+07	      76.5	   15.4988	   2.41552	7.54297e+07	
         R10	   4353	      76.5	   15.5047	   2.41021	7.46048e+07	      76.5	   15.5167	   2.42108	7.25993e+07	      76.5	   15.5285	   2.40889	7.10599e+07	      76.5	   15.5174	    2.3979	 7.2615e+07	      76.5	   15.5107	   2.41564	7.35808e+07	      76.5	   15.5226	   2.41498	7.18066e+07	      76.5	    15.523	   2.40339	7.18159e+07	      76.5	    15.511	   2.40405	7.35856e+07	
         R10	   4354	      76.5	   15.5174	    2.3979	7.26041e+07	      76.5	   15.5285	   2.40889	7.10643e+07	      76.5	   15.5404	   2.39671	6.94442e+07	      76.5	   15.5263	    2.3869	7.10286e+07	      76.5	    15.523	   2.40339	7.18123e+07	      76.5	   15.5345	    2.4028	7.02345e+07	      76.5	   15.5333	    2.3918	7.02181e+07	      76.5	   15.5218	    2.3924	7.18001e+07	
         R10	   4355	      76.5	   15.5174	    2.3979	7.25365e+07	      76.5	   15.5263	    2.3869	7.11108e+07	      76.5	   15.5121	   2.37709	 7.2784e+07	      76.5	   15.5005	   2.39253	7.51631e+07	      76.5	   15.5218	    2.3924	7.18067e+07	      76.5	   15.5192	     2.382	7.19224e+07	      76.5	   15.5063	   2.38481	7.39378e+07	      76.5	    15.509	   2.39521	7.38385e+07	
         R10	   4356	      76.5	   15.5005	   2.39253	7.51941e+07	      76.5	   15.5121	   2.37709	7.27984e+07	      76.5	    15.498	   2.36729	7.44535e+07	      76.5	   15.4878	   2.38168	7.70924e+07	      76.5	   15.5063	   2.38481	7.39609e+07	      76.5	    15.505	   2.37219	7.35937e+07	      76.5	   15.4929	   2.37449	7.57401e+07	      76.5	   15.4942	   2.38711	7.61078e+07	
         R10	   4357	      76.5	   15.4878	   2.38168	7.70935e+07	      76.5	    15.498	   2.36729	7.44736e+07	      76.5	   15.4838	   2.35748	7.60016e+07	      76.5	    15.474	   2.37162	7.90609e+07	      76.5	   15.4929	   2.37449	7.57509e+07	      76.5	   15.4909	   2.36239	7.51967e+07	      76.5	   15.4789	   2.36455	   7.75e+07	      76.5	   15.4809	   2.37665	 7.8033e+07	
         R10	   4358	      76.5	    15.474	   2.37162	 7.9088e+07	      76.5	   15.4838	   2.35748	7.60258e+07	      76.5	   15.4697	   2.34768	7.73205e+07	      76.5	   15.4599	   2.36181	8.09886e+07	      76.5	   15.4789	   2.36455	7.75253e+07	      76.5	   15.4768	   2.35258	7.66209e+07	      76.5	   15.4648	   2.35474	7.91247e+07	      76.5	    15.467	   2.36672	7.99816e+07	
         R10	   4359	      76.5	   15.4599	   2.36181	8.10121e+07	      76.5	   15.4697	   2.34768	7.73474e+07	      76.5	   15.4555	   2.33787	7.82598e+07	      76.5	   15.4457	   2.35201	8.25655e+07	      76.5	   15.4648	   2.35474	7.91496e+07	      76.5	   15.4626	   2.34277	7.77388e+07	      76.5	   15.4506	   2.34494	8.03861e+07	      76.5	   15.4528	   2.35691	8.17156e+07	
         R10	   4360	      76.5	   15.4457	   2.35201	8.25971e+07	      76.5	   15.4555	   2.33787	7.82891e+07	      76.5	   15.4414	   2.32806	7.86519e+07	      76.5	   15.4316	    2.3422	 8.3571e+07	      76.5	   15.4506	   2.34494	8.04165e+07	      76.5	   15.4485	   2.33297	7.83924e+07	      76.5	   15.4365	   2.33513	8.10902e+07	      76.5	   15.4387	    2.3471	 8.2992e+07	
         R10	   4361	      76.5	   15.4316	    2.3422	8.36031e+07	      76.5	   15.4414	   2.32806	7.86879e+07	      76.5	   15.4273	   2.31826	7.83165e+07	      76.5	   15.4175	    2.3324	 8.3729e+07	      76.5	   15.4365	   2.33513	8.11245e+07	      76.5	   15.4343	   2.32316	7.84118e+07	      76.5	   15.4224	   2.32533	 8.1008e+07	      76.5	   15.4245	    2.3373	8.35555e+07	
         R10	   4362	      76.5	   15.4175	    2.3324	8.37706e+07	      76.5	   15.4273	   2.31826	7.83285e+07	      76.5	   15.4131	   2.30845	7.71324e+07	      76.5	   15.4033	   2.32259	 8.2812e+07	      76.5	   15.4224	   2.32533	8.10347e+07	      76.5	   15.4202	   2.31335	7.76332e+07	      76.5	   15.4082	   2.31552	7.99644e+07	      76.5	   15.4104	   2.32749	8.31654e+07	
         R10	   4363	      76.5	   15.4033	   2.32259	8.28297e+07	      76.5	   15.4131	   2.30845	7.71093e+07	      76.5	    15.399	   2.29864	7.49621e+07	      76.5	   15.3892	   2.31278	8.06316e+07	      76.5	   15.4082	   2.31552	7.99616e+07	      76.5	   15.4061	   2.30355	7.59341e+07	      76.5	   15.3941	   2.30571	7.77934e+07	      76.5	   15.3962	   2.31769	 8.1599e+07	
         R10	   4364	      76.5	   15.3892	   2.31278	8.06167e+07	      76.5	    15.399	   2.29864	7.49786e+07	      76.5	   15.3848	   2.28884	7.19017e+07	      76.5	    15.375	   2.30298	7.72025e+07	      76.5	   15.3941	   2.30571	7.77944e+07	      76.5	   15.3919	   2.29374	 7.3344e+07	      76.5	   15.3799	   2.29591	7.45505e+07	      76.5	   15.3821	   2.30788	7.87842e+07	
         R10	   4365	      76.5	    15.375	   2.30298	7.71666e+07	      76.5	   15.3848	   2.28884	7.18603e+07	      76.5	   15.3707	   2.27903	6.81247e+07	      76.5	   15.3615	   2.29305	7.27312e+07	      76.5	   15.3799	   2.29591	7.45117e+07	      76.5	   15.3778	   2.28393	6.99083e+07	      76.5	   15.3661	   2.28604	7.04262e+07	      76.5	   15.3683	   2.29802	 7.4847e+07	
         R10	   4366	      76.5	   15.3615	   2.29305	7.26978e+07	      76.5	   15.3707	   2.27903	6.80566e+07	      76.5	   15.3566	   2.26923	6.38216e+07	      76.5	   15.3477	     2.283	6.76947e+07	      76.5	   15.3661	   2.28604	7.03753e+07	      76.5	   15.3636	   2.27413	6.58694e+07	      76.5	   15.3522	   2.27611	6.57548e+07	      76.5	   15.3546	   2.28803	7.01133e+07	
         R10	   4367	      76.5	   15.3477	     2.283	6.76133e+07	      76.5	   15.3566	   2.26923	 6.3795e+07	      76.5	   15.3424	   2.25942	5.93685e+07	      76.5	   15.3329	   2.27525	6.30618e+07	      76.5	   15.3522	   2.27611	6.57009e+07	      76.5	   15.3495	   2.26432	6.15287e+07	      76.5	   15.3377	   2.26734	6.12099e+07	      76.5	   15.3403	   2.27913	6.52788e+07	
         R10	   4368	      76.5	   15.3327	     2.297	7.10533e+07	      76.5	   15.3171	   2.29756	6.86069e+07	      76.5	    15.317	     2.315	7.65531e+07	      76.5	   15.3338	   2.31504	 7.9936e+07	      76.5	   15.3249	   2.29728	 6.9781e+07	      76.5	   15.3171	   2.30628	7.25735e+07	      76.5	   15.3254	   2.31502	7.81543e+07	      76.5	   15.3332	   2.30602	7.54714e+07	
         R10	   4369	      76.5	   15.3338	   2.31504	  7.989e+07	      76.5	    15.317	     2.315	7.64969e+07	      76.5	    15.317	     2.332	8.67659e+07	      76.5	   15.3342	   2.33149	9.00502e+07	      76.5	   15.3254	   2.31502	7.81088e+07	      76.5	    15.317	    2.3235	8.16198e+07	      76.5	   15.3256	   2.33175	8.82708e+07	      76.5	    15.334	   2.32326	8.49385e+07	
         R10	   4370	      76.5	   15.3342	   2.33149	8.99314e+07	      76.5	    15.317	     2.332	8.65651e+07	      76.5	    15.317	     2.349	1.00396e+08	      76.5	    15.334	   2.34901	1.03966e+08	      76.5	   15.3256	   2.33175	8.81174e+07	      76.5	    15.317	    2.3405	9.34525e+07	      76.5	   15.3255	   2.34901	1.01949e+08	      76.5	   15.3341	   2.34025	9.68746e+07	
         R10	   4371	      76.5	    15.334	   2.34901	1.03912e+08	      76.5	    15.317	     2.349	1.00364e+08	      76.5	   15.3169	   2.36578	 1.1996e+08	      76.5	   15.3331	   2.36463	1.20064e+08	      76.5	   15.3255	   2.34901	1.01918e+08	      76.5	   15.3169	   2.35739	1.10088e+08	      76.5	    15.325	    2.3652	1.19648e+08	      76.5	   15.3335	   2.35682	1.11833e+08	
         R10	   4372	      76.5	   15.3331	   2.36463	1.20813e+08	      76.5	   15.3169	   2.36578	1.21751e+08	      76.5	   15.3161	   2.38375	1.51293e+08	      76.5	   15.3356	   2.38237	1.38171e+08	      76.5	    15.325	    2.3652	1.20906e+08	      76.5	   15.3165	   2.37477	 1.3591e+08	      76.5	   15.3259	   2.38306	1.44228e+08	      76.5	   15.3343	    2.3735	1.28806e+08	
         R10	   4373	      76.5	   15.3356	   2.38237	1.46686e+08	      76.5	   15.3244	   2.40007	1.52584e+08	      76.5	   15.3361	   2.41077	1.45941e+08	      76.5	   15.3476	   2.39771	 1.3655e+08	      76.5	     15.33	   2.39122	1.48661e+08	      76.5	   15.3303	   2.40542	1.48383e+08	      76.5	   15.3419	   2.40424	1.40837e+08	      76.5	   15.3416	   2.39004	1.40071e+08	
         R10	   4374	      76.5	   15.3476	   2.39771	1.34053e+08	      76.5	   15.3361	   2.41077	1.44837e+08	      76.5	   15.3484	   2.42338	 1.2162e+08	      76.5	   15.3603	    2.4113	1.24297e+08	      76.5	   15.3419	   2.40424	1.38988e+08	      76.5	   15.3423	   2.41708	1.32638e+08	      76.5	   15.3544	   2.41734	1.22608e+08	      76.5	    15.354	    2.4045	1.28523e+08	
         R10	   4375	      76.5	   15.3603	    2.4113	1.23665e+08	      76.5	   15.3484	   2.42338	1.21669e+08	      76.5	   15.3606	   2.43524	 1.0773e+08	      76.5	   15.3724	   2.42305	1.11343e+08	      76.5	   15.3544	   2.41734	1.22314e+08	      76.5	   15.3545	   2.42931	1.14539e+08	      76.5	   15.3665	   2.42915	1.09355e+08	      76.5	   15.3664	   2.41718	1.17217e+08	
         R10	   4376	      76.5	   15.3724	   2.42305	1.11003e+08	      76.5	   15.3606	   2.43524	1.07838e+08	      76.5	   15.3728	   2.44709	9.69057e+07	      76.5	   15.3846	   2.43491	1.01109e+08	      76.5	   15.3665	   2.42915	1.09232e+08	      76.5	   15.3667	   2.44116	1.02291e+08	      76.5	   15.3787	     2.441	9.88899e+07	      76.5	   15.3785	   2.42898	1.05931e+08	
         R10	   4377	      76.5	   15.3846	   2.43491	1.00998e+08	      76.5	   15.3728	   2.44709	 9.7021e+07	      76.5	    15.385	   2.45895	8.89906e+07	      76.5	   15.3968	   2.44676	9.28272e+07	      76.5	   15.3787	     2.441	9.88889e+07	      76.5	   15.3789	   2.45302	9.29703e+07	      76.5	   15.3909	   2.45285	9.08362e+07	      76.5	   15.3907	   2.44084	9.68487e+07	
         R10	   4378	      76.5	   15.3968	   2.44676	9.27781e+07	      76.5	    15.385	   2.45895	8.90805e+07	      76.5	   15.3971	    2.4708	 8.2977e+07	      76.5	    15.409	   2.45862	8.63053e+07	      76.5	   15.3909	   2.45285	9.08555e+07	      76.5	   15.3911	   2.46487	8.60105e+07	      76.5	   15.4031	   2.46471	8.45934e+07	      76.5	   15.4029	   2.45269	8.95095e+07	
         R10	   4379	      76.5	    15.409	   2.45862	8.62915e+07	      76.5	   15.3971	    2.4708	8.30524e+07	      76.5	   15.4093	   2.48266	7.83894e+07	      76.5	   15.4212	   2.47047	  8.113e+07	      76.5	   15.4031	   2.46471	8.46238e+07	      76.5	   15.4032	   2.47673	8.07107e+07	      76.5	   15.4153	   2.47657	 7.9727e+07	      76.5	   15.4151	   2.46455	 8.3693e+07	
         R10	   4380	      76.5	   15.4212	   2.47047	8.11338e+07	      76.5	   15.4093	   2.48266	7.84019e+07	      76.5	   15.4215	   2.49451	7.47391e+07	      76.5	   15.4334	   2.48233	7.70102e+07	      76.5	   15.4153	   2.47657	7.97344e+07	      76.5	   15.4154	   2.48858	7.65646e+07	      76.5	   15.4274	   2.48842	7.58509e+07	      76.5	   15.4273	    2.4764	7.90616e+07	
         R10	   4381	      76.5	    15.433	   2.45829	 8.2722e+07	      76.5	   15.4212	   2.47047	8.11818e+07	      76.5	   15.4334	   2.48233	7.70514e+07	      76.5	   15.4452	   2.47014	7.84966e+07	      76.5	   15.4271	   2.46438	8.19056e+07	      76.5	   15.4273	    2.4764	7.91059e+07	      76.5	   15.4393	   2.47624	7.77403e+07	      76.5	   15.4391	   2.46422	8.05925e+07	
         R10	   4382	      76.5	    15.433	   2.45829	8.27206e+07	      76.5	   15.4452	   2.47014	   7.85e+07	      76.5	   15.4571	   2.45796	7.90523e+07	      76.5	   15.4449	   2.44611	8.30429e+07	      76.5	   15.4391	   2.46422	8.05934e+07	      76.5	   15.4512	   2.46405	7.87371e+07	      76.5	    15.451	   2.45203	8.10242e+07	      76.5	    15.439	    2.4522	 8.2831e+07	
         R10	   4383	      76.5	   15.4449	   2.44611	8.30233e+07	      76.5	   15.4571	   2.45796	7.90328e+07	      76.5	   15.4689	   2.44577	7.87637e+07	      76.5	   15.4567	   2.43392	8.23337e+07	      76.5	    15.451	   2.45203	8.10046e+07	      76.5	    15.463	   2.45187	7.88586e+07	      76.5	   15.4628	   2.43985	  8.052e+07	      76.5	   15.4508	   2.44001	  8.263e+07	
         R10	   4384	      76.5	   15.4567	   2.43392	8.23252e+07	      76.5	   15.4689	   2.44577	 7.8738e+07	      76.5	   15.4808	   2.43359	7.78207e+07	      76.5	   15.4689	   2.42154	8.08095e+07	      76.5	   15.4628	   2.43985	8.05024e+07	      76.5	   15.4749	   2.43968	 7.8242e+07	      76.5	   15.4749	   2.42757	 7.9282e+07	      76.5	   15.4628	   2.42773	8.15237e+07	
         R10	   4385	      76.5	   15.4689	   2.42154	8.07681e+07	      76.5	   15.4808	   2.43359	7.78175e+07	      76.5	    15.493	   2.42083	7.63739e+07	      76.5	   15.4822	   2.40874	7.86847e+07	      76.5	   15.4749	   2.42757	7.92612e+07	      76.5	   15.4869	   2.42721	7.70603e+07	      76.5	   15.4876	   2.41478	7.74928e+07	      76.5	   15.4756	   2.41514	7.96843e+07	
         R10	   4386	      76.5	   15.4774	   2.39584	7.95487e+07	      76.5	   15.4878	   2.38168	7.70794e+07	      76.5	    15.474	   2.37162	  7.909e+07	      76.5	   15.4635	   2.38556	 8.2217e+07	      76.5	   15.4826	   2.38876	7.82757e+07	      76.5	   15.4809	   2.37665	7.80408e+07	      76.5	   15.4688	   2.37859	 8.0615e+07	      76.5	   15.4705	    2.3907	8.08364e+07	
         R10	   4387	      76.5	   15.4635	   2.38556	 8.2171e+07	      76.5	    15.474	   2.37162	7.91213e+07	      76.5	   15.4599	   2.36181	8.10122e+07	      76.5	   15.4503	   2.37692	8.47461e+07	      76.5	   15.4688	   2.37859	8.06082e+07	      76.5	    15.467	   2.36672	8.00096e+07	      76.5	   15.4551	   2.36937	8.28297e+07	      76.5	   15.4569	   2.38124	8.34116e+07	
         R10	   4388	      76.5	   15.4503	   2.37692	8.48395e+07	      76.5	   15.4599	   2.36181	8.10435e+07	      76.5	   15.4457	   2.35201	8.25953e+07	      76.5	   15.4359	   2.36614	8.70995e+07	      76.5	   15.4551	   2.36937	8.28933e+07	      76.5	   15.4528	   2.35691	8.17458e+07	      76.5	   15.4408	   2.35907	8.48092e+07	      76.5	   15.4431	   2.37153	8.58777e+07	
         R10	   4389	      76.5	   15.4359	   2.36614	8.71818e+07	      76.5	   15.4457	   2.35201	8.26217e+07	      76.5	   15.4316	    2.3422	8.35859e+07	      76.5	   15.4218	   2.35634	8.89429e+07	      76.5	   15.4408	   2.35907	8.48633e+07	      76.5	   15.4387	    2.3471	8.30117e+07	      76.5	   15.4267	   2.34927	8.62327e+07	      76.5	   15.4289	   2.36124	8.79541e+07	
         R10	   4390	      76.5	   15.4218	   2.35634	8.90543e+07	      76.5	   15.4316	    2.3422	8.36127e+07	      76.5	   15.4175	    2.3324	8.37463e+07	      76.5	   15.4077	   2.34653	8.98865e+07	      76.5	   15.4267	   2.34927	8.63014e+07	      76.5	   15.4245	    2.3373	8.35689e+07	      76.5	   15.4126	   2.33946	8.67939e+07	      76.5	   15.4147	   2.35144	8.93327e+07	
         R10	   4391	      76.5	   15.4077	   2.34653	8.99386e+07	      76.5	   15.4175	    2.3324	8.37754e+07	      76.5	   15.4033	   2.32259	8.27823e+07	      76.5	   15.3935	   2.33673	8.95223e+07	      76.5	   15.4126	   2.33946	8.68343e+07	      76.5	   15.4104	   2.32749	8.31534e+07	      76.5	   15.3984	   2.32966	8.61393e+07	      76.5	   15.4006	   2.34163	8.95685e+07	
         R10	   4392	      76.5	   15.3935	   2.33673	8.94853e+07	      76.5	   15.4033	   2.32259	8.28182e+07	      76.5	   15.3892	   2.31278	8.06129e+07	      76.5	     15.38	   2.32681	8.73036e+07	      76.5	   15.3984	   2.32966	8.61393e+07	      76.5	   15.3962	   2.31769	8.15846e+07	      76.5	   15.3846	    2.3198	8.39523e+07	      76.5	   15.3867	   2.33177	8.82269e+07	
         R10	   4393	      76.5	     15.38	   2.32681	8.72226e+07	      76.5	   15.3892	   2.31278	8.06089e+07	      76.5	    15.375	   2.30298	7.71737e+07	      76.5	   15.3661	   2.31684	8.34802e+07	      76.5	   15.3846	    2.3198	8.39101e+07	      76.5	   15.3821	   2.30788	7.87664e+07	      76.5	   15.3706	   2.30991	 8.0325e+07	      76.5	    15.373	   2.32183	8.51866e+07	
         R10	   4394	      76.5	   15.3661	   2.31684	8.33106e+07	      76.5	    15.375	   2.30298	7.71226e+07	      76.5	   15.3615	   2.29305	7.27298e+07	      76.5	    15.351	   2.30909	7.89905e+07	      76.5	   15.3706	   2.30991	 8.0215e+07	      76.5	   15.3683	   2.29802	7.48245e+07	      76.5	   15.3563	   2.30107	7.58575e+07	      76.5	   15.3586	   2.31296	8.10184e+07	
         R10	   4395	      76.5	     15.35	   2.33092	9.08677e+07	      76.5	   15.3342	   2.33149	9.01013e+07	      76.5	    15.334	   2.34901	1.03749e+08	      76.5	   15.3509	   2.34878	1.03157e+08	      76.5	   15.3421	    2.3312	 9.0363e+07	      76.5	   15.3341	   2.34025	9.68486e+07	      76.5	   15.3424	    2.3489	1.03239e+08	      76.5	   15.3504	   2.33985	9.68705e+07	
         R10	   4396	      76.5	   15.3509	   2.34878	1.03547e+08	      76.5	    15.334	   2.34901	1.03865e+08	      76.5	   15.3331	   2.36463	1.19794e+08	      76.5	   15.3519	   2.36771	1.17785e+08	      76.5	   15.3424	    2.3489	1.03488e+08	      76.5	   15.3335	   2.35682	1.11675e+08	      76.5	   15.3425	   2.36617	1.18332e+08	      76.5	   15.3514	   2.35824	1.10331e+08	
         R10	   4397	      76.5	   15.3519	   2.36771	1.16992e+08	      76.5	   15.3356	   2.38237	1.40283e+08	      76.5	   15.3476	   2.39771	1.36869e+08	      76.5	   15.3601	   2.38663	1.23873e+08	      76.5	   15.3437	   2.37504	1.28601e+08	      76.5	   15.3416	   2.39004	1.37128e+08	      76.5	   15.3539	   2.39217	1.30209e+08	      76.5	    15.356	   2.37717	1.19582e+08	
         R10	   4398	      76.5	   15.3601	   2.38663	1.23673e+08	      76.5	   15.3476	   2.39771	1.35399e+08	      76.5	   15.3603	    2.4113	1.23383e+08	      76.5	   15.3723	   2.39946	 1.1762e+08	      76.5	   15.3539	   2.39217	1.29372e+08	      76.5	    15.354	    2.4045	1.28723e+08	      76.5	   15.3663	   2.40538	1.20285e+08	      76.5	   15.3662	   2.39304	1.20112e+08	
         R10	   4399	      76.5	   15.3723	   2.39946	1.17234e+08	      76.5	   15.3603	    2.4113	1.22039e+08	      76.5	   15.3724	   2.42305	1.11215e+08	      76.5	   15.3843	   2.41087	 1.0928e+08	      76.5	   15.3663	   2.40538	1.19441e+08	      76.5	   15.3664	   2.41718	1.16378e+08	      76.5	   15.3784	   2.41696	1.10081e+08	      76.5	   15.3783	   2.40516	1.12994e+08	
         R10	   4400	      76.5	   15.3843	   2.41087	1.09062e+08	      76.5	   15.3724	   2.42305	1.11005e+08	      76.5	   15.3846	   2.43491	1.00971e+08	      76.5	   15.3965	   2.42273	1.01213e+08	      76.5	   15.3784	   2.41696	1.09863e+08	      76.5	   15.3785	   2.42898	1.05859e+08	      76.5	   15.3906	   2.42882	1.00964e+08	      76.5	   15.3904	    2.4168	 1.0498e+08	
         R10	   4401	      76.5	   15.3965	   2.42273	1.01086e+08	      76.5	   15.3846	   2.43491	1.00907e+08	      76.5	   15.3968	   2.44676	9.28066e+07	      76.5	   15.4087	   2.43458	9.39752e+07	      76.5	   15.3906	   2.42882	1.00868e+08	      76.5	   15.3907	   2.44084	9.67939e+07	      76.5	   15.4027	   2.44067	9.33006e+07	      76.5	   15.4026	   2.42865	9.74423e+07	
         R10	   4402	      76.5	   15.4087	   2.43458	9.39157e+07	      76.5	   15.3968	   2.44676	9.28123e+07	      76.5	    15.409	   2.45862	8.63117e+07	      76.5	   15.4209	   2.44644	8.78324e+07	      76.5	   15.4027	   2.44067	9.32735e+07	      76.5	   15.4029	   2.45269	 8.9529e+07	      76.5	   15.4149	   2.45253	8.70077e+07	      76.5	   15.4148	   2.44051	9.08256e+07	
         R10	   4403	      76.5	   15.4209	   2.44644	8.78117e+07	      76.5	    15.409	   2.45862	8.63302e+07	      76.5	   15.4212	   2.47047	8.11602e+07	      76.5	    15.433	   2.45829	8.27315e+07	      76.5	   15.4149	   2.45253	8.70064e+07	      76.5	   15.4151	   2.46455	8.37272e+07	      76.5	   15.4271	   2.46438	8.18998e+07	      76.5	   15.4269	   2.45237	8.52436e+07	
         R10	   4404	      76.5	   15.4327	   2.43426	8.76635e+07	      76.5	   15.4209	   2.44644	8.77953e+07	      76.5	    15.433	   2.45829	8.27136e+07	      76.5	   15.4449	   2.44611	8.30572e+07	      76.5	   15.4268	   2.44035	8.76638e+07	      76.5	   15.4269	   2.45237	8.52263e+07	      76.5	    15.439	    2.4522	8.28346e+07	      76.5	   15.4388	   2.44018	8.53234e+07	
         R10	   4405	      76.5	   15.4327	   2.43426	8.76284e+07	      76.5	   15.4449	   2.44611	8.30402e+07	      76.5	   15.4567	   2.43392	8.23477e+07	      76.5	   15.4444	    2.4213	8.64545e+07	      76.5	   15.4388	   2.44018	8.52974e+07	      76.5	   15.4508	   2.44001	8.26455e+07	      76.5	   15.4506	   2.42761	8.43514e+07	      76.5	   15.4386	   2.42778	8.69753e+07	
         R10	   4406	      76.5	   15.4444	    2.4213	8.64043e+07	      76.5	   15.4567	   2.43392	8.23195e+07	      76.5	   15.4689	   2.42154	8.09539e+07	      76.5	   15.4563	   2.40744	8.41575e+07	      76.5	   15.4506	   2.42761	8.43113e+07	      76.5	   15.4628	   2.42773	8.15927e+07	      76.5	   15.4626	   2.41449	8.24901e+07	      76.5	   15.4503	   2.41437	8.52198e+07	
         R10	   4407	      76.5	   15.4822	   2.40874	7.85341e+07	      76.5	    15.493	   2.42083	 7.6347e+07	      76.5	   15.5047	   2.41021	7.46836e+07	      76.5	   15.5005	   2.39253	 7.5311e+07	      76.5	   15.4876	   2.41478	7.74049e+07	      76.5	   15.4988	   2.41552	7.54932e+07	      76.5	   15.5026	   2.40137	7.49347e+07	      76.5	   15.4914	   2.40063	7.68756e+07	
         R10	   4408	      76.5	   15.4822	   2.40874	7.87311e+07	      76.5	   15.5005	   2.39253	7.51776e+07	      76.5	   15.4878	   2.38168	7.70847e+07	      76.5	   15.4774	   2.39584	7.95464e+07	      76.5	   15.4914	   2.40063	7.69062e+07	      76.5	   15.4942	   2.38711	7.60952e+07	      76.5	   15.4826	   2.38876	7.82769e+07	      76.5	   15.4798	   2.40229	7.90942e+07	
         R10	   4409	      76.5	   15.4408	   2.39174	8.82864e+07	      76.5	   15.4503	   2.37692	8.48397e+07	      76.5	   15.4359	   2.36614	8.71928e+07	      76.5	   15.4263	   2.38085	9.17008e+07	      76.5	   15.4455	   2.38433	8.64982e+07	      76.5	   15.4431	   2.37153	8.59243e+07	      76.5	   15.4311	    2.3735	8.93849e+07	      76.5	   15.4335	    2.3863	8.98925e+07	
         R10	   4410	      76.5	   15.4263	   2.38085	9.17795e+07	      76.5	   15.4359	   2.36614	8.72269e+07	      76.5	   15.4218	   2.35634	8.89633e+07	      76.5	   15.4115	   2.37097	9.51007e+07	      76.5	   15.4311	    2.3735	8.94414e+07	      76.5	   15.4289	   2.36124	8.79863e+07	      76.5	   15.4166	   2.36365	9.19789e+07	      76.5	   15.4189	   2.37591	9.33115e+07	
         R10	   4411	      76.5	   15.4115	   2.37097	9.50215e+07	      76.5	   15.4218	   2.35634	8.90578e+07	      76.5	   15.4077	   2.34653	8.99677e+07	      76.5	   15.3971	   2.36244	9.75563e+07	      76.5	   15.4166	   2.36365	 9.1988e+07	      76.5	   15.4147	   2.35144	8.93746e+07	      76.5	   15.4024	   2.35449	9.37092e+07	      76.5	   15.4043	   2.36671	9.61426e+07	
         R10	   4412	      76.5	   15.3971	   2.36244	9.77225e+07	      76.5	   15.4077	   2.34653	9.00004e+07	      76.5	   15.3935	   2.33673	8.94935e+07	      76.5	   15.3838	   2.35305	 9.8255e+07	      76.5	   15.4024	   2.35449	9.38065e+07	      76.5	   15.4006	   2.34163	 8.9585e+07	      76.5	   15.3887	   2.34489	9.38332e+07	      76.5	   15.3905	   2.35774	9.77898e+07	
         R10	   4413	      76.5	   15.3838	   2.35305	9.85308e+07	      76.5	   15.3935	   2.33673	8.94548e+07	      76.5	     15.38	   2.32681	8.72496e+07	      76.5	   15.3692	   2.34329	9.67814e+07	      76.5	   15.3887	   2.34489	9.39509e+07	      76.5	   15.3867	   2.33177	8.81868e+07	      76.5	   15.3746	   2.33505	9.20006e+07	      76.5	   15.3765	   2.34817	9.73966e+07	
         R10	   4414	      76.5	   15.3668	    2.3625	1.08409e+08	      76.5	   15.3519	   2.36771	1.17542e+08	      76.5	   15.3601	   2.38663	1.23605e+08	      76.5	   15.3747	   2.37474	1.10779e+08	      76.5	   15.3594	   2.36511	1.12934e+08	      76.5	    15.356	   2.37717	1.19649e+08	      76.5	   15.3674	   2.38068	1.17147e+08	      76.5	   15.3708	   2.36862	1.09301e+08	
         R10	   4415	      76.5	   15.3747	   2.37474	 1.0974e+08	      76.5	   15.3601	   2.38663	1.23135e+08	      76.5	   15.3723	   2.39946	1.17438e+08	      76.5	   15.3856	   2.38415	 1.0816e+08	      76.5	   15.3674	   2.38068	1.16397e+08	      76.5	   15.3662	   2.39304	1.19757e+08	      76.5	    15.379	    2.3918	1.12607e+08	      76.5	   15.3802	   2.37944	1.08744e+08	
         R10	   4416	      76.5	   15.3856	   2.38415	1.08548e+08	      76.5	   15.3723	   2.39946	1.16807e+08	      76.5	   15.3843	   2.41087	 1.0903e+08	      76.5	   15.3956	    2.3999	1.04899e+08	      76.5	    15.379	    2.3918	1.12493e+08	      76.5	   15.3783	   2.40516	1.12659e+08	      76.5	     15.39	   2.40538	1.06866e+08	      76.5	   15.3906	   2.39202	1.06356e+08	
         R10	   4417	      76.5	   15.3956	    2.3999	1.04478e+08	      76.5	   15.3843	   2.41087	1.08826e+08	      76.5	   15.3965	   2.42273	 1.0109e+08	      76.5	   15.4082	    2.4103	9.87209e+07	      76.5	     15.39	   2.40538	1.06559e+08	      76.5	   15.3904	    2.4168	1.04799e+08	      76.5	   15.4023	   2.41651	9.97942e+07	      76.5	   15.4019	    2.4051	1.01473e+08	
         R10	   4418	      76.5	   15.4082	    2.4103	9.87536e+07	      76.5	   15.3965	   2.42273	1.00942e+08	      76.5	   15.4087	   2.43458	9.39205e+07	      76.5	   15.4204	   2.42201	9.30434e+07	      76.5	   15.4023	   2.41651	9.97378e+07	      76.5	   15.4026	   2.42865	9.73457e+07	      76.5	   15.4145	    2.4283	9.33929e+07	      76.5	   15.4143	   2.41616	9.57996e+07	
         R10	   4419	      76.5	   15.4204	   2.42201	9.30009e+07	      76.5	   15.4087	   2.43458	9.38685e+07	      76.5	   15.4209	   2.44644	 8.7803e+07	      76.5	   15.4327	   2.43426	8.77125e+07	      76.5	   15.4145	    2.4283	9.33452e+07	      76.5	   15.4148	   2.44051	9.07871e+07	      76.5	   15.4268	   2.44035	8.76921e+07	      76.5	   15.4265	   2.42814	9.02916e+07	
         R10	   4420	      76.5	   15.4319	   2.40885	 9.0797e+07	      76.5	   15.4204	   2.42201	9.29625e+07	      76.5	   15.4327	   2.43426	8.76751e+07	      76.5	   15.4444	    2.4213	8.64014e+07	      76.5	   15.4261	   2.41543	9.18006e+07	      76.5	   15.4265	   2.42814	9.02534e+07	      76.5	   15.4386	   2.42778	8.69726e+07	      76.5	   15.4381	   2.41508	8.85249e+07	
         R10	   4421	      76.5	   15.4563	   2.40744	8.42696e+07	      76.5	   15.4689	   2.42154	8.08162e+07	      76.5	   15.4822	   2.40874	7.86092e+07	      76.5	   15.4774	   2.39584	7.94907e+07	      76.5	   15.4626	   2.41449	 8.2477e+07	      76.5	   15.4756	   2.41514	7.96727e+07	      76.5	   15.4798	   2.40229	7.90064e+07	      76.5	   15.4669	   2.40164	 8.1853e+07	
         R10	   4422	      76.5	   15.4563	   2.40744	8.44392e+07	      76.5	   15.4635	   2.38556	8.24197e+07	      76.5	   15.4503	   2.37692	8.47929e+07	      76.5	   15.4408	   2.39174	8.82379e+07	      76.5	   15.4599	    2.3965	8.32869e+07	      76.5	   15.4569	   2.38124	8.35571e+07	      76.5	   15.4455	   2.38433	 8.6449e+07	      76.5	   15.4485	   2.39959	8.62165e+07	
         R10	   4423	      76.5	   15.4172	   2.39518	9.58232e+07	      76.5	   15.4263	   2.38085	9.18861e+07	      76.5	   15.4115	   2.37097	9.50187e+07	      76.5	   15.4035	   2.38458	1.00187e+08	      76.5	   15.4217	   2.38802	9.37664e+07	      76.5	   15.4189	   2.37591	9.33304e+07	      76.5	   15.4075	   2.37778	9.75301e+07	      76.5	   15.4103	   2.38988	9.78547e+07	
         R10	   4424	      76.5	   15.4319	   2.40885	 9.0797e+07	      76.5	   15.4444	    2.4213	8.64242e+07	      76.5	   15.4563	   2.40744	 8.4368e+07	      76.5	   15.4408	   2.39174	8.83811e+07	      76.5	   15.4381	   2.41508	8.85357e+07	      76.5	   15.4503	   2.41437	8.53329e+07	      76.5	   15.4485	   2.39959	8.62506e+07	      76.5	   15.4363	    2.4003	8.94759e+07	
         R10	   4425	      76.5	   15.4319	   2.40885	9.08756e+07	      76.5	   15.4408	   2.39174	8.83629e+07	      76.5	   15.4263	   2.38085	9.18128e+07	      76.5	   15.4172	   2.39518	9.58671e+07	      76.5	   15.4363	    2.4003	8.95061e+07	      76.5	   15.4335	    2.3863	8.99841e+07	      76.5	   15.4217	   2.38802	9.37523e+07	      76.5	   15.4245	   2.40202	9.32328e+07	
         R10	   4426	      76.5	   15.4082	    2.4103	9.86439e+07	      76.5	   15.4204	   2.42201	9.30331e+07	      76.5	   15.4319	   2.40885	9.08344e+07	      76.5	   15.4172	   2.39518	9.59289e+07	      76.5	   15.4143	   2.41616	9.57395e+07	      76.5	   15.4261	   2.41543	9.18533e+07	      76.5	   15.4245	   2.40202	9.32395e+07	      76.5	   15.4127	   2.40274	9.71598e+07	
         R10	   4427	      76.5	   15.3956	    2.3999	1.04539e+08	      76.5	   15.4082	    2.4103	9.87621e+07	      76.5	   15.4172	   2.39518	9.59738e+07	      76.5	   15.4035	   2.38458	1.00384e+08	      76.5	   15.4019	    2.4051	1.01528e+08	      76.5	   15.4127	   2.40274	9.72418e+07	      76.5	   15.4103	   2.38988	9.80292e+07	      76.5	   15.3995	   2.39224	1.02298e+08	
         R10	   4428	      76.5	   15.3258	   2.26194	 5.7884e+07	      76.5	   15.3329	   2.27525	  6.304e+07	      76.5	   15.3424	   2.25942	5.93098e+07	      76.5	   15.3283	   2.24961	5.49431e+07	      76.5	   15.3293	   2.26859	6.04428e+07	      76.5	   15.3377	   2.26734	6.11696e+07	      76.5	   15.3354	   2.25452	5.70871e+07	      76.5	    15.327	   2.25577	5.64126e+07	
         R10	   4429	      76.5	   15.3258	   2.26194	5.80186e+07	      76.5	   15.3283	   2.24961	5.49957e+07	      76.5	   15.3141	   2.23981	5.07601e+07	      76.5	   15.3153	   2.26308	5.67326e+07	      76.5	    15.327	   2.25577	5.65054e+07	      76.5	   15.3212	   2.24471	5.28506e+07	      76.5	   15.3147	   2.25145	5.37404e+07	      76.5	   15.3206	   2.26251	5.73611e+07	
         R10	   4430	      76.5	   15.3258	   2.26194	 5.7917e+07	      76.5	   15.3153	   2.26308	5.68141e+07	      76.5	   15.3166	   2.28111	6.25529e+07	      76.5	   15.3329	   2.27525	6.30304e+07	      76.5	   15.3206	   2.26251	5.73535e+07	      76.5	   15.3159	    2.2721	5.96788e+07	      76.5	   15.3247	   2.27818	6.27565e+07	      76.5	   15.3293	   2.26859	6.04544e+07	
         R10	   4431	      76.5	   15.3329	   2.27525	6.30353e+07	      76.5	   15.3166	   2.28111	6.24233e+07	      76.5	   15.3171	   2.29756	6.86993e+07	      76.5	   15.3327	     2.297	7.10454e+07	      76.5	   15.3247	   2.27818	6.26925e+07	      76.5	   15.3168	   2.28933	6.55562e+07	      76.5	   15.3249	   2.29728	6.98217e+07	      76.5	   15.3328	   2.28613	6.70286e+07	
         R10	   4432	      76.5	   15.3437	   2.29581	7.23504e+07	      76.5	   15.3477	     2.283	 6.7661e+07	      76.5	   15.3329	   2.27525	6.29932e+07	      76.5	   15.3327	     2.297	7.08735e+07	      76.5	   15.3457	   2.28941	 7.0003e+07	      76.5	   15.3403	   2.27913	6.52668e+07	      76.5	   15.3328	   2.28613	6.69204e+07	      76.5	   15.3382	    2.2964	7.15784e+07	
         R10	   4433	      76.5	   15.3437	   2.29581	7.21361e+07	      76.5	   15.3327	     2.297	7.11572e+07	      76.5	   15.3338	   2.31504	8.00321e+07	      76.5	    15.351	   2.30909	7.89105e+07	      76.5	   15.3382	    2.2964	7.16212e+07	      76.5	   15.3332	   2.30602	7.55738e+07	      76.5	   15.3424	   2.31206	 7.9399e+07	      76.5	   15.3474	   2.30245	7.54624e+07	
         R10	   4434	      76.5	   15.3437	   2.29581	7.20395e+07	      76.5	    15.351	   2.30909	7.89216e+07	      76.5	   15.3615	   2.29305	7.26391e+07	      76.5	   15.3477	     2.283	6.76464e+07	      76.5	   15.3474	   2.30245	7.54193e+07	      76.5	   15.3563	   2.30107	7.57772e+07	      76.5	   15.3546	   2.28803	7.00617e+07	      76.5	   15.3457	   2.28941	6.98418e+07	
         R10	   4435	      76.5	    15.351	   2.30909	7.89901e+07	      76.5	   15.3338	   2.31504	7.97314e+07	      76.5	   15.3342	   2.33149	9.00478e+07	      76.5	     15.35	   2.33092	9.09133e+07	      76.5	   15.3424	   2.31206	7.92863e+07	      76.5	    15.334	   2.32326	8.48566e+07	      76.5	   15.3421	    2.3312	9.03617e+07	      76.5	   15.3505	      2.32	8.48886e+07	
         R10	   4436	      76.5	   15.3616	   2.32967	8.99844e+07	      76.5	   15.3692	   2.34329	9.68562e+07	      76.5	     15.38	   2.32681	8.71514e+07	      76.5	   15.3661	   2.31684	8.33824e+07	      76.5	   15.3654	   2.33648	 9.3231e+07	      76.5	   15.3746	   2.33505	9.19886e+07	      76.5	    15.373	   2.32183	 8.5107e+07	      76.5	   15.3639	   2.32326	8.66749e+07	
         R10	   4437	      76.5	   15.3616	   2.32967	  9.037e+07	      76.5	   15.3661	   2.31684	8.33824e+07	      76.5	    15.351	   2.30909	7.90703e+07	      76.5	     15.35	   2.33092	9.02262e+07	      76.5	   15.3639	   2.32326	8.68607e+07	      76.5	   15.3586	   2.31296	8.10809e+07	      76.5	   15.3505	      2.32	8.45794e+07	      76.5	   15.3558	    2.3303	 9.0234e+07	
         R10	   4438	      76.5	   15.3616	   2.32967	9.01497e+07	      76.5	     15.35	   2.33092	 9.1291e+07	      76.5	   15.3509	   2.34878	1.02846e+08	      76.5	   15.3692	   2.34329	9.68616e+07	      76.5	   15.3558	    2.3303	 9.0663e+07	      76.5	   15.3504	   2.33985	9.69346e+07	      76.5	   15.3601	   2.34604	9.97507e+07	      76.5	   15.3654	   2.33648	9.33197e+07	
         R10	   4439	      76.5	   15.3692	   2.34329	9.73034e+07	      76.5	   15.3509	   2.34878	1.02692e+08	      76.5	   15.3519	   2.36771	1.17544e+08	      76.5	   15.3668	    2.3625	1.07183e+08	      76.5	   15.3601	   2.34604	9.98957e+07	      76.5	   15.3514	   2.35824	1.09778e+08	      76.5	   15.3594	   2.36511	1.12318e+08	      76.5	    15.368	    2.3529	1.02036e+08	
         R10	   4440	      76.5	   15.3747	   2.37474	1.10431e+08	      76.5	   15.3838	   2.35305	9.86613e+07	      76.5	   15.3692	   2.34329	 9.7046e+07	      76.5	   15.3668	    2.3625	1.08833e+08	      76.5	   15.3793	   2.36389	1.04323e+08	      76.5	   15.3765	   2.34817	9.75971e+07	      76.5	    15.368	    2.3529	1.02747e+08	      76.5	   15.3708	   2.36862	 1.0932e+08	
         R10	   4441	      76.5	   15.3856	   2.38415	1.08003e+08	      76.5	   15.3971	   2.36244	9.80682e+07	      76.5	   15.3838	   2.35305	9.82641e+07	      76.5	   15.3747	   2.37474	 1.1099e+08	      76.5	   15.3914	   2.37329	1.02808e+08	      76.5	   15.3905	   2.35774	9.79606e+07	      76.5	   15.3793	   2.36389	1.04396e+08	      76.5	   15.3802	   2.37944	1.09276e+08	
         R10	   4442	      76.5	   15.3856	   2.38415	 1.0757e+08	      76.5	   15.4035	   2.38458	9.98746e+07	      76.5	   15.4115	   2.37097	 9.5369e+07	      76.5	   15.3971	   2.36244	9.79772e+07	      76.5	   15.3945	   2.38436	1.03671e+08	      76.5	   15.4075	   2.37778	 9.7539e+07	      76.5	   15.4043	   2.36671	9.65114e+07	      76.5	   15.3914	   2.37329	1.02539e+08	
         R10	   4443	      76.5	   15.3141	   2.23981	5.08499e+07	      76.5	      15.3	      2.23	4.69561e+07	      76.5	      15.3	     2.247	5.07557e+07	      76.5	   15.3071	    2.2349	4.88835e+07	      76.5	      15.3	    2.2385	4.88531e+07	      76.5	   15.3071	    2.2434	5.07879e+07	       N/A	       N/A	       N/A	        N/A	       N/A	       N/A	       N/A	        N/A	
         R10	   4444	      76.5	   15.3161	   2.38375	 1.5954e+08	      76.5	      15.3	     2.383	 1.4782e+08	      76.5	      15.3	       2.4	1.97345e+08	      76.5	   15.3081	   2.38337	1.53052e+08	      76.5	      15.3	    2.3915	1.71941e+08	      76.5	   15.3081	   2.39187	1.77311e+08	       N/A	       N/A	       N/A	        N/A	       N/A	       N/A	       N/A	        N/A	
         R10	   4445	      76.5	   15.3356	   2.38237	1.40345e+08	      76.5	   15.3161	   2.38375	1.54652e+08	      76.5	   15.3244	   2.40007	1.76323e+08	      76.5	   15.3259	   2.38306	1.46711e+08	      76.5	   15.3203	   2.39191	1.60646e+08	      76.5	     15.33	   2.39122	1.56073e+08	       N/A	       N/A	       N/A	        N/A	       N/A	       N/A	       N/A	        N/A	
         R10	   4446	      76.5	   15.5047	   2.41021	7.46979e+07	      76.5	   15.5174	    2.3979	7.25098e+07	      76.5	   15.5005	   2.39253	 7.5185e+07	      76.5	    15.511	   2.40405	7.35794e+07	      76.5	    15.509	   2.39521	7.38376e+07	      76.5	   15.5026	   2.40137	7.48809e+07	       N/A	       N/A	       N/A	        N/A	       N/A	       N/A	       N/A	        N/A	
         R10	   4447	      76.5	   15.3519	   2.36771	1.17231e+08	      76.5	   15.3331	   2.36463	1.21365e+08	      76.5	   15.3356	   2.38237	1.36197e+08	      76.5	   15.3425	   2.36617	1.18691e+08	      76.5	   15.3343	    2.3735	1.28049e+08	      76.5	   15.3437	   2.37504	1.26686e+08	       N/A	       N/A	       N/A	        N/A	       N/A	       N/A	       N/A	        N/A	
         R10	   4448	      76.5	   15.4563	   2.40744	 8.4198e+07	      76.5	   15.4774	   2.39584	7.95417e+07	      76.5	   15.4635	   2.38556	8.23259e+07	      76.5	   15.4669	   2.40164	8.18428e+07	      76.5	   15.4705	    2.3907	8.08881e+07	      76.5	   15.4599	    2.3965	8.31227e+07	       N/A	       N/A	       N/A	        N/A	       N/A	       N/A	       N/A	        N/A	
         R10	   4449	      76.5	   15.3856	   2.38415	1.07872e+08	      76.5	   15.3956	    2.3999	1.05178e+08	      76.5	   15.4035	   2.38458	9.96209e+07	      76.5	   15.3906	   2.39202	1.06187e+08	      76.5	   15.3995	   2.39224	1.02238e+08	      76.5	   15.3945	   2.38436	1.03714e+08	       N/A	       N/A	       N/A	        N/A	       N/A	       N/A	       N/A	        N/A	
         R10	   4450	   80.2188	   21.3636	    1.2195	2.65643e+07	   80.2188	   21.5054	   1.77096	4.33523e+07	     80.75	   21.5054	   1.77096	2.88071e+07	     80.75	   21.3636	    1.2195	3.71901e+07	   80.2188	   21.4542	   1.49016	3.38834e+07	   80.4844	   21.5054	   1.77096	3.53628e+07	     80.75	   21.4542	   1.49016	3.24031e+07	   80.4844	   21.3636	    1.2195	3.04405e+07	
         R10	   4451	   79.6875	   21.3636	    1.2195	3.07469e+07	   79.6875	   21.5054	   1.77096	4.01122e+07	   80.2188	   21.5054	   1.77096	 2.3899e+07	   80.2188	   21.3636	    1.2195	4.12062e+07	   79.6875	   21.4542	   1.49016	 3.4797e+07	   79.9531	   21.5054	   1.77096	2.97067e+07	   80.2188	   21.4542	   1.49016	3.16613e+07	   79.9531	   21.3636	    1.2195	3.59744e+07	
         R10	   4452	   79.1563	   21.3636	    1.2195	3.17384e+07	   79.1563	   21.5054	   1.77096	2.97185e+07	   79.6875	   21.5054	   1.77096	2.34676e+07	   79.6875	   21.3636	    1.2195	3.59172e+07	   79.1563	   21.4542	   1.49016	3.02996e+07	   79.4219	   21.5054	   1.77096	2.63312e+07	   79.6875	   21.4542	   1.49016	2.95787e+07	   79.4219	   21.3636	    1.2195	3.37121e+07	
         R10	   4453	    78.625	   21.3636	    1.2195	3.33812e+07	    78.625	   21.5054	   1.77096	2.48862e+07	   79.1563	   21.5054	   1.77096	2.46586e+07	   79.1563	   21.3636	    1.2195	3.45852e+07	    78.625	   21.4542	   1.49016	 2.8783e+07	   78.8906	   21.5054	   1.77096	2.45781e+07	   79.1563	   21.4542	   1.49016	 2.9475e+07	   78.8906	   21.3636	    1.2195	3.39679e+07	
         R10	   4454	   80.2188	   21.5054	   1.77096	 4.9737e+07	   80.2188	      21.5	      2.25	5.62648e+07	     80.75	      21.5	      2.25	5.27895e+07	     80.75	   21.5054	   1.77096	2.83769e+07	   80.2188	   21.5171	   2.01064	 4.8062e+07	   80.4844	      21.5	      2.25	4.36656e+07	     80.75	   21.5171	   2.01064	3.55062e+07	   80.4844	   21.5054	   1.77096	3.82135e+07	
         R10	   4455	   79.6875	   21.5054	   1.77096	4.67134e+07	   79.6875	      21.5	      2.25	3.82551e+07	   80.2188	      21.5	      2.25	 4.1283e+07	   80.2188	   21.5054	   1.77096	2.46369e+07	   79.6875	   21.5171	   2.01064	3.35306e+07	   79.9531	      21.5	      2.25	3.75658e+07	   80.2188	   21.5171	   2.01064	2.82539e+07	   79.9531	   21.5054	   1.77096	3.31991e+07	
         R10	   4456	   79.1563	   21.5054	   1.77096	3.22949e+07	   79.1563	      21.5	      2.25	3.62355e+07	   79.6875	      21.5	      2.25	3.98189e+07	   79.6875	   21.5054	   1.77096	2.79892e+07	   79.1563	   21.5171	   2.01064	2.51445e+07	   79.4219	      21.5	      2.25	3.76521e+07	   79.6875	   21.5171	   2.01064	2.35987e+07	   79.4219	   21.5054	   1.77096	2.93482e+07	
         R10	   4457	    78.625	   21.5054	   1.77096	2.54487e+07	    78.625	      21.5	      2.25	3.29008e+07	   79.1563	      21.5	      2.25	3.74698e+07	   79.1563	   21.5054	   1.77096	2.62799e+07	    78.625	   21.5171	   2.01064	2.00782e+07	   78.8906	      21.5	      2.25	3.47492e+07	   79.1563	   21.5171	   2.01064	2.22026e+07	   78.8906	   21.5054	   1.77096	2.57962e+07	
         R10	   4458	   79.6875	       8.5	         0	4.00573e+07	    78.625	       8.5	         0	 6.4283e+07	    78.625	      9.35	         0	8.84099e+07	   79.6875	      9.35	         0	 4.8179e+07	   79.1563	       8.5	         0	5.09503e+07	    78.625	     8.925	         0	2.50087e+07	   79.1563	      9.35	         0	6.71372e+07	   79.6875	     8.925	         0	2.71036e+07	
         R10	   4459	     80.75	       8.5	         0	3.15584e+07	   79.6875	       8.5	         0	4.04118e+07	   79.6875	      9.35	         0	5.03858e+07	     80.75	      9.35	         0	  6.009e+07	   80.2188	       8.5	         0	3.13114e+07	   79.6875	     8.925	         0	2.90898e+07	   80.2188	      9.35	         0	4.98799e+07	     80.75	     8.925	         0	4.56851e+07	
         R10	   4460	   79.6875	      9.35	         0	3.55477e+07	    78.625	      9.35	         0	5.28841e+07	    78.625	      10.2	         0	2.82611e+07	   79.6875	      10.2	         0	2.46432e+07	   79.1563	      9.35	         0	4.16814e+07	    78.625	     9.775	         0	1.73495e+07	   79.1563	      10.2	         0	2.54457e+07	   79.6875	     9.775	         0	2.35992e+07	
         R10	   4461	     80.75	      9.35	         0	5.69355e+07	   79.6875	      9.35	         0	3.40447e+07	   79.6875	      10.2	         0	3.25099e+07	     80.75	      10.2	         0	6.08931e+07	   80.2188	      9.35	         0	4.09184e+07	   79.6875	     9.775	         0	 2.5888e+07	   80.2188	      10.2	         0	4.53882e+07	     80.75	     9.775	         0	5.87901e+07	
         R10	   4462	   79.6875	      10.2	         0	3.09103e+07	    78.625	      10.2	         0	1.47555e+07	    78.625	     11.05	         0	 2.0381e+07	   79.3034	     11.05	         0	 2.0897e+07	   79.1563	      10.2	         0	1.99047e+07	    78.625	    10.625	         0	 1.2571e+07	   78.9642	     11.05	         0	1.95538e+07	   79.4955	    10.625	         0	2.16068e+07	
         R10	   4463	   79.6875	      10.2	         0	3.52564e+07	   80.0118	     11.05	         0	3.62182e+07	     80.75	     11.05	         0	6.15627e+07	     80.75	      10.2	         0	5.90567e+07	   79.8496	    10.625	         0	3.17689e+07	   80.3809	     11.05	         0	4.75197e+07	     80.75	    10.625	         0	6.02599e+07	   80.2188	      10.2	         0	4.54681e+07	
         R10	   4464	   79.6875	      10.2	         0	3.49122e+07	   79.3034	     11.05	         0	1.67887e+07	   80.0118	     11.05	         0	2.99932e+07	   79.4955	    10.625	         0	2.26995e+07	   79.6576	     11.05	         0	2.31312e+07	   79.8496	    10.625	         0	2.94841e+07	       N/A	       N/A	       N/A	        N/A	       N/A	       N/A	       N/A	        N/A	
         R10	   4465	     75.65	      9.35	         0	4.52966e+07	      76.5	      9.35	         0	6.05577e+07	      76.5	       8.5	         0	3.56193e+07	     75.65	       8.5	         0	3.49918e+07	    76.075	      9.35	         0	4.91856e+07	      76.5	     8.925	         0	4.75216e+07	    76.075	       8.5	         0	3.18661e+07	     75.65	     8.925	         0	3.19854e+07	
         R10	   4466	      74.8	      9.35	         0	3.49972e+07	     75.65	      9.35	         0	3.80876e+07	     75.65	       8.5	         0	3.89542e+07	      74.8	       8.5	         0	2.48183e+07	    75.225	      9.35	         0	3.61577e+07	     75.65	     8.925	         0	2.87054e+07	    75.225	       8.5	         0	3.03301e+07	      74.8	     8.925	         0	1.32469e+07	
         R10	   4467	     73.95	      9.35	         0	3.75078e+07	      74.8	      9.35	         0	3.77782e+07	      74.8	       8.5	         0	2.79454e+07	     73.95	       8.5	         0	2.77434e+07	    74.375	      9.35	         0	 3.6534e+07	      74.8	     8.925	         0	1.89582e+07	    74.375	       8.5	         0	2.65687e+07	     73.95	     8.925	         0	1.92197e+07	
         R10	   4468	      73.1	      9.35	         0	3.75005e+07	     73.95	      9.35	         0	3.45951e+07	     73.95	       8.5	         0	2.44574e+07	      73.1	       8.5	         0	4.16696e+07	    73.525	      9.35	         0	3.55674e+07	     73.95	     8.925	         0	1.34744e+07	    73.525	       8.5	         0	3.11886e+07	      73.1	     8.925	         0	3.11224e+07	
         R10	   4469	     72.25	      9.35	         0	6.17819e+07	      73.1	      9.35	         0	4.41216e+07	      73.1	       8.5	         0	3.68625e+07	     72.25	       8.5	         0	3.54691e+07	    72.675	      9.35	         0	5.00809e+07	      73.1	     8.925	         0	3.32883e+07	    72.675	       8.5	         0	3.42235e+07	     72.25	     8.925	         0	4.85544e+07	
         R10	   4470	     75.65	      10.2	         0	3.15889e+07	      76.5	      10.2	         0	5.78387e+07	      76.5	      9.35	         0	5.73564e+07	     75.65	      9.35	         0	3.45445e+07	    76.075	      10.2	         0	4.37293e+07	      76.5	     9.775	         0	5.75287e+07	    76.075	      9.35	         0	4.36945e+07	     75.65	     9.775	         0	2.91313e+07	
         R10	   4471	      74.8	      10.2	         0	1.18618e+07	     75.65	      10.2	         0	2.70119e+07	     75.65	      9.35	         0	3.28316e+07	      74.8	      9.35	         0	1.87494e+07	    75.225	      10.2	         0	  1.936e+07	     75.65	     9.775	         0	2.49913e+07	    75.225	      9.35	         0	2.48283e+07	      74.8	     9.775	         0	1.28872e+07	
         R10	   4472	     73.95	      10.2	         0	1.47866e+07	      74.8	      10.2	         0	1.43498e+07	      74.8	      9.35	         0	1.90615e+07	     73.95	      9.35	         0	1.93154e+07	    74.375	      10.2	         0	 1.4484e+07	      74.8	     9.775	         0	1.42781e+07	    74.375	      9.35	         0	1.86397e+07	     73.95	     9.775	         0	1.47044e+07	
         R10	   4473	      73.1	      10.2	         0	2.81164e+07	     73.95	      10.2	         0	 1.2622e+07	     73.95	      9.35	         0	1.94819e+07	      73.1	      9.35	         0	3.32463e+07	    73.525	      10.2	         0	2.03291e+07	     73.95	     9.775	         0	1.37383e+07	    73.525	      9.35	         0	2.55535e+07	      73.1	     9.775	         0	2.62188e+07	
         R10	   4474	     72.25	      10.2	         0	5.89908e+07	      73.1	      10.2	         0	3.34178e+07	      73.1	      9.35	         0	 3.4468e+07	     72.25	      9.35	         0	5.83739e+07	    72.675	      10.2	         0	4.51814e+07	      73.1	     9.775	         0	2.99089e+07	    72.675	      9.35	         0	4.42674e+07	     72.25	     9.775	         0	5.86277e+07	
         R10	   4475	   75.6646	     11.05	         0	3.09547e+07	      76.5	     11.05	         0	5.65488e+07	      76.5	      10.2	         0	5.64136e+07	     75.65	      10.2	         0	3.90652e+07	   76.0823	     11.05	         0	 4.2244e+07	      76.5	    10.625	         0	5.63206e+07	    76.075	      10.2	         0	4.60365e+07	   75.6573	    10.625	         0	3.07286e+07	
         R10	   4476	   74.8218	     11.05	         0	1.46047e+07	   75.6646	     11.05	         0	2.79454e+07	     75.65	      10.2	         0	3.71416e+07	      74.8	      10.2	         0	1.48291e+07	   75.2432	     11.05	         0	2.06314e+07	   75.6573	    10.625	         0	2.75709e+07	    75.225	      10.2	         0	2.52558e+07	   74.8109	    10.625	         0	1.25486e+07	
         R10	   4477	   73.9718	     11.05	         0	1.47946e+07	   74.8218	     11.05	         0	1.49199e+07	      74.8	      10.2	         0	1.65421e+07	     73.95	      10.2	         0	1.61494e+07	   74.3969	     11.05	         0	1.47275e+07	   74.8109	    10.625	         0	1.36574e+07	    74.375	      10.2	         0	1.50849e+07	   73.9609	    10.625	         0	1.40957e+07	
         R10	   4478	   73.1146	     11.05	         0	2.94946e+07	   73.9718	     11.05	         0	1.47885e+07	     73.95	      10.2	         0	1.49591e+07	      73.1	      10.2	         0	3.85949e+07	   73.5432	     11.05	         0	 2.1374e+07	   73.9609	    10.625	         0	1.35035e+07	    73.525	      10.2	         0	2.60186e+07	   73.1073	    10.625	         0	2.89185e+07	
         R10	   4479	     72.25	     11.05	         0	5.88344e+07	   73.1146	     11.05	         0	2.99167e+07	      73.1	      10.2	         0	4.06916e+07	     72.25	      10.2	         0	5.75378e+07	   72.6823	     11.05	         0	4.26959e+07	   73.1073	    10.625	         0	2.99252e+07	    72.675	      10.2	         0	4.72991e+07	     72.25	    10.625	         0	5.81861e+07	
         R10	   4480	   77.5625	      9.35	         0	4.33936e+07	    78.625	      9.35	         0	8.82489e+07	    78.625	       8.5	         0	6.47528e+07	   77.5625	       8.5	         0	3.91279e+07	   78.0938	      9.35	         0	6.47066e+07	    78.625	     8.925	         0	2.52305e+07	   78.0938	       8.5	         0	 5.0494e+07	   77.5625	     8.925	         0	2.62494e+07	
         R10	   4481	      76.5	      9.35	         0	5.79681e+07	   77.5625	      9.35	         0	4.64726e+07	   77.5625	       8.5	         0	3.96515e+07	      76.5	       8.5	         0	3.37471e+07	   77.0313	      9.35	         0	4.72338e+07	   77.5625	     8.925	         0	2.89853e+07	   77.0313	       8.5	         0	3.08851e+07	      76.5	     8.925	         0	4.53298e+07	
         R10	   4482	   77.5625	      10.2	         0	2.30474e+07	    78.625	      10.2	         0	2.84978e+07	    78.625	      9.35	         0	5.28005e+07	   77.5625	      9.35	         0	3.10669e+07	   78.0938	      10.2	         0	2.44555e+07	    78.625	     9.775	         0	1.72343e+07	   78.0938	      9.35	         0	3.87647e+07	   77.5625	     9.775	         0	2.24491e+07	
         R10	   4483	      76.5	      10.2	         0	5.91969e+07	   77.5625	      10.2	         0	2.93854e+07	   77.5625	      9.35	         0	3.09708e+07	      76.5	      9.35	         0	5.59409e+07	   77.0313	      10.2	         0	4.32186e+07	   77.5625	     9.775	         0	2.50173e+07	   77.0313	      9.35	         0	4.02361e+07	      76.5	     9.775	         0	5.75163e+07	
         R10	   4484	   77.9344	     11.05	         0	1.98235e+07	    78.625	     11.05	         0	 2.0301e+07	    78.625	      10.2	         0	1.50481e+07	   77.5625	      10.2	         0	2.94539e+07	   78.2797	     11.05	         0	1.88786e+07	    78.625	    10.625	         0	1.25757e+07	   78.0938	      10.2	         0	1.93515e+07	   77.7485	    10.625	         0	2.07993e+07	
         R10	   4485	      76.5	      10.2	         0	5.76859e+07	      76.5	     11.05	         0	5.87574e+07	   77.2261	     11.05	         0	3.63076e+07	   77.5625	      10.2	         0	3.27222e+07	      76.5	    10.625	         0	5.80718e+07	   76.8631	     11.05	         0	4.64633e+07	   77.3943	    10.625	         0	3.09818e+07	   77.0313	      10.2	         0	4.36641e+07	
         R10	   4486	   77.2261	     11.05	         0	2.87967e+07	   77.9344	     11.05	         0	1.59556e+07	   77.5625	      10.2	         0	3.26709e+07	   77.5803	     11.05	         0	 2.2127e+07	   77.7485	    10.625	         0	 2.1744e+07	   77.3943	    10.625	         0	2.81958e+07	       N/A	       N/A	       N/A	        N/A	       N/A	       N/A	       N/A	        N/A	
         R10	   4487	    74.375	   15.5055	   2.59991	5.62576e+07	    74.375	      15.3	       2.4	1.59366e+08	   74.0696	      15.3	       2.4	1.51258e+08	   74.0613	   15.5773	   2.66983	  1.358e+08	    74.375	   15.4027	   2.49995	6.52742e+07	   74.2223	      15.3	       2.4	1.55089e+08	   74.0655	   15.4387	   2.53492	5.11557e+07	   74.2181	   15.5414	   2.63487	7.64462e+07	
         R10	   4488	   74.0696	   15.9164	   2.99973	7.53456e+07	    74.375	   15.9164	   2.99973	9.52325e+07	    74.375	   15.7109	   2.79982	7.46085e+07	   74.0613	   15.5773	   2.66983	 1.1628e+08	   74.2223	   15.9164	   2.99973	8.46894e+07	    74.375	   15.8137	   2.89977	1.46842e+07	   74.2181	   15.6441	   2.73483	9.23213e+07	   74.0655	   15.7469	   2.83478	3.16238e+07	
         R10	   4489	   73.6137	   15.9164	   2.99973	3.95349e+07	   74.0696	   15.9164	   2.99973	7.86088e+07	   74.0613	   15.5773	   2.66983	1.14728e+08	   73.6403	   15.5787	   2.67114	4.42423e+07	   73.8416	   15.9164	   2.99973	5.48081e+07	   74.0655	   15.7469	   2.83478	3.36534e+07	   73.8508	    15.578	   2.67049	 7.8215e+07	    73.627	   15.7475	   2.83543	2.81116e+07	
         R10	   4490	   73.0071	      15.3	       2.4	2.47064e+07	     72.25	      15.3	       2.4	3.04534e+07	     72.25	   15.9164	   2.99973	  4.978e+07	   73.0071	   15.9164	   2.99973	4.63434e+07	   72.6286	      15.3	       2.4	2.52564e+07	     72.25	   15.6082	   2.69986	3.75122e+07	   72.6286	   15.9164	   2.99973	3.90082e+07	   73.0071	   15.6082	   2.69986	2.86967e+07	
         R10	   4491	   73.6403	   15.5787	   2.67114	4.22803e+07	   74.0613	   15.5773	   2.66983	1.17847e+08	   74.0696	      15.3	       2.4	1.52837e+08	   73.6137	      15.3	       2.4	5.43192e+07	   73.8508	    15.578	   2.67049	7.91139e+07	   74.0655	   15.4387	   2.53492	 4.1692e+07	   73.8416	      15.3	       2.4	1.03467e+08	    73.627	   15.4393	   2.53557	1.16738e+07	
         R10	   4492	   73.0071	   15.9164	   2.99973	3.66467e+07	   73.6137	   15.9164	   2.99973	3.72026e+07	   73.6403	   15.5787	   2.67114	4.30985e+07	   73.0071	      15.3	       2.4	3.03848e+07	   73.3104	   15.9164	   2.99973	3.28374e+07	    73.627	   15.7475	   2.83543	2.35496e+07	   73.3237	   15.4393	   2.53557	3.50247e+07	   73.0071	   15.6082	   2.69986	2.78703e+07	
         R10	   4493	    74.375	   15.7109	   2.79982	3.69212e+07	    74.375	   15.5055	   2.59991	1.11901e+08	   74.0613	   15.5773	   2.66983	8.85307e+07	    74.375	   15.6082	   2.69986	7.28688e+07	   74.2181	   15.5414	   2.63487	8.85586e+07	   74.2181	   15.6441	   2.73483	6.10575e+07	       N/A	       N/A	       N/A	        N/A	       N/A	       N/A	       N/A	        N/A	
         R10	   4494	   73.6403	   15.5787	   2.67114	5.00385e+07	   73.6137	      15.3	       2.4	5.78799e+07	   73.0071	      15.3	       2.4	1.87441e+07	    73.627	   15.4393	   2.53557	2.27281e+07	   73.3104	      15.3	       2.4	3.06312e+07	   73.3237	   15.4393	   2.53557	3.20492e+07	       N/A	       N/A	       N/A	        N/A	       N/A	       N/A	       N/A	        N/A	
         R10	   4495	    73.053	     19.83	         6	 9.8668e+06	     72.25	     19.83	         6	2.20184e+07	     72.25	        19	         6	1.89742e+07	   73.0267	        19	         6	1.31568e+07	   72.6515	     19.83	         6	 1.3775e+07	     72.25	    19.415	         6	1.94729e+07	   72.6383	        19	         6	1.27523e+07	   73.0398	    19.415	         6	1.11553e+07	
         R10	   4496	   73.7907	     19.83	         6	1.60167e+07	    73.053	     19.83	         6	1.20869e+07	   73.0267	        19	         6	 1.6952e+07	   73.7468	        19	         6	1.01356e+07	   73.4218	     19.83	         6	1.33252e+07	   73.0398	    19.415	         6	1.36171e+07	   73.3867	        19	         6	1.13796e+07	   73.7687	    19.415	         6	1.21638e+07	
         R10	   4497	   74.4631	     19.83	         6	1.82681e+07	   73.7907	     19.83	         6	1.66707e+07	   73.7468	        19	         6	1.62861e+07	   74.4105	        19	         6	1.06577e+07	   74.1269	     19.83	         6	1.74276e+07	   73.7687	    19.415	         6	1.61059e+07	   74.0786	        19	         6	1.29462e+07	   74.4368	    19.415	         6	1.41625e+07	
         R10	   4498	   75.0702	     19.83	         6	1.37468e+07	   74.4631	     19.83	         6	1.83296e+07	   74.4105	        19	         6	 1.3887e+07	   75.0176	        19	         6	1.72875e+07	   74.7667	     19.83	         6	1.51541e+07	   74.4368	    19.415	         6	1.59674e+07	    74.714	        19	         6	1.48152e+07	   75.0439	    19.415	         6	 1.3702e+07	
         R10	   4499	   75.6121	     19.83	         6	1.10626e+07	   75.0702	     19.83	         6	1.33112e+07	   75.0176	        19	         6	1.82012e+07	   75.5682	        19	         6	1.23367e+07	   75.3412	     19.83	         6	1.19923e+07	   75.0439	    19.415	         6	1.45928e+07	   75.2929	        19	         6	1.36044e+07	   75.5902	    19.415	         6	1.12883e+07	
         R10	   4500	   76.0632	   19.4278	         6	1.00727e+07	   76.0624	        19	         6	3.34522e+07	      76.5	        19	         6	3.63046e+07	      76.5	   19.4348	         6	2.96826e+07	   76.0628	   19.2139	         6	1.44234e+07	   76.2812	        19	         6	2.39515e+07	      76.5	   19.2174	         6	3.19669e+07	   76.2816	   19.4313	         6	1.87986e+07	
         R10	   4501	   76.0632	   19.4278	         6	1.74156e+07	      76.5	   19.4348	         6	2.55311e+07	      76.5	     19.83	         6	2.28179e+07	   76.0887	     19.83	         6	1.36513e+07	   76.2816	   19.4313	         6	1.83154e+07	      76.5	   19.6324	         6	2.41233e+07	   76.2943	     19.83	         6	1.81668e+07	    76.076	   19.6289	         6	1.24047e+07	
         R10	   4502	   75.5682	        19	         6	1.31533e+07	   76.0632	   19.4278	         6	2.13515e+07	   76.0887	     19.83	         6	1.43912e+07	   75.6121	     19.83	         6	1.10888e+07	   75.8158	   19.2139	         6	1.64389e+07	    76.076	   19.6289	         6	1.48841e+07	   75.8504	     19.83	         6	1.18453e+07	   75.5902	    19.415	         6	1.19652e+07	
         R10	   4503	   76.0624	        19	         6	2.57839e+07	   76.0632	   19.4278	         6	1.68878e+07	   75.5682	        19	         6	1.49172e+07	   76.0628	   19.2139	         6	1.24571e+07	   75.8158	   19.2139	         6	1.33106e+07	   75.8153	        19	         6	1.56978e+07	       N/A	       N/A	       N/A	        N/A	       N/A	       N/A	       N/A	        N/A	
         R10	   4504	    73.025	     20.66	         6	1.47094e+07	     72.25	     20.66	         6	1.74175e+07	     72.25	     19.83	         6	1.52937e+07	    73.053	     19.83	         6	1.17523e+07	   72.6375	     20.66	         6	1.56846e+07	     72.25	    20.245	         6	1.61538e+07	   72.6515	     19.83	         6	1.26202e+07	    73.039	    20.245	         6	1.28884e+07	
         R10	   4505	    73.744	     20.66	         6	1.53459e+07	    73.025	     20.66	         6	1.57992e+07	    73.053	     19.83	         6	1.14745e+07	   73.7907	     19.83	         6	1.42752e+07	   73.3845	     20.66	         6	1.48948e+07	    73.039	    20.245	         6	1.31235e+07	   73.4218	     19.83	         6	1.26793e+07	   73.7673	    20.245	         6	1.44517e+07	
         R10	   4506	   74.4071	     20.66	         6	1.68478e+07	    73.744	     20.66	         6	1.64513e+07	   73.7907	     19.83	         6	1.43914e+07	   74.4631	     19.83	         6	1.56803e+07	   74.0755	     20.66	         6	1.65036e+07	   73.7673	    20.245	         6	1.50472e+07	   74.1269	     19.83	         6	1.50121e+07	   74.4351	    20.245	         6	1.59236e+07	
         R10	   4507	   75.0142	     20.66	         6	1.37219e+07	   74.4071	     20.66	         6	1.64379e+07	   74.4631	     19.83	         6	1.58045e+07	   75.0702	     19.83	         6	1.53004e+07	   74.7107	     20.66	         6	1.46276e+07	   74.4351	    20.245	         6	1.57546e+07	   74.7667	     19.83	         6	1.52833e+07	   75.0422	    20.245	         6	1.42345e+07	
         R10	   4508	   75.5654	     20.66	         6	1.51835e+07	   75.0142	     20.66	         6	1.25232e+07	   75.0702	     19.83	         6	1.54967e+07	   75.6121	     19.83	         6	1.17236e+07	   75.2898	     20.66	         6	 1.3464e+07	   75.0422	    20.245	         6	1.37906e+07	   75.3412	     19.83	         6	1.29044e+07	   75.5888	    20.245	         6	1.32166e+07	
         R10	   4509	   76.0887	    20.274	         6	1.56932e+07	   76.0887	     19.83	         6	1.49008e+07	      76.5	     19.83	         6	2.02654e+07	      76.5	   20.2252	         6	1.73306e+07	   76.0887	    20.052	         6	1.49573e+07	   76.2943	     19.83	         6	1.74897e+07	      76.5	   20.0276	         6	1.87945e+07	   76.2943	   20.2496	         6	1.63811e+07	
         R10	   4510	   76.0887	    20.274	         6	1.45159e+07	      76.5	   20.2252	         6	2.02264e+07	      76.5	     20.66	         6	1.78513e+07	   76.0607	     20.66	         6	1.44758e+07	   76.2943	   20.2496	         6	1.72562e+07	      76.5	   20.4426	         6	1.89064e+07	   76.2803	     20.66	         6	1.61352e+07	   76.0747	    20.467	         6	1.42779e+07	
         R10	   4511	   75.6121	     19.83	         6	1.16394e+07	   76.0887	    20.274	         6	1.65379e+07	   76.0607	     20.66	         6	1.62628e+07	   75.5654	     20.66	         6	1.53538e+07	   75.8504	    20.052	         6	1.40227e+07	   76.0747	    20.467	         6	1.60728e+07	   75.8131	     20.66	         6	 1.5478e+07	   75.5888	    20.245	         6	 1.3338e+07	
         R10	   4512	   76.0887	     19.83	         6	1.57765e+07	   76.0887	    20.274	         6	1.69487e+07	   75.6121	     19.83	         6	1.21291e+07	   76.0887	    20.052	         6	1.60713e+07	   75.8504	    20.052	         6	1.38242e+07	   75.8504	     19.83	         6	1.34941e+07	       N/A	       N/A	       N/A	        N/A	       N/A	       N/A	       N/A	        N/A	
         R10	   4513	   72.9702	      21.5	         6	2.90005e+07	     72.25	      21.5	         6	2.01632e+07	     72.25	     20.66	         6	1.56162e+07	    73.025	     20.66	         6	1.64428e+07	   72.6101	      21.5	         6	2.22851e+07	     72.25	     21.08	         6	1.73948e+07	   72.6375	     20.66	         6	1.56989e+07	   72.9976	     21.08	         6	2.23511e+07	
         R10	   4514	   73.6528	      21.5	         6	1.73726e+07	   72.9702	      21.5	         6	1.84131e+07	    73.025	     20.66	         6	2.02574e+07	    73.744	     20.66	         6	1.56609e+07	   73.3115	      21.5	         6	1.76501e+07	   72.9976	     21.08	         6	1.70816e+07	   73.3845	     20.66	         6	1.68262e+07	   73.6984	     21.08	         6	1.57442e+07	
         R10	   4515	   74.2976	      21.5	         6	1.72137e+07	   73.6528	      21.5	         6	 1.5767e+07	    73.744	     20.66	         6	1.46821e+07	   74.4071	     20.66	         6	1.47835e+07	   73.9752	      21.5	         6	1.61659e+07	   73.6984	     21.08	         6	1.45411e+07	   74.0755	     20.66	         6	1.46462e+07	   74.3524	     21.08	         6	1.50328e+07	
         R10	   4516	   74.9048	      21.5	         6	1.65997e+07	   74.2976	      21.5	         6	1.63262e+07	   74.4071	     20.66	         6	1.50884e+07	   75.0142	     20.66	         6	1.60854e+07	   74.6012	      21.5	         6	1.61131e+07	   74.3524	     21.08	         6	1.51097e+07	   74.7107	     20.66	         6	  1.535e+07	   74.9595	     21.08	         6	1.53862e+07	
         R10	   4517	   75.4742	      21.5	         6	2.21337e+07	   74.9048	      21.5	         6	 1.6068e+07	   75.0142	     20.66	         6	1.46652e+07	   75.5654	     20.66	         6	1.55873e+07	   75.1895	      21.5	         6	1.85878e+07	   74.9595	     21.08	         6	 1.5193e+07	   75.2898	     20.66	         6	1.45127e+07	   75.5198	     21.08	         6	1.63234e+07	
         R10	   4518	   76.0607	   21.1273	         6	2.29491e+07	   76.0607	     20.66	         6	1.57516e+07	      76.5	     20.66	         6	2.25755e+07	      76.5	     21.06	         6	1.77443e+07	   76.0607	   20.8936	         6	1.93394e+07	   76.2803	     20.66	         6	1.90806e+07	      76.5	     20.86	         6	1.97488e+07	   76.2803	   21.0936	         6	2.02885e+07	
         R10	   4519	   76.0607	   21.1273	         6	2.46075e+07	      76.5	     21.06	         6	1.96416e+07	      76.5	      21.5	         6	3.58088e+07	    76.006	      21.5	         6	2.39095e+07	   76.2803	   21.0936	         6	1.95612e+07	      76.5	     21.28	         6	2.69695e+07	    76.253	      21.5	         6	2.85978e+07	   76.0333	   21.3136	         6	2.40372e+07	
         R10	   4520	   75.5654	     20.66	         6	 1.2449e+07	   76.0607	   21.1273	         6	 2.5057e+07	    76.006	      21.5	         6	2.03945e+07	   75.4742	      21.5	         6	2.37268e+07	   75.8131	   20.8936	         6	1.85912e+07	   76.0333	   21.3136	         6	2.19224e+07	   75.7401	      21.5	         6	2.16617e+07	   75.5198	     21.08	         6	1.71447e+07	
         R10	   4521	   76.0607	     20.66	         6	1.75994e+07	   76.0607	   21.1273	         6	2.17384e+07	   75.5654	     20.66	         6	1.46195e+07	   76.0607	   20.8936	         6	1.95281e+07	   75.8131	   20.8936	         6	1.79327e+07	   75.8131	     20.66	         6	1.54647e+07	       N/A	       N/A	       N/A	        N/A	       N/A	       N/A	       N/A	        N/A	
         R10	   4522	   76.9503	     19.83	         6	 1.3002e+07	      76.5	     19.83	         6	1.52974e+07	      76.5	   19.4348	         6	2.25185e+07	   76.9391	     19.42	         6	2.98644e+07	   76.7251	     19.83	         6	 1.3366e+07	      76.5	   19.6324	         6	1.80796e+07	   76.7196	   19.4274	         6	2.16158e+07	   76.9447	    19.625	         6	 1.7438e+07	
         R10	   4523	   76.9391	     19.42	         6	1.61279e+07	      76.5	   19.4348	         6	2.63632e+07	      76.5	        19	         6	3.95094e+07	   77.0003	        19	         6	3.88876e+07	   76.7196	   19.4274	         6	1.73534e+07	      76.5	   19.2174	         6	3.28678e+07	   76.7502	        19	         6	2.94945e+07	   76.9697	     19.21	         6	2.16522e+07	
         R10	   4524	   78.0628	        19	         6	2.18298e+07	    78.625	        19	         6	1.46946e+07	    78.625	   19.3952	         6	2.39804e+07	   78.1582	   19.4112	         6	1.83784e+07	   78.3439	        19	         6	1.26174e+07	    78.625	   19.1976	         6	1.45761e+07	   78.3916	   19.4032	         6	1.84554e+07	   78.1105	   19.2056	         6	1.93816e+07	
         R10	   4525	   78.1582	   19.4112	         6	1.88022e+07	    78.625	   19.3952	         6	1.22733e+07	    78.625	     19.83	         6	1.82394e+07	   78.0128	     19.83	         6	1.66253e+07	   78.3916	   19.4032	         6	1.54237e+07	    78.625	   19.6126	         6	1.42282e+07	   78.3189	     19.83	         6	1.74144e+07	   78.0855	   19.6206	         6	1.71365e+07	
         R10	   4526	   77.4545	     19.83	         6	1.33982e+07	   76.9391	     19.42	         6	1.02143e+07	   77.0003	        19	         6	3.13749e+07	   77.5212	        19	         6	1.06773e+07	   77.1968	    19.625	         6	1.16789e+07	   76.9697	     19.21	         6	1.89597e+07	   77.2608	        19	         6	1.66602e+07	   77.4879	    19.415	         6	8.43792e+06	
         R10	   4527	   77.5212	        19	         6	1.56386e+07	   78.1582	   19.4112	         6	1.29358e+07	   78.0128	     19.83	         6	1.45295e+07	   77.4545	     19.83	         6	1.26215e+07	   77.8397	   19.2056	         6	1.39373e+07	   78.0855	   19.6206	         6	1.32311e+07	   77.7337	     19.83	         6	1.24632e+07	   77.4879	    19.415	         6	1.36796e+07	
         R10	   4528	   77.4545	     19.83	         6	1.19442e+07	   76.9503	     19.83	         6	1.35937e+07	   76.9391	     19.42	         6	2.61086e+07	   77.2024	     19.83	         6	1.18996e+07	   76.9447	    19.625	         6	 1.5284e+07	   77.1968	    19.625	         6	1.64251e+07	       N/A	       N/A	       N/A	        N/A	       N/A	       N/A	       N/A	        N/A	
         R10	   4529	   77.5212	        19	         6	2.49293e+07	   78.0628	        19	         6	1.11211e+07	   78.1582	   19.4112	         6	1.43561e+07	    77.792	        19	         6	1.43196e+07	   78.1105	   19.2056	         6	1.27354e+07	   77.8397	   19.2056	         6	1.53222e+07	       N/A	       N/A	       N/A	        N/A	       N/A	       N/A	       N/A	        N/A	
         R10	   4530	   76.9558	     20.66	         6	1.62439e+07	      76.5	     20.66	         6	2.64557e+07	      76.5	   20.2252	         6	1.87452e+07	    76.931	   20.2328	         6	1.58223e+07	   76.7279	     20.66	         6	2.12845e+07	      76.5	   20.4426	         6	2.25464e+07	   76.7155	    20.229	         6	1.72251e+07	   76.9434	   20.4464	         6	1.59131e+07	
         R10	   4531	    76.931	   20.2328	         6	1.61785e+07	      76.5	   20.2252	         6	2.21661e+07	      76.5	     19.83	         6	1.84892e+07	   76.9503	     19.83	         6	1.36422e+07	   76.7155	    20.229	         6	1.91263e+07	      76.5	   20.0276	         6	2.02337e+07	   76.7251	     19.83	         6	1.58534e+07	   76.9407	   20.0314	         6	1.46913e+07	
         R10	   4532	   77.4046	   20.2384	         6	 1.4774e+07	    76.931	   20.2328	         6	1.64347e+07	   76.9503	     19.83	         6	1.33352e+07	   77.4545	     19.83	         6	1.23289e+07	   77.1678	   20.2356	         6	1.53606e+07	   76.9407	   20.0314	         6	1.46447e+07	   77.2024	     19.83	         6	1.17788e+07	   77.4296	   20.0342	         6	1.33311e+07	
         R10	   4533	   78.0128	     19.83	         6	1.55926e+07	    78.625	     19.83	         6	1.57217e+07	    78.625	     20.66	         6	1.46291e+07	   78.0183	     20.66	         6	1.37739e+07	   78.3189	     19.83	         6	1.56489e+07	    78.625	    20.245	         6	1.51556e+07	   78.3217	     20.66	         6	1.40385e+07	   78.0155	    20.245	         6	1.46148e+07	
         R10	   4534	   77.4619	     20.66	         6	1.45775e+07	   76.9558	     20.66	         6	1.78695e+07	    76.931	   20.2328	         6	1.59401e+07	   77.4046	   20.2384	         6	1.39435e+07	   77.2089	     20.66	         6	 1.6021e+07	   76.9434	   20.4464	         6	1.68452e+07	   77.1678	   20.2356	         6	 1.4559e+07	   77.4333	   20.4492	         6	1.42567e+07	
         R10	   4535	   78.0128	     19.83	         6	1.60698e+07	   78.0183	     20.66	         6	1.36334e+07	   77.4619	     20.66	         6	1.39921e+07	   77.4046	   20.2384	         6	1.28722e+07	   78.0155	    20.245	         6	1.48067e+07	   77.7401	     20.66	         6	1.36104e+07	   77.4333	   20.4492	         6	1.34178e+07	   77.7087	   20.0342	         6	1.41812e+07	
         R10	   4536	   77.4046	   20.2384	         6	1.19395e+07	   77.4545	     19.83	         6	1.26195e+07	   78.0128	     19.83	         6	1.58393e+07	   77.4296	   20.0342	         6	1.20273e+07	   77.7337	     19.83	         6	1.41668e+07	   77.7087	   20.0342	         6	1.33936e+07	       N/A	       N/A	       N/A	        N/A	       N/A	       N/A	       N/A	        N/A	
         R10	   4537	   76.9558	      21.5	         6	2.60361e+07	      76.5	      21.5	         6	3.74974e+07	      76.5	     21.06	         6	1.98694e+07	   76.9302	    21.065	         6	2.34064e+07	   76.7279	      21.5	         6	3.02507e+07	      76.5	     21.28	         6	2.79386e+07	   76.7151	   21.0625	         6	2.03608e+07	    76.943	   21.2825	         6	2.40769e+07	
         R10	   4538	   76.9302	    21.065	         6	2.30605e+07	      76.5	     21.06	         6	1.84869e+07	      76.5	     20.66	         6	2.29269e+07	   76.9558	     20.66	         6	1.91246e+07	   76.7151	   21.0625	         6	2.07588e+07	      76.5	     20.86	         6	2.04679e+07	   76.7279	     20.66	         6	2.10084e+07	    76.943	   20.8625	         6	2.06907e+07	
         R10	   4539	   77.4007	   21.0707	         6	1.74749e+07	   76.9302	    21.065	         6	2.27603e+07	   76.9558	     20.66	         6	2.00736e+07	   77.4619	     20.66	         6	1.52619e+07	   77.1654	   21.0678	         6	1.99603e+07	    76.943	   20.8625	         6	2.10182e+07	   77.2089	     20.66	         6	 1.7307e+07	   77.4313	   20.8654	         6	1.62386e+07	
         R10	   4540	   78.0183	     20.66	         6	1.58804e+07	    78.625	     20.66	         6	1.61992e+07	    78.625	      21.5	         6	1.42214e+07	   78.0183	      21.5	         6	1.91899e+07	   78.3217	     20.66	         6	1.57874e+07	    78.625	     21.08	         6	1.47182e+07	   78.3217	      21.5	         6	1.62839e+07	   78.0183	     21.08	         6	1.67944e+07	
         R10	   4541	   77.4619	      21.5	         6	2.75927e+07	   76.9558	      21.5	         6	2.45487e+07	   76.9302	    21.065	         6	2.36268e+07	   77.4007	   21.0707	         6	1.73996e+07	   77.2089	      21.5	         6	2.43954e+07	    76.943	   21.2825	         6	2.26074e+07	   77.1654	   21.0678	         6	1.96459e+07	   77.4313	   21.2854	         6	2.11892e+07	
         R10	   4542	   78.0183	     20.66	         6	1.30197e+07	   78.0183	      21.5	         6	1.74494e+07	   77.4619	      21.5	         6	2.45631e+07	   77.4007	   21.0707	         6	1.87145e+07	   78.0183	     21.08	         6	1.49642e+07	   77.7401	      21.5	         6	2.05057e+07	   77.4313	   21.2854	         6	2.01422e+07	   77.7095	   20.8654	         6	1.57876e+07	
         R10	   4543	   77.4007	   21.0707	         6	1.84404e+07	   77.4619	     20.66	         6	1.47644e+07	   78.0183	     20.66	         6	1.49434e+07	   77.4313	   20.8654	         6	1.64512e+07	   77.7401	     20.66	         6	1.43758e+07	   77.7095	   20.8654	         6	1.62626e+07	       N/A	       N/A	       N/A	        N/A	       N/A	       N/A	       N/A	        N/A	
         R10	   4544	   73.1325	        19	      6.85	 3.6425e+07	     72.25	        19	      6.85	4.30423e+07	     72.25	        19	       7.7	3.67045e+07	   73.1005	        19	       7.7	2.43624e+07	   72.6913	        19	      6.85	3.73939e+07	     72.25	        19	     7.275	3.96311e+07	   72.6752	        19	       7.7	 1.7236e+07	   73.1165	        19	     7.275	8.53839e+06	
         R10	   4545	   73.9454	        19	      6.85	2.75718e+07	   73.1325	        19	      6.85	5.67951e+07	   73.1005	        19	       7.7	3.20141e+07	   73.8941	        19	       7.7	8.91147e+06	    73.539	        19	      6.85	3.56583e+07	   73.1165	        19	     7.275	  1.624e+07	   73.4973	        19	       7.7	1.87075e+07	   73.9197	        19	     7.275	1.32064e+07	
         R10	   4546	   74.6886	        19	      6.85	2.72075e+07	   73.9454	        19	      6.85	2.81811e+07	   73.8941	        19	       7.7	8.98578e+06	   74.6308	        19	       7.7	9.32767e+06	    74.317	        19	      6.85	2.50531e+07	   73.9197	        19	     7.275	1.23472e+07	   74.2625	        19	       7.7	8.36342e+06	   74.6597	        19	     7.275	1.50835e+07	
         R10	   4547	   75.3621	        19	      6.85	3.16533e+07	   74.6886	        19	      6.85	2.58247e+07	   74.6308	        19	       7.7	9.19106e+06	   75.3107	        19	       7.7	 9.9933e+06	   75.0253	        19	      6.85	 2.6663e+07	   74.6597	        19	     7.275	 1.4067e+07	   74.9708	        19	       7.7	7.77107e+06	   75.3364	        19	     7.275	1.54834e+07	
         R10	   4548	   75.9659	        19	      6.85	5.41752e+07	   75.3621	        19	      6.85	3.20662e+07	   75.3107	        19	       7.7	9.98165e+06	   75.9338	        19	       7.7	2.48808e+07	    75.664	        19	      6.85	 4.2093e+07	   75.3364	        19	     7.275	1.57373e+07	   75.6223	        19	       7.7	1.64697e+07	   75.9498	        19	     7.275	2.36032e+07	
         R10	   4549	   75.9659	        19	      6.85	 5.7698e+07	   75.9338	        19	       7.7	2.81516e+07	      76.5	        19	       7.7	4.02883e+07	      76.5	        19	   7.25476	2.87853e+07	   75.9498	        19	     7.275	2.68592e+07	   76.2169	        19	       7.7	 2.9213e+07	      76.5	        19	   7.47738	 2.5465e+07	   76.2329	        19	   7.05238	4.11176e+07	
         R10	   4550	      76.5	        19	      6.85	5.63116e+07	   75.9659	        19	      6.85	6.58997e+07	      76.5	        19	   7.25476	2.76225e+07	   76.2329	        19	      6.85	5.64299e+07	   76.2329	        19	   7.05238	4.58854e+07	      76.5	        19	   7.05238	3.76574e+07	       N/A	       N/A	       N/A	        N/A	       N/A	       N/A	       N/A	        N/A	
         R10	   4551	   73.1005	        19	       7.7	4.70305e+07	     72.25	        19	       7.7	3.65722e+07	     72.25	        19	      8.55	3.33063e+07	   73.0678	        19	      8.55	2.98962e+07	   72.6752	        19	       7.7	3.69924e+07	     72.25	        19	     8.125	3.48991e+07	   72.6589	        19	      8.55	1.49568e+07	   73.0841	        19	     8.125	8.87177e+06	
         R10	   4552	   73.8941	        19	       7.7	 1.3062e+07	   73.1005	        19	       7.7	4.17018e+07	   73.0678	        19	      8.55	2.22283e+07	   73.8418	        19	      8.55	1.14304e+07	   73.4973	        19	       7.7	2.60041e+07	   73.0841	        19	     8.125	1.17654e+07	   73.4548	        19	      8.55	 1.4816e+07	   73.8679	        19	     8.125	8.04777e+06	
         R10	   4553	   74.6308	        19	       7.7	1.27051e+07	   73.8941	        19	       7.7	1.27542e+07	   73.8418	        19	      8.55	 1.1023e+07	    74.572	        19	      8.55	1.29028e+07	   74.2625	        19	       7.7	8.33633e+06	   73.8679	        19	     8.125	8.71311e+06	   74.2069	        19	      8.55	1.16124e+07	   74.6014	        19	     8.125	1.19736e+07	
         R10	   4554	   75.3107	        19	       7.7	2.84092e+07	   74.6308	        19	       7.7	1.18164e+07	    74.572	        19	      8.55	1.25038e+07	   75.2585	        19	      8.55	1.15532e+07	   74.9708	        19	       7.7	1.86962e+07	   74.6014	        19	     8.125	1.12126e+07	   74.9152	        19	      8.55	1.10644e+07	   75.2846	        19	     8.125	1.11669e+07	
         R10	   4555	   75.9338	        19	       7.7	5.43301e+07	   75.3107	        19	       7.7	2.87254e+07	   75.2585	        19	      8.55	1.09239e+07	   75.9011	        19	      8.55	2.40145e+07	   75.6223	        19	       7.7	 4.1188e+07	   75.2846	        19	     8.125	1.11473e+07	   75.5798	        19	      8.55	1.57658e+07	   75.9175	        19	     8.125	1.96311e+07	
         R10	   4556	      76.5	        19	       7.7	4.36732e+07	   75.9338	        19	       7.7	5.55796e+07	   75.9011	        19	      8.55	2.11751e+07	      76.5	        19	      8.55	3.05454e+07	   76.2169	        19	       7.7	4.55784e+07	   75.9175	        19	     8.125	 1.8681e+07	   76.2006	        19	      8.55	1.57005e+07	      76.5	        19	     8.125	3.66827e+07	
         R10	   4557	   73.0678	        19	      8.55	3.63781e+07	     72.25	        19	      8.55	 3.2983e+07	     72.25	        19	       9.4	2.22374e+07	   73.0346	        19	       9.4	1.83751e+07	   72.6589	        19	      8.55	3.12225e+07	     72.25	        19	     8.975	2.73897e+07	   72.6423	        19	       9.4	8.32021e+06	   73.0512	        19	     8.975	9.98773e+06	
         R10	   4558	   73.8418	        19	      8.55	1.28414e+07	   73.0678	        19	      8.55	4.50707e+07	   73.0346	        19	       9.4	2.90998e+07	   73.7887	        19	       9.4	1.20577e+07	   73.4548	        19	      8.55	 2.7242e+07	   73.0512	        19	     8.975	8.95367e+06	   73.4117	        19	       9.4	 1.7279e+07	   73.8152	        19	     8.975	9.57863e+06	
         R10	   4559	    74.572	        19	      8.55	 1.3854e+07	   73.8418	        19	      8.55	1.48745e+07	   73.7887	        19	       9.4	  1.457e+07	   74.5123	        19	       9.4	1.64406e+07	   74.2069	        19	      8.55	1.12874e+07	   73.8152	        19	     8.975	1.00884e+07	   74.1505	        19	       9.4	1.49708e+07	   74.5422	        19	     8.975	 1.3393e+07	
         R10	   4560	   75.2585	        19	      8.55	2.49987e+07	    74.572	        19	      8.55	1.34784e+07	   74.5123	        19	       9.4	  1.702e+07	   75.2054	        19	       9.4	1.29648e+07	   74.9152	        19	      8.55	1.76364e+07	   74.5422	        19	     8.975	1.35704e+07	   74.8588	        19	       9.4	1.41079e+07	   75.2319	        19	     8.975	1.02918e+07	
         R10	   4561	   75.9011	        19	      8.55	4.94427e+07	   75.2585	        19	      8.55	2.51062e+07	   75.2054	        19	       9.4	1.15864e+07	   75.8679	        19	       9.4	1.90924e+07	   75.5798	        19	      8.55	3.66678e+07	   75.2319	        19	     8.975	9.74147e+06	   75.5367	        19	       9.4	1.37942e+07	   75.8845	        19	     8.975	1.65776e+07	
         R10	   4562	      76.5	        19	      8.55	3.25194e+07	   75.9011	        19	      8.55	4.98849e+07	   75.8679	        19	       9.4	2.16385e+07	      76.5	        19	       9.4	2.85044e+07	   76.2006	        19	      8.55	3.89854e+07	   75.8845	        19	     8.975	1.41853e+07	    76.184	        19	       9.4	8.87517e+06	      76.5	        19	     8.975	  3.051e+07	
         R10	   4563	   77.0003	        19	      6.85	1.20026e+08	      76.5	        19	      6.85	6.39672e+07	      76.5	        19	   7.25476	9.32756e+07	   76.9535	        19	   7.26483	1.45986e+08	   76.7502	        19	      6.85	8.15946e+07	      76.5	        19	   7.05238	4.77459e+07	   76.7268	        19	    7.2598	6.51218e+07	   76.9769	        19	   7.05742	7.53865e+07	
         R10	   4564	   76.9535	        19	   7.26483	1.35969e+08	      76.5	        19	   7.25476	8.25575e+07	      76.5	        19	       7.7	4.75288e+07	   77.0003	        19	       7.7	8.67559e+07	   76.7268	        19	    7.2598	 3.8501e+07	      76.5	        19	   7.47738	1.86547e+07	   76.7502	        19	       7.7	4.54125e+07	   76.9769	        19	   7.48242	6.06843e+07	
         R10	   4565	   77.4514	        19	   7.27603	3.08362e+07	   76.9535	        19	   7.26483	1.04813e+08	   77.0003	        19	       7.7	7.30587e+07	   77.5212	        19	       7.7	5.94885e+06	   77.2025	        19	   7.27043	6.60985e+07	   76.9769	        19	   7.48242	3.16579e+07	   77.2608	        19	       7.7	3.92515e+07	   77.4863	        19	   7.48801	1.41195e+07	
         R10	   4566	   78.0628	        19	       7.7	1.20715e+07	    78.625	        19	       7.7	1.04328e+07	    78.625	        19	      6.85	2.24896e+07	   78.0628	        19	      6.85	2.49561e+07	   78.3439	        19	       7.7	  1.062e+07	    78.625	        19	     7.275	1.53487e+07	   78.3439	        19	      6.85	2.18818e+07	   78.0628	        19	     7.275	1.41165e+07	
         R10	   4567	   77.5212	        19	      6.85	3.84334e+07	   77.0003	        19	      6.85	9.93521e+07	   76.9535	        19	   7.26483	1.07156e+08	   77.4514	        19	   7.27603	5.81419e+07	   77.2608	        19	      6.85	6.83052e+07	   76.9769	        19	   7.05742	3.45853e+07	   77.2025	        19	   7.27043	8.10941e+07	   77.4863	        19	   7.06301	1.79046e+07	
         R10	   4568	   77.4514	        19	   7.27603	3.02498e+07	   77.5212	        19	       7.7	5.13158e+06	   78.0628	        19	       7.7	1.22505e+07	   78.0628	        19	      6.85	2.25158e+07	   77.4863	        19	   7.48801	1.26224e+07	    77.792	        19	       7.7	6.19808e+06	   78.0628	        19	     7.275	1.49361e+07	   77.7571	        19	   7.06301	2.61457e+07	
         R10	   4569	   78.0628	        19	      6.85	1.65424e+07	   77.5212	        19	      6.85	4.47613e+07	   77.4514	        19	   7.27603	6.66222e+07	    77.792	        19	      6.85	2.61884e+07	   77.4863	        19	   7.06301	2.09128e+07	   77.7571	        19	   7.06301	3.57022e+07	       N/A	       N/A	       N/A	        N/A	       N/A	       N/A	       N/A	        N/A	
         R10	   4570	   77.0003	        19	       7.7	  5.081e+07	      76.5	        19	       7.7	4.04093e+07	      76.5	        19	      8.55	3.20203e+07	   77.1671	        19	      8.55	2.22447e+07	   76.7502	        19	       7.7	4.14727e+07	      76.5	        19	     8.125	3.56273e+07	   76.8335	        19	      8.55	1.46862e+07	   77.0837	        19	     8.125	1.57675e+07	
         R10	   4571	   77.5212	        19	       7.7	2.73924e+07	   77.0003	        19	       7.7	5.40893e+07	   77.1671	        19	      8.55	 2.2789e+07	   77.8754	        19	      8.55	9.06834e+06	   77.2608	        19	       7.7	4.05764e+07	   77.0837	        19	     8.125	2.01244e+07	   77.5212	        19	      8.55	1.40727e+07	   77.6983	        19	     8.125	1.01398e+07	
         R10	   4572	   77.8754	        19	      8.55	8.21961e+06	    78.625	        19	      8.55	1.08964e+07	    78.625	        19	       7.7	7.90264e+06	   78.0628	        19	       7.7	1.89941e+07	   78.2502	        19	      8.55	8.62253e+06	    78.625	        19	     8.125	9.35897e+06	   78.3439	        19	       7.7	1.10258e+07	   77.9691	        19	     8.125	8.26864e+06	
         R10	   4573	   77.5212	        19	       7.7	2.62726e+07	   77.8754	        19	      8.55	7.81224e+06	   78.0628	        19	       7.7	2.02061e+07	   77.6983	        19	     8.125	 9.8749e+06	   77.9691	        19	     8.125	8.12236e+06	    77.792	        19	       7.7	2.27897e+07	       N/A	       N/A	       N/A	        N/A	       N/A	       N/A	       N/A	        N/A	
         R10	   4574	   77.1671	        19	      8.55	4.56658e+07	      76.5	        19	      8.55	3.26536e+07	      76.5	        19	       9.4	2.64191e+07	   77.1671	        19	       9.4	2.47586e+07	   76.8335	        19	      8.55	3.60574e+07	      76.5	        19	     8.975	2.95254e+07	   76.8335	        19	       9.4	1.12901e+07	   77.1671	        19	     8.975	1.06894e+07	
         R10	   4575	   77.8754	        19	      8.55	2.08032e+07	   77.1671	        19	      8.55	4.62562e+07	   77.1671	        19	       9.4	2.20075e+07	   77.8754	        19	       9.4	9.68361e+06	   77.5212	        19	      8.55	3.25677e+07	   77.1671	        19	     8.975	1.36012e+07	   77.5212	        19	       9.4	1.41861e+07	   77.8754	        19	     8.975	9.45816e+06	
         R10	   4576	    78.625	        19	      8.55	1.12543e+07	   77.8754	        19	      8.55	2.10146e+07	   77.8754	        19	       9.4	9.59819e+06	    78.625	        19	       9.4	1.17238e+07	   78.2502	        19	      8.55	1.37795e+07	   77.8754	        19	     8.975	1.11622e+07	   78.2502	        19	       9.4	1.01113e+07	    78.625	        19	     8.975	1.11045e+07	
         R10	   4577	    75.582	    17.428	   4.47052	1.00497e+08	    75.582	   17.1492	   4.19918	9.90181e+07	   75.1652	   17.1492	   4.19918	3.45404e+07	   75.1652	   17.4678	   4.50916	7.09382e+07	    75.582	   17.2886	   4.33485	1.15752e+07	   75.3736	   17.1492	   4.19918	6.67512e+07	   75.1652	   17.3085	   4.35417	2.49041e+07	   75.3736	   17.4479	   4.48984	8.02368e+07	
         R10	   4578	   75.9434	   17.3883	   4.43188	9.36088e+07	   75.9434	   17.1492	   4.19918	1.15622e+08	    75.582	   17.1492	   4.19918	1.00863e+08	    75.582	    17.428	   4.47052	1.16638e+08	   75.9434	   17.2687	   4.31553	 3.7046e+07	   75.7627	   17.1492	   4.19918	1.07839e+08	    75.582	   17.2886	   4.33485	 3.2417e+07	   75.7627	   17.4082	    4.4512	1.03556e+08	
         R10	   4579	   76.2494	   17.3486	   4.39324	4.02152e+07	   76.2494	   17.1492	   4.19918	   9.68e+07	   75.9434	   17.1492	   4.19918	 1.2055e+08	   75.9434	   17.3883	   4.43188	1.44429e+08	   76.2494	   17.2489	   4.29621	4.46828e+07	   76.0964	   17.1492	   4.19918	1.00582e+08	   75.9434	   17.2687	   4.31553	7.71029e+07	   76.0964	   17.3685	   4.41256	5.77443e+07	
         R10	   4580	      76.5	   17.3254	    4.3707	7.68469e+07	      76.5	   17.1492	   4.19918	7.31763e+07	   76.2494	   17.1492	   4.19918	8.66441e+07	   76.2494	   17.3486	   4.39324	1.08702e+08	      76.5	   17.2373	   4.28494	3.04095e+07	   76.3747	   17.1492	   4.19918	7.46396e+07	   76.2494	   17.2489	   4.29621	8.80922e+07	   76.3747	    17.337	   4.38197	3.73919e+07	
         R10	   4581	    76.193	   17.5309	   4.57061	1.00116e+08	      76.5	   17.5309	   4.57061	6.64095e+07	      76.5	   17.3254	    4.3707	7.25657e+07	   76.2494	   17.3486	   4.39324	1.52322e+08	   76.3465	   17.5309	   4.57061	2.70841e+07	      76.5	   17.4282	   4.47065	6.55772e+07	   76.3747	    17.337	   4.38197	5.37687e+07	   76.2212	   17.4398	   4.48193	1.03549e+08	
         R10	   4582	   76.1769	   17.7655	    4.7989	7.03458e+07	      76.5	   17.7655	    4.7989	6.65622e+07	      76.5	   17.5309	   4.57061	8.07894e+07	    76.193	   17.5309	   4.57061	9.25508e+07	   76.3384	   17.7655	    4.7989	5.55728e+07	      76.5	   17.6482	   4.68475	1.57632e+07	   76.3465	   17.5309	   4.57061	2.39414e+07	   76.1849	   17.6482	   4.68475	6.40978e+07	
         R10	   4583	   72.9439	   17.1492	   4.19918	4.24169e+07	     72.25	   17.1492	   4.19918	4.71456e+07	     72.25	   17.7655	    4.7989	4.18846e+07	   72.9894	   17.7655	    4.7989	3.97374e+07	   72.5969	   17.1492	   4.19918	4.13965e+07	     72.25	   17.4573	   4.49904	4.37169e+07	   72.6197	   17.7655	    4.7989	 3.2705e+07	   72.9666	   17.4573	   4.49904	1.82644e+07	
         R10	   4584	   73.5823	   17.1492	   4.19918	2.37137e+07	   72.9439	   17.1492	   4.19918	4.67413e+07	   72.9894	   17.7655	    4.7989	3.77851e+07	   73.6693	   17.7655	    4.7989	1.62326e+07	   73.2631	   17.1492	   4.19918	3.40022e+07	   72.9666	   17.4573	   4.49904	2.31324e+07	   73.3293	   17.7655	    4.7989	 2.6848e+07	   73.6258	   17.4573	   4.49904	1.35788e+07	
         R10	   4585	   74.1653	   17.1492	   4.19918	1.78063e+07	   73.5823	   17.1492	   4.19918	2.36204e+07	   73.6693	   17.7655	    4.7989	1.54666e+07	   74.2898	   17.7655	    4.7989	9.09583e+06	   73.8738	   17.1492	   4.19918	1.98958e+07	   73.6258	   17.4573	   4.49904	1.31494e+07	   73.9795	   17.7655	    4.7989	1.18127e+07	   74.2275	   17.4573	   4.49904	1.23745e+07	
         R10	   4586	    74.693	   17.1492	   4.19918	1.57244e+07	   74.1653	   17.1492	   4.19918	 1.8026e+07	   74.2898	   17.7655	    4.7989	8.66266e+06	   74.8507	   17.7655	    4.7989	1.15561e+07	   74.4292	   17.1492	   4.19918	1.52431e+07	   74.2275	   17.4573	   4.49904	1.24844e+07	   74.5703	   17.7655	    4.7989	8.90726e+06	   74.7719	   17.4573	   4.49904	1.16275e+07	
         R10	   4587	   75.1652	   17.4678	   4.50916	5.86401e+07	   75.1652	   17.1492	   4.19918	2.54914e+07	    74.693	   17.1492	   4.19918	1.81319e+07	   74.8507	   17.7655	    4.7989	1.30736e+07	   75.1652	   17.3085	   4.35417	1.74828e+07	   74.9291	   17.1492	   4.19918	7.03694e+06	   74.7719	   17.4573	   4.49904	1.32172e+07	    75.008	   17.6166	   4.65403	3.52494e+07	
         R10	   4588	    75.582	    17.428	   4.47052	9.90778e+07	   75.1652	   17.4678	   4.50916	6.34791e+07	   74.8507	   17.7655	    4.7989	1.10628e+07	   75.3523	   17.7655	    4.7989	5.53826e+07	   75.3736	   17.4479	   4.48984	7.18756e+07	    75.008	   17.6166	   4.65403	3.49209e+07	   75.1015	   17.7655	    4.7989	2.50781e+07	   75.4671	   17.5968	   4.63471	2.25285e+07	
         R10	   4589	   75.9434	   17.3883	   4.43188	8.84338e+07	    75.582	    17.428	   4.47052	1.01644e+08	   75.3523	   17.7655	    4.7989	5.83668e+07	   75.7943	   17.7655	    4.7989	6.18035e+07	   75.7627	   17.4082	    4.4512	9.32969e+07	   75.4671	   17.5968	   4.63471	3.10417e+07	   75.5733	   17.7655	    4.7989	5.94079e+07	   75.8689	   17.5769	   4.61539	2.19764e+07	
         R10	   4590	   75.7943	   17.7655	    4.7989	 6.1092e+07	   76.1769	   17.7655	    4.7989	7.28569e+07	    76.193	   17.5309	   4.57061	3.26607e+07	   75.9434	   17.3883	   4.43188	9.79044e+07	   75.9856	   17.7655	    4.7989	6.33234e+07	   76.1849	   17.6482	   4.68475	2.33831e+07	   76.0682	   17.4596	   4.50125	 5.7766e+07	   75.8689	   17.5769	   4.61539	4.19316e+07	
         R10	   4591	    76.193	   17.5309	   4.57061	6.36854e+07	   76.2494	   17.3486	   4.39324	6.55828e+07	   75.9434	   17.3883	   4.43188	8.44531e+07	   76.2212	   17.4398	   4.48193	3.27567e+07	   76.0964	   17.3685	   4.41256	4.32139e+07	   76.0682	   17.4596	   4.50125	6.97758e+07	       N/A	       N/A	       N/A	        N/A	       N/A	       N/A	       N/A	        N/A	
         R10	   4592	   75.7238	   18.0797	   5.10458	1.16107e+08	   75.7943	   17.7655	    4.7989	9.95745e+07	   75.3523	   17.7655	    4.7989	4.10062e+07	   75.3759	   18.0484	   5.07415	 8.5288e+07	   75.7591	   17.9226	   4.95174	2.66847e+07	   75.5733	   17.7655	    4.7989	7.00915e+07	   75.3641	    17.907	   4.93653	2.71842e+07	   75.5499	   18.0641	   5.08936	9.54052e+07	
         R10	   4593	   76.1261	    18.081	   5.10581	7.86116e+07	   76.1769	   17.7655	    4.7989	9.13205e+07	   75.7943	   17.7655	    4.7989	9.91386e+07	   75.7238	   18.0797	   5.10458	1.23411e+08	   76.1515	   17.9233	   4.95235	3.22798e+07	   75.9856	   17.7655	    4.7989	9.41559e+07	   75.7591	   17.9226	   4.95174	 3.6543e+07	    75.925	   18.0803	   5.10519	9.98829e+07	
         R10	   4594	      76.5	   18.0444	   5.07027	7.16972e+07	      76.5	   17.7655	    4.7989	5.99881e+07	   76.1769	   17.7655	    4.7989	9.79541e+07	   76.1261	    18.081	   5.10581	1.36528e+08	      76.5	    17.905	   4.93459	2.63389e+07	   76.3384	   17.7655	    4.7989	7.24066e+07	   76.1515	   17.9233	   4.95235	7.47034e+07	    76.313	   18.0627	   5.08804	4.29578e+07	
         R10	   4595	   76.1058	   18.3819	   5.39863	7.91629e+07	      76.5	   18.3819	   5.39863	6.09905e+07	      76.5	   18.0444	   5.07027	7.41638e+07	   76.1261	    18.081	   5.10581	1.27118e+08	   76.3029	   18.3819	   5.39863	  6.108e+07	      76.5	   18.2132	   5.23445	3.72154e+07	    76.313	   18.0627	   5.08804	3.77916e+07	   76.1159	   18.2314	   5.25222	6.79584e+07	
         R10	   4596	   75.6406	   18.3819	   5.39863	7.75343e+07	   76.1058	   18.3819	   5.39863	7.32746e+07	   76.1261	    18.081	   5.10581	7.31192e+07	   75.7238	   18.0797	   5.10458	1.08958e+08	   75.8732	   18.3819	   5.39863	7.25739e+07	   76.1159	   18.2314	   5.25222	2.44991e+07	    75.925	   18.0803	   5.10519	8.89393e+07	   75.6822	   18.2308	    5.2516	3.37792e+07	
         R10	   4597	   75.1044	   18.3819	   5.39863	1.61286e+07	   75.6406	   18.3819	   5.39863	7.03612e+07	   75.7238	   18.0797	   5.10458	1.17751e+08	   75.3759	   18.0484	   5.07415	4.52596e+07	   75.3725	   18.3819	   5.39863	2.87452e+07	   75.6822	   18.2308	    5.2516	2.94054e+07	   75.5499	   18.0641	   5.08936	7.89663e+07	   75.2402	   18.2152	   5.23639	2.95003e+07	
         R10	   4598	   72.9894	   17.7655	    4.7989	3.81527e+07	     72.25	   17.7655	    4.7989	4.27543e+07	     72.25	   18.3819	   5.39863	3.52468e+07	   73.0701	   18.3819	   5.39863	2.78941e+07	   72.6197	   17.7655	    4.7989	3.42619e+07	     72.25	   18.0737	   5.09876	3.77947e+07	     72.66	   18.3819	   5.39863	2.94679e+07	   73.0297	   18.0737	   5.09876	1.65855e+07	
         R10	   4599	   73.6693	   17.7655	    4.7989	2.19396e+07	   72.9894	   17.7655	    4.7989	4.56037e+07	   73.0701	   18.3819	   5.39863	3.84615e+07	   73.8192	   18.3819	   5.39863	 1.6918e+07	   73.3293	   17.7655	    4.7989	3.25771e+07	   73.0297	   18.0737	   5.09876	2.07158e+07	   73.4446	   18.3819	   5.39863	2.62698e+07	   73.7442	   18.0737	   5.09876	1.60876e+07	
         R10	   4600	   74.2898	   17.7655	    4.7989	1.48241e+07	   73.6693	   17.7655	    4.7989	2.16615e+07	   73.8192	   18.3819	   5.39863	 1.7413e+07	   74.4973	   18.3819	   5.39863	1.86749e+07	   73.9795	   17.7655	    4.7989	1.72672e+07	   73.7442	   18.0737	   5.09876	1.50641e+07	   74.1582	   18.3819	   5.39863	1.72332e+07	   74.3935	   18.0737	   5.09876	1.65793e+07	
         R10	   4601	   74.8507	   17.7655	    4.7989	1.83383e+07	   74.2898	   17.7655	    4.7989	 1.4567e+07	   74.4973	   18.3819	   5.39863	1.85296e+07	   75.1044	   18.3819	   5.39863	1.96705e+07	   74.5703	   17.7655	    4.7989	1.53389e+07	   74.3935	   18.0737	   5.09876	1.64015e+07	   74.8009	   18.3819	   5.39863	1.86695e+07	   74.9776	   18.0737	   5.09876	1.67887e+07	
         R10	   4602	   75.3523	   17.7655	    4.7989	2.50007e+07	   74.8507	   17.7655	    4.7989	2.20177e+07	   75.1044	   18.3819	   5.39863	1.47312e+07	   75.3759	   18.0484	   5.07415	7.06585e+07	   75.1015	   17.7655	    4.7989	1.13072e+07	   74.9776	   18.0737	   5.09876	1.82803e+07	   75.2402	   18.2152	   5.23639	3.92122e+07	   75.3641	    17.907	   4.93653	2.34305e+07	
         R10	   4603	   76.1004	   18.6904	   5.69873	 8.1539e+07	   76.1058	   18.3819	   5.39863	7.10887e+07	   75.6406	   18.3819	   5.39863	7.35656e+07	   75.6354	   18.7348	   5.74193	1.10245e+08	   76.1031	   18.5361	   5.54868	2.46989e+07	   75.8732	   18.3819	   5.39863	7.15363e+07	    75.638	   18.5583	   5.57028	 3.1882e+07	   75.8679	   18.7126	   5.72033	9.47301e+07	
         R10	   4604	      76.5	   18.6649	   5.67392	7.87844e+07	      76.5	   18.3819	   5.39863	4.26878e+07	   76.1058	   18.3819	   5.39863	7.99634e+07	   76.1004	   18.6904	   5.69873	1.21942e+08	      76.5	   18.5234	   5.53627	2.29124e+07	   76.3029	   18.3819	   5.39863	 4.6422e+07	   76.1031	   18.5361	   5.54868	6.39305e+07	   76.3002	   18.6776	   5.68632	5.08102e+07	
         R10	   4605	   76.0624	        19	         6	7.95501e+07	      76.5	        19	         6	5.29277e+07	      76.5	   18.6649	   5.67392	9.44246e+07	   76.1004	   18.6904	   5.69873	1.42106e+08	   76.2812	        19	         6	2.24789e+07	      76.5	   18.8324	   5.83696	6.34692e+07	   76.3002	   18.6776	   5.68632	7.48116e+07	   76.0814	   18.8452	   5.84937	4.85038e+07	
         R10	   4606	   75.5682	        19	         6	1.09307e+08	   76.0624	        19	         6	7.38408e+07	   76.1004	   18.6904	   5.69873	1.14159e+08	   75.6354	   18.7348	   5.74193	9.09415e+07	   75.8153	        19	         6	9.00768e+07	   76.0814	   18.8452	   5.84937	2.78141e+07	   75.8679	   18.7126	   5.72033	1.02498e+08	   75.6018	   18.8674	   5.87097	1.78295e+07	
         R10	   4607	   75.0176	        19	         6	5.01007e+07	   75.5682	        19	         6	1.07181e+08	   75.6354	   18.7348	   5.74193	1.06642e+08	   75.1318	   18.7097	   5.71755	3.22292e+07	   75.2929	        19	         6	7.68054e+07	   75.6018	   18.8674	   5.87097	3.55933e+07	   75.3836	   18.7222	   5.72974	6.46329e+07	   75.0747	   18.8549	   5.85877	2.59017e+07	
         R10	   4608	   73.0701	   18.3819	   5.39863	4.21189e+07	     72.25	   18.3819	   5.39863	4.47739e+07	     72.25	        19	         6	2.31146e+07	   73.0267	        19	         6	2.02361e+07	     72.66	   18.3819	   5.39863	3.32012e+07	     72.25	    18.691	   5.69931	2.78707e+07	   72.6383	        19	         6	1.07669e+07	   73.0484	    18.691	   5.69931	2.00789e+07	
         R10	   4609	   73.8192	   18.3819	   5.39863	2.41187e+07	   73.0701	   18.3819	   5.39863	3.62654e+07	   73.0267	        19	         6	1.78414e+07	   73.7468	        19	         6	2.12747e+07	   73.4446	   18.3819	   5.39863	2.92252e+07	   73.0484	    18.691	   5.69931	1.84153e+07	   73.3867	        19	         6	 1.7466e+07	    73.783	    18.691	   5.69931	1.06298e+07	
         R10	   4610	   74.4973	   18.3819	   5.39863	1.83327e+07	   73.8192	   18.3819	   5.39863	2.41762e+07	   73.7468	        19	         6	2.11903e+07	   74.4105	        19	         6	2.11958e+07	   74.1582	   18.3819	   5.39863	2.04733e+07	    73.783	    18.691	   5.69931	1.05205e+07	   74.0786	        19	         6	2.11907e+07	   74.4539	    18.691	   5.69931	8.81846e+06	
         R10	   4611	   75.1318	   18.7097	   5.71755	4.84973e+07	   75.6354	   18.7348	   5.74193	1.18504e+08	   75.6406	   18.3819	   5.39863	7.23712e+07	   75.1044	   18.3819	   5.39863	2.35167e+07	   75.3836	   18.7222	   5.72974	8.04795e+07	    75.638	   18.5583	   5.57028	3.49728e+07	   75.3725	   18.3819	   5.39863	4.78142e+07	   75.1181	   18.5458	   5.55809	1.29994e+07	
         R10	   4612	   74.4105	        19	         6	1.77512e+07	   75.0176	        19	         6	4.36837e+07	   75.1318	   18.7097	   5.71755	2.80277e+07	   74.4973	   18.3819	   5.39863	1.71671e+07	    74.714	        19	         6	3.00071e+07	   75.0747	   18.8549	   5.85877	1.95082e+07	   74.8146	   18.5458	   5.55809	2.14611e+07	   74.4539	    18.691	   5.69931	5.67762e+06	
         R10	   4613	   75.1318	   18.7097	   5.71755	5.56384e+07	   75.1044	   18.3819	   5.39863	2.66298e+07	   74.4973	   18.3819	   5.39863	5.69998e+06	   75.1181	   18.5458	   5.55809	 1.8472e+07	   74.8009	   18.3819	   5.39863	1.18722e+07	   74.8146	   18.5458	   5.55809	3.01065e+07	       N/A	       N/A	       N/A	        N/A	       N/A	       N/A	       N/A	        N/A	
         R10	   4614	   77.0297	   17.3281	   4.37325	6.77392e+07	   77.0353	   17.1492	   4.19918	 1.2757e+08	   76.7605	   17.1492	   4.19918	9.98754e+07	   76.7765	    17.343	   4.38782	6.04497e+07	   77.0325	   17.2386	   4.28621	4.89401e+07	   76.8979	   17.1492	   4.19918	1.11195e+08	   76.7685	   17.2461	    4.2935	6.58073e+07	   76.9031	   17.3355	   4.38053	6.03217e+07	
         R10	   4615	   77.3455	   17.3709	   4.41498	9.14511e+07	   77.3245	   17.1492	   4.19918	1.05568e+08	   77.0353	   17.1492	   4.19918	1.25314e+08	   77.0297	   17.3281	   4.37325	8.76662e+07	    77.335	   17.2601	   4.30708	1.00901e+07	   77.1799	   17.1492	   4.19918	1.15266e+08	   77.0325	   17.2386	   4.28621	5.64756e+07	   77.1876	   17.3495	   4.39411	8.14351e+07	
         R10	   4616	   77.6103	   17.4222	   4.46488	1.07914e+08	   77.6281	   17.1492	   4.19918	9.40354e+07	   77.3245	   17.1492	   4.19918	1.04897e+08	   77.3455	   17.3709	   4.41498	9.46611e+07	   77.6192	   17.2857	   4.33203	1.96049e+07	   77.4763	   17.1492	   4.19918	9.93216e+07	    77.335	   17.2601	   4.30708	2.41988e+07	   77.4779	   17.3966	   4.43993	1.00833e+08	
         R10	   4617	   77.9312	   17.4421	   4.48424	1.20122e+08	    77.946	   17.1492	   4.19918	1.02751e+08	   77.6281	   17.1492	   4.19918	9.68711e+07	   77.6103	   17.4222	   4.46488	1.07876e+08	   77.9386	   17.2956	   4.34171	1.70804e+07	    77.787	   17.1492	   4.19918	9.95687e+07	   77.6192	   17.2857	   4.33203	2.55811e+07	   77.7708	   17.4322	   4.47456	1.13702e+08	
         R10	   4618	   78.2739	   17.4446	    4.4866	1.23725e+08	   78.2783	   17.1492	   4.19918	1.03836e+08	    77.946	   17.1492	   4.19918	1.02987e+08	   77.9312	   17.4421	   4.48424	1.19072e+08	   78.2761	   17.2969	   4.34289	1.11552e+07	   78.1122	   17.1492	   4.19918	1.03321e+08	   77.9386	   17.2956	   4.34171	 1.8502e+07	   78.1026	   17.4433	   4.48542	 1.2092e+08	
         R10	   4619	    78.625	   17.4281	   4.47054	8.31572e+07	    78.625	   17.1492	   4.19918	8.12027e+07	   78.2783	   17.1492	   4.19918	1.04094e+08	   78.2739	   17.4446	    4.4866	1.23289e+08	    78.625	   17.2886	   4.33486	9.16215e+06	   78.4517	   17.1492	   4.19918	9.23719e+07	   78.2761	   17.2969	   4.34289	 1.2831e+07	   78.4495	   17.4363	   4.47857	1.02886e+08	
         R10	   4620	   78.2372	   17.7655	    4.7989	9.47371e+07	    78.625	   17.7655	    4.7989	 9.2013e+07	    78.625	   17.4281	   4.47054	1.38604e+08	   78.2739	   17.4446	    4.4866	1.30915e+08	   78.4311	   17.7655	    4.7989	9.32919e+07	    78.625	   17.5968	   4.63472	 2.3343e+07	   78.4495	   17.4363	   4.47857	1.34207e+08	   78.2556	    17.605	   4.64275	1.96052e+07	
         R10	   4621	   77.8628	   17.7655	    4.7989	8.12595e+07	   78.2372	   17.7655	    4.7989	9.49747e+07	   78.2739	   17.4446	    4.4866	1.31908e+08	   77.9312	   17.4421	   4.48424	1.16498e+08	     78.05	   17.7655	    4.7989	8.79394e+07	   78.2556	    17.605	   4.64275	1.95737e+07	   78.1026	   17.4433	   4.48542	1.23947e+08	    77.897	   17.6038	   4.64157	1.90629e+07	
         R10	   4622	   77.5019	   17.7655	    4.7989	5.25114e+07	   77.8628	   17.7655	    4.7989	8.11679e+07	   77.9312	   17.4421	   4.48424	1.19674e+08	   77.6103	   17.4222	   4.46488	7.66171e+07	   77.6824	   17.7655	    4.7989	6.52971e+07	    77.897	   17.6038	   4.64157	2.56356e+07	   77.7708	   17.4322	   4.47456	9.72133e+07	   77.5561	   17.5939	   4.63189	2.04865e+07	
         R10	   4623	   76.8148	   17.5511	   4.59022	6.40682e+07	   76.8205	   17.7655	    4.7989	7.37508e+07	   77.1545	   17.7655	    4.7989	4.16865e+07	   77.1699	   17.5385	   4.57802	2.94749e+07	   76.8177	   17.6583	   4.69456	4.53401e+07	   76.9875	   17.7655	    4.7989	5.76873e+07	   77.1622	    17.652	   4.68846	2.22489e+07	   76.9923	   17.5448	   4.58412	4.52947e+07	
         R10	   4624	      76.5	   17.5309	   4.57061	8.86703e+07	      76.5	   17.7655	    4.7989	6.83585e+07	   76.8205	   17.7655	    4.7989	8.47803e+07	   76.8148	   17.5511	   4.59022	1.12514e+08	      76.5	   17.6482	   4.68475	2.14176e+07	   76.6603	   17.7655	    4.7989	 6.1059e+07	   76.8177	   17.6583	   4.69456	7.55259e+07	   76.6574	    17.541	   4.58041	 2.3342e+07	
         R10	   4625	   76.7765	    17.343	   4.38782	9.86381e+07	   76.7605	   17.1492	   4.19918	1.04459e+08	      76.5	   17.1492	   4.19918	7.79147e+07	      76.5	   17.3254	    4.3707	6.58179e+07	   76.7685	   17.2461	    4.2935	 8.5796e+07	   76.6302	   17.1492	   4.19918	8.25769e+07	      76.5	   17.2373	   4.28494	3.98295e+07	   76.6383	   17.3342	   4.37926	4.02995e+07	
         R10	   4626	   76.7765	    17.343	   4.38782	1.11395e+08	      76.5	   17.3254	    4.3707	5.01159e+07	      76.5	   17.5309	   4.57061	7.04108e+07	   76.8148	   17.5511	   4.59022	1.11283e+08	   76.6383	   17.3342	   4.37926	4.51042e+07	      76.5	   17.4282	   4.47065	5.82584e+07	   76.6574	    17.541	   4.58041	3.22591e+07	   76.7957	    17.447	   4.48902	9.69439e+07	
         R10	   4627	   77.0297	   17.3281	   4.37325	7.92903e+07	   76.7765	    17.343	   4.38782	7.80401e+07	   76.8148	   17.5511	   4.59022	7.81093e+07	   77.1699	   17.5385	   4.57802	5.85126e+07	   76.9031	   17.3355	   4.38053	7.47147e+07	   76.7957	    17.447	   4.48902	6.25651e+07	   76.9923	   17.5448	   4.58412	6.73523e+07	   77.0998	   17.4333	   4.47563	5.99692e+07	
         R10	   4628	   77.5019	   17.7655	    4.7989	6.13594e+07	   77.6103	   17.4222	   4.46488	7.64991e+07	   77.3455	   17.3709	   4.41498	8.16064e+07	   77.1699	   17.5385	   4.57802	2.05553e+07	   77.5561	   17.5939	   4.63189	 2.0947e+07	   77.4779	   17.3966	   4.43993	7.87793e+07	   77.2577	   17.4547	    4.4965	4.79299e+07	   77.3359	    17.652	   4.68846	2.11549e+07	
         R10	   4629	   77.1699	   17.5385	   4.57802	2.83767e+07	   77.1545	   17.7655	    4.7989	4.25886e+07	   77.5019	   17.7655	    4.7989	3.45004e+07	   77.1622	    17.652	   4.68846	1.73252e+07	   77.3282	   17.7655	    4.7989	3.78392e+07	   77.3359	    17.652	   4.68846	1.04118e+07	       N/A	       N/A	       N/A	        N/A	       N/A	       N/A	       N/A	        N/A	
         R10	   4630	   77.3455	   17.3709	   4.41498	8.66392e+07	   77.0297	   17.3281	   4.37325	1.19036e+08	   77.1699	   17.5385	   4.57802	6.54505e+07	   77.1876	   17.3495	   4.39411	9.68448e+07	   77.0998	   17.4333	   4.47563	8.23547e+07	   77.2577	   17.4547	    4.4965	6.59178e+07	       N/A	       N/A	       N/A	        N/A	       N/A	       N/A	       N/A	        N/A	
         R10	   4631	   77.1332	   18.0433	   5.06913	1.00861e+08	   77.1545	   17.7655	    4.7989	9.44111e+07	   76.8205	   17.7655	    4.7989	7.73084e+07	   76.7895	   18.0411	   5.06703	5.31426e+07	   77.1438	   17.9044	   4.93402	3.14739e+07	   76.9875	   17.7655	    4.7989	8.36592e+07	    76.805	   17.9033	   4.93297	3.66407e+07	   76.9613	   18.0422	   5.06808	7.59424e+07	
         R10	   4632	   77.4414	   18.0813	   5.10609	1.26708e+08	   77.5019	   17.7655	    4.7989	1.03174e+08	   77.1545	   17.7655	    4.7989	9.34595e+07	   77.1332	   18.0433	   5.06913	1.02674e+08	   77.4717	   17.9234	    4.9525	2.46227e+07	   77.3282	   17.7655	    4.7989	 9.7911e+07	   77.1438	   17.9044	   4.93402	 3.6688e+07	   77.2873	   18.0623	   5.08761	1.14124e+08	
         R10	   4633	   77.8144	   18.0803	   5.10517	 1.2816e+08	   77.8628	   17.7655	    4.7989	1.04559e+08	   77.5019	   17.7655	    4.7989	1.02937e+08	   77.4414	   18.0813	   5.10609	1.25821e+08	   77.8386	   17.9229	   4.95204	1.67196e+07	   77.6824	   17.7655	    4.7989	 1.0359e+08	   77.4717	   17.9234	    4.9525	2.68346e+07	   77.6279	   18.0808	   5.10563	1.26736e+08	
         R10	   4634	   78.2154	   18.0806	   5.10545	1.24012e+08	   78.2372	   17.7655	    4.7989	9.48353e+07	   77.8628	   17.7655	    4.7989	 1.0451e+08	   77.8144	   18.0803	   5.10517	  1.269e+08	   78.2263	   17.9231	   4.95218	1.46189e+07	     78.05	   17.7655	    4.7989	9.95769e+07	   77.8386	   17.9229	   4.95204	1.85789e+07	   78.0149	   18.0805	   5.10531	1.25051e+08	
         R10	   4635	    78.625	   18.0444	   5.07027	9.44817e+07	    78.625	   17.7655	    4.7989	8.52879e+07	   78.2372	   17.7655	    4.7989	9.56046e+07	   78.2154	   18.0806	   5.10545	1.23351e+08	    78.625	    17.905	   4.93459	6.99488e+06	   78.4311	   17.7655	    4.7989	9.02712e+07	   78.2263	   17.9231	   4.95218	1.63408e+07	   78.4202	   18.0625	   5.08786	1.08661e+08	
         R10	   4636	   78.1596	   18.3819	   5.39863	9.08363e+07	    78.625	   18.3819	   5.39863	7.42174e+07	    78.625	   18.0444	   5.07027	1.24067e+08	   78.2154	   18.0806	   5.10545	  1.156e+08	   78.3923	   18.3819	   5.39863	8.24776e+07	    78.625	   18.2132	   5.23445	2.50845e+07	   78.4202	   18.0625	   5.08786	1.19348e+08	   78.1875	   18.2313	   5.25204	1.37291e+07	
         R10	   4637	   77.7144	   18.3819	   5.39863	1.03652e+08	   78.1596	   18.3819	   5.39863	9.15436e+07	   78.2154	   18.0806	   5.10545	1.16311e+08	   77.8144	   18.0803	   5.10517	1.24344e+08	    77.937	   18.3819	   5.39863	9.74978e+07	   78.1875	   18.2313	   5.25204	 1.2883e+07	   78.0149	   18.0805	   5.10531	1.19888e+08	   77.7644	   18.2311	    5.2519	1.50801e+07	
         R10	   4638	   77.2894	   18.3819	   5.39863	7.57758e+07	   77.7144	   18.3819	   5.39863	1.02968e+08	   77.8144	   18.0803	   5.10517	1.28371e+08	   77.4414	   18.0813	   5.10609	8.14651e+07	   77.5019	   18.3819	   5.39863	8.85785e+07	   77.7644	   18.2311	    5.2519	2.00226e+07	   77.6279	   18.0808	   5.10563	1.04494e+08	   77.3654	   18.2316	   5.25236	1.86468e+07	
         R10	   4639	   76.8846	   18.3819	   5.39863	5.29791e+07	   77.2894	   18.3819	   5.39863	7.41357e+07	   77.4414	   18.0813	   5.10609	8.79265e+07	   77.1332	   18.0433	   5.06913	4.42281e+07	    77.087	   18.3819	   5.39863	5.94963e+07	   77.3654	   18.2316	   5.25236	 2.5885e+07	   77.2873	   18.0623	   5.08761	6.44048e+07	   77.0089	   18.2126	   5.23388	3.15679e+07	
         R10	   4640	   76.7895	   18.0411	   5.06703	9.80899e+07	   76.8205	   17.7655	    4.7989	7.98231e+07	      76.5	   17.7655	    4.7989	6.17566e+07	      76.5	   18.0444	   5.07027	6.86056e+07	    76.805	   17.9033	   4.93297	5.89788e+07	   76.6603	   17.7655	    4.7989	6.30359e+07	      76.5	    17.905	   4.93459	1.58733e+07	   76.6447	   18.0428	   5.06865	2.11836e+07	
         R10	   4641	   76.7895	   18.0411	   5.06703	8.16022e+07	      76.5	   18.0444	   5.07027	6.91787e+07	      76.5	   18.3819	   5.39863	5.66484e+07	   76.8846	   18.3819	   5.39863	5.61707e+07	   76.6447	   18.0428	   5.06865	1.20496e+07	      76.5	   18.2132	   5.23445	2.27074e+07	   76.6923	   18.3819	   5.39863	5.05483e+07	    76.837	   18.2115	   5.23283	5.40615e+07	
         R10	   4642	   76.7895	   18.0411	   5.06703	3.30019e+07	   76.8846	   18.3819	   5.39863	5.99692e+07	   77.1332	   18.0433	   5.06913	 4.0492e+07	    76.837	   18.2115	   5.23283	2.99097e+07	   77.0089	   18.2126	   5.23388	3.23658e+07	   76.9613	   18.0422	   5.06808	3.58813e+07	       N/A	       N/A	       N/A	        N/A	       N/A	       N/A	       N/A	        N/A	
         R10	   4643	   77.2866	   18.6626	   5.67168	1.13655e+08	   77.2894	   18.3819	   5.39863	8.20042e+07	   76.8846	   18.3819	   5.39863	6.60025e+07	   76.8561	   18.6611	   5.67031	 7.9396e+07	    77.288	   18.5222	   5.53516	3.64953e+07	    77.087	   18.3819	   5.39863	7.22062e+07	   76.8704	   18.5215	   5.53447	2.69386e+07	   77.0714	   18.6619	     5.671	9.43895e+07	
         R10	   4644	   77.6703	   18.7001	   5.70822	1.17185e+08	   77.7144	   18.3819	   5.39863	8.14948e+07	   77.2894	   18.3819	   5.39863	8.11905e+07	   77.2866	   18.6626	   5.67168	1.12923e+08	   77.6923	    18.541	   5.55342	2.64448e+07	   77.5019	   18.3819	   5.39863	8.10936e+07	    77.288	   18.5222	   5.53516	3.28429e+07	   77.4785	   18.6813	   5.68995	1.14902e+08	
         R10	   4645	   78.1345	   18.6985	   5.70663	 1.1923e+08	   78.1596	   18.3819	   5.39863	8.79265e+07	   77.7144	   18.3819	   5.39863	8.24446e+07	   77.6703	   18.7001	   5.70822	1.17393e+08	   78.1471	   18.5402	   5.55263	1.95554e+07	    77.937	   18.3819	   5.39863	8.48439e+07	   77.6923	    18.541	   5.55342	2.56446e+07	   77.9024	   18.6993	   5.70742	1.18308e+08	
         R10	   4646	    78.625	   18.6762	   5.68499	1.02425e+08	    78.625	   18.3819	   5.39863	 9.0305e+07	   78.1596	   18.3819	   5.39863	8.80683e+07	   78.1345	   18.6985	   5.70663	1.18975e+08	    78.625	   18.5291	   5.54181	8.41598e+06	   78.3923	   18.3819	   5.39863	8.89729e+07	   78.1471	   18.5402	   5.55263	1.83373e+07	   78.3798	   18.6874	   5.69581	1.10687e+08	
         R10	   4647	   78.0628	        19	         6	1.24841e+08	    78.625	        19	         6	1.21433e+08	    78.625	   18.6762	   5.68499	1.19491e+08	   78.1345	   18.6985	   5.70663	 1.1015e+08	   78.3439	        19	         6	1.23066e+08	    78.625	   18.8381	    5.8425	1.02126e+07	   78.3798	   18.6874	   5.69581	1.14781e+08	   78.0987	   18.8492	   5.85332	1.68212e+07	
         R10	   4648	   77.5212	        19	         6	1.10548e+08	   78.0628	        19	         6	1.22572e+08	   78.1345	   18.6985	   5.70663	1.11898e+08	   77.6703	   18.7001	   5.70822	1.02044e+08	    77.792	        19	         6	1.16333e+08	   78.0987	   18.8492	   5.85332	1.60728e+07	   77.9024	   18.6993	   5.70742	1.06865e+08	   77.5958	   18.8501	   5.85411	1.40893e+07	
         R10	   4649	   77.0003	        19	         6	2.65503e+07	   77.5212	        19	         6	1.10862e+08	   77.6703	   18.7001	   5.70822	1.02653e+08	   77.2866	   18.6626	   5.67168	6.62428e+07	   77.2608	        19	         6	6.66925e+07	   77.5958	   18.8501	   5.85411	1.48142e+07	   77.4785	   18.6813	   5.68995	8.39152e+07	   77.1435	   18.8313	   5.83584	2.73726e+07	
         R10	   4650	   76.8561	   18.6611	   5.67031	 1.0718e+08	   76.8846	   18.3819	   5.39863	6.94608e+07	      76.5	   18.3819	   5.39863	4.87753e+07	      76.5	   18.6649	   5.67392	 7.5866e+07	   76.8704	   18.5215	   5.53447	5.48202e+07	   76.6923	   18.3819	   5.39863	3.89733e+07	      76.5	   18.5234	   5.53627	2.34416e+07	   76.6781	    18.663	   5.67211	4.86301e+07	
         R10	   4651	   76.8561	   18.6611	   5.67031	9.40656e+07	      76.5	   18.6649	   5.67392	8.88462e+07	      76.5	        19	         6	5.14845e+07	   77.0003	        19	         6	2.59023e+07	   76.6781	    18.663	   5.67211	5.04782e+07	      76.5	   18.8324	   5.83696	6.07815e+07	   76.7502	        19	         6	1.95607e+07	   76.9282	   18.8306	   5.83515	4.40817e+07	
         R10	   4652	   76.8561	   18.6611	   5.67031	5.61995e+07	   77.0003	        19	         6	3.11489e+07	   77.2866	   18.6626	   5.67168	5.63669e+07	   76.9282	   18.8306	   5.83515	 2.1783e+07	   77.1435	   18.8313	   5.83584	2.28092e+07	   77.0714	   18.6619	     5.671	5.54704e+07	       N/A	       N/A	       N/A	        N/A	       N/A	       N/A	       N/A	        N/A	
         R10	   4653	     75.65	      9.35	       2.4	5.85983e+07	      76.5	      9.35	       2.4	5.23016e+07	      76.5	       8.5	       2.4	2.16089e+07	     75.65	       8.5	       2.4	3.05736e+07	    76.075	      9.35	       2.4	4.71808e+07	      76.5	     8.925	       2.4	3.50509e+07	    76.075	       8.5	       2.4	2.04607e+07	     75.65	     8.925	       2.4	2.21175e+07	
         R10	   4654	      74.8	      9.35	       2.4	3.95552e+07	     75.65	      9.35	       2.4	5.87725e+07	     75.65	       8.5	       2.4	 4.8601e+07	      74.8	       8.5	       2.4	2.30533e+07	    75.225	      9.35	       2.4	4.63865e+07	     75.65	     8.925	       2.4	3.26278e+07	    75.225	       8.5	       2.4	3.45965e+07	      74.8	     8.925	       2.4	1.39116e+07	
         R10	   4655	     73.95	      9.35	       2.4	3.67164e+07	      74.8	      9.35	       2.4	3.74252e+07	      74.8	       8.5	       2.4	2.24882e+07	     73.95	       8.5	       2.4	2.32361e+07	    74.375	      9.35	       2.4	3.56466e+07	      74.8	     8.925	       2.4	1.06175e+07	    74.375	       8.5	       2.4	2.17264e+07	     73.95	     8.925	       2.4	1.04232e+07	
         R10	   4656	      73.1	      9.35	       2.4	5.84959e+07	     73.95	      9.35	       2.4	3.83926e+07	     73.95	       8.5	       2.4	2.40039e+07	      73.1	       8.5	       2.4	5.22614e+07	    73.525	      9.35	       2.4	4.58933e+07	     73.95	     8.925	       2.4	1.34203e+07	    73.525	       8.5	       2.4	3.69573e+07	      73.1	     8.925	       2.4	3.39387e+07	
         R10	   4657	     72.25	      9.35	       2.4	5.38578e+07	      73.1	      9.35	       2.4	5.65638e+07	      73.1	       8.5	       2.4	3.38588e+07	     72.25	       8.5	       2.4	2.16319e+07	    72.675	      9.35	       2.4	4.74088e+07	      73.1	     8.925	       2.4	2.24946e+07	    72.675	       8.5	       2.4	2.21104e+07	     72.25	     8.925	       2.4	3.76156e+07	
         R10	   4658	     75.65	      10.2	       2.4	5.73881e+07	      76.5	      10.2	       2.4	4.79623e+07	      76.5	      9.35	       2.4	5.14174e+07	     75.65	      9.35	       2.4	4.60953e+07	    76.075	      10.2	       2.4	4.54859e+07	      76.5	     9.775	       2.4	4.96417e+07	    76.075	      9.35	       2.4	3.39859e+07	     75.65	     9.775	       2.4	1.57213e+07	
         R10	   4659	      74.8	      10.2	       2.4	1.21867e+07	     75.65	      10.2	       2.4	5.78812e+07	     75.65	      9.35	       2.4	4.89227e+07	      74.8	      9.35	       2.4	2.08504e+07	    75.225	      10.2	       2.4	3.49372e+07	     75.65	     9.775	       2.4	2.27516e+07	    75.225	      9.35	       2.4	3.17843e+07	      74.8	     9.775	       2.4	1.15163e+07	
         R10	   4660	     73.95	      10.2	       2.4	1.49174e+07	      74.8	      10.2	       2.4	1.19051e+07	      74.8	      9.35	       2.4	1.82891e+07	     73.95	      9.35	       2.4	2.07453e+07	    74.375	      10.2	       2.4	7.16263e+06	      74.8	     9.775	       2.4	8.53487e+06	    74.375	      9.35	       2.4	1.84784e+07	     73.95	     9.775	       2.4	7.85108e+06	
         R10	   4661	      73.1	      10.2	       2.4	5.37761e+07	     73.95	      10.2	       2.4	1.50578e+07	     73.95	      9.35	       2.4	2.24047e+07	      73.1	      9.35	       2.4	4.89545e+07	    73.525	      10.2	       2.4	3.41484e+07	     73.95	     9.775	       2.4	1.05623e+07	    73.525	      9.35	       2.4	3.40605e+07	      73.1	     9.775	       2.4	2.30323e+07	
         R10	   4662	     72.25	      10.2	       2.4	5.31563e+07	      73.1	      10.2	       2.4	5.27904e+07	      73.1	      9.35	       2.4	4.80792e+07	     72.25	      9.35	       2.4	5.15892e+07	    72.675	      10.2	       2.4	4.61375e+07	      73.1	     9.775	       2.4	1.48818e+07	    72.675	      9.35	       2.4	3.60784e+07	     72.25	     9.775	       2.4	5.23721e+07	
         R10	   4663	    75.871	     11.05	       2.4	5.56223e+07	      76.5	     11.05	       2.4	5.30754e+07	      76.5	      10.2	       2.4	4.97624e+07	     75.65	      10.2	       2.4	4.05729e+07	   76.1855	     11.05	       2.4	4.78382e+07	      76.5	    10.625	       2.4	5.09983e+07	    76.075	      10.2	       2.4	3.54079e+07	   75.7605	    10.625	       2.4	2.01177e+07	
         R10	   4664	   75.2102	     11.05	       2.4	2.63608e+07	    75.871	     11.05	       2.4	6.01031e+07	     75.65	      10.2	       2.4	4.23423e+07	      74.8	      10.2	       2.4	1.13909e+07	   75.5406	     11.05	       2.4	4.26487e+07	   75.7605	    10.625	       2.4	2.74656e+07	    75.225	      10.2	       2.4	2.59652e+07	   75.0051	    10.625	       2.4	1.07468e+07	
         R10	   4665	   74.5178	     11.05	       2.4	1.16324e+07	   75.2102	     11.05	       2.4	2.66031e+07	      74.8	      10.2	       2.4	9.67448e+06	     73.95	      10.2	       2.4	6.59477e+06	    74.864	     11.05	       2.4	1.72026e+07	   75.0051	    10.625	       2.4	 1.0261e+07	    74.375	      10.2	       2.4	 7.0447e+06	   74.2339	    10.625	       2.4	4.97788e+06	
         R10	   4666	   73.7936	     11.05	       2.4	2.48054e+07	   74.5178	     11.05	       2.4	1.39858e+07	     73.95	      10.2	       2.4	4.82287e+06	      73.1	      10.2	       2.4	3.40183e+07	   74.1557	     11.05	       2.4	1.44921e+07	   74.2339	    10.625	       2.4	6.65735e+06	    73.525	      10.2	       2.4	1.85552e+07	   73.4468	    10.625	       2.4	 1.5033e+07	
         R10	   4667	   73.0377	     11.05	       2.4	 4.2597e+07	   73.7936	     11.05	       2.4	2.72559e+07	      73.1	      10.2	       2.4	3.83143e+07	     72.25	      10.2	       2.4	6.30121e+07	   73.4156	     11.05	       2.4	3.43567e+07	   73.4468	    10.625	       2.4	1.38191e+07	    72.675	      10.2	       2.4	4.83799e+07	   72.6438	    10.625	       2.4	4.10428e+07	
         R10	   4668	   73.0377	     11.05	       2.4	4.46587e+07	     72.25	      10.2	       2.4	2.27385e+07	     72.25	     11.05	       2.4	6.33299e+07	   72.6438	    10.625	       2.4	3.29427e+07	     72.25	    10.625	       2.4	 4.2773e+07	   72.6438	     11.05	       2.4	5.08657e+07	       N/A	       N/A	       N/A	        N/A	       N/A	       N/A	       N/A	        N/A	
         R10	   4669	   77.5625	      9.35	       2.4	6.72958e+07	    78.625	      9.35	       2.4	1.02627e+08	    78.625	       8.5	       2.4	6.42876e+07	   77.5625	       8.5	       2.4	4.13239e+07	   78.0938	      9.35	       2.4	7.96146e+07	    78.625	     8.925	       2.4	 3.0476e+07	   78.0938	       8.5	       2.4	5.11774e+07	   77.5625	     8.925	       2.4	3.11367e+07	
         R10	   4670	      76.5	      9.35	       2.4	5.73149e+07	   77.5625	      9.35	       2.4	 6.1389e+07	   77.5625	       8.5	       2.4	3.62228e+07	      76.5	       8.5	       2.4	2.07978e+07	   77.0313	      9.35	       2.4	5.18211e+07	   77.5625	     8.925	       2.4	2.25204e+07	   77.0313	       8.5	       2.4	2.61784e+07	      76.5	     8.925	       2.4	3.79883e+07	
         R10	   4671	   77.5625	      10.2	       2.4	 5.2833e+07	    78.625	      10.2	       2.4	2.94141e+07	    78.625	      9.35	       2.4	6.54727e+07	   77.5625	      9.35	       2.4	5.21666e+07	   78.0938	      10.2	       2.4	3.43705e+07	    78.625	     9.775	       2.4	2.00162e+07	   78.0938	      9.35	       2.4	5.26859e+07	   77.5625	     9.775	       2.4	2.16531e+07	
         R10	   4672	      76.5	      10.2	       2.4	5.26199e+07	   77.5625	      10.2	       2.4	5.44327e+07	   77.5625	      9.35	       2.4	5.00954e+07	      76.5	      9.35	       2.4	5.09194e+07	   77.0313	      10.2	       2.4	4.69478e+07	   77.5625	     9.775	       2.4	1.37974e+07	   77.0313	      9.35	       2.4	3.45269e+07	      76.5	     9.775	       2.4	5.17332e+07	
         R10	   4673	   77.9681	     11.05	       2.4	3.22586e+07	    78.625	     11.05	       2.4	1.94066e+07	    78.625	      10.2	       2.4	7.75969e+06	   77.5625	      10.2	       2.4	2.92134e+07	   78.2966	     11.05	       2.4	2.12355e+07	    78.625	    10.625	       2.4	7.33515e+06	   78.0938	      10.2	       2.4	1.56316e+07	   77.7653	    10.625	       2.4	1.30599e+07	
         R10	   4674	      76.5	      10.2	       2.4	5.12783e+07	      76.5	     11.05	       2.4	5.68208e+07	   77.2598	     11.05	       2.4	4.99923e+07	   77.5625	      10.2	       2.4	3.72938e+07	      76.5	    10.625	       2.4	5.36506e+07	   76.8799	     11.05	       2.4	 4.7216e+07	   77.4111	    10.625	       2.4	1.72474e+07	   77.0313	      10.2	       2.4	3.45288e+07	
         R10	   4675	   77.2598	     11.05	       2.4	5.05178e+07	   77.9681	     11.05	       2.4	 3.4086e+07	   77.5625	      10.2	       2.4	4.75155e+07	   77.6139	     11.05	       2.4	4.17098e+07	   77.7653	    10.625	       2.4	1.90105e+07	   77.4111	    10.625	       2.4	2.80685e+07	       N/A	       N/A	       N/A	        N/A	       N/A	       N/A	       N/A	        N/A	
         R10	   4676	   76.1393	   11.5062	       2.4	1.38321e+08	   76.1109	      11.9	       2.4	8.19017e+07	      76.5	      11.9	       2.4	7.98589e+07	      76.5	   11.5844	       2.4	6.37453e+07	   76.1251	   11.7031	       2.4	 8.7546e+07	   76.3054	      11.9	       2.4	7.60145e+07	      76.5	   11.7422	       2.4	3.32837e+07	   76.3197	   11.5453	       2.4	  5.367e+07	
         R10	   4677	   73.0377	     11.05	       2.4	3.83134e+07	     72.25	     11.05	       2.4	5.24953e+07	     72.25	      11.9	       2.4	5.24447e+07	   73.0751	      11.9	       2.4	5.33576e+07	   72.6438	     11.05	       2.4	3.63256e+07	     72.25	    11.475	       2.4	5.24582e+07	   72.6626	      11.9	       2.4	4.72225e+07	   73.0564	    11.475	       2.4	2.03615e+07	
         R10	   4678	   73.7936	     11.05	       2.4	1.54466e+07	   73.0377	     11.05	       2.4	4.39161e+07	   73.0751	      11.9	       2.4	5.62839e+07	   73.8276	      11.9	       2.4	1.80881e+07	   73.4156	     11.05	       2.4	2.96431e+07	   73.0564	    11.475	       2.4	2.65463e+07	   73.4514	      11.9	       2.4	3.69835e+07	   73.8106	    11.475	       2.4	9.86412e+06	
         R10	   4679	   74.5178	     11.05	       2.4	4.77922e+06	   73.7936	     11.05	       2.4	1.27794e+07	   73.8276	      11.9	       2.4	1.76983e+07	   74.5074	      11.9	       2.4	1.07796e+07	   74.1557	     11.05	       2.4	7.04982e+06	   73.8106	    11.475	       2.4	7.73708e+06	   74.1675	      11.9	       2.4	1.10819e+07	   74.5126	    11.475	       2.4	4.71336e+06	
         R10	   4680	   75.2102	     11.05	       2.4	1.34131e+07	   74.5178	     11.05	       2.4	5.16508e+06	   74.5074	      11.9	       2.4	1.06072e+07	   75.1146	      11.9	       2.4	2.56234e+07	    74.864	     11.05	       2.4	9.04009e+06	   74.5126	    11.475	       2.4	4.35175e+06	    74.811	      11.9	       2.4	1.76075e+07	   75.1624	    11.475	       2.4	1.24169e+07	
         R10	   4681	    75.871	     11.05	       2.4	3.62167e+07	   75.2102	     11.05	       2.4	1.38574e+07	   75.1146	      11.9	       2.4	2.54774e+07	   75.6491	      11.9	       2.4	4.54634e+07	   75.5406	     11.05	       2.4	  2.476e+07	   75.1624	    11.475	       2.4	1.17669e+07	   75.3818	      11.9	       2.4	3.48756e+07	     75.76	    11.475	       2.4	2.63216e+07	
         R10	   4682	   76.1393	   11.5062	       2.4	1.27227e+08	      76.5	   11.5844	       2.4	5.36547e+07	      76.5	     11.05	       2.4	7.32733e+07	    75.871	     11.05	       2.4	4.27643e+07	   76.3197	   11.5453	       2.4	3.74598e+07	      76.5	   11.3172	       2.4	1.06187e+07	   76.1855	     11.05	       2.4	4.66697e+07	   76.0051	   11.2781	       2.4	6.95371e+07	
         R10	   4683	   76.1109	      11.9	       2.4	6.89467e+07	   76.1393	   11.5062	       2.4	4.67669e+07	    75.871	     11.05	       2.4	5.57226e+07	   75.6491	      11.9	       2.4	4.34957e+07	   76.1251	   11.7031	       2.4	3.34731e+07	   76.0051	   11.2781	       2.4	2.24248e+07	     75.76	    11.475	       2.4	3.77559e+07	     75.88	      11.9	       2.4	5.37716e+07	
         R10	   4684	   76.1037	   12.3234	       2.4	1.05362e+08	   76.1109	      11.9	       2.4	1.00274e+08	   75.6491	      11.9	       2.4	1.08439e+08	   75.6487	   12.3873	       2.4	1.49936e+08	   76.1073	   12.1117	       2.4	3.95225e+07	     75.88	      11.9	       2.4	1.02758e+08	   75.6489	   12.1437	       2.4	3.44683e+07	   75.8762	   12.3554	       2.4	1.25186e+08	
         R10	   4685	      76.5	   12.2642	       2.4	8.83069e+07	      76.5	      11.9	       2.4	7.16696e+07	   76.1109	      11.9	       2.4	1.04615e+08	   76.1037	   12.3234	       2.4	1.67749e+08	      76.5	   12.0821	       2.4	8.61608e+06	   76.3054	      11.9	       2.4	7.01522e+07	   76.1073	   12.1117	       2.4	9.18605e+07	   76.3019	   12.2938	       2.4	4.84222e+07	
         R10	   4686	   73.0751	      11.9	       2.4	4.38794e+07	     72.25	      11.9	       2.4	5.23283e+07	     72.25	     12.75	       2.4	5.34011e+07	    72.961	     12.75	       2.4	5.72861e+07	   72.6626	      11.9	       2.4	3.74345e+07	     72.25	    12.325	       2.4	5.28645e+07	   72.6055	     12.75	       2.4	4.99826e+07	   73.0181	    12.325	       2.4	2.27567e+07	
         R10	   4687	   73.8276	      11.9	       2.4	1.72758e+07	   73.0751	      11.9	       2.4	4.58286e+07	    72.961	     12.75	       2.4	6.20012e+07	   73.6123	     12.75	       2.4	 2.4255e+07	   73.4514	      11.9	       2.4	3.11394e+07	   73.0181	    12.325	       2.4	2.84849e+07	   73.2867	     12.75	       2.4	4.29233e+07	     73.72	    12.325	       2.4	1.34462e+07	
         R10	   4688	   74.5074	      11.9	       2.4	9.29624e+06	   73.8276	      11.9	       2.4	1.68016e+07	   73.6123	     12.75	       2.4	 2.3961e+07	   74.2039	     12.75	       2.4	7.72453e+06	   74.1675	      11.9	       2.4	1.21776e+07	     73.72	    12.325	       2.4	1.24883e+07	   73.9081	     12.75	       2.4	1.46814e+07	   74.3557	    12.325	       2.4	8.35346e+06	
         R10	   4689	   75.2555	   12.2934	       2.4	1.00327e+08	   75.6487	   12.3873	       2.4	1.51035e+08	   75.6491	      11.9	       2.4	1.07912e+08	   75.1146	      11.9	       2.4	9.59922e+07	   75.4521	   12.3404	       2.4	  1.205e+08	   75.6489	   12.1437	       2.4	2.45459e+07	   75.3818	      11.9	       2.4	1.01557e+08	    75.185	   12.0967	       2.4	2.98269e+07	
         R10	   4690	   75.2555	   12.2934	       2.4	1.03984e+08	   75.1146	      11.9	       2.4	9.15164e+07	   74.5074	      11.9	       2.4	 1.2779e+07	   74.8313	   12.3195	       2.4	5.74586e+07	    75.185	   12.0967	       2.4	1.19041e+07	    74.811	      11.9	       2.4	4.79615e+07	   74.6694	   12.1098	       2.4	3.06156e+07	   75.0434	   12.3065	       2.4	6.98687e+07	
         R10	   4691	   74.7358	     12.75	       2.4	4.72772e+07	   75.2081	     12.75	       2.4	 1.0346e+08	   75.2555	   12.2934	       2.4	1.30573e+08	   74.8313	   12.3195	       2.4	9.93155e+07	    74.972	     12.75	       2.4	7.51522e+07	   75.2318	   12.5217	       2.4	2.01778e+07	   75.0434	   12.3065	       2.4	1.07367e+08	   74.7836	   12.5348	       2.4	3.50568e+07	
         R10	   4692	   74.5074	      11.9	       2.4	1.41131e+07	   74.2039	     12.75	       2.4	 1.6898e+07	   74.7358	     12.75	       2.4	3.10845e+07	   74.8313	   12.3195	       2.4	6.39736e+07	   74.3557	    12.325	       2.4	8.38228e+06	   74.4699	     12.75	       2.4	1.21304e+07	   74.7836	   12.5348	       2.4	1.78393e+07	   74.6694	   12.1098	       2.4	3.48452e+07	
         R10	   4693	   75.6487	   12.3873	       2.4	 6.4967e+07	   75.2555	   12.2934	       2.4	 1.4962e+08	   75.2081	     12.75	       2.4	1.05597e+08	   75.6206	     12.75	       2.4	1.02387e+08	   75.4521	   12.3404	       2.4	1.04896e+08	   75.2318	   12.5217	       2.4	3.55629e+07	   75.4143	     12.75	       2.4	1.03105e+08	   75.6346	   12.5687	       2.4	 3.4699e+07	
         R10	   4694	   75.6487	   12.3873	       2.4	7.62423e+07	   75.6206	     12.75	       2.4	9.66385e+07	   75.9734	     12.75	       2.4	 1.1015e+08	   76.1037	   12.3234	       2.4	 1.1475e+08	   75.6346	   12.5687	       2.4	3.26971e+07	    75.797	     12.75	       2.4	1.03019e+08	   76.0386	   12.5367	       2.4	5.08472e+07	   75.8762	   12.3554	       2.4	9.48829e+07	
         R10	   4695	   76.2666	     12.75	       2.4	1.25295e+08	      76.5	     12.75	       2.4	9.97722e+07	      76.5	   12.5475	       2.4	8.68391e+07	   76.2912	   12.5408	       2.4	1.09051e+08	   76.3833	     12.75	       2.4	9.61257e+07	      76.5	   12.6488	       2.4	4.24356e+07	   76.3956	   12.5442	       2.4	3.02919e+07	   76.2789	   12.6454	       2.4	 8.9695e+07	
         R10	   4696	   76.1037	   12.3234	       2.4	1.50835e+08	   75.9734	     12.75	       2.4	1.09992e+08	   76.2666	     12.75	       2.4	1.25466e+08	   76.2912	   12.5408	       2.4	8.42198e+07	   76.0386	   12.5367	       2.4	7.43882e+07	     76.12	     12.75	       2.4	1.14332e+08	   76.2789	   12.6454	       2.4	8.53229e+07	   76.1975	   12.4321	       2.4	9.12536e+07	
         R10	   4697	      76.5	   12.5475	       2.4	7.18556e+07	      76.5	   12.2642	       2.4	9.91072e+07	   76.1037	   12.3234	       2.4	1.43357e+08	   76.2912	   12.5408	       2.4	1.37313e+08	      76.5	   12.4059	       2.4	8.47396e+07	   76.3019	   12.2938	       2.4	5.13992e+07	   76.1975	   12.4321	       2.4	1.19507e+08	   76.3956	   12.5442	       2.4	6.11751e+07	
         R10	   4698	   74.7244	   13.1972	       2.4	1.60671e+08	   74.7358	     12.75	       2.4	 1.1266e+08	   74.2039	     12.75	       2.4	1.05453e+08	   74.2104	   13.2255	       2.4	1.62901e+08	   74.7301	   12.9736	       2.4	2.45235e+07	   74.4699	     12.75	       2.4	1.08866e+08	   74.2072	   12.9878	       2.4	3.12071e+07	   74.4674	   13.2114	       2.4	1.60634e+08	
         R10	   4699	   75.1895	   13.1621	       2.4	1.63158e+08	   75.2081	     12.75	       2.4	1.25701e+08	   74.7358	     12.75	       2.4	1.10674e+08	   74.7244	   13.1972	       2.4	1.64462e+08	   75.1988	    12.956	       2.4	2.09133e+07	    74.972	     12.75	       2.4	1.18003e+08	   74.7301	   12.9736	       2.4	 2.8156e+07	    74.957	   13.1796	       2.4	1.62188e+08	
         R10	   4700	   75.6063	   13.0759	       2.4	1.15548e+08	   75.6206	     12.75	       2.4	1.30515e+08	   75.2081	     12.75	       2.4	1.27362e+08	   75.1895	   13.1621	       2.4	1.70709e+08	   75.6135	   12.9129	       2.4	1.17912e+07	   75.4143	     12.75	       2.4	1.28598e+08	   75.1988	    12.956	       2.4	3.42803e+07	   75.3979	    13.119	       2.4	 1.3777e+08	
         R10	   4701	   75.9609	   13.0583	       2.4	 1.0348e+08	   75.9734	     12.75	       2.4	1.36895e+08	   75.6206	     12.75	       2.4	 1.3226e+08	   75.6063	   13.0759	       2.4	1.18072e+08	   75.9672	   12.9042	       2.4	3.61483e+07	    75.797	     12.75	       2.4	1.34331e+08	   75.6135	   12.9129	       2.4	3.25862e+07	   75.7836	   13.0671	       2.4	1.10605e+08	
         R10	   4702	   76.2486	   13.0058	       2.4	5.97384e+07	   76.2666	     12.75	       2.4	 1.0024e+08	   75.9734	     12.75	       2.4	1.40892e+08	   75.9609	   13.0583	       2.4	1.10597e+08	   76.2576	   12.8779	       2.4	 6.0453e+07	     76.12	     12.75	       2.4	1.15587e+08	   75.9672	   12.9042	       2.4	 5.0378e+07	   76.1048	   13.0321	       2.4	8.18559e+07	
         R10	   4703	      76.5	    12.952	       2.4	7.53289e+07	      76.5	     12.75	       2.4	8.41131e+07	   76.2666	     12.75	       2.4	1.01682e+08	   76.2486	   13.0058	       2.4	8.58657e+07	      76.5	    12.851	       2.4	1.54335e+07	   76.3833	     12.75	       2.4	7.28094e+07	   76.2576	   12.8779	       2.4	7.84271e+07	   76.3743	   12.9789	       2.4	1.60535e+07	
         R10	   4704	      76.5	    13.138	       2.4	1.14281e+08	      76.5	    12.952	       2.4	6.81816e+07	   76.2486	   13.0058	       2.4	1.23945e+08	   76.3053	   13.2146	       2.4	 7.6874e+07	      76.5	    13.045	       2.4	8.17855e+07	   76.3743	   12.9789	       2.4	5.69962e+07	   76.2769	   13.1102	       2.4	7.89432e+07	   76.4026	   13.1763	       2.4	4.53629e+07	
         R10	   4705	   76.3387	      13.6	       2.4	1.22177e+08	      76.5	      13.6	       2.4	1.09326e+08	      76.5	    13.462	       2.4	9.36809e+07	   76.3427	   13.4527	       2.4	7.79345e+07	   76.4194	      13.6	       2.4	1.06605e+08	      76.5	    13.531	       2.4	4.06006e+07	   76.4214	   13.4573	       2.4	6.45396e+07	   76.3407	   13.5263	       2.4	8.61584e+07	
         R10	   4706	   76.1398	   13.3588	       2.4	8.76456e+07	   76.1433	      13.6	       2.4	1.31082e+08	   76.3387	      13.6	       2.4	1.32776e+08	   76.3427	   13.4527	       2.4	5.67202e+07	   76.1415	   13.4794	       2.4	8.02881e+07	    76.241	      13.6	       2.4	1.20566e+08	   76.3407	   13.5263	       2.4	8.81525e+07	   76.2412	   13.4057	       2.4	5.15181e+07	
         R10	   4707	   75.8862	   13.3628	       2.4	8.51508e+07	   75.9137	      13.6	       2.4	1.59585e+08	   76.1433	      13.6	       2.4	1.28001e+08	   76.1398	   13.3588	       2.4	 9.1614e+07	   75.8999	   13.4814	       2.4	5.95943e+07	   76.0285	      13.6	       2.4	1.42191e+08	   76.1415	   13.4794	       2.4	8.70896e+07	    76.013	   13.3608	       2.4	7.97349e+07	
         R10	   4708	   75.6525	   13.3512	       2.4	8.41215e+07	     75.65	      13.6	       2.4	1.42282e+08	   75.9137	      13.6	       2.4	1.57671e+08	   75.8862	   13.3628	       2.4	 8.7006e+07	   75.6513	   13.4756	       2.4	4.88976e+07	   75.7819	      13.6	       2.4	1.49906e+08	   75.8999	   13.4814	       2.4	6.62951e+07	   75.7693	    13.357	       2.4	7.60098e+07	
         R10	   4709	   75.4246	   13.3797	       2.4	1.07922e+08	   75.4192	      13.6	       2.4	1.34661e+08	     75.65	      13.6	       2.4	1.43523e+08	   75.6525	   13.3512	       2.4	5.94841e+07	   75.4219	   13.4898	       2.4	4.23161e+07	   75.5346	      13.6	       2.4	1.39041e+08	   75.6513	   13.4756	       2.4	5.07578e+07	   75.5385	   13.3654	       2.4	7.24123e+07	
         R10	   4710	    72.961	     12.75	       2.4	4.70913e+07	     72.25	     12.75	       2.4	5.37768e+07	     72.25	      13.6	       2.4	4.95275e+07	    72.986	      13.6	       2.4	5.97642e+07	   72.6055	     12.75	       2.4	 4.0606e+07	     72.25	    13.175	       2.4	5.16448e+07	    72.618	      13.6	       2.4	4.82356e+07	   72.9735	    13.175	       2.4	2.51119e+07	
         R10	   4711	   73.6123	     12.75	       2.4	  2.097e+07	    72.961	     12.75	       2.4	4.66872e+07	    72.986	      13.6	       2.4	6.00841e+07	   73.5855	      13.6	       2.4	2.62835e+07	   73.2867	     12.75	       2.4	3.35262e+07	   72.9735	    13.175	       2.4	3.22812e+07	   73.2857	      13.6	       2.4	4.30686e+07	   73.5989	    13.175	       2.4	1.63242e+07	
         R10	   4712	   76.3427	   13.4527	       2.4	1.29403e+08	      76.5	    13.462	       2.4	5.95785e+07	      76.5	    13.308	       2.4	1.02521e+08	   76.3053	   13.2146	       2.4	6.75687e+07	   76.4214	   13.4573	       2.4	7.02202e+07	      76.5	    13.385	       2.4	7.54505e+07	   76.4026	   13.2613	       2.4	3.85633e+07	    76.324	   13.3336	       2.4	 9.2093e+07	
         R10	   4713	   76.1398	   13.3588	       2.4	1.16811e+08	   76.3053	   13.2146	       2.4	 6.5224e+07	   76.2486	   13.0058	       2.4	 1.0432e+08	   75.9609	   13.0583	       2.4	1.11675e+08	   76.2225	   13.2867	       2.4	8.25215e+07	   76.2769	   13.1102	       2.4	6.16234e+07	   76.1048	   13.0321	       2.4	 1.0665e+08	   76.0503	   13.2085	       2.4	9.75483e+07	
         R10	   4714	   75.6525	   13.3512	       2.4	1.00031e+08	   75.8862	   13.3628	       2.4	9.74062e+07	   75.9609	   13.0583	       2.4	1.02043e+08	   75.6063	   13.0759	       2.4	9.84904e+07	   75.7693	    13.357	       2.4	9.15273e+07	   75.9235	   13.2105	       2.4	8.75638e+07	   75.7836	   13.0671	       2.4	9.95976e+07	   75.6294	   13.2135	       2.4	9.73737e+07	
         R10	   4715	   75.4246	   13.3797	       2.4	6.17152e+07	   75.6525	   13.3512	       2.4	1.08251e+08	   75.6063	   13.0759	       2.4	8.63829e+07	   75.1895	   13.1621	       2.4	1.00485e+08	   75.5385	   13.3654	       2.4	5.95946e+07	   75.6294	   13.2135	       2.4	9.43866e+07	   75.3979	    13.119	       2.4	9.09312e+07	   75.3071	   13.2709	       2.4	5.67226e+07	
         R10	   4716	   75.1763	      13.6	       2.4	7.69615e+07	   75.4192	      13.6	       2.4	1.24889e+08	   75.4246	   13.3797	       2.4	7.75274e+07	   75.1895	   13.1621	       2.4	9.98088e+07	   75.2978	      13.6	       2.4	1.00687e+08	   75.4219	   13.4898	       2.4	3.95993e+07	   75.3071	   13.2709	       2.4	7.61632e+07	   75.1829	    13.381	       2.4	2.64281e+07	
         R10	   4717	   74.9213	      13.6	       2.4	 6.6312e+07	   75.1763	      13.6	       2.4	8.14925e+07	   75.1895	   13.1621	       2.4	9.33695e+07	   74.7244	   13.1972	       2.4	4.84658e+07	   75.0488	      13.6	       2.4	7.36165e+07	   75.1829	    13.381	       2.4	  2.148e+07	    74.957	   13.1796	       2.4	6.90839e+07	   74.8229	   13.3986	       2.4	1.35683e+07	
         R10	   4718	    74.375	      13.6	       2.4	7.11949e+07	   74.6542	      13.6	       2.4	6.95311e+07	   74.7244	   13.1972	       2.4	6.08106e+07	   74.2104	   13.2255	       2.4	5.45294e+07	   74.5146	      13.6	       2.4	6.93588e+07	   74.6893	   13.3986	       2.4	1.53023e+07	   74.4674	   13.2114	       2.4	5.45607e+07	   74.2927	   13.4128	       2.4	2.18298e+07	
         R10	   4719	   73.5855	      13.6	       2.4	 3.4806e+07	   74.0485	      13.6	       2.4	6.22519e+07	   74.2104	   13.2255	       2.4	 6.4601e+07	   73.8704	    13.188	       2.4	5.74899e+07	    73.817	      13.6	       2.4	3.78743e+07	   74.1294	   13.4128	       2.4	2.69397e+07	   74.0404	   13.2067	       2.4	5.92848e+07	   73.7279	    13.394	       2.4	4.34162e+07	
         R10	   4720	   73.8704	    13.188	       2.4	2.68045e+07	   74.2104	   13.2255	       2.4	1.68784e+08	   74.2039	     12.75	       2.4	1.10467e+08	   73.6123	     12.75	       2.4	4.29792e+07	   74.0404	   13.2067	       2.4	9.75331e+07	   74.2072	   12.9878	       2.4	3.92263e+07	   73.9081	     12.75	       2.4	5.88736e+07	   73.7413	    12.969	       2.4	2.93942e+07	
         R10	   4721	      76.5	    13.308	       2.4	8.83216e+07	      76.5	    13.138	       2.4	1.07996e+08	   76.3053	   13.2146	       2.4	8.05063e+07	      76.5	    13.223	       2.4	9.79774e+07	   76.4026	   13.1763	       2.4	 3.3896e+07	   76.4026	   13.2613	       2.4	2.35189e+07	       N/A	       N/A	       N/A	        N/A	       N/A	       N/A	       N/A	        N/A	
         R10	   4722	   76.1398	   13.3588	       2.4	 1.1134e+08	   76.3427	   13.4527	       2.4	  1.275e+08	   76.3053	   13.2146	       2.4	4.63906e+07	   76.2412	   13.4057	       2.4	1.13979e+08	    76.324	   13.3336	       2.4	7.61552e+07	   76.2225	   13.2867	       2.4	7.59842e+07	       N/A	       N/A	       N/A	        N/A	       N/A	       N/A	       N/A	        N/A	
         R10	   4723	   75.8862	   13.3628	       2.4	8.46455e+07	   76.1398	   13.3588	       2.4	1.17935e+08	   75.9609	   13.0583	       2.4	1.13758e+08	    76.013	   13.3608	       2.4	9.77043e+07	   76.0503	   13.2085	       2.4	1.00392e+08	   75.9235	   13.2105	       2.4	9.60684e+07	       N/A	       N/A	       N/A	        N/A	       N/A	       N/A	       N/A	        N/A	
         R10	   4724	   74.6542	      13.6	       2.4	6.67029e+07	   74.9213	      13.6	       2.4	5.96485e+07	   74.7244	   13.1972	       2.4	6.09031e+07	   74.7878	      13.6	       2.4	6.31603e+07	   74.8229	   13.3986	       2.4	1.05737e+07	   74.6893	   13.3986	       2.4	1.12915e+07	       N/A	       N/A	       N/A	        N/A	       N/A	       N/A	       N/A	        N/A	
         R10	   4725	   74.0485	      13.6	       2.4	6.29849e+07	    74.375	      13.6	       2.4	 6.6692e+07	   74.2104	   13.2255	       2.4	5.10663e+07	   74.2117	      13.6	       2.4	6.47371e+07	   74.2927	   13.4128	       2.4	1.21136e+07	   74.1294	   13.4128	       2.4	1.34292e+07	       N/A	       N/A	       N/A	        N/A	       N/A	       N/A	       N/A	        N/A	
         R10	   4726	   73.8704	    13.188	       2.4	2.00119e+07	   73.6123	     12.75	       2.4	3.80659e+07	   73.5855	      13.6	       2.4	3.13738e+07	   73.7413	    12.969	       2.4	2.32176e+07	   73.5989	    13.175	       2.4	1.85094e+07	   73.7279	    13.394	       2.4	2.27588e+07	       N/A	       N/A	       N/A	        N/A	       N/A	       N/A	       N/A	        N/A	
         R10	   4727	   78.2496	   11.4959	       2.4	9.53861e+07	   78.2032	      11.9	       2.4	5.61231e+07	    78.625	      11.9	       2.4	8.20791e+07	    78.625	   11.5581	       2.4	5.04817e+07	   78.2264	    11.698	       2.4	3.93319e+07	   78.4141	      11.9	       2.4	6.81924e+07	    78.625	   11.7291	       2.4	1.79476e+07	   78.4373	    11.527	       2.4	6.54647e+07	
         R10	   4728	   77.0068	   11.4484	       2.4	9.79437e+07	   76.9282	      11.9	       2.4	9.99723e+07	   77.3548	      11.9	       2.4	7.55843e+07	   77.4115	   11.4991	       2.4	1.25675e+08	   76.9675	   11.6742	       2.4	3.09174e+07	   77.1415	      11.9	       2.4	 8.7176e+07	   77.3831	   11.6996	       2.4	6.47857e+07	   77.2091	   11.4738	       2.4	9.70028e+07	
         R10	   4729	      76.5	   11.5844	       2.4	4.78497e+07	      76.5	      11.9	       2.4	8.20242e+07	   76.9282	      11.9	       2.4	1.05794e+08	   77.0068	   11.4484	       2.4	1.52526e+08	      76.5	   11.7422	       2.4	4.08724e+07	   76.7141	      11.9	       2.4	8.64642e+07	   76.9675	   11.6742	       2.4	 8.3547e+07	   76.7534	   11.5164	       2.4	8.13719e+07	
         R10	   4730	   77.2598	     11.05	       2.4	7.79673e+07	      76.5	     11.05	       2.4	7.15797e+07	      76.5	   11.5844	       2.4	3.75805e+07	   77.0068	   11.4484	       2.4	1.11702e+08	   76.8799	     11.05	       2.4	5.04174e+07	      76.5	   11.3172	       2.4	2.16807e+07	   76.7534	   11.5164	       2.4	3.83861e+07	   77.1333	   11.2492	       2.4	5.93065e+07	
         R10	   4731	   77.9681	     11.05	       2.4	2.95068e+07	   77.2598	     11.05	       2.4	7.30603e+07	   77.0068	   11.4484	       2.4	4.67623e+07	   77.4115	   11.4991	       2.4	1.30827e+08	   77.6139	     11.05	       2.4	4.92726e+07	   77.1333	   11.2492	       2.4	2.23673e+07	   77.2091	   11.4738	       2.4	8.17097e+07	   77.6898	   11.2746	       2.4	5.91057e+07	
         R10	   4732	   78.2496	   11.4959	       2.4	1.00279e+08	    78.625	   11.5581	       2.4	1.36455e+08	    78.625	     11.05	       2.4	1.07055e+08	   77.9681	     11.05	       2.4	4.89228e+07	   78.4373	    11.527	       2.4	 1.0619e+08	    78.625	   11.3041	       2.4	 1.5088e+07	   78.2966	     11.05	       2.4	7.65526e+07	   78.1089	    11.273	       2.4	4.41354e+07	
         R10	   4733	   77.7798	      11.9	       2.4	3.18458e+07	   78.2032	      11.9	       2.4	5.29164e+07	   78.2496	   11.4959	       2.4	7.30084e+07	   77.9681	     11.05	       2.4	5.55196e+07	   77.9915	      11.9	       2.4	3.75199e+07	   78.2264	    11.698	       2.4	3.79653e+07	   78.1089	    11.273	       2.4	3.76047e+07	    77.874	    11.475	       2.4	1.32962e+07	
         R10	   4734	   77.3548	      11.9	       2.4	5.60615e+07	   77.7798	      11.9	       2.4	2.19177e+07	   77.9681	     11.05	       2.4	1.93018e+07	   77.4115	   11.4991	       2.4	6.49612e+07	   77.5673	      11.9	       2.4	3.21552e+07	    77.874	    11.475	       2.4	1.66256e+07	   77.6898	   11.2746	       2.4	3.91398e+07	   77.3831	   11.6996	       2.4	1.07507e+07	
         R10	   4735	   77.3488	     12.32	       2.4	1.62383e+08	   77.3548	      11.9	       2.4	1.32114e+08	   76.9282	      11.9	       2.4	1.15766e+08	   76.9263	   12.2935	       2.4	1.27353e+08	   77.3518	     12.11	       2.4	3.27093e+07	   77.1415	      11.9	       2.4	1.22679e+08	   76.9273	   12.0967	       2.4	4.23162e+07	   77.1376	   12.3068	       2.4	1.40747e+08	
         R10	   4736	   77.8047	   12.3259	       2.4	1.64235e+08	   77.7798	      11.9	       2.4	1.28697e+08	   77.3548	      11.9	       2.4	1.30956e+08	   77.3488	     12.32	       2.4	1.65637e+08	   77.7923	   12.1129	       2.4	2.87991e+07	   77.5673	      11.9	       2.4	1.29648e+08	   77.3518	     12.11	       2.4	2.77562e+07	   77.5768	    12.323	       2.4	1.63234e+08	
         R10	   4737	   78.2286	   12.3093	       2.4	1.34758e+08	   78.2032	      11.9	       2.4	1.18228e+08	   77.7798	      11.9	       2.4	 1.2837e+08	   77.8047	   12.3259	       2.4	1.60587e+08	   78.2159	   12.1046	       2.4	2.22234e+07	   77.9915	      11.9	       2.4	1.23171e+08	   77.7923	   12.1129	       2.4	1.77819e+07	   78.0167	   12.3176	       2.4	1.44305e+08	
         R10	   4738	    78.625	   12.3654	       2.4	1.40067e+08	    78.625	      11.9	       2.4	1.05855e+08	   78.2032	      11.9	       2.4	1.17876e+08	   78.2286	   12.3093	       2.4	1.27888e+08	    78.625	   12.1327	       2.4	1.97781e+07	   78.4141	      11.9	       2.4	1.11743e+08	   78.2159	   12.1046	       2.4	1.18304e+07	   78.4268	   12.3373	       2.4	1.31787e+08	
         R10	   4739	   78.3093	     12.75	       2.4	9.34372e+07	    78.625	     12.75	       2.4	1.03112e+08	    78.625	   12.3654	       2.4	1.13769e+08	   78.2286	   12.3093	       2.4	1.17227e+08	   78.4672	     12.75	       2.4	9.78038e+07	    78.625	   12.5577	       2.4	1.35672e+07	   78.4268	   12.3373	       2.4	1.13937e+08	    78.269	   12.5296	       2.4	2.29355e+07	
         R10	   4740	    78.008	     12.75	       2.4	7.76426e+07	   78.3093	     12.75	       2.4	 9.3825e+07	   78.2286	   12.3093	       2.4	1.36305e+08	   77.8047	   12.3259	       2.4	5.74415e+07	   78.1587	     12.75	       2.4	8.48793e+07	    78.269	   12.5296	       2.4	2.54005e+07	   78.0167	   12.3176	       2.4	9.22145e+07	   77.9063	   12.5379	       2.4	3.03037e+07	
         R10	   4741	      76.5	   12.5475	       2.4	9.47757e+07	      76.5	     12.75	       2.4	9.69828e+07	   76.7156	     12.75	       2.4	1.30439e+08	    76.709	   12.5317	       2.4	1.13658e+08	      76.5	   12.6488	       2.4	3.88676e+07	   76.6078	     12.75	       2.4	9.44908e+07	   76.7123	   12.6408	       2.4	8.81195e+07	   76.6045	   12.5396	       2.4	2.69196e+07	
         R10	   4742	   76.9263	   12.2935	       2.4	1.64129e+08	   76.9282	      11.9	       2.4	1.23705e+08	      76.5	      11.9	       2.4	 7.8229e+07	      76.5	   12.2642	       2.4	6.76643e+07	   76.9273	   12.0967	       2.4	 8.5101e+07	   76.7141	      11.9	       2.4	7.63328e+07	      76.5	   12.0821	       2.4	5.65876e+06	   76.7132	   12.2788	       2.4	5.52545e+07	
         R10	   4743	   77.4482	     12.75	       2.4	7.86589e+07	   77.7209	     12.75	       2.4	6.59411e+07	   77.8047	   12.3259	       2.4	7.12793e+07	   77.3488	     12.32	       2.4	 6.3523e+07	   77.5845	     12.75	       2.4	7.14453e+07	   77.7628	   12.5379	       2.4	1.91338e+07	   77.5768	    12.323	       2.4	6.40174e+07	   77.3985	    12.535	       2.4	4.04377e+07	
         R10	   4744	   76.9263	   12.2935	       2.4	1.31049e+08	      76.5	   12.2642	       2.4	  8.207e+07	      76.5	   12.5475	       2.4	6.91713e+07	    76.709	   12.5317	       2.4	1.32857e+08	   76.7132	   12.2788	       2.4	5.46447e+07	      76.5	   12.4059	       2.4	 7.4089e+07	   76.6045	   12.5396	       2.4	5.32874e+07	   76.8176	   12.4126	       2.4	1.12941e+08	
         R10	   4745	   77.1897	     12.75	       2.4	 7.6778e+07	   77.3488	     12.32	       2.4	6.32403e+07	   76.9263	   12.2935	       2.4	1.11918e+08	   76.9455	     12.75	       2.4	9.69758e+07	   77.2692	    12.535	       2.4	 2.8105e+07	   77.1376	   12.3068	       2.4	8.56631e+07	   76.9359	   12.5217	       2.4	5.96312e+07	   77.0676	     12.75	       2.4	8.66649e+07	
         R10	   4746	   76.9455	     12.75	       2.4	9.69716e+07	   76.9263	   12.2935	       2.4	1.51772e+08	    76.709	   12.5317	       2.4	8.91102e+07	   76.7156	     12.75	       2.4	1.31938e+08	   76.9359	   12.5217	       2.4	8.45126e+07	   76.8176	   12.4126	       2.4	9.56696e+07	   76.7123	   12.6408	       2.4	8.23581e+07	   76.8305	     12.75	       2.4	1.12516e+08	
         R10	   4747	   77.7209	     12.75	       2.4	6.24626e+07	    78.008	     12.75	       2.4	6.55594e+07	   77.8047	   12.3259	       2.4	6.91019e+07	   77.8645	     12.75	       2.4	6.39735e+07	   77.9063	   12.5379	       2.4	1.59367e+07	   77.7628	   12.5379	       2.4	1.66013e+07	       N/A	       N/A	       N/A	        N/A	       N/A	       N/A	       N/A	        N/A	
         R10	   4748	   77.1897	     12.75	       2.4	7.35775e+07	   77.4482	     12.75	       2.4	7.18994e+07	   77.3488	     12.32	       2.4	6.61162e+07	   77.3189	     12.75	       2.4	7.25932e+07	   77.3985	    12.535	       2.4	2.81829e+07	   77.2692	    12.535	       2.4	2.94377e+07	       N/A	       N/A	       N/A	        N/A	       N/A	       N/A	       N/A	        N/A	
         R10	   4749	   76.9599	   12.9624	       2.4	  7.493e+07	   76.9455	     12.75	       2.4	1.56771e+08	   76.7156	     12.75	       2.4	 1.0442e+08	   76.7292	   12.9467	       2.4	4.81637e+07	   76.9527	   12.8562	       2.4	6.97767e+07	   76.8305	     12.75	       2.4	1.23942e+08	   76.7224	   12.8483	       2.4	6.89836e+07	   76.8446	   12.9545	       2.4	5.67647e+07	
         R10	   4750	   77.1948	   12.9702	       2.4	5.81771e+07	   77.1897	     12.75	       2.4	1.74275e+08	   76.9455	     12.75	       2.4	1.54274e+08	   76.9599	   12.9624	       2.4	7.42678e+07	   77.1923	   12.8601	       2.4	6.77593e+07	   77.0676	     12.75	       2.4	1.64047e+08	   76.9527	   12.8562	       2.4	6.70428e+07	   77.0774	   12.9663	       2.4	6.57139e+07	
         R10	   4751	   77.4427	   12.9704	       2.4	5.75346e+07	   77.4482	     12.75	       2.4	1.76644e+08	   77.1897	     12.75	       2.4	1.72849e+08	   77.1948	   12.9702	       2.4	6.23123e+07	   77.4454	   12.8602	       2.4	6.51386e+07	   77.3189	     12.75	       2.4	 1.7447e+08	   77.1923	   12.8601	       2.4	6.60142e+07	   77.3188	   12.9703	       2.4	5.97639e+07	
         R10	   4752	   77.7077	   12.9746	       2.4	5.92076e+07	   77.7209	     12.75	       2.4	1.70951e+08	   77.4482	     12.75	       2.4	1.77911e+08	   77.4427	   12.9704	       2.4	 5.5505e+07	   77.7143	   12.8623	       2.4	 6.1963e+07	   77.5845	     12.75	       2.4	1.74381e+08	   77.4454	   12.8602	       2.4	6.56561e+07	   77.5752	   12.9725	       2.4	5.72507e+07	
         R10	   4753	   78.0102	   13.0502	       2.4	1.02556e+08	    78.008	     12.75	       2.4	1.60646e+08	   77.7209	     12.75	       2.4	1.68418e+08	   77.7077	   12.9746	       2.4	5.53866e+07	   78.0091	   12.9001	       2.4	3.25248e+07	   77.8645	     12.75	       2.4	1.64291e+08	   77.7143	   12.8623	       2.4	5.73236e+07	   77.8589	   13.0124	       2.4	 7.7492e+07	
         R10	   4754	   78.3224	   13.0404	       2.4	9.99874e+07	   78.3093	     12.75	       2.4	1.61278e+08	    78.008	     12.75	       2.4	 1.6258e+08	   78.0102	   13.0502	       2.4	9.78388e+07	   78.3159	   12.8952	       2.4	3.28307e+07	   78.1587	     12.75	       2.4	1.61913e+08	   78.0091	   12.9001	       2.4	3.31168e+07	   78.1663	   13.0453	       2.4	9.87971e+07	
         R10	   4755	    78.625	   13.0736	       2.4	1.03396e+08	    78.625	     12.75	       2.4	1.40304e+08	   78.3093	     12.75	       2.4	1.60584e+08	   78.3224	   13.0404	       2.4	9.87471e+07	    78.625	   12.9118	       2.4	2.02354e+07	   78.4672	     12.75	       2.4	1.50302e+08	   78.3159	   12.8952	       2.4	3.21425e+07	   78.4737	    13.057	       2.4	1.01004e+08	
         R10	   4756	    78.625	   13.3569	       2.4	6.72753e+07	    78.625	   13.0736	       2.4	9.84097e+07	   78.3224	   13.0404	       2.4	8.69374e+07	   78.3436	   13.3176	       2.4	9.37765e+07	    78.625	   13.2152	       2.4	8.05638e+07	   78.4737	    13.057	       2.4	9.22038e+07	    78.333	    13.179	       2.4	9.01051e+07	   78.4843	   13.3373	       2.4	7.87444e+07	
         R10	   4757	   78.3823	      13.6	       2.4	1.49191e+08	    78.625	      13.6	       2.4	1.65489e+08	    78.625	   13.3569	       2.4	8.08514e+07	   78.3436	   13.3176	       2.4	7.85327e+07	   78.5037	      13.6	       2.4	1.56951e+08	    78.625	   13.4784	       2.4	4.43804e+07	   78.4843	   13.3373	       2.4	 7.9647e+07	    78.363	   13.4588	       2.4	3.69102e+07	
         R10	   4758	   78.1517	      13.6	       2.4	1.33812e+08	   78.3823	      13.6	       2.4	 1.4987e+08	   78.3436	   13.3176	       2.4	8.28059e+07	   78.0779	   13.3489	       2.4	2.19905e+07	    78.267	      13.6	       2.4	1.41657e+08	    78.363	   13.4588	       2.4	3.42456e+07	   78.2107	   13.3332	       2.4	5.19955e+07	   78.1148	   13.4744	       2.4	5.69224e+07	
         R10	   4759	   77.5765	   13.4021	       2.4	4.13163e+07	   77.5323	      13.6	       2.4	  1.744e+08	   77.7267	      13.6	       2.4	1.53996e+08	   77.8054	   13.3849	       2.4	3.30219e+07	   77.5544	   13.5011	       2.4	6.96925e+07	   77.6295	      13.6	       2.4	1.64125e+08	   77.7661	   13.4924	       2.4	6.43635e+07	   77.6909	   13.3935	       2.4	3.63542e+07	
         R10	   4760	   77.3741	   13.3946	       2.4	5.11364e+07	     77.35	      13.6	       2.4	1.75994e+08	   77.5323	      13.6	       2.4	1.73773e+08	   77.5765	   13.4021	       2.4	4.81519e+07	   77.3621	   13.4973	       2.4	7.16269e+07	   77.4412	      13.6	       2.4	1.74856e+08	   77.5544	   13.5011	       2.4	7.10861e+07	   77.4753	   13.3984	       2.4	4.75824e+07	
         R10	   4761	   77.1757	   13.3906	       2.4	6.22916e+07	   77.1638	      13.6	       2.4	1.73811e+08	     77.35	      13.6	       2.4	1.75949e+08	   77.3741	   13.3946	       2.4	5.06455e+07	   77.1698	   13.4953	       2.4	7.33916e+07	   77.2569	      13.6	       2.4	1.74737e+08	   77.3621	   13.4973	       2.4	7.09684e+07	   77.2749	   13.3926	       2.4	5.59267e+07	
         R10	   4762	   76.9982	   13.4027	       2.4	6.19011e+07	   76.9858	      13.6	       2.4	1.58898e+08	   77.1638	      13.6	       2.4	1.74647e+08	   77.1757	   13.3906	       2.4	5.87292e+07	    76.992	   13.5013	       2.4	8.20434e+07	   77.0748	      13.6	       2.4	1.66394e+08	   77.1698	   13.4953	       2.4	7.09654e+07	    77.087	   13.3966	       2.4	 5.8093e+07	
         R10	   4763	   76.8268	   13.4348	       2.4	8.86308e+07	   76.8158	      13.6	       2.4	1.36722e+08	   76.9858	      13.6	       2.4	1.59168e+08	   76.9982	   13.4027	       2.4	4.45003e+07	   76.8213	   13.5174	       2.4	9.52467e+07	   76.9008	      13.6	       2.4	1.47019e+08	    76.992	   13.5013	       2.4	7.48996e+07	   76.9125	   13.4187	       2.4	6.42089e+07	
         R10	   4764	   76.6581	    13.449	       2.4	5.38173e+07	   76.6538	      13.6	       2.4	1.26292e+08	   76.8158	      13.6	       2.4	1.39971e+08	   76.8268	   13.4348	       2.4	6.74578e+07	    76.656	   13.5245	       2.4	8.79972e+07	   76.7348	      13.6	       2.4	1.24659e+08	   76.8213	   13.5174	       2.4	8.83199e+07	   76.7425	   13.4419	       2.4	5.72695e+07	
         R10	   4765	      76.5	    13.462	       2.4	9.59747e+07	      76.5	      13.6	       2.4	1.13696e+08	   76.6538	      13.6	       2.4	1.24775e+08	   76.6581	    13.449	       2.4	7.33534e+07	      76.5	    13.531	       2.4	2.90364e+07	   76.5769	      13.6	       2.4	1.02813e+08	    76.656	   13.5245	       2.4	9.17963e+07	   76.5791	   13.4555	       2.4	5.11462e+07	
         R10	   4766	      76.5	    13.308	       2.4	8.82119e+07	      76.5	    13.462	       2.4	5.62655e+07	   76.6581	    13.449	       2.4	1.31301e+08	   76.6711	   13.2849	       2.4	5.18211e+07	      76.5	    13.385	       2.4	6.79147e+07	   76.5791	   13.4555	       2.4	6.61175e+07	   76.6646	    13.367	       2.4	8.39905e+07	   76.5855	   13.2965	       2.4	3.19612e+07	
         R10	   4767	   76.7118	   13.1201	       2.4	8.05938e+07	      76.5	    13.138	       2.4	1.07092e+08	      76.5	    13.308	       2.4	9.01413e+07	   76.6711	   13.2849	       2.4	9.04946e+07	   76.6059	    13.129	       2.4	3.28298e+07	      76.5	    13.223	       2.4	 9.8494e+07	   76.5855	   13.2965	       2.4	5.04997e+07	   76.6914	   13.2025	       2.4	6.59737e+07	
         R10	   4768	   76.7292	   12.9467	       2.4	8.80635e+07	   76.7156	     12.75	       2.4	1.04456e+08	      76.5	     12.75	       2.4	9.46898e+07	      76.5	    12.952	       2.4	9.07686e+07	   76.7224	   12.8483	       2.4	8.77857e+07	   76.6078	     12.75	       2.4	 7.4618e+07	      76.5	    12.851	       2.4	1.84008e+07	   76.6146	   12.9493	       2.4	2.85061e+07	
         R10	   4769	   77.1833	   13.1827	       2.4	1.19064e+08	   77.1948	   12.9702	       2.4	7.44078e+07	   76.9599	   12.9624	       2.4	7.54361e+07	   76.9469	   13.1806	       2.4	1.15967e+08	   77.1891	   13.0765	       2.4	8.83723e+07	   77.0774	   12.9663	       2.4	7.34174e+07	   76.9534	   13.0715	       2.4	 8.2262e+07	   77.0651	   13.1816	       2.4	1.17423e+08	
         R10	   4770	   77.4116	   13.1869	       2.4	1.19512e+08	   77.4427	   12.9704	       2.4	5.91167e+07	   77.1948	   12.9702	       2.4	7.15612e+07	   77.1833	   13.1827	       2.4	1.20635e+08	   77.4272	   13.0787	       2.4	 8.6698e+07	   77.3188	   12.9703	       2.4	 6.5094e+07	   77.1891	   13.0765	       2.4	8.79136e+07	   77.2975	   13.1848	       2.4	1.19132e+08	
         R10	   4771	   78.0779	   13.3489	       2.4	9.25016e+07	   78.3436	   13.3176	       2.4	9.60674e+07	   78.3224	   13.0404	       2.4	8.78896e+07	   78.0102	   13.0502	       2.4	1.02053e+08	   78.2107	   13.3332	       2.4	9.31649e+07	    78.333	    13.179	       2.4	9.18409e+07	   78.1663	   13.0453	       2.4	9.47904e+07	    78.044	   13.1995	       2.4	9.64662e+07	
         R10	   4772	   77.8054	   13.3849	       2.4	4.80215e+07	   77.7267	      13.6	       2.4	1.56173e+08	   77.9332	      13.6	       2.4	1.33325e+08	   78.0779	   13.3489	       2.4	2.54488e+07	   77.7661	   13.4924	       2.4	6.20049e+07	     77.83	      13.6	       2.4	1.44688e+08	   78.0055	   13.4744	       2.4	6.51434e+07	   77.9416	   13.3669	       2.4	2.45748e+07	
         R10	   4773	   76.6711	   13.2849	       2.4	5.24047e+07	   76.6581	    13.449	       2.4	1.23055e+08	   76.8268	   13.4348	       2.4	1.05335e+08	   76.8089	    13.301	       2.4	9.85357e+07	   76.6646	    13.367	       2.4	8.07594e+07	   76.7425	   13.4419	       2.4	1.14087e+08	   76.8179	   13.3679	       2.4	8.36569e+07	     76.74	    13.293	       2.4	7.43912e+07	
         R10	   4774	   76.7292	   12.9467	       2.4	1.24563e+08	      76.5	    12.952	       2.4	8.24827e+07	      76.5	    13.138	       2.4	1.06261e+08	   76.7118	   13.1201	       2.4	8.85761e+07	   76.6146	   12.9493	       2.4	4.84482e+07	      76.5	    13.045	       2.4	 8.6199e+07	   76.6059	    13.129	       2.4	2.88895e+07	   76.7205	   13.0334	       2.4	8.62172e+07	
         R10	   4775	   77.7077	   12.9746	       2.4	4.88453e+07	   77.4427	   12.9704	       2.4	 5.5776e+07	   77.4116	   13.1869	       2.4	  1.246e+08	   77.6351	   13.1922	       2.4	1.26145e+08	   77.5752	   12.9725	       2.4	5.17715e+07	   77.4272	   13.0787	       2.4	8.77925e+07	   77.5234	   13.1896	       2.4	1.25165e+08	   77.6714	   13.0834	       2.4	 8.2805e+07	
         R10	   4776	   76.9469	   13.1806	       2.4	1.27903e+08	   76.9599	   12.9624	       2.4	8.01827e+07	   76.7292	   12.9467	       2.4	 1.0259e+08	   76.7118	   13.1201	       2.4	6.48279e+07	   76.9534	   13.0715	       2.4	9.38988e+07	   76.8446	   12.9545	       2.4	 9.1058e+07	   76.7205	   13.0334	       2.4	5.90278e+07	   76.8294	   13.1503	       2.4	9.29861e+07	
         R10	   4777	   77.8054	   13.3849	       2.4	7.97023e+07	   78.0779	   13.3489	       2.4	1.01332e+08	   78.0102	   13.0502	       2.4	1.14539e+08	   77.8155	   13.2181	       2.4	1.26977e+08	   77.9416	   13.3669	       2.4	8.17858e+07	    78.044	   13.1995	       2.4	1.06673e+08	   77.9128	   13.1341	       2.4	1.13119e+08	   77.8104	   13.3015	       2.4	 8.7019e+07	
         R10	   4778	   77.6351	   13.1922	       2.4	1.13047e+08	   77.5765	   13.4021	       2.4	6.30761e+07	   77.8054	   13.3849	       2.4	4.54553e+07	   77.8155	   13.2181	       2.4	1.24757e+08	   77.6058	   13.2972	       2.4	7.84112e+07	   77.6909	   13.3935	       2.4	5.40814e+07	   77.8104	   13.3015	       2.4	7.70737e+07	   77.7253	   13.2052	       2.4	 1.1834e+08	
         R10	   4779	   78.0102	   13.0502	       2.4	8.48688e+07	   77.7077	   12.9746	       2.4	4.30397e+07	   77.6351	   13.1922	       2.4	1.31152e+08	   77.8155	   13.2181	       2.4	1.11237e+08	   77.8589	   13.0124	       2.4	6.34686e+07	   77.6714	   13.0834	       2.4	8.28267e+07	   77.7253	   13.2052	       2.4	1.20634e+08	   77.9128	   13.1341	       2.4	9.34107e+07	
         R10	   4780	   77.5765	   13.4021	       2.4	5.03559e+07	   77.6351	   13.1922	       2.4	1.11864e+08	   77.4116	   13.1869	       2.4	1.15914e+08	   77.3741	   13.3946	       2.4	6.37017e+07	   77.6058	   13.2972	       2.4	7.31642e+07	   77.5234	   13.1896	       2.4	1.13211e+08	   77.3929	   13.2908	       2.4	8.51662e+07	   77.4753	   13.3984	       2.4	5.66044e+07	
         R10	   4781	   77.3741	   13.3946	       2.4	5.84931e+07	   77.4116	   13.1869	       2.4	1.12531e+08	   77.1833	   13.1827	       2.4	1.18262e+08	   77.1757	   13.3906	       2.4	8.20788e+07	   77.3929	   13.2908	       2.4	8.10919e+07	   77.2975	   13.1848	       2.4	1.15284e+08	   77.1795	   13.2866	       2.4	8.94415e+07	   77.2749	   13.3926	       2.4	6.93389e+07	
         R10	   4782	   76.9982	   13.4027	       2.4	1.02446e+08	   77.1757	   13.3906	       2.4	7.58651e+07	   77.1833	   13.1827	       2.4	1.22517e+08	   76.9469	   13.1806	       2.4	9.54419e+07	    77.087	   13.3966	       2.4	8.87999e+07	   77.1795	   13.2866	       2.4	8.98345e+07	   77.0651	   13.1816	       2.4	 1.0855e+08	   76.9725	   13.2916	       2.4	 8.8294e+07	
         R10	   4783	   76.8089	    13.301	       2.4	7.31703e+07	   76.8268	   13.4348	       2.4	1.37763e+08	   76.9982	   13.4027	       2.4	9.68861e+07	   76.9469	   13.1806	       2.4	1.17514e+08	   76.8179	   13.3679	       2.4	8.81006e+07	   76.9125	   13.4187	       2.4	 1.1367e+08	   76.9725	   13.2916	       2.4	9.95427e+07	   76.8779	   13.2408	       2.4	8.67205e+07	
         R10	   4784	   76.8089	    13.301	       2.4	 1.0628e+08	   76.9469	   13.1806	       2.4	1.05232e+08	   76.7118	   13.1201	       2.4	6.18021e+07	   76.6711	   13.2849	       2.4	8.70365e+07	   76.8779	   13.2408	       2.4	 9.6357e+07	   76.8294	   13.1503	       2.4	8.12179e+07	   76.6914	   13.2025	       2.4	5.22535e+07	     76.74	    13.293	       2.4	9.48679e+07	
         R10	   4785	   77.9332	      13.6	       2.4	1.26539e+08	   78.1517	      13.6	       2.4	 1.2887e+08	   78.0779	   13.3489	       2.4	2.44677e+07	   78.0424	      13.6	       2.4	1.27693e+08	   78.1148	   13.4744	       2.4	5.23088e+07	   78.0055	   13.4744	       2.4	5.11863e+07	       N/A	       N/A	       N/A	        N/A	       N/A	       N/A	       N/A	        N/A	
         R10	   4786	    74.375	   13.8968	       2.4	1.01324e+08	    74.375	      13.6	       2.4	1.38151e+08	   74.0485	      13.6	       2.4	1.37301e+08	   74.0485	   13.9948	       2.4	1.77183e+08	    74.375	   13.7484	       2.4	 3.4813e+07	   74.2117	      13.6	       2.4	1.37333e+08	   74.0485	   13.7974	       2.4	3.82084e+07	   74.2117	   13.9458	       2.4	1.25688e+08	
         R10	   4787	   74.0696	     14.45	       2.4	6.41432e+07	    74.375	     14.45	       2.4	9.68628e+07	    74.375	   14.1802	       2.4	9.02448e+07	   74.0485	   13.9948	       2.4	1.27418e+08	   74.2223	     14.45	       2.4	7.97752e+07	    74.375	   14.3151	       2.4	1.92094e+07	   74.2117	   14.0875	       2.4	 9.8801e+07	   74.0591	   14.2224	       2.4	3.91125e+07	
         R10	   4788	   73.6137	     14.45	       2.4	3.63717e+07	   74.0696	     14.45	       2.4	6.94037e+07	   74.0485	   13.9948	       2.4	1.21407e+08	   73.6244	   14.0046	       2.4	4.60152e+07	   73.8416	     14.45	       2.4	4.13253e+07	   74.0591	   14.2224	       2.4	3.85465e+07	   73.8364	   13.9997	       2.4	8.05782e+07	    73.619	   14.2273	       2.4	3.62764e+07	
         R10	   4789	    72.986	      13.6	       2.4	4.00779e+07	     72.25	      13.6	       2.4	5.47746e+07	     72.25	     14.45	       2.4	5.29237e+07	   73.0071	     14.45	       2.4	 4.6627e+07	    72.618	      13.6	       2.4	3.94611e+07	     72.25	    14.025	       2.4	5.35958e+07	   72.6286	     14.45	       2.4	 4.7737e+07	   72.9966	    14.025	       2.4	2.57148e+07	
         R10	   4790	   73.6244	   14.0046	       2.4	5.95085e+07	   74.0485	   13.9948	       2.4	1.64415e+08	   74.0485	      13.6	       2.4	1.39964e+08	   73.5855	      13.6	       2.4	4.95458e+07	   73.8364	   13.9997	       2.4	1.09836e+08	   74.0485	   13.7974	       2.4	3.36319e+07	    73.817	      13.6	       2.4	9.19057e+07	   73.6049	   13.8023	       2.4	2.73123e+07	
         R10	   4791	   73.6244	   14.0046	       2.4	5.63012e+07	   73.5855	      13.6	       2.4	4.81531e+07	    72.986	      13.6	       2.4	5.08199e+07	   73.0071	     14.45	       2.4	 6.2902e+07	   73.6049	   13.8023	       2.4	2.60386e+07	   73.2857	      13.6	       2.4	4.59488e+07	   72.9966	    14.025	       2.4	2.86369e+07	   73.3158	   14.2273	       2.4	5.27851e+07	
         R10	   4792	    74.375	   14.1802	       2.4	8.27357e+07	    74.375	   13.8968	       2.4	1.09022e+08	   74.0485	   13.9948	       2.4	  1.054e+08	    74.375	   14.0385	       2.4	9.18638e+07	   74.2117	   13.9458	       2.4	9.41972e+07	   74.2117	   14.0875	       2.4	9.04625e+07	       N/A	       N/A	       N/A	        N/A	       N/A	       N/A	       N/A	        N/A	
         R10	   4793	   73.0071	     14.45	       2.4	5.49968e+07	   73.6137	     14.45	       2.4	2.57933e+07	   73.6244	   14.0046	       2.4	4.95984e+07	   73.3104	     14.45	       2.4	4.02172e+07	    73.619	   14.2273	       2.4	3.47277e+07	   73.3158	   14.2273	       2.4	4.95655e+07	       N/A	       N/A	       N/A	        N/A	       N/A	       N/A	       N/A	        N/A	
         R10	   4794	    74.375	   14.7333	       2.4	7.56566e+07	    74.375	     14.45	       2.4	1.09302e+08	   74.0696	     14.45	       2.4	1.05949e+08	   74.0613	   14.8363	       2.4	 1.2589e+08	    74.375	   14.5917	       2.4	3.22942e+07	   74.2223	     14.45	       2.4	1.07439e+08	   74.0655	   14.6432	       2.4	3.45983e+07	   74.2181	   14.7848	       2.4	8.52844e+07	
         R10	   4795	   74.0696	      15.3	       2.4	1.44556e+08	    74.375	      15.3	       2.4	1.40743e+08	    74.375	   15.0167	       2.4	5.28446e+07	   74.0613	   14.8363	       2.4	1.65905e+08	   74.2223	      15.3	       2.4	1.40511e+08	    74.375	   15.1583	       2.4	4.88019e+07	   74.2181	   14.9265	       2.4	1.04845e+08	   74.0655	   15.0682	       2.4	4.72928e+07	
         R10	   4796	   73.6137	      15.3	       2.4	 6.4979e+07	   74.0696	      15.3	       2.4	1.43128e+08	   74.0613	   14.8363	       2.4	1.58664e+08	   73.6403	   14.8382	       2.4	4.28317e+07	   73.8416	      15.3	       2.4	 1.0307e+08	   74.0655	   15.0682	       2.4	3.92417e+07	   73.8508	   14.8372	       2.4	9.84085e+07	    73.627	   15.0691	       2.4	1.55286e+07	
         R10	   4797	   73.0071	     14.45	       2.4	5.22846e+07	     72.25	     14.45	       2.4	5.95862e+07	     72.25	      15.3	       2.4	3.42246e+07	   73.0071	      15.3	       2.4	2.26599e+07	   72.6286	     14.45	       2.4	4.49245e+07	     72.25	    14.875	       2.4	4.16814e+07	   72.6286	      15.3	       2.4	1.78293e+07	   73.0071	    14.875	       2.4	2.63044e+07	
         R10	   4798	   73.6403	   14.8382	       2.4	7.41198e+07	   74.0613	   14.8363	       2.4	1.17854e+08	   74.0696	     14.45	       2.4	1.09162e+08	   73.6137	     14.45	       2.4	5.16397e+07	   73.8508	   14.8372	       2.4	9.21859e+07	   74.0655	   14.6432	       2.4	3.66658e+07	   73.8416	     14.45	       2.4	7.91805e+07	    73.627	   14.6441	       2.4	3.08392e+07	
         R10	   4799	   73.0071	     14.45	       2.4	3.99377e+07	   73.0071	      15.3	       2.4	2.75439e+07	   73.6137	      15.3	       2.4	5.77322e+07	   73.6403	   14.8382	       2.4	4.84137e+07	   73.0071	    14.875	       2.4	 2.0599e+07	   73.3104	      15.3	       2.4	3.92483e+07	    73.627	   15.0691	       2.4	2.13501e+07	   73.3237	   14.6441	       2.4	4.21105e+07	
         R10	   4800	    74.375	   15.0167	       2.4	1.06394e+08	    74.375	   14.7333	       2.4	7.66089e+07	   74.0613	   14.8363	       2.4	9.51655e+07	    74.375	    14.875	       2.4	8.85569e+07	   74.2181	   14.7848	       2.4	7.62521e+07	   74.2181	   14.9265	       2.4	9.78712e+07	       N/A	       N/A	       N/A	        N/A	       N/A	       N/A	       N/A	        N/A	
         R10	   4801	   73.6403	   14.8382	       2.4	8.11926e+07	   73.6137	     14.45	       2.4	 4.8399e+07	   73.0071	     14.45	       2.4	 3.6022e+07	    73.627	   14.6441	       2.4	3.32046e+07	   73.3104	     14.45	       2.4	3.51701e+07	   73.3237	   14.6441	       2.4	5.25266e+07	       N/A	       N/A	       N/A	        N/A	       N/A	       N/A	       N/A	        N/A	
         R10	   4802	   73.0267	        19	         6	2.38951e+07	     72.25	        19	         6	1.65131e+07	     72.25	        19	      6.85	 4.7316e+07	   73.1325	        19	      6.85	3.67271e+07	   72.6383	        19	         6	1.89031e+07	     72.25	        19	     6.425	3.05641e+07	   72.6913	        19	      6.85	 2.4677e+07	   73.0796	        19	     6.425	1.29332e+07	
         R10	   4803	   73.7468	        19	         6	2.40889e+07	   73.0267	        19	         6	 2.3406e+07	   73.1325	        19	      6.85	 2.1855e+07	   73.9454	        19	      6.85	 2.0683e+07	   73.3867	        19	         6	2.07362e+07	   73.0796	        19	     6.425	1.55888e+07	    73.539	        19	      6.85	2.05981e+07	   73.8461	        19	     6.425	3.82926e+06	
         R10	   4804	   74.4105	        19	         6	2.53954e+07	   73.7468	        19	         6	2.75231e+07	   73.9454	        19	      6.85	2.28512e+07	   74.6886	        19	      6.85	2.18903e+07	   74.0786	        19	         6	2.62519e+07	   73.8461	        19	     6.425	6.73668e+06	    74.317	        19	      6.85	2.23693e+07	   74.5495	        19	     6.425	3.44028e+06	
         R10	   4805	   75.0176	        19	         6	1.85757e+07	   74.4105	        19	         6	2.84666e+07	   74.6886	        19	      6.85	2.25092e+07	   75.3621	        19	      6.85	2.03957e+07	    74.714	        19	         6	2.32546e+07	   74.5495	        19	     6.425	 5.5088e+06	   75.0253	        19	      6.85	2.12013e+07	   75.1898	        19	     6.425	8.27825e+06	
         R10	   4806	   75.9659	        19	      6.85	8.68011e+07	      76.5	        19	      6.85	  4.852e+07	      76.5	        19	   6.40476	1.03372e+08	    76.075	        19	   6.40476	1.59662e+08	   76.2329	        19	      6.85	4.40664e+07	      76.5	        19	   6.62738	3.03123e+07	   76.2875	        19	   6.40476	5.36286e+07	   76.0204	        19	   6.62738	6.62048e+07	
         R10	   4807	    76.075	        19	   6.40476	2.03725e+08	      76.5	        19	   6.40476	 1.3597e+08	      76.5	        19	         6	4.44413e+07	   76.0624	        19	         6	1.43359e+08	   76.2875	        19	   6.40476	 1.0696e+08	      76.5	        19	   6.20238	 8.1658e+07	   76.2812	        19	         6	6.20407e+07	   76.0687	        19	   6.20238	7.44539e+07	
         R10	   4808	   75.6684	        19	   6.41825	9.37858e+07	    76.075	        19	   6.40476	1.50481e+08	   76.0624	        19	         6	1.27689e+08	   75.5682	        19	         6	6.32717e+07	   75.8717	        19	   6.41151	1.16353e+08	   76.0687	        19	   6.20238	2.48315e+07	   75.8153	        19	         6	9.41166e+07	   75.6183	        19	   6.20913	3.14276e+07	
         R10	   4809	   75.6684	        19	   6.41825	6.42787e+07	   75.5682	        19	         6	5.10843e+07	   75.0176	        19	         6	1.81642e+07	   75.3621	        19	      6.85	1.98807e+07	   75.6183	        19	   6.20913	8.60232e+06	   75.2929	        19	         6	3.11628e+07	   75.1898	        19	     6.425	9.09564e+06	   75.5152	        19	   6.63413	4.09119e+07	
         R10	   4810	   75.6684	        19	   6.41825	6.11033e+07	   75.3621	        19	      6.85	1.37866e+07	   75.9659	        19	      6.85	7.43578e+07	    76.075	        19	   6.40476	1.27093e+08	   75.5152	        19	   6.63413	3.43703e+07	    75.664	        19	      6.85	3.46288e+07	   76.0204	        19	   6.62738	   3.26e+07	   75.8717	        19	   6.41151	8.66934e+07	
         R10	   4811	   77.0003	        19	         6	1.59304e+08	      76.5	        19	         6	3.94318e+07	      76.5	        19	   6.40476	1.11396e+08	   76.9749	        19	   6.42239	1.89726e+08	   76.7502	        19	         6	6.63633e+07	      76.5	        19	   6.20238	6.97008e+07	   76.7374	        19	   6.41357	1.11306e+08	   76.9876	        19	   6.21119	5.86917e+07	
         R10	   4812	   76.9749	        19	   6.42239	 1.3249e+08	      76.5	        19	   6.40476	8.25998e+07	      76.5	        19	      6.85	5.03256e+07	   77.0003	        19	      6.85	8.51714e+07	   76.7374	        19	   6.41357	5.05329e+07	      76.5	        19	   6.62738	2.20312e+07	   76.7502	        19	      6.85	4.40839e+07	   76.9876	        19	   6.63619	5.51728e+07	
         R10	   4813	   77.5295	        19	   6.42289	1.46689e+08	   76.9749	        19	   6.42239	9.84234e+07	   77.0003	        19	      6.85	8.20844e+07	   77.5212	        19	      6.85	1.11578e+08	   77.2522	        19	   6.42264	1.21006e+08	   76.9876	        19	   6.63619	1.47166e+07	   77.2608	        19	      6.85	9.58665e+07	   77.5254	        19	   6.63644	2.24993e+07	
         R10	   4814	   78.0628	        19	      6.85	 1.0946e+08	    78.625	        19	      6.85	  2.488e+07	    78.625	        19	   6.40476	2.51715e+07	    78.064	        19	   6.42246	1.44097e+08	   78.3439	        19	      6.85	5.48238e+07	    78.625	        19	   6.62738	2.27625e+07	   78.3445	        19	   6.41361	7.08334e+07	   78.0634	        19	   6.63623	2.86595e+07	
         R10	   4815	    78.064	        19	   6.42246	1.32587e+08	    78.625	        19	   6.40476	5.93455e+07	    78.625	        19	         6	6.32904e+07	   78.0628	        19	         6	1.51433e+08	   78.3445	        19	   6.41361	8.89927e+07	    78.625	        19	   6.20238	2.18428e+07	   78.3439	        19	         6	1.07318e+08	   78.0634	        19	   6.21123	3.60903e+07	
         R10	   4816	   77.5212	        19	         6	1.37216e+08	   77.0003	        19	         6	1.45935e+08	   76.9749	        19	   6.42239	1.63816e+08	   77.5295	        19	   6.42289	 1.2568e+08	   77.2608	        19	         6	1.41484e+08	   76.9876	        19	   6.21119	2.12572e+07	   77.2522	        19	   6.42264	1.44282e+08	   77.5254	        19	   6.21144	 1.6772e+07	
         R10	   4817	   77.5295	        19	   6.42289	1.43696e+08	   77.5212	        19	      6.85	1.11779e+08	   78.0628	        19	      6.85	1.09045e+08	    78.064	        19	   6.42246	 1.3764e+08	   77.5254	        19	   6.63644	1.70215e+07	    77.792	        19	      6.85	1.10244e+08	   78.0634	        19	   6.63623	1.61516e+07	   77.7967	        19	   6.42267	1.40374e+08	
         R10	   4818	   77.5212	        19	         6	1.36025e+08	   77.5295	        19	   6.42289	1.23411e+08	    78.064	        19	   6.42246	1.23556e+08	   78.0628	        19	         6	1.50689e+08	   77.5254	        19	   6.21144	1.45254e+07	   77.7967	        19	   6.42267	1.23318e+08	   78.0634	        19	   6.21123	1.85821e+07	    77.792	        19	         6	1.43186e+08	
         R10	   4819	   73.0346	        19	       9.4	3.60445e+07	     72.25	        19	       9.4	2.67777e+07	     72.25	        19	     10.25	1.33332e+07	   73.1513	        19	     10.25	1.26969e+07	   72.6423	        19	       9.4	2.47899e+07	     72.25	        19	     9.825	1.16668e+07	   72.7007	        19	     10.25	1.29817e+07	    73.093	        19	     9.825	2.18389e+07	
         R10	   4820	   73.7887	        19	       9.4	1.68972e+07	   73.0346	        19	       9.4	2.29974e+07	   73.1513	        19	     10.25	1.36255e+07	    74.027	        19	     10.25	2.66686e+07	   73.4117	        19	       9.4	1.79655e+07	    73.093	        19	     9.825	1.75405e+07	   73.5891	        19	     10.25	1.72015e+07	   73.9078	        19	     9.825	1.27948e+07	
         R10	   4821	   74.5123	        19	       9.4	1.67443e+07	   73.7887	        19	       9.4	1.62152e+07	    74.027	        19	     10.25	2.27747e+07	    74.877	        19	     10.25	2.37827e+07	   74.1505	        19	       9.4	1.53501e+07	   73.9078	        19	     9.825	1.14353e+07	    74.452	        19	     10.25	2.30724e+07	   74.6946	        19	     9.825	1.34522e+07	
         R10	   4822	   75.2054	        19	       9.4	2.14516e+07	   74.5123	        19	       9.4	  1.426e+07	    74.877	        19	     10.25	2.58897e+07	   75.7013	        19	     10.25	1.97336e+07	   74.8588	        19	       9.4	1.52781e+07	   74.6946	        19	     9.825	1.26583e+07	   75.2892	        19	     10.25	2.19389e+07	   75.4534	        19	     9.825	1.93475e+07	
         R10	   4823	   75.7013	        19	     10.25	1.41906e+07	      76.5	        19	     10.25	1.40983e+07	      76.5	        19	       9.4	 3.1164e+07	   75.8679	        19	       9.4	3.20586e+07	   76.1007	        19	     10.25	1.41022e+07	      76.5	        19	     9.825	1.52213e+07	    76.184	        19	       9.4	2.82053e+07	   75.7846	        19	     9.825	2.09895e+07	
         R10	   4824	   75.2054	        19	       9.4	2.53142e+07	   75.7013	        19	     10.25	8.06921e+06	   75.8679	        19	       9.4	3.37274e+07	   75.4534	        19	     9.825	1.50991e+07	   75.7846	        19	     9.825	1.98446e+07	   75.5367	        19	       9.4	2.88878e+07	       N/A	       N/A	       N/A	        N/A	       N/A	       N/A	       N/A	        N/A	
         R10	   4825	   77.1671	        19	       9.4	3.13305e+07	      76.5	        19	       9.4	3.24942e+07	      76.5	        19	     10.25	9.60733e+06	   77.1671	        19	     10.25	1.01081e+07	   76.8335	        19	       9.4	2.79382e+07	      76.5	        19	     9.825	1.56036e+07	   76.8335	        19	     10.25	9.62806e+06	   77.1671	        19	     9.825	1.72665e+07	
         R10	   4826	   77.8754	        19	       9.4	2.20199e+07	   77.1671	        19	       9.4	3.28494e+07	   77.1671	        19	     10.25	6.50617e+06	   77.8754	        19	     10.25	 2.0323e+07	   77.5212	        19	       9.4	2.59461e+07	   77.1671	        19	     9.825	1.75607e+07	   77.5212	        19	     10.25	1.34012e+07	   77.8754	        19	     9.825	1.38941e+07	
         R10	   4827	    78.625	        19	       9.4	1.14686e+07	   77.8754	        19	       9.4	2.40249e+07	   77.8754	        19	     10.25	2.03842e+07	    78.625	        19	     10.25	3.23716e+07	   78.2502	        19	       9.4	1.52839e+07	   77.8754	        19	     9.825	1.52134e+07	   78.2502	        19	     10.25	2.63569e+07	    78.625	        19	     9.825	1.48163e+07	
         R10	   4828	   75.8449	   17.2941	         0	9.83833e+07	   75.8555	      16.9	         0	7.18509e+07	   75.4288	      16.9	         0	6.37697e+07	   75.4207	   17.3463	         0	1.00457e+08	   75.8502	   17.0971	         0	3.52749e+07	   75.6422	      16.9	         0	6.76636e+07	   75.4247	   17.1232	         0	3.06453e+07	   75.6328	   17.3202	         0	9.93854e+07	
         R10	   4829	   76.2026	   17.2427	         0	6.39296e+07	   76.2126	      16.9	         0	  5.181e+07	   75.8555	      16.9	         0	7.06118e+07	   75.8449	   17.2941	         0	9.96041e+07	   76.2076	   17.0714	         0	 4.2487e+07	   76.0341	      16.9	         0	5.83231e+07	   75.8502	   17.0971	         0	3.37517e+07	   76.0237	   17.2684	         0	8.05672e+07	
         R10	   4830	      76.5	    17.154	         0	1.30641e+08	      76.5	      16.9	         0	9.62106e+07	   76.2126	      16.9	         0	5.85456e+07	   76.2026	   17.2427	         0	6.16414e+07	      76.5	    17.027	         0	1.05451e+08	   76.3563	      16.9	         0	6.67112e+07	   76.2076	   17.0714	         0	3.02297e+07	   76.3513	   17.1984	         0	 6.4226e+07	
         R10	   4831	   76.1922	      17.7	         0	5.15917e+07	      76.5	      17.7	         0	1.00551e+08	      76.5	   17.4206	         0	1.12624e+08	   76.2026	   17.2427	         0	6.44153e+07	   76.3461	      17.7	         0	6.64728e+07	      76.5	   17.5603	         0	 9.4812e+07	   76.3513	   17.3317	         0	 5.7675e+07	   76.1974	   17.4714	         0	3.32207e+07	
         R10	   4832	   75.8205	      17.7	         0	6.46764e+07	   76.1922	      17.7	         0	4.78652e+07	   76.2026	   17.2427	         0	6.65108e+07	   75.8449	   17.2941	         0	9.90236e+07	   76.0064	      17.7	         0	 5.2016e+07	   76.1974	   17.4714	         0	 4.6397e+07	   76.0237	   17.2684	         0	 8.1976e+07	   75.8327	   17.4971	         0	3.58942e+07	
         R10	   4833	    75.385	      17.7	         0	7.69823e+07	   75.8205	      17.7	         0	6.55259e+07	   75.8449	   17.2941	         0	9.90493e+07	   75.4207	   17.3463	         0	1.01311e+08	   75.6028	      17.7	         0	7.07732e+07	   75.8327	   17.4971	         0	3.53116e+07	   75.6328	   17.3202	         0	1.00086e+08	   75.4028	   17.5232	         0	2.63473e+07	
         R10	   4834	   74.8857	      17.7	         0	2.43261e+07	    75.385	      17.7	         0	7.62853e+07	   75.4207	   17.3463	         0	1.01535e+08	   74.9614	   17.3293	         0	4.02364e+07	   75.1354	      17.7	         0	4.34938e+07	   75.4028	   17.5232	         0	2.61361e+07	    75.191	   17.3378	         0	6.66707e+07	   74.9235	   17.5147	         0	2.94821e+07	
         R10	   4835	   73.0251	      16.9	         0	4.38537e+07	     72.25	      16.9	         0	6.28501e+07	     72.25	      17.7	         0	6.22092e+07	   73.0047	      17.7	         0	4.37862e+07	   72.6376	      16.9	         0	5.08583e+07	     72.25	      17.3	         0	6.24839e+07	   72.6273	      17.7	         0	 5.1564e+07	   73.0149	      17.3	         0	3.91697e+07	
         R10	   4836	   73.7305	      16.9	         0	2.43648e+07	   73.0251	      16.9	         0	4.03139e+07	   73.0047	      17.7	         0	3.94472e+07	   73.6955	      17.7	         0	2.49527e+07	   73.3778	      16.9	         0	3.18305e+07	   73.0149	      17.3	         0	3.57896e+07	   73.3501	      17.7	         0	3.17834e+07	    73.713	      17.3	         0	2.37013e+07	
         R10	   4837	   74.3663	      16.9	         0	2.09398e+07	   73.7305	      16.9	         0	2.53567e+07	   73.6955	      17.7	         0	2.55806e+07	   74.3225	      17.7	         0	1.86049e+07	   74.0484	      16.9	         0	2.28952e+07	    73.713	      17.3	         0	 2.4418e+07	    74.009	      17.7	         0	2.19439e+07	   74.3444	      17.3	         0	1.96973e+07	
         R10	   4838	   74.9614	   17.3293	         0	6.61551e+07	   75.4207	   17.3463	         0	9.93455e+07	   75.4288	      16.9	         0	6.56778e+07	   74.9324	      16.9	         0	2.75637e+07	    75.191	   17.3378	         0	8.10299e+07	   75.4247	   17.1232	         0	2.80532e+07	   75.1806	      16.9	         0	4.64304e+07	   74.9469	   17.1147	         0	3.02118e+07	
         R10	   4839	   74.3225	      17.7	         0	1.98104e+07	   74.8857	      17.7	         0	1.93082e+07	   74.9614	   17.3293	         0	 3.9397e+07	   74.3663	      16.9	         0	 2.1188e+07	   74.6041	      17.7	         0	1.72811e+07	   74.9235	   17.5147	         0	2.77922e+07	   74.6638	   17.1147	         0	2.99739e+07	   74.3444	      17.3	         0	  2.048e+07	
         R10	   4840	      76.5	   17.4206	         0	1.10565e+08	      76.5	    17.154	         0	1.24734e+08	   76.2026	   17.2427	         0	1.73061e+07	      76.5	   17.2873	         0	 1.1758e+08	   76.3513	   17.1984	         0	5.89184e+07	   76.3513	   17.3317	         0	5.16691e+07	       N/A	       N/A	       N/A	        N/A	       N/A	       N/A	       N/A	        N/A	
         R10	   4841	   74.9614	   17.3293	         0	6.49817e+07	   74.9324	      16.9	         0	2.57799e+07	   74.3663	      16.9	         0	1.12598e+07	   74.9469	   17.1147	         0	2.61487e+07	   74.6493	      16.9	         0	1.41994e+07	   74.6638	   17.1147	         0	3.59313e+07	       N/A	       N/A	       N/A	        N/A	       N/A	       N/A	       N/A	        N/A	
         R10	   4842	   75.7788	   18.0966	         0	1.08226e+08	   75.8205	      17.7	         0	7.52738e+07	    75.385	      17.7	         0	8.06089e+07	   75.3746	   18.0918	         0	1.18775e+08	   75.7997	   17.8983	         0	3.38865e+07	   75.6028	      17.7	         0	 7.7638e+07	   75.3798	   17.8959	         0	2.95457e+07	   75.5767	   18.0942	         0	1.13381e+08	
         R10	   4843	   76.1524	    18.104	         0	8.41937e+07	   76.1922	      17.7	         0	5.69912e+07	   75.8205	      17.7	         0	7.42456e+07	   75.7788	   18.0966	         0	1.10161e+08	   76.1723	    17.902	         0	4.85788e+07	   76.0064	      17.7	         0	6.36759e+07	   75.7997	   17.8983	         0	 3.5488e+07	   75.9656	   18.1003	         0	 9.5756e+07	
         R10	   4844	      76.5	    18.081	         0	1.23801e+08	      76.5	      17.7	         0	8.34732e+07	   76.1922	      17.7	         0	5.95248e+07	   76.1524	    18.104	         0	8.06229e+07	      76.5	   17.8905	         0	1.02096e+08	   76.3461	      17.7	         0	 6.3999e+07	   76.1723	    17.902	         0	2.86195e+07	   76.3262	   18.0925	         0	6.57912e+07	
         R10	   4845	   76.1354	      18.5	         0	5.96393e+07	      76.5	      18.5	         0	  9.024e+07	      76.5	    18.081	         0	1.26365e+08	   76.1524	    18.104	         0	7.37101e+07	   76.3177	      18.5	         0	6.45555e+07	      76.5	   18.2905	         0	1.03368e+08	   76.3262	   18.0925	         0	6.13689e+07	   76.1439	    18.302	         0	2.52424e+07	
         R10	   4846	   75.7574	      18.5	         0	7.74814e+07	   76.1354	      18.5	         0	5.42801e+07	   76.1524	    18.104	         0	8.15224e+07	   75.7788	   18.0966	         0	1.11687e+08	   75.9464	      18.5	         0	6.35751e+07	   76.1439	    18.302	         0	 4.7269e+07	   75.9656	   18.1003	         0	9.53203e+07	   75.7681	   18.2983	         0	3.41712e+07	
         R10	   4847	   75.3659	      18.5	         0	8.35436e+07	   75.7574	      18.5	         0	 7.8633e+07	   75.7788	   18.0966	         0	 1.0982e+08	   75.3746	   18.0918	         0	 1.1575e+08	   75.5617	      18.5	         0	8.08705e+07	   75.7681	   18.2983	         0	3.26909e+07	   75.5767	   18.0942	         0	1.12625e+08	   75.3703	   18.2959	         0	 3.0012e+07	
         R10	   4848	   74.9611	      18.5	         0	 7.8039e+07	   75.3659	      18.5	         0	8.38519e+07	   75.3746	   18.0918	         0	1.15424e+08	   74.9337	   18.0885	         0	1.11139e+08	   75.1635	      18.5	         0	8.08983e+07	   75.3703	   18.2959	         0	3.02887e+07	   75.1542	   18.0901	         0	1.12121e+08	   74.9474	   18.2942	         0	2.27385e+07	
         R10	   4849	   74.5876	   18.1275	         0	6.97939e+07	   74.5428	      18.5	         0	3.55558e+07	   74.9611	      18.5	         0	7.96889e+07	   74.9337	   18.0885	         0	1.11183e+08	   74.5652	   18.3138	         0	2.92156e+07	   74.7519	      18.5	         0	5.66875e+07	   74.9474	   18.2942	         0	2.63682e+07	   74.7607	    18.108	         0	8.74622e+07	
         R10	   4850	   73.0047	      17.7	         0	4.32438e+07	     72.25	      17.7	         0	 6.1728e+07	     72.25	      18.5	         0	6.56026e+07	   72.7354	      18.5	         0	4.72376e+07	   72.6273	      17.7	         0	5.11343e+07	     72.25	      18.1	         0	6.36626e+07	   72.4927	      18.5	         0	5.49191e+07	     72.87	      18.1	         0	 4.0925e+07	
         R10	   4851	   73.6955	      17.7	         0	2.51945e+07	   73.0047	      17.7	         0	4.03931e+07	   72.7354	      18.5	         0	4.77441e+07	   73.2074	      18.5	         0	3.33172e+07	   73.3501	      17.7	         0	3.23589e+07	     72.87	      18.1	         0	 3.9977e+07	   72.9714	      18.5	         0	4.04162e+07	   73.4515	      18.1	         0	2.74767e+07	
         R10	   4852	   74.9337	   18.0885	         0	9.41912e+07	   75.3746	   18.0918	         0	1.20146e+08	    75.385	      17.7	         0	8.03575e+07	   74.8857	      17.7	         0	6.27672e+07	   75.1542	   18.0901	         0	1.06281e+08	   75.3798	   17.8959	         0	3.19307e+07	   75.1354	      17.7	         0	7.14946e+07	   74.9097	   17.8942	         0	 1.8313e+07	
         R10	   4853	   74.5876	   18.1275	         0	3.31192e+07	   74.9337	   18.0885	         0	1.02034e+08	   74.8857	      17.7	         0	6.04088e+07	   74.3225	      17.7	         0	2.25197e+07	   74.7607	    18.108	         0	6.65276e+07	   74.9097	   17.8942	         0	3.01301e+07	   74.6041	      17.7	         0	2.80562e+07	   74.4551	   17.9138	         0	2.55417e+07	
         R10	   4854	   74.1111	      18.5	         0	2.27532e+07	   74.5428	      18.5	         0	2.89123e+07	   74.5876	   18.1275	         0	6.90234e+07	   74.3225	      17.7	         0	3.01442e+07	   74.3269	      18.5	         0	1.64405e+07	   74.5652	   18.3138	         0	3.55788e+07	   74.4551	   17.9138	         0	4.87227e+07	   74.2168	      18.1	         0	2.53654e+07	
         R10	   4855	   73.6659	      18.5	         0	2.56243e+07	   74.1111	      18.5	         0	1.96471e+07	   74.3225	      17.7	         0	2.29733e+07	   73.6955	      17.7	         0	2.53095e+07	   73.8885	      18.5	         0	2.24793e+07	   74.2168	      18.1	         0	2.11835e+07	    74.009	      17.7	         0	2.37029e+07	   73.6807	      18.1	         0	2.44841e+07	
         R10	   4856	   73.6659	      18.5	         0	2.49511e+07	   73.6955	      17.7	         0	2.74607e+07	   73.2074	      18.5	         0	 3.2579e+07	   73.6807	      18.1	         0	2.51693e+07	   73.4515	      18.1	         0	2.87468e+07	   73.4367	      18.5	         0	2.86112e+07	       N/A	       N/A	       N/A	        N/A	       N/A	       N/A	       N/A	        N/A	
         R10	   4857	   73.1549	   18.8955	         0	1.18661e+08	   73.2074	      18.5	         0	8.28009e+07	   72.7354	      18.5	         0	7.36938e+07	   72.7044	   18.8941	         0	1.18366e+08	   73.1811	   18.6978	         0	2.85846e+07	   72.9714	      18.5	         0	7.75242e+07	   72.7199	    18.697	         0	5.62714e+07	   72.9297	   18.8948	         0	1.15077e+08	
         R10	   4858	   73.5985	    18.897	         0	1.23359e+08	   73.6659	      18.5	         0	8.86134e+07	   73.2074	      18.5	         0	8.34832e+07	   73.1549	   18.8955	         0	 1.2045e+08	   73.6322	   18.6985	         0	2.72939e+07	   73.4367	      18.5	         0	 8.5858e+07	   73.1811	   18.6978	         0	3.74453e+07	   73.3767	   18.8962	         0	1.21617e+08	
         R10	   4859	   74.0346	   18.8985	         0	1.23651e+08	   74.1111	      18.5	         0	9.04551e+07	   73.6659	      18.5	         0	8.85369e+07	   73.5985	    18.897	         0	1.21451e+08	   74.0728	   18.6992	         0	2.27896e+07	   73.8885	      18.5	         0	8.93872e+07	   73.6322	   18.6985	         0	2.58691e+07	   73.8165	   18.8977	         0	1.22536e+08	
         R10	   4860	   74.4629	      18.9	         0	1.22828e+08	   74.5428	      18.5	         0	8.57673e+07	   74.1111	      18.5	         0	9.03727e+07	   74.0346	   18.8985	         0	1.22259e+08	   74.5028	      18.7	         0	2.34042e+07	   74.3269	      18.5	         0	8.80663e+07	   74.0728	   18.6992	         0	2.12436e+07	   74.2487	   18.8992	         0	1.22529e+08	
         R10	   4861	   74.8836	   18.9016	         0	1.24684e+08	   74.9611	      18.5	         0	8.61779e+07	   74.5428	      18.5	         0	8.62603e+07	   74.4629	      18.9	         0	1.20459e+08	   74.9223	   18.7008	         0	 2.5241e+07	   74.7519	      18.5	         0	8.61949e+07	   74.5028	      18.7	         0	2.13065e+07	   74.6732	   18.9008	         0	1.22548e+08	
         R10	   4862	   75.2968	   18.9033	         0	1.24263e+08	   75.3659	      18.5	         0	8.36638e+07	   74.9611	      18.5	         0	8.56581e+07	   74.8836	   18.9016	         0	1.23145e+08	   75.3314	   18.7016	         0	2.90709e+07	   75.1635	      18.5	         0	8.45896e+07	   74.9223	   18.7008	         0	2.49005e+07	   75.0902	   18.9025	         0	1.23676e+08	
         R10	   4863	    75.703	    18.905	         0	1.15997e+08	   75.7574	      18.5	         0	7.65306e+07	   75.3659	      18.5	         0	8.36758e+07	   75.2968	   18.9033	         0	1.23759e+08	   75.7302	   18.7025	         0	3.42894e+07	   75.5617	      18.5	         0	7.98473e+07	   75.3314	   18.7016	         0	 3.1629e+07	   75.4999	   18.9041	         0	1.19788e+08	
         R10	   4864	   76.1029	   18.9068	         0	9.74627e+07	   76.1354	      18.5	         0	5.85748e+07	   75.7574	      18.5	         0	7.50977e+07	    75.703	    18.905	         0	1.15984e+08	   76.1191	   18.7034	         0	4.99547e+07	   75.9464	      18.5	         0	6.52746e+07	   75.7302	   18.7025	         0	3.53061e+07	   75.9029	   18.9059	         0	1.05922e+08	
         R10	   4865	      76.5	    18.862	         0	1.28144e+08	      76.5	      18.5	         0	9.02891e+07	   76.1354	      18.5	         0	6.28055e+07	   76.1029	   18.9068	         0	9.83701e+07	      76.5	    18.681	         0	1.05951e+08	   76.3177	      18.5	         0	6.35853e+07	   76.1191	   18.7034	         0	2.96071e+07	   76.3014	   18.8844	         0	6.86994e+07	
         R10	   4866	   76.0751	      19.3	         0	5.93972e+07	      76.5	      19.3	         0	8.10875e+07	      76.5	    18.862	         0	1.30744e+08	   76.1029	   18.9068	         0	 8.8043e+07	   76.2875	      19.3	         0	5.76091e+07	      76.5	    19.081	         0	9.82041e+07	   76.3014	   18.8844	         0	6.19415e+07	    76.089	   19.1034	         0	 3.1969e+07	
         R10	   4867	   75.6501	      19.3	         0	5.75083e+07	   76.0751	      19.3	         0	4.81653e+07	   76.1029	   18.9068	         0	9.49619e+07	    75.703	    18.905	         0	1.20849e+08	   75.8626	      19.3	         0	5.15389e+07	    76.089	   19.1034	         0	4.90431e+07	   75.9029	   18.9059	         0	1.06747e+08	   75.6765	   19.1025	         0	4.28073e+07	
         R10	   4868	   75.2251	      19.3	         0	5.08975e+07	   75.6501	      19.3	         0	5.78832e+07	    75.703	    18.905	         0	1.22742e+08	   75.2968	   18.9033	         0	1.24649e+08	   75.4376	      19.3	         0	5.43355e+07	   75.6765	   19.1025	         0	4.32714e+07	   75.4999	   18.9041	         0	1.23587e+08	    75.261	   19.1016	         0	4.48318e+07	
         R10	   4869	   74.8001	      19.3	         0	 4.2998e+07	   75.2251	      19.3	         0	5.09888e+07	   75.2968	   18.9033	         0	1.26079e+08	   74.8836	   18.9016	         0	1.22113e+08	   75.0126	      19.3	         0	 4.6984e+07	    75.261	   19.1016	         0	4.41891e+07	   75.0902	   18.9025	         0	1.24015e+08	   74.8419	   19.1008	         0	4.44189e+07	
         R10	   4870	   74.3752	      19.3	         0	4.05694e+07	   74.8001	      19.3	         0	 4.3207e+07	   74.8836	   18.9016	         0	1.24179e+08	   74.4629	      18.9	         0	1.22491e+08	   74.5877	      19.3	         0	4.18832e+07	   74.8419	   19.1008	         0	4.54067e+07	   74.6732	   18.9008	         0	1.23242e+08	    74.419	      19.1	         0	 4.4936e+07	
         R10	   4871	   73.9501	      19.3	         0	4.07058e+07	   74.3752	      19.3	         0	4.04955e+07	   74.4629	      18.9	         0	1.24389e+08	   74.0346	   18.8985	         0	1.19778e+08	   74.1627	      19.3	         0	4.05795e+07	    74.419	      19.1	         0	4.62946e+07	   74.2487	   18.8992	         0	1.22011e+08	   73.9924	   19.0992	         0	4.43098e+07	
         R10	   4872	   73.5251	      19.3	         0	4.51345e+07	   73.9501	      19.3	         0	4.07521e+07	   74.0346	   18.8985	         0	1.21833e+08	   73.5985	    18.897	         0	1.17856e+08	   73.7376	      19.3	         0	4.29241e+07	   73.9924	   19.0992	         0	4.59231e+07	   73.8165	   18.8977	         0	1.19768e+08	   73.5618	   19.0985	         0	4.40868e+07	
         R10	   4873	   73.1001	      19.3	         0	5.37443e+07	   73.5251	      19.3	         0	4.52954e+07	   73.5985	    18.897	         0	1.19357e+08	   73.1549	   18.8955	         0	1.17507e+08	   73.3126	      19.3	         0	4.94894e+07	   73.5618	   19.0985	         0	4.48598e+07	   73.3767	   18.8962	         0	1.18027e+08	   73.1275	   19.0978	         0	4.71215e+07	
         R10	   4874	   72.6751	      19.3	         0	5.74864e+07	   73.1001	      19.3	         0	5.24931e+07	   73.1549	   18.8955	         0	1.16164e+08	   72.7044	   18.8941	         0	1.12643e+08	   72.8876	      19.3	         0	5.46577e+07	   73.1275	   19.0978	         0	4.17206e+07	   72.9297	   18.8948	         0	1.10179e+08	   72.6897	    19.097	         0	5.90576e+07	
         R10	   4875	     72.25	    18.919	         0	1.28409e+08	     72.25	      19.3	         0	6.76882e+07	   72.6751	      19.3	         0	6.73559e+07	   72.7044	   18.8941	         0	1.09937e+08	     72.25	   19.1095	         0	9.74914e+07	   72.4625	      19.3	         0	6.07748e+07	   72.6897	    19.097	         0	3.85379e+07	   72.4772	   18.9066	         0	7.08587e+07	
         R10	   4876	     72.25	      18.5	         0	7.30642e+07	     72.25	    18.919	         0	1.28553e+08	   72.7044	   18.8941	         0	1.14058e+08	   72.7354	      18.5	         0	8.09652e+07	     72.25	   18.7095	         0	1.00634e+08	   72.4772	   18.9066	         0	6.97271e+07	   72.7199	    18.697	         0	2.12732e+07	   72.4927	      18.5	         0	6.60781e+07	
         R10	   4877	   77.1016	   17.2275	         0	9.85183e+07	   77.1016	      16.9	         0	8.23014e+07	   76.7875	      16.9	         0	5.35106e+07	   76.7875	   17.2008	         0	6.49078e+07	   77.1016	   17.0637	         0	3.50833e+07	   76.9445	      16.9	         0	6.41737e+07	   76.7875	   17.0504	         0	4.48976e+07	   76.9445	   17.2141	         0	8.04952e+07	
         R10	   4878	   77.4424	   17.2542	         0	9.87132e+07	   77.4424	      16.9	         0	8.63732e+07	   77.1016	      16.9	         0	 8.2458e+07	   77.1016	   17.2275	         0	9.91324e+07	   77.4424	   17.0771	         0	2.48538e+07	    77.272	      16.9	         0	8.41778e+07	   77.1016	   17.0637	         0	3.73677e+07	    77.272	   17.2408	         0	9.85078e+07	
         R10	   4879	   77.8099	   17.2808	         0	1.02604e+08	   77.8099	      16.9	         0	8.35928e+07	   77.4424	      16.9	         0	8.65141e+07	   77.4424	   17.2542	         0	1.00526e+08	   77.8099	   17.0904	         0	2.22863e+07	   77.6262	      16.9	         0	8.49765e+07	   77.4424	   17.0771	         0	2.92829e+07	   77.6262	   17.2675	         0	1.01372e+08	
         R10	   4880	   78.2041	   17.3075	         0	1.10279e+08	   78.2041	      16.9	         0	8.11995e+07	   77.8099	      16.9	         0	8.35811e+07	   77.8099	   17.2808	         0	1.02984e+08	   78.2041	   17.1038	         0	 2.1503e+07	    78.007	      16.9	         0	8.23452e+07	   77.8099	   17.0904	         0	2.30539e+07	    78.007	   17.2942	         0	1.06446e+08	
         R10	   4881	    78.625	    17.281	         0	9.83658e+07	    78.625	      16.9	         0	8.34681e+07	   78.2041	      16.9	         0	8.11633e+07	   78.2041	   17.3075	         0	1.10332e+08	    78.625	   17.0905	         0	1.39601e+07	   78.4146	      16.9	         0	8.23038e+07	   78.2041	   17.1038	         0	2.15658e+07	   78.4146	   17.2942	         0	1.04195e+08	
         R10	   4882	     78.12	      17.7	         0	7.30742e+07	    78.625	      17.7	         0	7.76672e+07	    78.625	    17.281	         0	1.12805e+08	   78.2041	   17.3075	         0	1.03556e+08	   78.3725	      17.7	         0	7.53491e+07	    78.625	   17.4905	         0	2.15772e+07	   78.4146	   17.2942	         0	1.08092e+08	    78.162	   17.5038	         0	2.24239e+07	
         R10	   4883	   77.6549	      17.7	         0	7.08737e+07	     78.12	      17.7	         0	7.29739e+07	   78.2041	   17.3075	         0	1.01641e+08	   77.8099	   17.2808	         0	1.15723e+08	   77.8874	      17.7	         0	7.18106e+07	    78.162	   17.5038	         0	2.23315e+07	    78.007	   17.2942	         0	 1.0864e+08	   77.7324	   17.4904	         0	 3.1052e+07	
         R10	   4884	   77.2299	      17.7	         0	 5.9325e+07	   77.6549	      17.7	         0	6.95087e+07	   77.8099	   17.2808	         0	1.12077e+08	   77.4424	   17.2542	         0	1.08792e+08	   77.4424	      17.7	         0	 6.3906e+07	   77.7324	   17.4904	         0	3.08357e+07	   77.6262	   17.2675	         0	1.10307e+08	   77.3362	   17.4771	         0	4.01419e+07	
         R10	   4885	    76.845	      17.7	         0	4.58943e+07	   77.2299	      17.7	         0	5.58678e+07	   77.4424	   17.2542	         0	1.03713e+08	   77.1016	   17.2275	         0	7.40797e+07	   77.0374	      17.7	         0	4.67328e+07	   77.3362	   17.4771	         0	3.78554e+07	    77.272	   17.2408	         0	8.80346e+07	   76.9733	   17.4637	         0	 4.9111e+07	
         R10	   4886	   76.7875	   17.2008	         0	5.64395e+07	   76.7875	      16.9	         0	6.10758e+07	      76.5	      16.9	         0	1.00784e+08	      76.5	    17.154	         0	9.62046e+07	   76.7875	   17.0504	         0	3.98485e+07	   76.6437	      16.9	         0	7.10795e+07	      76.5	    17.027	         0	9.06373e+07	   76.6437	   17.1774	         0	5.92276e+07	
         R10	   4887	      76.5	   17.4206	         0	1.29747e+08	      76.5	      17.7	         0	1.08032e+08	    76.845	      17.7	         0	6.17041e+07	   76.7108	   17.4405	         0	1.11894e+07	      76.5	   17.5603	         0	1.03344e+08	   76.6725	      17.7	         0	8.24441e+07	   76.7779	   17.5702	         0	3.20968e+07	   76.6054	   17.4306	         0	6.61788e+07	
         R10	   4888	   76.7875	   17.2008	         0	4.42796e+07	      76.5	    17.154	         0	9.84439e+07	      76.5	   17.4206	         0	1.25287e+08	   76.7108	   17.4405	         0	5.64085e+07	   76.6437	   17.1774	         0	6.21686e+07	      76.5	   17.2873	         0	1.11801e+08	   76.6054	   17.4306	         0	 7.4875e+07	   76.7491	   17.3206	         0	3.31256e+07	
         R10	   4889	    76.845	      17.7	         0	3.02835e+07	   77.1016	   17.2275	         0	6.58891e+07	   76.7875	   17.2008	         0	4.29565e+07	   76.7108	   17.4405	         0	1.04051e+08	   76.9733	   17.4637	         0	3.87513e+07	   76.9445	   17.2141	         0	5.42704e+07	   76.7491	   17.3206	         0	6.59646e+07	   76.7779	   17.5702	         0	 6.3074e+07	
         R10	   4890	   77.2677	   18.1007	         0	1.10655e+08	   77.2299	      17.7	         0	7.90496e+07	    76.845	      17.7	         0	6.46792e+07	   76.8722	   18.1008	         0	9.14923e+07	   77.2488	   17.9003	         0	3.41573e+07	   77.0374	      17.7	         0	7.06201e+07	   76.8586	   17.9004	         0	4.91485e+07	     77.07	   18.1008	         0	9.98493e+07	
         R10	   4891	   77.6965	   18.1007	         0	1.16312e+08	   77.6549	      17.7	         0	8.06506e+07	   77.2299	      17.7	         0	8.02994e+07	   77.2677	   18.1007	         0	1.08812e+08	   77.6757	   17.9004	         0	 3.1607e+07	   77.4424	      17.7	         0	 8.0275e+07	   77.2488	   17.9003	         0	3.25967e+07	   77.4821	   18.1007	         0	 1.1249e+08	
         R10	   4892	   78.1546	   18.0984	         0	 1.1135e+08	    78.625	   18.0999	         0	1.01121e+08	    78.625	      17.7	         0	6.52028e+07	     78.12	      17.7	         0	7.61768e+07	   78.3898	   18.0992	         0	1.05952e+08	    78.625	      17.9	         0	2.06142e+07	   78.3725	      17.7	         0	7.06873e+07	   78.1373	   17.8992	         0	2.50611e+07	
         R10	   4893	   78.1396	      18.5	         0	8.28157e+07	    78.625	      18.5	         0	 8.3561e+07	    78.625	   18.0999	         0	1.16999e+08	   78.1546	   18.0984	         0	1.15917e+08	   78.3823	      18.5	         0	8.31703e+07	    78.625	      18.3	         0	1.95731e+07	   78.3898	   18.0992	         0	1.16168e+08	   78.1471	   18.2992	         0	2.45122e+07	
         R10	   4894	   76.8722	   18.1008	         0	8.70764e+07	    76.845	      17.7	         0	6.76103e+07	      76.5	      17.7	         0	8.41734e+07	      76.5	    18.081	         0	  1.201e+08	   76.8586	   17.9004	         0	2.58325e+07	   76.6725	      17.7	         0	 6.5599e+07	      76.5	   17.8905	         0	1.00883e+08	   76.6861	   18.0909	         0	6.59441e+07	
         R10	   4895	   78.1546	   18.0984	         0	1.11229e+08	     78.12	      17.7	         0	7.60287e+07	   77.6549	      17.7	         0	 8.0741e+07	   77.6965	   18.1007	         0	1.13988e+08	   78.1373	   17.8992	         0	2.35891e+07	   77.8874	      17.7	         0	7.83225e+07	   77.6757	   17.9004	         0	2.72916e+07	   77.9256	   18.0995	         0	1.12548e+08	
         R10	   4896	   77.6844	      18.5	         0	8.04857e+07	   78.1396	      18.5	         0	8.29658e+07	   78.1546	   18.0984	         0	1.15397e+08	   77.6965	   18.1007	         0	1.13924e+08	    77.912	      18.5	         0	8.16393e+07	   78.1471	   18.2992	         0	2.33112e+07	   77.9256	   18.0995	         0	1.14646e+08	   77.6905	   18.3004	         0	2.75024e+07	
         R10	   4897	   77.2594	      18.5	         0	7.49495e+07	   77.6844	      18.5	         0	8.05215e+07	   77.6965	   18.1007	         0	 1.1573e+08	   77.2677	   18.1007	         0	1.09295e+08	   77.4719	      18.5	         0	7.74662e+07	   77.6905	   18.3004	         0	 3.1943e+07	   77.4821	   18.1007	         0	 1.1244e+08	   77.2635	   18.3003	         0	3.38263e+07	
         R10	   4898	   76.8646	      18.5	         0	5.39263e+07	   77.2594	      18.5	         0	7.36321e+07	   77.2677	   18.1007	         0	 1.1023e+08	   76.8722	   18.1008	         0	8.31294e+07	    77.062	      18.5	         0	6.13356e+07	   77.2635	   18.3003	         0	3.50049e+07	     77.07	   18.1008	         0	9.53025e+07	   76.8684	   18.3004	         0	4.93762e+07	
         R10	   4899	      76.5	    18.081	         0	1.23855e+08	      76.5	      18.5	         0	9.36728e+07	   76.8646	      18.5	         0	5.87311e+07	   76.8722	   18.1008	         0	7.46381e+07	      76.5	   18.2905	         0	1.04127e+08	   76.6823	      18.5	         0	6.69237e+07	   76.8684	   18.3004	         0	2.61858e+07	   76.6861	   18.0909	         0	5.98402e+07	
         R10	   4900	   77.3144	   18.9018	         0	1.16102e+08	   77.2594	      18.5	         0	  7.648e+07	   76.8646	      18.5	         0	5.99384e+07	   76.9037	   18.9056	         0	9.78317e+07	   77.2869	   18.7009	         0	3.54271e+07	    77.062	      18.5	         0	 6.6559e+07	   76.8841	   18.7028	         0	 5.0953e+07	    77.109	   18.9037	         0	1.06107e+08	
         R10	   4901	    77.739	   18.8982	         0	1.23436e+08	   77.6844	      18.5	         0	8.48963e+07	   77.2594	      18.5	         0	7.81158e+07	   77.3144	   18.9018	         0	1.16271e+08	   77.7117	   18.6991	         0	  3.172e+07	   77.4719	      18.5	         0	8.12295e+07	   77.2869	   18.7009	         0	3.45157e+07	   77.5267	      18.9	         0	1.19733e+08	
         R10	   4902	   78.1778	   18.8949	         0	1.21425e+08	   78.1396	      18.5	         0	8.66051e+07	   77.6844	      18.5	         0	8.51345e+07	    77.739	   18.8982	         0	1.23445e+08	   78.1587	   18.6975	         0	2.44712e+07	    77.912	      18.5	         0	8.57942e+07	   77.7117	   18.6991	         0	2.80464e+07	   77.9584	   18.8966	         0	1.22364e+08	
         R10	   4903	    78.625	    18.919	         0	1.34844e+08	    78.625	      18.5	         0	8.84448e+07	   78.1396	      18.5	         0	8.67164e+07	   78.1778	   18.8949	         0	1.22512e+08	    78.625	   18.7095	         0	2.63863e+07	   78.3823	      18.5	         0	8.75725e+07	   78.1587	   18.6975	         0	2.44637e+07	   78.4014	    18.907	         0	1.28542e+08	
         R10	   4904	   78.1999	      19.3	         0	4.38606e+07	    78.625	      19.3	         0	3.85841e+07	    78.625	    18.919	         0	1.07426e+08	   78.1778	   18.8949	         0	1.23917e+08	   78.4125	      19.3	         0	4.11929e+07	    78.625	   19.1095	         0	3.88595e+07	   78.4014	    18.907	         0	1.15447e+08	   78.1889	   19.0975	         0	4.53266e+07	
         R10	   4905	   77.7749	      19.3	         0	5.15188e+07	   78.1999	      19.3	         0	4.39384e+07	   78.1778	   18.8949	         0	1.22602e+08	    77.739	   18.8982	         0	1.25141e+08	   77.9874	      19.3	         0	4.77228e+07	   78.1889	   19.0975	         0	4.46977e+07	   77.9584	   18.8966	         0	1.23719e+08	   77.7569	   19.0991	         0	4.36503e+07	
         R10	   4906	   77.3499	      19.3	         0	5.89426e+07	   77.7749	      19.3	         0	5.16799e+07	    77.739	   18.8982	         0	1.24437e+08	   77.3144	   18.9018	         0	1.22439e+08	   77.5624	      19.3	         0	5.52634e+07	   77.7569	   19.0991	         0	4.49506e+07	   77.5267	      18.9	         0	1.23283e+08	   77.3322	   19.1009	         0	4.32823e+07	
         R10	   4907	   76.9249	      19.3	         0	4.98709e+07	   77.3499	      19.3	         0	 5.8553e+07	   77.3144	   18.9018	         0	1.20925e+08	   76.9037	   18.9056	         0	9.58715e+07	   77.1374	      19.3	         0	5.29738e+07	   77.3322	   19.1009	         0	4.29385e+07	    77.109	   18.9037	         0	1.07158e+08	   76.9143	   19.1028	         0	4.98075e+07	
         R10	   4908	      76.5	    18.862	         0	 1.2897e+08	      76.5	      19.3	         0	8.31561e+07	   76.9249	      19.3	         0	 6.0608e+07	   76.9037	   18.9056	         0	8.82584e+07	      76.5	    19.081	         0	9.86572e+07	   76.7125	      19.3	         0	5.92917e+07	   76.9143	   19.1028	         0	 3.2345e+07	   76.7018	   18.8838	         0	6.21358e+07	
         R10	   4909	      76.5	      18.5	         0	9.23455e+07	      76.5	    18.862	         0	1.26027e+08	   76.9037	   18.9056	         0	9.76906e+07	   76.8646	      18.5	         0	 6.3266e+07	      76.5	    18.681	         0	1.06108e+08	   76.7018	   18.8838	         0	6.82012e+07	   76.8841	   18.7028	         0	2.93564e+07	   76.6823	      18.5	         0	6.50764e+07	
         R10	   4910	   75.5908	      15.7	         0	8.11333e+07	   75.6206	      15.3	         0	8.37745e+07	   75.2081	      15.3	         0	3.14655e+07	   75.1952	   15.7153	         0	6.57124e+07	   75.6057	      15.5	         0	2.15847e+07	   75.4143	      15.3	         0	5.70576e+07	   75.2016	   15.5077	         0	3.83646e+07	    75.393	   15.7077	         0	6.55592e+07	
         R10	   4911	   75.9485	   15.7047	         0	 9.0509e+07	   75.9734	      15.3	         0	 6.9329e+07	   75.6206	      15.3	         0	7.92648e+07	   75.5908	      15.7	         0	8.25191e+07	    75.961	   15.5023	         0	3.41456e+07	    75.797	      15.3	         0	 7.4227e+07	   75.6057	      15.5	         0	1.73337e+07	   75.7696	   15.7023	         0	8.51627e+07	
         R10	   4912	   76.2628	   15.5326	         0	9.01608e+07	   76.2666	      15.3	         0	3.38907e+07	   75.9734	      15.3	         0	7.43964e+07	   75.9485	   15.7047	         0	1.01492e+08	   76.2647	   15.4163	         0	5.53489e+07	     76.12	      15.3	         0	4.81475e+07	    75.961	   15.5023	         0	2.22114e+07	   76.1056	   15.6187	         0	6.71521e+07	
         R10	   4913	      76.5	    15.554	         0	9.43737e+07	      76.5	      15.3	         0	6.21313e+07	   76.2666	      15.3	         0	4.49138e+07	   76.2628	   15.5326	         0	2.04234e+07	      76.5	    15.427	         0	 7.5035e+07	   76.3833	      15.3	         0	  4.986e+07	   76.2647	   15.4163	         0	2.05589e+07	   76.3814	   15.5433	         0	4.50209e+07	
         R10	   4914	      76.5	   15.8206	         0	1.15921e+08	      76.5	    15.554	         0	9.83851e+07	   76.2628	   15.5326	         0	5.63741e+07	    76.251	   15.8486	         0	5.19619e+07	      76.5	   15.6873	         0	1.06151e+08	   76.3814	   15.5433	         0	5.66674e+07	   76.2569	   15.6906	         0	3.57307e+07	   76.3755	   15.8346	         0	6.93312e+07	
         R10	   4915	   76.2666	      16.1	         0	6.26897e+07	      76.5	      16.1	         0	1.15318e+08	      76.5	   15.8206	         0	1.17115e+08	    76.251	   15.8486	         0	1.47531e+07	   76.3833	      16.1	         0	8.58213e+07	      76.5	   15.9603	         0	9.85171e+07	   76.3755	   15.8346	         0	5.41271e+07	   76.2588	   15.9743	         0	3.03837e+07	
         R10	   4916	    72.961	      15.3	         0	 3.1263e+07	     72.25	      15.3	         0	4.42741e+07	     72.25	      16.1	         0	6.47328e+07	    72.961	      16.1	         0	4.57577e+07	   72.6055	      15.3	         0	3.75979e+07	     72.25	      15.7	         0	5.42812e+07	   72.6055	      16.1	         0	5.08473e+07	    72.961	      15.7	         0	3.48883e+07	
         R10	   4917	   73.6123	      15.3	         0	2.65301e+07	    72.961	      15.3	         0	2.84186e+07	    72.961	      16.1	         0	3.77579e+07	   73.6123	      16.1	         0	2.75885e+07	   73.2867	      15.3	         0	2.67441e+07	    72.961	      15.7	         0	3.03696e+07	   73.2867	      16.1	         0	3.22026e+07	   73.6123	      15.7	         0	2.35219e+07	
         R10	   4918	   74.2039	      15.3	         0	2.20805e+07	   73.6123	      15.3	         0	2.65474e+07	   73.6123	      16.1	         0	2.85049e+07	   74.2039	      16.1	         0	2.58567e+07	   73.9081	      15.3	         0	2.42943e+07	   73.6123	      15.7	         0	2.43525e+07	   73.9081	      16.1	         0	2.69443e+07	   74.2039	      15.7	         0	2.00647e+07	
         R10	   4919	   74.7358	      15.3	         0	1.90476e+07	   74.2039	      15.3	         0	2.70076e+07	   74.2039	      16.1	         0	2.59213e+07	   74.7358	      16.1	         0	2.59296e+07	   74.4699	      15.3	         0	2.28756e+07	   74.2039	      15.7	         0	2.22227e+07	   74.4699	      16.1	         0	2.57239e+07	   74.7358	      15.7	         0	2.04632e+07	
         R10	   4920	   75.9734	      16.1	         0	  6.103e+07	   76.2666	      16.1	         0	4.77169e+07	    76.251	   15.8486	         0	9.88139e+07	   75.9485	   15.7047	         0	1.05021e+08	     76.12	      16.1	         0	4.20898e+07	   76.2588	   15.9743	         0	6.84693e+07	   76.0997	   15.7766	         0	6.79039e+07	    75.961	   15.9023	         0	2.61551e+07	
         R10	   4921	   75.6206	      16.1	         0	6.82692e+07	   75.9734	      16.1	         0	  6.128e+07	   75.9485	   15.7047	         0	  9.725e+07	   75.5908	      15.7	         0	1.05625e+08	    75.797	      16.1	         0	6.43536e+07	    75.961	   15.9023	         0	4.21449e+07	   75.7696	   15.7023	         0	9.99855e+07	   75.6057	      15.9	         0	2.86583e+07	
         R10	   4922	   75.2081	      16.1	         0	3.83032e+07	   75.6206	      16.1	         0	7.31578e+07	   75.5908	      15.7	         0	1.08112e+08	   75.1952	   15.7153	         0	5.07381e+07	   75.4143	      16.1	         0	4.31352e+07	   75.6057	      15.9	         0	3.44488e+07	    75.393	   15.7077	         0	6.49179e+07	   75.2016	   15.9077	         0	4.18745e+07	
         R10	   4923	   74.7358	      16.1	         0	2.65038e+07	   75.2081	      16.1	         0	3.07519e+07	   75.1952	   15.7153	         0	4.86962e+07	   74.7358	      15.3	         0	1.93684e+07	    74.972	      16.1	         0	2.78593e+07	   75.2016	   15.9077	         0	3.81926e+07	   74.9655	   15.5077	         0	3.32456e+07	   74.7358	      15.7	         0	2.05487e+07	
         R10	   4924	   75.1952	   15.7153	         0	5.09062e+07	   75.2081	      15.3	         0	3.38142e+07	   74.7358	      15.3	         0	2.30579e+07	   75.2016	   15.5077	         0	2.85232e+07	    74.972	      15.3	         0	2.70331e+07	   74.9655	   15.5077	         0	 3.1871e+07	       N/A	       N/A	       N/A	        N/A	       N/A	       N/A	       N/A	        N/A	
         R10	   4925	    76.251	   15.8486	         0	8.03328e+07	   76.2628	   15.5326	         0	7.14354e+07	   75.9485	   15.7047	         0	3.23427e+07	   76.2569	   15.6906	         0	7.11831e+07	   76.1056	   15.6187	         0	4.15566e+07	   76.0997	   15.7766	         0	4.42801e+07	       N/A	       N/A	       N/A	        N/A	       N/A	       N/A	       N/A	        N/A	
         R10	   4926	   75.6206	   16.4827	         0	1.08361e+08	   75.6206	      16.1	         0	5.98185e+07	   75.2081	      16.1	         0	2.31004e+07	   75.2081	   16.5424	         0	5.90424e+07	   75.6206	   16.2913	         0	4.28429e+07	   75.4143	      16.1	         0	 3.8033e+07	   75.2081	   16.3212	         0	 3.0727e+07	   75.4143	   16.5125	         0	8.13767e+07	
         R10	   4927	   75.9734	    16.423	         0	1.04774e+08	   75.9734	      16.1	         0	7.06608e+07	   75.6206	      16.1	         0	5.97547e+07	   75.6206	   16.4827	         0	1.03304e+08	   75.9734	   16.2615	         0	4.26985e+07	    75.797	      16.1	         0	6.50685e+07	   75.6206	   16.2913	         0	2.98721e+07	    75.797	   16.4528	         0	 1.0202e+08	
         R10	   4928	   76.2666	   16.3633	         0	1.01444e+08	   76.2666	      16.1	         0	5.48507e+07	   75.9734	      16.1	         0	6.94121e+07	   75.9734	    16.423	         0	1.07918e+08	   76.2666	   16.2316	         0	7.27788e+07	     76.12	      16.1	         0	4.59274e+07	   75.9734	   16.2615	         0	 2.6509e+07	     76.12	   16.3931	         0	6.77611e+07	
         R10	   4929	      76.5	   16.3413	         0	1.41743e+08	      76.5	      16.1	         0	1.23353e+08	   76.2666	      16.1	         0	6.38217e+07	   76.2666	   16.3633	         0	2.14631e+07	      76.5	   16.2207	         0	1.10605e+08	   76.3833	      16.1	         0	9.11062e+07	   76.2666	   16.2316	         0	2.93582e+07	   76.3833	   16.3523	         0	6.19618e+07	
         R10	   4930	   76.2207	    16.608	         0	5.63178e+07	      76.5	    16.608	         0	1.12241e+08	      76.5	   16.3413	         0	 1.3912e+08	   76.2666	   16.3633	         0	8.23341e+07	   76.3603	    16.608	         0	6.64229e+07	      76.5	   16.4747	         0	 1.2555e+08	   76.3833	   16.3523	         0	7.32733e+07	   76.2436	   16.4856	         0	 4.2456e+07	
         R10	   4931	   76.2126	      16.9	         0	5.42127e+07	      76.5	      16.9	         0	1.01679e+08	      76.5	    16.608	         0	1.13417e+08	   76.2207	    16.608	         0	2.93232e+07	   76.3563	      16.9	         0	7.25788e+07	      76.5	    16.754	         0	9.51193e+07	   76.3603	    16.608	         0	5.35345e+07	   76.2166	    16.754	         0	2.86359e+07	
         R10	   4932	    72.961	      16.1	         0	3.96615e+07	     72.25	      16.1	         0	  6.284e+07	     72.25	      16.9	         0	6.33173e+07	   73.0251	      16.9	         0	3.68721e+07	   72.6055	      16.1	         0	 5.0517e+07	     72.25	      16.5	         0	6.26063e+07	   72.6376	      16.9	         0	4.96917e+07	    72.993	      16.5	         0	3.67639e+07	
         R10	   4933	   73.6123	      16.1	         0	3.77731e+07	    72.961	      16.1	         0	4.51364e+07	   73.0251	      16.9	         0	3.74418e+07	   73.7305	      16.9	         0	1.80851e+07	   73.2867	      16.1	         0	4.04794e+07	    72.993	      16.5	         0	3.77658e+07	   73.3778	      16.9	         0	2.76376e+07	   73.6714	      16.5	         0	2.66201e+07	
         R10	   4934	   74.2039	      16.1	         0	3.52423e+07	   73.6123	      16.1	         0	3.78486e+07	   73.7305	      16.9	         0	1.90729e+07	   74.3663	      16.9	         0	1.47933e+07	   73.9081	      16.1	         0	3.63916e+07	   73.6714	      16.5	         0	2.70212e+07	   74.0484	      16.9	         0	1.66542e+07	   74.2851	      16.5	         0	2.44209e+07	
         R10	   4935	   74.7358	      16.1	         0	3.41634e+07	   74.2039	      16.1	         0	3.56503e+07	   74.3663	      16.9	         0	1.53361e+07	   74.9324	      16.9	         0	 2.2269e+07	   74.4699	      16.1	         0	3.47421e+07	   74.2851	      16.5	         0	2.47726e+07	   74.6493	      16.9	         0	1.86974e+07	   74.8341	      16.5	         0	2.73915e+07	
         R10	   4936	   75.2081	   16.5424	         0	7.62374e+07	   75.2081	      16.1	         0	2.39446e+07	   74.7358	      16.1	         0	3.87321e+07	   74.9324	      16.9	         0	2.67225e+07	   75.2081	   16.3212	         0	4.58537e+07	    74.972	      16.1	         0	2.73187e+07	   74.8341	      16.5	         0	2.90888e+07	   75.0702	   16.7212	         0	4.91698e+07	
         R10	   4937	   75.6206	   16.4827	         0	1.00255e+08	   75.2081	   16.5424	         0	5.60654e+07	   74.9324	      16.9	         0	1.88519e+07	   75.4288	      16.9	         0	5.10098e+07	   75.4143	   16.5125	         0	7.30578e+07	   75.0702	   16.7212	         0	3.27538e+07	   75.1806	      16.9	         0	2.96556e+07	   75.5247	   16.6913	         0	3.93876e+07	
         R10	   4938	   75.9734	    16.423	         0	9.42246e+07	   75.6206	   16.4827	         0	8.81671e+07	   75.4288	      16.9	         0	5.36409e+07	   75.8555	      16.9	         0	 5.1158e+07	    75.797	   16.4528	         0	8.80241e+07	   75.5247	   16.6913	         0	2.55613e+07	   75.6422	      16.9	         0	5.19463e+07	   75.9145	   16.6615	         0	4.52718e+07	
         R10	   4939	   75.8555	      16.9	         0	5.03225e+07	   76.2126	      16.9	         0	4.09419e+07	   76.2207	    16.608	         0	8.17309e+07	   75.9734	    16.423	         0	8.40401e+07	   76.0341	      16.9	         0	4.19985e+07	   76.2166	    16.754	         0	5.75044e+07	    76.097	   16.5155	         0	7.08921e+07	   75.9145	   16.6615	         0	3.01121e+07	
         R10	   4940	   76.2207	    16.608	         0	5.83427e+07	   76.2666	   16.3633	         0	1.00759e+08	   75.9734	    16.423	         0	3.28793e+07	   76.2436	   16.4856	         0	7.08426e+07	     76.12	   16.3931	         0	5.33442e+07	    76.097	   16.5155	         0	4.21935e+07	       N/A	       N/A	       N/A	        N/A	       N/A	       N/A	       N/A	        N/A	
         R10	   4941	    76.981	   15.5638	         0	6.87586e+07	   76.9666	      15.3	         0	9.21101e+07	   76.7279	      15.3	         0	4.20942e+07	   76.7385	   15.5653	         0	5.39405e+07	   76.9738	   15.4319	         0	3.29097e+07	   76.8472	      15.3	         0	6.58624e+07	   76.7332	   15.4327	         0	3.15716e+07	   76.8597	   15.5646	         0	6.07723e+07	
         R10	   4942	   77.2374	   15.5575	         0	7.15022e+07	    77.216	      15.3	         0	 1.1421e+08	   76.9666	      15.3	         0	8.79928e+07	    76.981	   15.5638	         0	6.83318e+07	   77.2267	   15.4288	         0	3.53325e+07	   77.0913	      15.3	         0	1.01069e+08	   76.9738	   15.4319	         0	2.83839e+07	   77.1092	   15.5607	         0	6.89693e+07	
         R10	   4943	   77.4715	   15.5296	         0	4.11896e+07	   77.4763	      15.3	         0	1.19905e+08	    77.216	      15.3	         0	1.09907e+08	   77.2374	   15.5575	         0	7.16062e+07	   77.4739	   15.4148	         0	5.08204e+07	   77.3462	      15.3	         0	 1.1391e+08	   77.2267	   15.4288	         0	2.89345e+07	   77.3544	   15.5436	         0	5.60764e+07	
         R10	   4944	   77.7709	   15.5894	         0	7.92368e+07	   77.7473	      15.3	         0	9.39052e+07	   77.4763	      15.3	         0	 1.1692e+08	   77.4715	   15.5296	         0	3.98035e+07	   77.7591	   15.4447	         0	3.37187e+07	   77.6118	      15.3	         0	1.05289e+08	   77.4739	   15.4148	         0	4.62651e+07	   77.6212	   15.5595	         0	5.92099e+07	
         R10	   4945	   78.0133	   15.6657	         0	 9.8444e+07	   78.0291	      15.3	         0	1.05839e+08	   77.7473	      15.3	         0	9.17291e+07	   77.7709	   15.5894	         0	7.75725e+07	   78.0212	   15.4828	         0	2.89313e+07	   77.8882	      15.3	         0	9.83829e+07	   77.7591	   15.4447	         0	2.42797e+07	   77.8921	   15.6275	         0	8.77089e+07	
         R10	   4946	   78.3112	   15.6946	         0	9.73856e+07	   78.3217	      15.3	         0	9.94048e+07	   78.0291	      15.3	         0	1.04911e+08	   78.0133	   15.6657	         0	9.65597e+07	   78.3165	   15.4973	         0	1.76257e+07	   78.1754	      15.3	         0	1.01335e+08	   78.0212	   15.4828	         0	2.78032e+07	   78.1623	   15.6802	         0	9.59899e+07	
         R10	   4947	    78.625	    15.662	         0	6.13559e+07	    78.625	      15.3	         0	8.50265e+07	   78.3217	      15.3	         0	  9.891e+07	   78.3112	   15.6946	         0	9.78877e+07	    78.625	    15.481	         0	2.45541e+07	   78.4733	      15.3	         0	9.09507e+07	   78.3165	   15.4973	         0	1.86089e+07	   78.4681	   15.6783	         0	 7.9461e+07	
         R10	   4948	   78.2643	      16.1	         0	3.98016e+07	    78.625	      16.1	         0	 4.8387e+07	    78.625	    15.662	         0	1.09865e+08	   78.3112	   15.6946	         0	8.63583e+07	   78.4446	      16.1	         0	4.40239e+07	    78.625	    15.881	         0	3.39435e+07	   78.4681	   15.6783	         0	9.75365e+07	   78.2878	   15.8973	         0	 2.7811e+07	
         R10	   4949	   77.9226	      16.1	         0	2.32301e+07	   78.2643	      16.1	         0	 3.9859e+07	   78.3112	   15.6946	         0	8.68192e+07	   78.0133	   15.6657	         0	6.94055e+07	   78.0934	      16.1	         0	3.08738e+07	   78.2878	   15.8973	         0	2.81837e+07	   78.1623	   15.6802	         0	7.71703e+07	   77.9679	   15.8828	         0	 3.1789e+07	
         R10	   4950	   77.2875	   15.8286	         0	 7.5701e+07	   77.2964	      16.1	         0	7.79963e+07	   77.5999	      16.1	         0	3.52492e+07	   77.6146	   15.8099	         0	5.71192e+07	   77.2919	   15.9643	         0	2.63091e+07	   77.4482	      16.1	         0	5.59381e+07	   77.6073	    15.955	         0	3.54142e+07	   77.4511	   15.8192	         0	 6.2725e+07	
         R10	   4951	   77.0088	   15.8258	         0	8.34768e+07	   77.0118	      16.1	         0	7.86409e+07	   77.2964	      16.1	         0	7.83227e+07	   77.2875	   15.8286	         0	7.60779e+07	   77.0103	   15.9629	         0	2.92253e+07	   77.1541	      16.1	         0	7.83129e+07	   77.2919	   15.9643	         0	2.88085e+07	   77.1481	   15.8272	         0	7.94269e+07	
         R10	   4952	   76.7502	   15.8262	         0	5.07868e+07	   76.7464	      16.1	         0	5.09756e+07	   77.0118	      16.1	         0	7.72572e+07	   77.0088	   15.8258	         0	8.44181e+07	   76.7483	   15.9631	         0	4.44561e+07	   76.8791	      16.1	         0	5.78768e+07	   77.0103	   15.9629	         0	2.99018e+07	   76.8795	    15.826	         0	6.53279e+07	
         R10	   4953	      76.5	   15.8206	         0	1.23043e+08	      76.5	      16.1	         0	1.13511e+08	   76.7464	      16.1	         0	5.92178e+07	   76.7502	   15.8262	         0	3.88328e+07	      76.5	   15.9603	         0	1.00739e+08	   76.6232	      16.1	         0	7.76229e+07	   76.7483	   15.9631	         0	 3.5256e+07	   76.6251	   15.8234	         0	5.97058e+07	
         R10	   4954	   76.7385	   15.5653	         0	5.13867e+07	   76.7279	      15.3	         0	4.90006e+07	      76.5	      15.3	         0	6.36068e+07	      76.5	    15.554	         0	9.65621e+07	   76.7332	   15.4327	         0	2.86429e+07	    76.614	      15.3	         0	4.55092e+07	      76.5	    15.427	         0	7.72137e+07	   76.6192	   15.5597	         0	5.96373e+07	
         R10	   4955	   76.7385	   15.5653	         0	5.24686e+07	      76.5	    15.554	         0	1.00225e+08	      76.5	   15.8206	         0	1.22241e+08	   76.7502	   15.8262	         0	5.66739e+07	   76.6192	   15.5597	         0	6.07109e+07	      76.5	   15.6873	         0	1.10268e+08	   76.6251	   15.8234	         0	 7.4999e+07	   76.7443	   15.6958	         0	3.86954e+07	
         R10	   4956	    76.981	   15.5638	         0	6.37039e+07	   76.7385	   15.5653	         0	5.63164e+07	   76.7502	   15.8262	         0	6.65104e+07	   77.0088	   15.8258	         0	6.15297e+07	   76.8597	   15.5646	         0	5.84034e+07	   76.7443	   15.6958	         0	5.14321e+07	   76.8795	    15.826	         0	6.30677e+07	   76.9949	   15.6948	         0	6.01303e+07	
         R10	   4957	   77.2374	   15.5575	         0	6.18349e+07	    76.981	   15.5638	         0	6.61852e+07	   77.0088	   15.8258	         0	6.16295e+07	   77.2875	   15.8286	         0	8.06089e+07	   77.1092	   15.5607	         0	6.39349e+07	   76.9949	   15.6948	         0	6.09093e+07	   77.1481	   15.8272	         0	7.10044e+07	   77.2624	   15.6931	         0	6.97103e+07	
         R10	   4958	   77.4715	   15.5296	         0	8.21081e+07	   77.2374	   15.5575	         0	6.56567e+07	   77.2875	   15.8286	         0	7.69662e+07	   77.6146	   15.8099	         0	5.84318e+07	   77.3544	   15.5436	         0	 7.2609e+07	   77.2624	   15.6931	         0	6.83127e+07	   77.4511	   15.8192	         0	 6.5749e+07	   77.5431	   15.6698	         0	6.96135e+07	
         R10	   4959	   77.9226	      16.1	         0	2.30574e+07	   78.0133	   15.6657	         0	6.99995e+07	   77.7709	   15.5894	         0	7.18419e+07	   77.6146	   15.8099	         0	6.42248e+07	   77.9679	   15.8828	         0	2.89612e+07	   77.8921	   15.6275	         0	7.05018e+07	   77.6928	   15.6997	         0	6.55789e+07	   77.7686	    15.955	         0	3.14669e+07	
         R10	   4960	   77.6146	   15.8099	         0	5.65802e+07	   77.5999	      16.1	         0	3.30452e+07	   77.9226	      16.1	         0	1.81147e+07	   77.6073	    15.955	         0	3.20902e+07	   77.7612	      16.1	         0	2.46121e+07	   77.7686	    15.955	         0	3.10059e+07	       N/A	       N/A	       N/A	        N/A	       N/A	       N/A	       N/A	        N/A	
         R10	   4961	   77.7709	   15.5894	         0	7.94468e+07	   77.4715	   15.5296	         0	 8.8021e+07	   77.6146	   15.8099	         0	5.24513e+07	   77.6212	   15.5595	         0	 8.1108e+07	   77.5431	   15.6698	         0	7.00198e+07	   77.6928	   15.6997	         0	 6.4937e+07	       N/A	       N/A	       N/A	        N/A	       N/A	       N/A	       N/A	        N/A	
         R10	   4962	   77.0196	    16.395	         0	1.02625e+08	   77.0118	      16.1	         0	6.55665e+07	   76.7464	      16.1	         0	4.85875e+07	   76.7371	   16.3337	         0	4.19722e+07	   77.0157	   16.2475	         0	4.41707e+07	   76.8791	      16.1	         0	5.09863e+07	   76.7417	   16.2168	         0	 3.7338e+07	   76.8783	   16.3643	         0	7.13913e+07	
         R10	   4963	   77.2576	   16.4821	         0	9.98118e+07	   77.2964	      16.1	         0	6.08768e+07	   77.0118	      16.1	         0	6.35354e+07	   77.0196	    16.395	         0	9.63354e+07	    77.277	   16.2911	         0	3.68339e+07	   77.1541	      16.1	         0	6.20393e+07	   77.0157	   16.2475	         0	 3.8439e+07	   77.1386	   16.4385	         0	9.79109e+07	
         R10	   4964	   77.5511	   16.5067	         0	1.04068e+08	   77.5999	      16.1	         0	 6.7146e+07	   77.2964	      16.1	         0	 6.2001e+07	   77.2576	   16.4821	         0	9.88282e+07	   77.5755	   16.3033	         0	 2.9252e+07	   77.4482	      16.1	         0	6.43892e+07	    77.277	   16.2911	         0	3.57781e+07	   77.4044	   16.4944	         0	1.01291e+08	
         R10	   4965	   77.8929	   16.5069	         0	 1.1184e+08	   77.9226	      16.1	         0	7.21383e+07	   77.5999	      16.1	         0	6.70005e+07	   77.5511	   16.5067	         0	1.04507e+08	   77.9077	   16.3035	         0	  2.722e+07	   77.7612	      16.1	         0	6.94908e+07	   77.5755	   16.3033	         0	2.90159e+07	    77.722	   16.5068	         0	1.08158e+08	
         R10	   4966	   78.2533	   16.5074	         0	1.09928e+08	   78.2643	      16.1	         0	6.64003e+07	   77.9226	      16.1	         0	7.19393e+07	   77.8929	   16.5069	         0	1.11246e+08	   78.2588	   16.3037	         0	2.70824e+07	   78.0934	      16.1	         0	6.91515e+07	   77.9077	   16.3035	         0	2.56256e+07	   78.0731	   16.5072	         0	 1.1056e+08	
         R10	   4967	    78.625	    16.462	         0	8.39244e+07	    78.625	      16.1	         0	5.98495e+07	   78.2643	      16.1	         0	6.67676e+07	   78.2533	   16.5074	         0	1.09519e+08	    78.625	    16.281	         0	1.68269e+07	   78.4446	      16.1	         0	6.33068e+07	   78.2588	   16.3037	         0	 2.6018e+07	   78.4391	   16.4847	         0	9.67165e+07	
         R10	   4968	   78.2041	      16.9	         0	7.22566e+07	    78.625	      16.9	         0	6.59681e+07	    78.625	    16.462	         0	1.21852e+08	   78.2533	   16.5074	         0	 1.0962e+08	   78.4146	      16.9	         0	6.91116e+07	    78.625	    16.681	         0	  3.039e+07	   78.4391	   16.4847	         0	1.15616e+08	   78.2287	   16.7037	         0	2.41399e+07	
         R10	   4969	   77.8099	      16.9	         0	7.68005e+07	   78.2041	      16.9	         0	7.26282e+07	   78.2533	   16.5074	         0	1.09785e+08	   77.8929	   16.5069	         0	1.13728e+08	    78.007	      16.9	         0	7.46836e+07	   78.2287	   16.7037	         0	2.44412e+07	   78.0731	   16.5072	         0	1.11724e+08	   77.8514	   16.7035	         0	2.53479e+07	
         R10	   4970	   77.4424	      16.9	         0	6.92641e+07	   77.8099	      16.9	         0	7.63862e+07	   77.8929	   16.5069	         0	1.14756e+08	   77.5511	   16.5067	         0	1.07529e+08	   77.6262	      16.9	         0	7.26527e+07	   77.8514	   16.7035	         0	2.66947e+07	    77.722	   16.5068	         0	1.11126e+08	   77.4968	   16.7033	         0	3.08996e+07	
         R10	   4971	   77.1016	      16.9	         0	4.44255e+07	   77.4424	      16.9	         0	6.71158e+07	   77.5511	   16.5067	         0	1.07694e+08	   77.2576	   16.4821	         0	7.81134e+07	    77.272	      16.9	         0	5.37693e+07	   77.4968	   16.7033	         0	3.10965e+07	   77.4044	   16.4944	         0	9.24346e+07	   77.1796	   16.6911	         0	3.93919e+07	
         R10	   4972	      76.5	    16.608	         0	1.10157e+08	      76.5	      16.9	         0	1.06466e+08	   76.7875	      16.9	         0	6.16641e+07	   76.8212	   16.6188	         0	1.28461e+07	      76.5	    16.754	         0	9.63625e+07	   76.6437	      16.9	         0	8.36923e+07	   76.8043	   16.7594	         0	2.78753e+07	   76.6606	   16.6134	         0	5.67628e+07	
         R10	   4973	   76.7371	   16.3337	         0	3.18761e+07	   76.7464	      16.1	         0	6.21783e+07	      76.5	      16.1	         0	1.23095e+08	      76.5	   16.3413	         0	 1.3054e+08	   76.7417	   16.2168	         0	3.94891e+07	   76.6232	      16.1	         0	8.46678e+07	      76.5	   16.2207	         0	 1.0416e+08	   76.6185	   16.3375	         0	6.61853e+07	
         R10	   4974	   76.7371	   16.3337	         0	6.58333e+07	      76.5	   16.3413	         0	 1.2198e+08	      76.5	    16.608	         0	1.07212e+08	   76.8212	   16.6188	         0	5.81748e+07	   76.6185	   16.3375	         0	7.50497e+07	      76.5	   16.4747	         0	1.14318e+08	   76.6606	   16.6134	         0	6.68803e+07	   76.7791	   16.4762	         0	4.32311e+07	
         R10	   4975	   77.1016	      16.9	         0	3.92104e+07	   77.2576	   16.4821	         0	7.66611e+07	   77.0196	    16.395	         0	5.16847e+07	   76.8212	   16.6188	         0	8.66662e+07	   77.1796	   16.6911	         0	3.55237e+07	   77.1386	   16.4385	         0	6.41564e+07	   76.9204	   16.5069	         0	6.33817e+07	   76.9614	   16.7594	         0	5.40287e+07	
         R10	   4976	   76.8212	   16.6188	         0	4.53009e+07	   76.7875	      16.9	         0	5.51757e+07	   77.1016	      16.9	         0	3.54229e+07	   76.8043	   16.7594	         0	4.53799e+07	   76.9445	      16.9	         0	4.36343e+07	   76.9614	   16.7594	         0	3.95611e+07	       N/A	       N/A	       N/A	        N/A	       N/A	       N/A	       N/A	        N/A	
         R10	   4977	   77.0196	    16.395	         0	 5.9495e+07	   76.7371	   16.3337	         0	6.19162e+07	   76.8212	   16.6188	         0	 6.1899e+07	   76.8783	   16.3643	         0	5.87101e+07	   76.7791	   16.4762	         0	5.16648e+07	   76.9204	   16.5069	         0	5.60098e+07	       N/A	       N/A	       N/A	        N/A	       N/A	       N/A	       N/A	        N/A	
         R10	   4978	   75.9537	      11.9	         0	3.54653e+07	      76.5	      11.9	         0	6.10289e+07	      76.5	     11.05	         0	5.67579e+07	   75.6646	     11.05	         0	3.94991e+07	   76.2268	      11.9	         0	4.71047e+07	      76.5	    11.475	         0	5.83112e+07	   76.0823	     11.05	         0	4.70002e+07	   75.8091	    11.475	         0	3.28176e+07	
         R10	   4979	   75.3426	      11.9	         0	2.14747e+07	   75.9537	      11.9	         0	3.65606e+07	   75.6646	     11.05	         0	3.66203e+07	   74.8218	     11.05	         0	1.49033e+07	   75.6481	      11.9	         0	2.84669e+07	   75.8091	    11.475	         0	3.23637e+07	   75.2432	     11.05	         0	2.55618e+07	   75.0822	    11.475	         0	1.69736e+07	
         R10	   4980	   74.6666	      11.9	         0	1.33676e+07	   75.3426	      11.9	         0	2.09799e+07	   74.8218	     11.05	         0	1.49307e+07	   73.9718	     11.05	         0	1.43136e+07	   75.0046	      11.9	         0	1.70409e+07	   75.0822	    11.475	         0	1.67572e+07	   74.3969	     11.05	         0	1.32621e+07	   74.3192	    11.475	         0	1.31878e+07	
         R10	   4981	   73.9259	      11.9	         0	 1.4852e+07	   74.6666	      11.9	         0	1.33318e+07	   73.9718	     11.05	         0	 1.2178e+07	   73.1146	     11.05	         0	3.35921e+07	   74.2963	      11.9	         0	1.31407e+07	   74.3192	    11.475	         0	1.18712e+07	   73.5432	     11.05	         0	 2.2358e+07	   73.5202	    11.475	         0	2.01166e+07	
         R10	   4982	   73.1204	      11.9	         0	2.39258e+07	   73.9259	      11.9	         0	1.33197e+07	   73.1146	     11.05	         0	3.85891e+07	     72.25	     11.05	         0	6.36004e+07	   73.5231	      11.9	         0	1.79225e+07	   73.5202	    11.475	         0	   2.15e+07	   72.6823	     11.05	         0	5.00332e+07	   72.6852	    11.475	         0	4.25276e+07	
         R10	   4983	   73.1204	      11.9	         0	3.23742e+07	     72.25	     11.05	         0	5.24168e+07	     72.25	      11.9	         0	 6.3916e+07	   72.6852	    11.475	         0	4.18653e+07	     72.25	    11.475	         0	5.81645e+07	   72.6852	      11.9	         0	4.76197e+07	       N/A	       N/A	       N/A	        N/A	       N/A	       N/A	       N/A	        N/A	
         R10	   4984	   76.0886	   12.3732	         0	 2.4205e+07	      76.5	   12.3452	         0	9.50646e+07	      76.5	      11.9	         0	7.68352e+07	   75.9537	      11.9	         0	4.65892e+07	   76.2943	   12.3592	         0	 4.6719e+07	      76.5	   12.1226	         0	7.85596e+07	   76.2268	      11.9	         0	6.12719e+07	   76.0212	   12.1366	         0	2.68349e+07	
         R10	   4985	   75.9853	     12.75	         0	5.41625e+07	      76.5	     12.75	         0	7.41405e+07	      76.5	   12.3452	         0	9.63989e+07	   76.0886	   12.3732	         0	 5.0769e+07	   76.2427	     12.75	         0	6.01649e+07	      76.5	   12.5476	         0	8.49469e+07	   76.2943	   12.3592	         0	 4.6831e+07	    76.037	   12.5616	         0	1.82562e+07	
         R10	   4986	   75.3932	     12.75	         0	1.91327e+07	   75.9853	     12.75	         0	4.47422e+07	   76.0886	   12.3732	         0	6.49951e+07	   75.6892	     12.75	         0	3.13596e+07	    76.037	   12.5616	         0	3.82714e+07	   75.7409	   12.5616	         0	3.67961e+07	       N/A	       N/A	       N/A	        N/A	       N/A	       N/A	       N/A	        N/A	
         R10	   4987	   74.7236	     12.75	         0	1.52558e+07	   75.3932	     12.75	         0	2.30026e+07	   75.9537	      11.9	         0	 4.7285e+07	   75.3426	      11.9	         0	2.50726e+07	   75.0584	     12.75	         0	1.88802e+07	   75.6734	    12.325	         0	3.09306e+07	   75.6481	      11.9	         0	3.61644e+07	   75.0331	    12.325	         0	1.80846e+07	
         R10	   4988	   73.9765	     12.75	         0	1.46668e+07	   74.7236	     12.75	         0	1.41253e+07	   75.3426	      11.9	         0	2.59549e+07	   74.6666	      11.9	         0	1.41998e+07	     74.35	     12.75	         0	1.43304e+07	   75.0331	    12.325	         0	1.84359e+07	   75.0046	      11.9	         0	1.96716e+07	   74.3216	    12.325	         0	 1.4297e+07	
         R10	   4989	    73.152	     12.75	         0	 2.8141e+07	   73.9765	     12.75	         0	1.28334e+07	   74.6666	      11.9	         0	1.45958e+07	   73.9259	      11.9	         0	1.95695e+07	   73.5642	     12.75	         0	2.02672e+07	   74.3216	    12.325	         0	1.36074e+07	   74.2963	      11.9	         0	1.51239e+07	   73.5389	    12.325	         0	2.06675e+07	
         R10	   4990	   73.1204	      11.9	         0	3.52885e+07	     72.25	      11.9	         0	5.99309e+07	     72.25	     12.75	         0	6.09672e+07	    73.152	     12.75	         0	3.46326e+07	   72.6852	      11.9	         0	4.68061e+07	     72.25	    12.325	         0	6.04481e+07	    72.701	     12.75	         0	4.52179e+07	   73.1362	    12.325	         0	 3.0369e+07	
         R10	   4991	   73.1204	      11.9	         0	3.28778e+07	    73.152	     12.75	         0	 3.3767e+07	   73.9259	      11.9	         0	1.82808e+07	   73.1362	    12.325	         0	2.86548e+07	   73.5389	    12.325	         0	2.27735e+07	   73.5231	      11.9	         0	2.53541e+07	       N/A	       N/A	       N/A	        N/A	       N/A	       N/A	       N/A	        N/A	
         R10	   4992	   75.3932	     12.75	         0	 2.2273e+07	   76.0886	   12.3732	         0	7.08738e+07	   75.9537	      11.9	         0	4.12963e+07	   75.7409	   12.5616	         0	3.78521e+07	   76.0212	   12.1366	         0	5.49663e+07	   75.6734	    12.325	         0	2.31941e+07	       N/A	       N/A	       N/A	        N/A	       N/A	       N/A	       N/A	        N/A	
         R10	   4993	    76.075	   13.2385	         0	3.52289e+07	      76.5	   13.2385	         0	9.75887e+07	      76.5	     12.75	         0	7.36133e+07	   75.9853	     12.75	         0	4.44688e+07	   76.2875	   13.2385	         0	4.20913e+07	      76.5	   12.9942	         0	8.20242e+07	   76.2427	     12.75	         0	5.74169e+07	   76.0302	   12.9942	         0	2.81607e+07	
         R10	   4994	   76.1395	      13.6	         0	4.96905e+07	      76.5	      13.6	         0	8.56007e+07	      76.5	   13.2385	         0	1.02104e+08	    76.075	   13.2385	         0	4.67451e+07	   76.3197	      13.6	         0	6.60122e+07	      76.5	   13.4192	         0	9.28766e+07	   76.2875	   13.2385	         0	4.73377e+07	   76.1072	   13.4192	         0	2.38681e+07	
         R10	   4995	    73.152	     12.75	         0	3.94018e+07	     72.25	     12.75	         0	6.05303e+07	     72.25	      13.6	         0	6.41987e+07	   73.1038	      13.6	         0	3.67571e+07	    72.701	     12.75	         0	4.86132e+07	     72.25	    13.175	         0	6.23343e+07	   72.6769	      13.6	         0	4.61723e+07	   73.1279	    13.175	         0	3.06061e+07	
         R10	   4996	   73.9765	     12.75	         0	1.55831e+07	    73.152	     12.75	         0	3.55669e+07	   73.1038	      13.6	         0	3.30937e+07	   73.8753	      13.6	         0	1.69616e+07	   73.5642	     12.75	         0	2.47219e+07	   73.1279	    13.175	         0	2.88066e+07	   73.4895	      13.6	         0	2.48455e+07	   73.9259	    13.175	         0	1.55913e+07	
         R10	   4997	   74.7236	     12.75	         0	1.45603e+07	   73.9765	     12.75	         0	1.60622e+07	   73.8753	      13.6	         0	1.75663e+07	   74.5647	      13.6	         0	1.38473e+07	     74.35	     12.75	         0	1.43341e+07	   73.9259	    13.175	         0	1.60478e+07	     74.22	      13.6	         0	1.56346e+07	   74.6441	    13.175	         0	1.39746e+07	
         R10	   4998	   75.3932	     12.75	         0	2.81791e+07	   74.7236	     12.75	         0	 1.5102e+07	   74.5647	      13.6	         0	1.42097e+07	   75.1718	      13.6	         0	1.91912e+07	   75.0584	     12.75	         0	2.12977e+07	   74.6441	    13.175	         0	1.45015e+07	   74.8682	      13.6	         0	1.63211e+07	   75.2825	    13.175	         0	2.11763e+07	
         R10	   4999	   75.6967	      13.6	         0	2.81805e+07	    76.075	   13.2385	         0	6.90603e+07	   75.9853	     12.75	         0	4.26366e+07	   75.3932	     12.75	         0	2.76947e+07	   75.8859	   13.4192	         0	4.71603e+07	   76.0302	   12.9942	         0	5.42935e+07	   75.6892	     12.75	         0	3.50096e+07	    75.545	    13.175	         0	2.41871e+07	
         R10	   5000	   75.6967	      13.6	         0	 2.6278e+07	   76.1395	      13.6	         0	4.51631e+07	    76.075	   13.2385	         0	5.17449e+07	   75.9181	      13.6	         0	3.37502e+07	   76.1072	   13.4192	         0	3.68202e+07	   75.8859	   13.4192	         0	3.67141e+07	       N/A	       N/A	       N/A	        N/A	       N/A	       N/A	       N/A	        N/A	
         R10	   5001	   75.6967	      13.6	         0	2.81706e+07	   75.3932	     12.75	         0	3.27792e+07	   75.1718	      13.6	         0	1.81196e+07	    75.545	    13.175	         0	2.80809e+07	   75.2825	    13.175	         0	2.27243e+07	   75.4343	      13.6	         0	2.30241e+07	       N/A	       N/A	       N/A	        N/A	       N/A	       N/A	       N/A	        N/A	
         R10	   5002	   77.8161	      11.9	         0	2.01997e+07	    78.625	      11.9	         0	 1.6008e+07	    78.625	     11.05	         0	1.50614e+07	   77.9344	     11.05	         0	2.17479e+07	   78.2205	      11.9	         0	1.76443e+07	    78.625	    11.475	         0	1.30683e+07	   78.2797	     11.05	         0	1.69969e+07	   77.8753	    11.475	         0	1.91706e+07	
         R10	   5003	   77.1077	      11.9	         0	3.62259e+07	   77.8161	      11.9	         0	2.04588e+07	   77.9344	     11.05	         0	2.25655e+07	   77.2261	     11.05	         0	4.20393e+07	   77.4619	      11.9	         0	2.77342e+07	   77.8753	    11.475	         0	 1.9603e+07	   77.5803	     11.05	         0	 3.2182e+07	   77.1669	    11.475	         0	 3.4624e+07	
         R10	   5004	      76.5	      11.9	         0	6.64755e+07	   77.1077	      11.9	         0	 3.5104e+07	   77.2261	     11.05	         0	4.46278e+07	      76.5	     11.05	         0	5.57375e+07	   76.8039	      11.9	         0	4.88905e+07	   77.1669	    11.475	         0	3.41472e+07	   76.8631	     11.05	         0	4.88234e+07	      76.5	    11.475	         0	6.05908e+07	
         R10	   5005	   78.0725	     12.75	         0	2.32724e+07	    78.625	     12.75	         0	2.11666e+07	    78.625	      11.9	         0	1.28847e+07	   77.8161	      11.9	         0	2.33334e+07	   78.3487	     12.75	         0	2.21452e+07	    78.625	    12.325	         0	1.52631e+07	   78.2205	      11.9	         0	1.76152e+07	   77.9443	    12.325	         0	2.02645e+07	
         R10	   5006	   77.5341	     12.75	         0	2.66214e+07	   78.0725	     12.75	         0	2.18777e+07	   77.8161	      11.9	         0	2.22152e+07	   77.1077	      11.9	         0	4.48854e+07	   77.8033	     12.75	         0	2.33379e+07	   77.9443	    12.325	         0	1.92303e+07	   77.4619	      11.9	         0	3.33438e+07	   77.3209	    12.325	         0	3.17318e+07	
         R10	   5007	   77.1077	      11.9	         0	4.58477e+07	      76.5	      11.9	         0	6.96497e+07	      76.5	   12.3452	         0	 6.4716e+07	     77.01	     12.75	         0	3.47351e+07	   76.8039	      11.9	         0	5.57132e+07	      76.5	   12.1226	         0	5.94068e+07	    76.755	   12.5476	         0	 4.6605e+07	   77.0589	    12.325	         0	3.85609e+07	
         R10	   5008	     77.01	     12.75	         0	3.67485e+07	   77.5341	     12.75	         0	2.31353e+07	   77.1077	      11.9	         0	4.53294e+07	    77.272	     12.75	         0	2.98348e+07	   77.3209	    12.325	         0	3.16834e+07	   77.0589	    12.325	         0	 3.8113e+07	       N/A	       N/A	       N/A	        N/A	       N/A	       N/A	       N/A	        N/A	
         R10	   5009	      76.5	   12.3452	         0	5.66497e+07	      76.5	     12.75	         0	7.73627e+07	     77.01	     12.75	         0	4.16488e+07	      76.5	   12.5476	         0	6.68751e+07	    76.755	     12.75	         0	5.88909e+07	    76.755	   12.5476	         0	4.82738e+07	       N/A	       N/A	       N/A	        N/A	       N/A	       N/A	       N/A	        N/A	
         R10	   5010	    78.147	   13.1657	         0	9.22353e+07	    78.625	   13.1952	         0	1.17303e+08	    78.625	     12.75	         0	9.73473e+07	   78.0725	     12.75	         0	8.67184e+07	    78.386	   13.1805	         0	1.03122e+08	    78.625	   12.9726	         0	1.02503e+07	   78.3487	     12.75	         0	9.20181e+07	   78.1097	   12.9578	         0	1.91933e+07	
         R10	   5011	   78.1396	      13.6	         0	9.30243e+07	    78.625	      13.6	         0	9.65839e+07	    78.625	   13.1952	         0	 1.0097e+08	    78.147	   13.1657	         0	1.11772e+08	   78.3823	      13.6	         0	 9.4792e+07	    78.625	   13.3976	         0	4.04836e+06	    78.386	   13.1805	         0	1.04811e+08	   78.1433	   13.3828	         0	2.19034e+07	
         R10	   5012	   77.6845	      13.6	         0	 8.0822e+07	   78.1396	      13.6	         0	9.29254e+07	    78.147	   13.1657	         0	1.10963e+08	   77.7446	   13.2151	         0	9.52133e+07	   77.9121	      13.6	         0	8.67381e+07	   78.1433	   13.3828	         0	1.59409e+07	   77.9458	   13.1904	         0	1.02975e+08	   77.7146	   13.4075	         0	2.14053e+07	
         R10	   5013	   77.2895	    13.214	         0	8.72123e+07	   77.2595	      13.6	         0	7.05323e+07	   77.6845	      13.6	         0	7.85781e+07	   77.7446	   13.2151	         0	9.97512e+07	   77.2745	    13.407	         0	3.10985e+07	    77.472	      13.6	         0	  7.422e+07	   77.7146	   13.4075	         0	2.90511e+07	   77.5171	   13.2146	         0	9.30678e+07	
         R10	   5014	   76.9282	    13.157	         0	8.15934e+07	   76.8646	      13.6	         0	6.91413e+07	   77.2595	      13.6	         0	7.05533e+07	   77.2895	    13.214	         0	9.00402e+07	   76.8964	   13.3785	         0	3.70502e+07	   77.0621	      13.6	         0	6.90279e+07	   77.2745	    13.407	         0	3.50175e+07	   77.1089	   13.1855	         0	8.56203e+07	
         R10	   5015	      76.5	   13.2385	         0	9.66449e+07	      76.5	      13.6	         0	9.29431e+07	   76.8646	      13.6	         0	7.03262e+07	   76.9282	    13.157	         0	9.37207e+07	      76.5	   13.4192	         0	9.36032e+07	   76.6823	      13.6	         0	7.15134e+07	   76.8964	   13.3785	         0	3.21692e+07	   76.7141	   13.1977	         0	6.40383e+07	
         R10	   5016	     77.01	     12.75	         0	5.92048e+07	      76.5	     12.75	         0	7.86689e+07	      76.5	   13.2385	         0	1.00354e+08	   76.9282	    13.157	         0	5.10972e+07	    76.755	     12.75	         0	5.85409e+07	      76.5	   12.9942	         0	8.55637e+07	   76.7141	   13.1977	         0	4.33684e+07	   76.9691	   12.9535	         0	2.14377e+07	
         R10	   5017	   77.5341	     12.75	         0	4.12731e+07	     77.01	     12.75	         0	5.84723e+07	   76.9282	    13.157	         0	5.96504e+07	   77.2895	    13.214	         0	 5.9723e+07	    77.272	     12.75	         0	 4.9606e+07	   76.9691	   12.9535	         0	4.18043e+07	   77.1089	   13.1855	         0	5.91482e+07	   77.4118	    12.982	         0	3.71714e+07	
         R10	   5018	   77.7446	   13.2151	         0	5.18382e+07	    78.147	   13.1657	         0	9.03206e+07	   78.0725	     12.75	         0	8.51165e+07	   77.5341	     12.75	         0	3.82348e+07	   77.9458	   13.1904	         0	7.06186e+07	   78.1097	   12.9578	         0	1.33095e+07	   77.8033	     12.75	         0	 6.0055e+07	   77.6394	   12.9825	         0	2.28718e+07	
         R10	   5019	   77.7446	   13.2151	         0	5.65059e+07	   77.5341	     12.75	         0	4.89925e+07	   77.2895	    13.214	         0	4.61691e+07	   77.6394	   12.9825	         0	3.77319e+07	   77.4118	    12.982	         0	 3.3449e+07	   77.5171	   13.2146	         0	5.11491e+07	       N/A	       N/A	       N/A	        N/A	       N/A	       N/A	       N/A	        N/A	
         R10	   5020	   72.9702	      21.5	         6	2.12252e+07	     72.25	      21.5	         6	 2.4878e+07	     72.25	      21.5	      6.85	3.71968e+07	   73.0903	      21.5	      6.85	3.64289e+07	   72.6101	      21.5	         6	2.30325e+07	     72.25	      21.5	     6.425	 3.0503e+07	   72.6701	      21.5	      6.85	3.18558e+07	   73.0303	      21.5	     6.425	2.70249e+07	
         R10	   5021	   73.6528	      21.5	         6	2.07447e+07	   72.9702	      21.5	         6	1.71679e+07	   73.0903	      21.5	      6.85	2.35774e+07	   73.8778	      21.5	      6.85	1.17072e+07	   73.3115	      21.5	         6	1.89275e+07	   73.0303	      21.5	     6.425	1.94638e+07	    73.484	      21.5	      6.85	1.70588e+07	   73.7653	      21.5	     6.425	1.48637e+07	
         R10	   5022	   74.2976	      21.5	         6	1.74282e+07	   73.6528	      21.5	         6	1.74137e+07	   73.8778	      21.5	      6.85	9.43734e+06	   74.6125	      21.5	      6.85	9.77211e+06	   73.9752	      21.5	         6	1.72974e+07	   73.7653	      21.5	     6.425	1.25314e+07	   74.2452	      21.5	      6.85	6.49246e+06	   74.4551	      21.5	     6.425	1.17962e+07	
         R10	   5023	   74.9048	      21.5	         6	1.77673e+07	   74.2976	      21.5	         6	1.48664e+07	   74.6125	      21.5	      6.85	9.90366e+06	   75.2945	      21.5	      6.85	2.10859e+07	   74.6012	      21.5	         6	1.62687e+07	   74.4551	      21.5	     6.425	1.10198e+07	   74.9535	      21.5	      6.85	1.50693e+07	   75.0996	      21.5	     6.425	1.74558e+07	
         R10	   5024	   75.4742	      21.5	         6	2.17531e+07	   74.9048	      21.5	         6	 1.5968e+07	   75.2945	      21.5	      6.85	2.12781e+07	   75.9236	      21.5	      6.85	3.52799e+07	   75.1895	      21.5	         6	 1.8832e+07	   75.0996	      21.5	     6.425	1.72037e+07	    75.609	      21.5	      6.85	2.80264e+07	   75.6989	      21.5	     6.425	2.64207e+07	
         R10	   5025	   75.9236	      21.5	      6.85	3.06501e+07	      76.5	      21.5	      6.85	4.95265e+07	      76.5	      21.5	   6.40476	6.55322e+07	    76.104	      21.5	   6.38226	3.80852e+07	   76.2118	      21.5	      6.85	 3.8337e+07	      76.5	      21.5	   6.62738	5.46581e+07	    76.302	      21.5	   6.39351	  2.226e+07	   76.0138	      21.5	   6.61613	1.98024e+07	
         R10	   5026	    76.104	      21.5	   6.38226	7.37801e+07	      76.5	      21.5	   6.40476	7.91411e+07	      76.5	      21.5	         6	3.84825e+07	    76.006	      21.5	         6	4.19347e+07	    76.302	      21.5	   6.39351	4.05836e+07	      76.5	      21.5	   6.20238	5.75968e+07	    76.253	      21.5	         6	3.19785e+07	    76.055	      21.5	   6.19113	  2.149e+07	
         R10	   5027	    76.104	      21.5	   6.38226	6.91496e+07	    76.006	      21.5	         6	1.11741e+07	   75.4742	      21.5	         6	  2.236e+07	   75.9236	      21.5	      6.85	3.38209e+07	    76.055	      21.5	   6.19113	3.46881e+07	   75.7401	      21.5	         6	1.11472e+07	   75.6989	      21.5	     6.425	2.60134e+07	   76.0138	      21.5	   6.61613	4.94569e+07	
         R10	   5028	   73.0903	      21.5	      6.85	1.51228e+07	     72.25	      21.5	      6.85	3.43232e+07	     72.25	      21.5	       7.7	3.55379e+07	   73.0678	      21.5	       7.7	2.07236e+07	   72.6701	      21.5	      6.85	2.35305e+07	     72.25	      21.5	     7.275	3.39965e+07	   72.6589	      21.5	       7.7	2.73278e+07	    73.079	      21.5	     7.275	1.57386e+07	
         R10	   5029	   73.8778	      21.5	      6.85	1.51994e+07	   73.0903	      21.5	      6.85	1.91415e+07	   73.0678	      21.5	       7.7	2.46307e+07	   73.8418	      21.5	       7.7	5.21304e+06	    73.484	      21.5	      6.85	 1.5964e+07	    73.079	      21.5	     7.275	 1.4653e+07	   73.4548	      21.5	       7.7	1.42893e+07	   73.8598	      21.5	     7.275	7.06775e+06	
         R10	   5030	   74.6125	      21.5	      6.85	1.33915e+07	   73.8778	      21.5	      6.85	1.59259e+07	   73.8418	      21.5	       7.7	6.21918e+06	    74.572	      21.5	       7.7	4.26106e+06	   74.2452	      21.5	      6.85	1.46055e+07	   73.8598	      21.5	     7.275	7.66575e+06	   74.2069	      21.5	       7.7	2.48291e+06	   74.5923	      21.5	     7.275	7.18402e+06	
         R10	   5031	   75.2945	      21.5	      6.85	9.51901e+06	   74.6125	      21.5	      6.85	1.31951e+07	    74.572	      21.5	       7.7	3.91208e+06	   75.2585	      21.5	       7.7	1.33413e+07	   74.9535	      21.5	      6.85	1.09874e+07	   74.5923	      21.5	     7.275	6.86245e+06	   74.9152	      21.5	       7.7	7.81728e+06	   75.2765	      21.5	     7.275	9.77716e+06	
         R10	   5032	   75.9236	      21.5	      6.85	1.60804e+07	   75.2945	      21.5	      6.85	1.00106e+07	   75.2585	      21.5	       7.7	 1.2984e+07	   75.9011	      21.5	       7.7	3.01069e+07	    75.609	      21.5	      6.85	1.16747e+07	   75.2765	      21.5	     7.275	9.96906e+06	   75.5798	      21.5	       7.7	2.13899e+07	   75.9124	      21.5	     7.275	2.00454e+07	
         R10	   5033	      76.5	      21.5	      6.85	4.08495e+07	   75.9236	      21.5	      6.85	 1.4905e+07	   75.9011	      21.5	       7.7	3.17281e+07	      76.5	      21.5	       7.7	3.58348e+07	   76.2118	      21.5	      6.85	2.66729e+07	   75.9124	      21.5	     7.275	1.96016e+07	   76.2006	      21.5	       7.7	3.30418e+07	      76.5	      21.5	     7.275	 3.8221e+07	
         R10	   5034	   76.9558	      21.5	         6	4.28303e+07	      76.5	      21.5	         6	4.11572e+07	      76.5	      21.5	   6.40476	7.90302e+07	   76.8917	      21.5	   6.39063	7.76938e+07	   76.7279	      21.5	         6	3.31456e+07	      76.5	      21.5	   6.20238	5.90737e+07	   76.6958	      21.5	    6.3977	4.19365e+07	   76.9237	      21.5	   6.19531	2.35112e+07	
         R10	   5035	   76.8917	      21.5	   6.39063	3.97174e+07	      76.5	      21.5	   6.40476	6.60362e+07	      76.5	      21.5	      6.85	4.93221e+07	    77.141	      21.5	      6.85	2.91591e+07	   76.6958	      21.5	    6.3977	 2.2356e+07	      76.5	      21.5	   6.62738	5.48374e+07	   76.8205	      21.5	      6.85	3.74544e+07	   77.0163	      21.5	   6.62031	2.05222e+07	
         R10	   5036	   77.8494	      21.5	      6.85	  1.819e+07	    78.625	      21.5	      6.85	6.98005e+06	    78.625	      21.5	         6	1.72795e+07	   78.0183	      21.5	         6	1.88378e+07	   78.2372	      21.5	      6.85	1.18624e+07	    78.625	      21.5	     6.425	1.12708e+07	   78.3217	      21.5	         6	1.80219e+07	   77.9338	      21.5	     6.425	1.65438e+07	
         R10	   5037	   77.4619	      21.5	         6	2.44793e+07	   76.9558	      21.5	         6	1.47954e+07	   76.8917	      21.5	   6.39063	 7.2016e+07	    77.141	      21.5	      6.85	3.21291e+07	   77.2089	      21.5	         6	1.13774e+07	   76.9237	      21.5	   6.19531	3.45863e+07	   77.0163	      21.5	   6.62031	4.98338e+07	   77.3015	      21.5	     6.425	2.61968e+07	
         R10	   5038	   78.0183	      21.5	         6	1.94325e+07	   77.4619	      21.5	         6	2.20571e+07	    77.141	      21.5	      6.85	3.37806e+07	   77.8494	      21.5	      6.85	1.79801e+07	   77.7401	      21.5	         6	2.07037e+07	   77.3015	      21.5	     6.425	 2.5689e+07	   77.4952	      21.5	      6.85	2.56111e+07	   77.9338	      21.5	     6.425	1.72115e+07	
         R10	   5039	    77.141	      21.5	      6.85	1.42098e+07	      76.5	      21.5	      6.85	4.16697e+07	      76.5	      21.5	       7.7	3.54669e+07	    77.141	      21.5	       7.7	3.12187e+07	   76.8205	      21.5	      6.85	2.64058e+07	      76.5	      21.5	     7.275	3.84941e+07	   76.8205	      21.5	       7.7	3.24556e+07	    77.141	      21.5	     7.275	1.85709e+07	
         R10	   5040	   77.8494	      21.5	      6.85	1.00078e+07	    77.141	      21.5	      6.85	1.51416e+07	    77.141	      21.5	       7.7	2.93871e+07	   77.8494	      21.5	       7.7	1.07668e+07	   77.4952	      21.5	      6.85	 1.0916e+07	    77.141	      21.5	     7.275	1.91643e+07	   77.4952	      21.5	       7.7	 1.9941e+07	   77.8494	      21.5	     7.275	8.85836e+06	
         R10	   5041	    78.625	      21.5	      6.85	1.45258e+07	   77.8494	      21.5	      6.85	9.58246e+06	   77.8494	      21.5	       7.7	1.12813e+07	    78.625	      21.5	       7.7	2.77909e+06	   78.2372	      21.5	      6.85	1.18263e+07	   77.8494	      21.5	     7.275	8.81593e+06	   78.2372	      21.5	       7.7	5.37634e+06	    78.625	      21.5	     7.275	6.64708e+06	
         R10	   5042	   76.1395	   14.0016	         0	7.01685e+07	   76.1395	      13.6	         0	5.52113e+07	   75.6967	      13.6	         0	3.81171e+07	   75.6967	   14.0838	         0	4.93668e+07	   76.1395	   13.8008	         0	4.48996e+07	   75.9181	      13.6	         0	4.52283e+07	   75.6967	   13.8419	         0	3.75697e+07	   75.9181	   14.0427	         0	5.86189e+07	
         R10	   5043	      76.5	   13.9103	         0	1.28489e+08	      76.5	      13.6	         0	9.41253e+07	   76.1395	      13.6	         0	  5.661e+07	   76.1395	   14.0016	         0	6.93192e+07	      76.5	   13.7551	         0	1.01491e+08	   76.3197	      13.6	         0	6.12345e+07	   76.1395	   13.8008	         0	1.69582e+07	   76.3197	   13.9559	         0	 5.1783e+07	
         R10	   5044	   76.1859	     14.45	         0	5.32236e+07	      76.5	     14.45	         0	1.06807e+08	      76.5	   14.1936	         0	 1.0903e+08	   76.1395	   14.0016	         0	6.28193e+07	   76.3429	     14.45	         0	7.11916e+07	      76.5	   14.3218	         0	9.93414e+07	   76.3197	   14.0976	         0	5.70696e+07	   76.1627	   14.2258	         0	3.31418e+07	
         R10	   5045	   75.7741	     14.45	         0	3.37726e+07	   76.1859	     14.45	         0	4.88358e+07	   76.1395	   14.0016	         0	5.50228e+07	   75.6967	   14.0838	         0	 6.4852e+07	     75.98	     14.45	         0	4.11043e+07	   76.1627	   14.2258	         0	3.84182e+07	   75.9181	   14.0427	         0	5.88765e+07	   75.7354	   14.2669	         0	3.49391e+07	
         R10	   5046	   73.1038	      13.6	         0	3.68845e+07	     72.25	      13.6	         0	6.54286e+07	     72.25	     14.45	         0	  5.965e+07	   73.1501	     14.45	         0	3.08339e+07	   72.6769	      13.6	         0	5.07458e+07	     72.25	    14.025	         0	6.20321e+07	   72.7001	     14.45	         0	4.46421e+07	    73.127	    14.025	         0	3.18866e+07	
         R10	   5047	   73.8753	      13.6	         0	1.41271e+07	   73.1038	      13.6	         0	3.91009e+07	   73.1501	     14.45	         0	3.49261e+07	   73.9526	     14.45	         0	3.02749e+07	   73.4895	      13.6	         0	2.62349e+07	    73.127	    14.025	         0	3.18601e+07	   73.5514	     14.45	         0	3.13032e+07	    73.914	    14.025	         0	2.03146e+07	
         R10	   5048	   74.5647	      13.6	         0	 1.1001e+07	   73.8753	      13.6	         0	1.56378e+07	   73.9526	     14.45	         0	3.12345e+07	   74.6574	     14.45	         0	3.22394e+07	     74.22	      13.6	         0	1.27034e+07	    73.914	    14.025	         0	2.14084e+07	    74.305	     14.45	         0	3.17055e+07	   74.6111	    14.025	         0	2.00498e+07	
         R10	   5049	   75.1718	      13.6	         0	 2.2493e+07	   74.5647	      13.6	         0	1.19186e+07	   74.6574	     14.45	         0	3.19392e+07	   75.2646	     14.45	         0	3.46181e+07	   74.8682	      13.6	         0	1.68176e+07	   74.6111	    14.025	         0	2.01508e+07	    74.961	     14.45	         0	3.31231e+07	   75.2182	    14.025	         0	2.58405e+07	
         R10	   5050	   75.6967	   14.0838	         0	5.56603e+07	   75.6967	      13.6	         0	  3.675e+07	   75.1718	      13.6	         0	2.39045e+07	   75.2646	     14.45	         0	 3.7569e+07	   75.6967	   13.8419	         0	4.17346e+07	   75.4343	      13.6	         0	2.94322e+07	   75.2182	    14.025	         0	2.64319e+07	   75.4807	   14.2669	         0	4.44986e+07	
         R10	   5051	      76.5	   14.1936	         0	1.04591e+08	      76.5	   13.9103	         0	1.23354e+08	   76.1395	   14.0016	         0	3.70451e+07	      76.5	   14.0519	         0	1.13305e+08	   76.3197	   13.9559	         0	5.36756e+07	   76.3197	   14.0976	         0	4.41665e+07	       N/A	       N/A	       N/A	        N/A	       N/A	       N/A	       N/A	        N/A	
         R10	   5052	   75.6967	   14.0838	         0	6.04207e+07	   75.2646	     14.45	         0	1.86253e+07	   75.7741	     14.45	         0	3.33731e+07	   75.4807	   14.2669	         0	3.60783e+07	   75.5193	     14.45	         0	2.35485e+07	   75.7354	   14.2669	         0	2.93215e+07	       N/A	       N/A	       N/A	        N/A	       N/A	       N/A	       N/A	        N/A	
         R10	   5053	   76.1859	    14.813	         0	8.07014e+07	   76.1859	     14.45	         0	 5.2894e+07	   75.7741	     14.45	         0	7.22992e+07	   75.7741	   14.9106	         0	1.06131e+08	   76.1859	   14.6315	         0	5.22567e+07	     75.98	     14.45	         0	6.02657e+07	   75.7741	   14.6803	         0	 2.9028e+07	     75.98	   14.8618	         0	8.59429e+07	
         R10	   5054	      76.5	   14.7736	         0	1.19161e+08	      76.5	     14.45	         0	9.06128e+07	   76.1859	     14.45	         0	5.42925e+07	   76.1859	    14.813	         0	6.45235e+07	      76.5	   14.6118	         0	9.90939e+07	   76.3429	     14.45	         0	 6.2727e+07	   76.1859	   14.6315	         0	2.20452e+07	   76.3429	   14.7933	         0	5.51103e+07	
         R10	   5055	   76.2368	   15.0569	         0	5.77171e+07	      76.5	   15.0569	         0	1.04204e+08	      76.5	   14.7736	         0	1.26418e+08	   76.1859	    14.813	         0	 4.2312e+07	   76.3684	   15.0569	         0	6.85992e+07	      76.5	   14.9152	         0	1.15095e+08	   76.3429	   14.7933	         0	5.88088e+07	   76.2113	   14.9349	         0	3.55134e+07	
         R10	   5056	   76.2666	      15.3	         0	6.41367e+07	      76.5	      15.3	         0	7.17564e+07	      76.5	   15.0569	         0	1.03572e+08	   76.2368	   15.0569	         0	4.84058e+07	   76.3833	      15.3	         0	5.40344e+07	      76.5	   15.1784	         0	8.00814e+07	   76.3684	   15.0569	         0	5.99598e+07	   76.2517	   15.1784	         0	3.80718e+07	
         R10	   5057	   73.1501	     14.45	         0	4.60886e+07	     72.25	     14.45	         0	6.27921e+07	     72.25	      15.3	         0	4.37922e+07	    72.961	      15.3	         0	3.18246e+07	   72.7001	     14.45	         0	5.06282e+07	     72.25	    14.875	         0	5.30109e+07	   72.6055	      15.3	         0	3.78018e+07	   73.0556	    14.875	         0	 3.6952e+07	
         R10	   5058	   73.9526	     14.45	         0	2.04583e+07	   73.1501	     14.45	         0	3.61577e+07	    72.961	      15.3	         0	2.99471e+07	   73.6123	      15.3	         0	3.06461e+07	   73.5514	     14.45	         0	2.80341e+07	   73.0556	    14.875	         0	  3.212e+07	   73.2867	      15.3	         0	3.02913e+07	   73.7825	    14.875	         0	2.47783e+07	
         R10	   5059	   74.6574	     14.45	         0	1.78828e+07	   73.9526	     14.45	         0	2.02034e+07	   73.6123	      15.3	         0	2.94087e+07	   74.2039	      15.3	         0	2.54725e+07	    74.305	     14.45	         0	1.77301e+07	   73.7825	    14.875	         0	2.43119e+07	   73.9081	      15.3	         0	2.74091e+07	   74.4307	    14.875	         0	2.12277e+07	
         R10	   5060	   75.3988	    14.814	         0	8.23108e+07	   75.7741	   14.9106	         0	1.07646e+08	   75.7741	     14.45	         0	7.53951e+07	   75.2646	     14.45	         0	4.15827e+07	   75.5864	   14.8623	         0	9.23678e+07	   75.7741	   14.6803	         0	3.99188e+07	   75.5193	     14.45	         0	5.66662e+07	   75.3317	    14.632	         0	 4.6909e+07	
         R10	   5061	   76.2368	   15.0569	         0	8.67777e+07	   76.1859	    14.813	         0	6.03006e+07	   75.7741	   14.9106	         0	6.10456e+07	   75.9948	   15.0892	         0	7.46006e+07	   76.2113	   14.9349	         0	6.21685e+07	     75.98	   14.8618	         0	5.13752e+07	   75.8844	   14.9999	         0	5.79669e+07	   76.1158	    15.073	         0	7.88603e+07	
         R10	   5062	   75.9734	      15.3	         0	9.75097e+07	   76.2666	      15.3	         0	5.16441e+07	   76.2368	   15.0569	         0	6.41671e+07	   75.9948	   15.0892	         0	5.16356e+07	     76.12	      15.3	         0	7.20901e+07	   76.2517	   15.1784	         0	4.63551e+07	   76.1158	    15.073	         0	5.15761e+07	   75.9841	   15.1946	         0	2.70228e+07	
         R10	   5063	   75.7741	   14.9106	         0	8.48706e+07	   75.6206	      15.3	         0	6.79747e+07	   75.9734	      15.3	         0	8.37698e+07	   75.9948	   15.0892	         0	8.89064e+07	   75.6973	   15.1053	         0	1.15893e+07	    75.797	      15.3	         0	7.47704e+07	   75.9841	   15.1946	         0	 4.9458e+07	   75.8844	   14.9999	         0	7.30106e+07	
         R10	   5064	   75.6206	      15.3	         0	 6.2995e+07	   75.7741	   14.9106	         0	9.31665e+07	   75.3988	    14.814	         0	2.95082e+07	   75.2081	      15.3	         0	2.57201e+07	   75.6973	   15.1053	         0	3.42479e+07	   75.5864	   14.8623	         0	6.09403e+07	   75.3034	    15.057	         0	2.48152e+07	   75.4143	      15.3	         0	3.58118e+07	
         R10	   5065	   75.3988	    14.814	         0	7.12549e+07	   75.2646	     14.45	         0	3.67598e+07	   74.6574	     14.45	         0	1.98773e+07	   75.2081	      15.3	         0	3.47495e+07	   75.3317	    14.632	         0	4.54798e+07	    74.961	     14.45	         0	2.41521e+07	   74.9327	    14.875	         0	2.40494e+07	   75.3034	    15.057	         0	5.09742e+07	
         R10	   5066	   74.6574	     14.45	         0	2.40196e+07	   74.7358	      15.3	         0	2.48853e+07	   75.2081	      15.3	         0	2.80168e+07	   74.6966	    14.875	         0	2.39195e+07	    74.972	      15.3	         0	2.64215e+07	   74.9327	    14.875	         0	2.56778e+07	       N/A	       N/A	       N/A	        N/A	       N/A	       N/A	       N/A	        N/A	
         R10	   5067	   74.7358	      15.3	         0	2.02668e+07	   74.6574	     14.45	         0	2.39629e+07	   74.2039	      15.3	         0	 2.7562e+07	   74.6966	    14.875	         0	2.20068e+07	   74.4307	    14.875	         0	2.55849e+07	   74.4699	      15.3	         0	2.38143e+07	       N/A	       N/A	       N/A	        N/A	       N/A	       N/A	       N/A	        N/A	
         R10	   5068	   77.2805	    14.012	         0	1.11513e+08	   77.2595	      13.6	         0	8.08514e+07	   76.8646	      13.6	         0	4.81954e+07	   76.8859	   14.0093	         0	8.48266e+07	     77.27	    13.806	         0	2.55745e+07	   77.0621	      13.6	         0	6.04662e+07	   76.8753	   13.8046	         0	5.57398e+07	   77.0832	   14.0107	         0	 9.0713e+07	
         R10	   5069	   77.7002	   14.0324	         0	1.22323e+08	   77.6845	      13.6	         0	9.07699e+07	   77.2595	      13.6	         0	8.32757e+07	   77.2805	    14.012	         0	1.11771e+08	   77.6923	   13.8162	         0	2.82036e+07	    77.472	      13.6	         0	8.67911e+07	     77.27	    13.806	         0	3.22889e+07	   77.4904	   14.0222	         0	1.17029e+08	
         R10	   5070	     78.15	   14.0528	         0	1.27692e+08	   78.1396	      13.6	         0	9.20017e+07	   77.6845	      13.6	         0	9.08125e+07	   77.7002	   14.0324	         0	1.21723e+08	   78.1448	   13.8264	         0	2.33464e+07	   77.9121	      13.6	         0	9.12998e+07	   77.6923	   13.8162	         0	2.74285e+07	   77.9251	   14.0426	         0	1.24638e+08	
         R10	   5071	    78.625	   14.0452	         0	1.18578e+08	    78.625	      13.6	         0	8.99045e+07	   78.1396	      13.6	         0	 9.1845e+07	     78.15	   14.0528	         0	1.28195e+08	    78.625	   13.8226	         0	1.72301e+07	   78.3823	      13.6	         0	9.08124e+07	   78.1448	   13.8264	         0	2.53581e+07	   78.3875	    14.049	         0	1.23177e+08	
         R10	   5072	   78.2041	     14.45	         0	 8.6578e+07	    78.625	     14.45	         0	9.20093e+07	    78.625	   14.0452	         0	 1.2002e+08	     78.15	   14.0528	         0	 1.1019e+08	   78.4146	     14.45	         0	8.92879e+07	    78.625	   14.2476	         0	1.70815e+07	   78.3875	    14.049	         0	1.14849e+08	    78.177	   14.2514	         0	2.02201e+07	
         R10	   5073	   77.8099	     14.45	         0	8.39949e+07	   78.2041	     14.45	         0	8.61647e+07	     78.15	   14.0528	         0	1.10502e+08	   77.7002	   14.0324	         0	1.15139e+08	    78.007	     14.45	         0	8.50375e+07	    78.177	   14.2514	         0	1.83012e+07	   77.9251	   14.0426	         0	  1.128e+08	   77.7551	   14.2412	         0	 2.3717e+07	
         R10	   5074	   77.4424	     14.45	         0	7.05761e+07	   77.8099	     14.45	         0	8.48009e+07	   77.7002	   14.0324	         0	1.15972e+08	   77.2805	    14.012	         0	1.00671e+08	   77.6262	     14.45	         0	 7.7497e+07	   77.7551	   14.2412	         0	2.49372e+07	   77.4904	   14.0222	         0	1.08314e+08	   77.3615	    14.231	         0	  2.754e+07	
         R10	   5075	   77.1016	     14.45	         0	 4.3552e+07	   77.4424	     14.45	         0	 7.4001e+07	   77.2805	    14.012	         0	9.87703e+07	   76.8859	   14.0093	         0	7.83517e+07	    77.272	     14.45	         0	5.59296e+07	   77.3615	    14.231	         0	2.25897e+07	   77.0832	   14.0107	         0	7.95527e+07	   76.9938	   14.2296	         0	5.22698e+07	
         R10	   5076	      76.5	   14.1936	         0	1.16056e+08	      76.5	     14.45	         0	1.08868e+08	   76.7875	     14.45	         0	5.15127e+07	   76.8859	   14.0093	         0	2.72396e+07	      76.5	   14.3218	         0	1.02858e+08	   76.6437	     14.45	         0	7.81542e+07	   76.8367	   14.2296	         0	2.98893e+07	    76.693	   14.1014	         0	5.55921e+07	
         R10	   5077	      76.5	   13.9103	         0	8.53488e+07	      76.5	   14.1936	         0	1.16111e+08	   76.8859	   14.0093	         0	6.73988e+07	   76.8646	      13.6	         0	5.59849e+07	      76.5	   14.0519	         0	 1.0005e+08	    76.693	   14.1014	         0	6.49928e+07	   76.8753	   13.8046	         0	2.73206e+07	   76.6823	   13.7551	         0	6.33185e+07	
         R10	   5078	   76.7875	     14.45	         0	4.95162e+07	   77.1016	     14.45	         0	3.75881e+07	   76.8859	   14.0093	         0	6.31666e+07	   76.9445	     14.45	         0	4.09072e+07	   76.9938	   14.2296	         0	4.39839e+07	   76.8367	   14.2296	         0	5.48075e+07	       N/A	       N/A	       N/A	        N/A	       N/A	       N/A	       N/A	        N/A	
         R10	   5079	      76.5	   13.9103	         0	8.92747e+07	   76.8646	      13.6	         0	5.14492e+07	      76.5	      13.6	         0	1.00516e+08	   76.6823	   13.7551	         0	6.41855e+07	   76.6823	      13.6	         0	 7.5817e+07	      76.5	   13.7551	         0	8.29153e+07	       N/A	       N/A	       N/A	        N/A	       N/A	       N/A	       N/A	        N/A	
         R10	   5080	   77.0864	    14.748	         0	8.50965e+07	   77.1016	     14.45	         0	9.98466e+07	   76.7875	     14.45	         0	 5.6968e+07	   76.7859	   14.7475	         0	6.57413e+07	    77.094	    14.599	         0	2.29237e+07	   76.9445	     14.45	         0	7.46912e+07	   76.7867	   14.5987	         0	4.95601e+07	   76.9362	   14.7477	         0	 6.9562e+07	
         R10	   5081	   77.4158	   14.7468	         0	8.43706e+07	   77.4424	     14.45	         0	9.73458e+07	   77.1016	     14.45	         0	1.00348e+08	   77.0864	    14.748	         0	9.97233e+07	   77.4291	   14.5984	         0	2.38854e+07	    77.272	     14.45	         0	9.87109e+07	    77.094	    14.599	         0	4.43527e+07	   77.2511	   14.7474	         0	9.03791e+07	
         R10	   5082	   77.7879	   14.8591	         0	1.05745e+08	   77.8099	     14.45	         0	7.63968e+07	   77.4424	     14.45	         0	 9.3361e+07	   77.4158	   14.7468	         0	1.10208e+08	   77.7989	   14.6546	         0	1.88705e+07	   77.6262	     14.45	         0	8.48304e+07	   77.4291	   14.5984	         0	4.85712e+07	   77.6019	    14.803	         0	1.00614e+08	
         R10	   5083	   78.2072	   14.8764	         0	1.12264e+08	   78.2041	     14.45	         0	6.67349e+07	   77.8099	     14.45	         0	7.69778e+07	   77.7879	   14.8591	         0	1.18814e+08	   78.2057	   14.6632	         0	2.45976e+07	    78.007	     14.45	         0	7.17781e+07	   77.7989	   14.6546	         0	  4.156e+07	   77.9976	   14.8677	         0	1.12045e+08	
         R10	   5084	    78.625	    14.955	         0	1.10152e+08	    78.625	     14.45	         0	4.51943e+07	   78.2041	     14.45	         0	6.62613e+07	   78.2072	   14.8764	         0	1.16836e+08	    78.625	   14.7025	         0	3.62761e+07	   78.4146	     14.45	         0	 5.5594e+07	   78.2057	   14.6632	         0	3.50537e+07	   78.4161	   14.9157	         0	1.11525e+08	
         R10	   5085	   78.3217	      15.3	         0	5.20925e+07	    78.625	      15.3	         0	5.10141e+07	    78.625	    14.955	         0	3.61152e+07	   78.2072	   14.8764	         0	6.27465e+07	   78.4733	      15.3	         0	5.11854e+07	    78.625	   15.1275	         0	2.48106e+07	   78.4161	   14.9157	         0	4.72563e+07	   78.2644	   15.0882	         0	2.19227e+07	
         R10	   5086	   77.2717	   15.0403	         0	6.93716e+07	    77.216	      15.3	         0	1.04805e+08	   77.4763	      15.3	         0	 9.9044e+07	   77.5053	   15.0711	         0	4.93704e+07	   77.2439	   15.1701	         0	3.30331e+07	   77.3462	      15.3	         0	1.00828e+08	   77.4908	   15.1856	         0	3.81322e+07	   77.3885	   15.0557	         0	5.48516e+07	
         R10	   5087	   77.0037	   15.0313	         0	8.36385e+07	   76.9666	      15.3	         0	9.27229e+07	    77.216	      15.3	         0	1.08131e+08	   77.2717	   15.0403	         0	6.27641e+07	   76.9852	   15.1656	         0	3.71885e+07	   77.0913	      15.3	         0	1.00359e+08	   77.2439	   15.1701	         0	3.10254e+07	   77.1377	   15.0358	         0	6.82103e+07	
         R10	   5088	   76.7502	    15.028	         0	6.67552e+07	   76.7279	      15.3	         0	 4.9667e+07	   76.9666	      15.3	         0	9.62284e+07	   77.0037	   15.0313	         0	7.27277e+07	   76.7391	    15.164	         0	4.35056e+07	   76.8472	      15.3	         0	7.13076e+07	   76.9852	   15.1656	         0	3.52147e+07	    76.877	   15.0296	         0	  6.754e+07	
         R10	   5089	      76.5	   15.0569	         0	1.10466e+08	      76.5	      15.3	         0	7.39766e+07	   76.7279	      15.3	         0	6.16544e+07	   76.7502	    15.028	         0	5.53589e+07	      76.5	   15.1784	         0	8.55196e+07	    76.614	      15.3	         0	5.34697e+07	   76.7391	    15.164	         0	3.83113e+07	   76.6251	   15.0425	         0	6.53569e+07	
         R10	   5090	   76.7859	   14.7475	         0	4.57857e+07	   76.7875	     14.45	         0	5.97446e+07	      76.5	     14.45	         0	 9.8372e+07	      76.5	   14.7736	         0	1.20821e+08	   76.7867	   14.5987	         0	 2.2634e+07	   76.6437	     14.45	         0	6.92175e+07	      76.5	   14.6118	         0	1.03439e+08	   76.6429	   14.7605	         0	5.63908e+07	
         R10	   5091	   77.7473	      15.3	         0	7.55899e+07	   78.0291	      15.3	         0	5.50572e+07	   78.2072	   14.8764	         0	5.75802e+07	   77.7879	   14.8591	         0	1.13473e+08	   77.8882	      15.3	         0	6.43088e+07	   78.1181	   15.0882	         0	1.77706e+07	   77.9976	   14.8677	         0	8.33344e+07	   77.7676	   15.0796	         0	3.54156e+07	
         R10	   5092	   77.5053	   15.0711	         0	8.13131e+07	   77.4763	      15.3	         0	8.82404e+07	   77.7473	      15.3	         0	7.25545e+07	   77.7879	   14.8591	         0	1.07782e+08	   77.4908	   15.1856	         0	4.94269e+07	   77.6118	      15.3	         0	 7.9815e+07	   77.7676	   15.0796	         0	1.91463e+07	   77.6466	   14.9651	         0	 8.2505e+07	
         R10	   5093	   77.2717	   15.0403	         0	1.04069e+08	   77.5053	   15.0711	         0	3.55951e+07	   77.7879	   14.8591	         0	 7.6379e+07	   77.4158	   14.7468	         0	8.42291e+07	   77.3885	   15.0557	         0	6.67026e+07	   77.6466	   14.9651	         0	4.69738e+07	   77.6019	    14.803	         0	7.71132e+07	   77.3438	   14.8935	         0	9.28235e+07	
         R10	   5094	   77.0037	   15.0313	         0	8.15785e+07	   77.2717	   15.0403	         0	7.14683e+07	   77.4158	   14.7468	         0	5.46237e+07	   77.0864	    14.748	         0	  7.713e+07	   77.1377	   15.0358	         0	 7.5436e+07	   77.3438	   14.8935	         0	6.11953e+07	   77.2511	   14.7474	         0	6.32004e+07	   77.0451	   14.8896	         0	7.71196e+07	
         R10	   5095	   76.7502	    15.028	         0	7.60556e+07	   77.0037	   15.0313	         0	 6.0331e+07	   77.0864	    14.748	         0	5.96199e+07	   76.7859	   14.7475	         0	 7.1294e+07	    76.877	   15.0296	         0	6.43427e+07	   77.0451	   14.8896	         0	 5.7896e+07	   76.9362	   14.7477	         0	6.26291e+07	   76.7681	   14.8877	         0	6.31244e+07	
         R10	   5096	      76.5	   15.0569	         0	1.11386e+08	   76.7502	    15.028	         0	5.35822e+07	   76.7859	   14.7475	         0	5.71011e+07	      76.5	   14.7736	         0	1.26133e+08	   76.6251	   15.0425	         0	6.84759e+07	   76.7681	   14.8877	         0	4.01687e+07	   76.6429	   14.7605	         0	6.98137e+07	      76.5	   14.9152	         0	1.18414e+08	
         R10	   5097	   78.0291	      15.3	         0	4.35882e+07	   78.3217	      15.3	         0	4.37721e+07	   78.2072	   14.8764	         0	7.96748e+07	   78.1754	      15.3	         0	4.33716e+07	   78.2644	   15.0882	         0	3.04846e+07	   78.1181	   15.0882	         0	3.48692e+07	       N/A	       N/A	       N/A	        N/A	       N/A	       N/A	       N/A	        N/A	
         R10	   5098	   72.7813	   20.7284	  0.396646	 3.0991e+07	   72.7546	   20.2716	  0.135881	3.13509e+07	     72.25	   20.2104	   0.11214	4.29399e+07	     72.25	   20.7284	  0.396646	4.15052e+07	   72.7679	   20.5086	  0.251177	3.11391e+07	   72.5023	   20.2411	   0.12376	3.37389e+07	     72.25	     20.48	  0.235152	4.19619e+07	   72.5156	   20.7284	  0.396646	3.45275e+07	
         R10	   5099	   72.7546	   20.2716	  0.135881	3.07749e+07	    72.675	   19.7344	         0	3.83034e+07	     72.25	   19.7344	         0	4.65333e+07	     72.25	   20.2104	   0.11214	4.00682e+07	   72.7148	   20.0077	 0.0492511	3.25852e+07	   72.4625	   19.7344	         0	4.14423e+07	     72.25	   19.9759	  0.041468	4.32891e+07	   72.5023	   20.2411	   0.12376	3.04143e+07	
         R10	   5100	   73.3115	   20.2458	  0.125604	3.35687e+07	      73.1	   19.7344	         0	4.01602e+07	    72.675	   19.7344	         0	2.91334e+07	   72.7546	   20.2716	  0.135881	4.45662e+07	   73.2057	   19.9943	 0.0458981	 3.6261e+07	   72.8875	   19.7344	         0	3.34072e+07	   72.7148	   20.0077	 0.0492511	3.65603e+07	   73.0331	   20.2587	  0.130698	3.88305e+07	
         R10	   5101	   73.8403	   20.2728	  0.136409	3.81296e+07	   74.2663	   20.2115	  0.112559	  3.668e+07	    74.375	   19.7344	         0	2.73721e+07	     73.95	   19.7344	         0	2.63098e+07	   74.0533	   20.2423	  0.124232	3.73678e+07	   74.3206	   19.9764	 0.0416063	3.03094e+07	   74.1625	   19.7344	         0	2.68137e+07	   73.8951	   20.0084	 0.0494225	3.04592e+07	
         R10	   5102	   74.2663	   20.2115	  0.112559	3.56164e+07	   74.7261	   20.2116	  0.112582	3.61155e+07	      74.8	   19.7344	         0	2.69185e+07	    74.375	   19.7344	         0	2.65478e+07	   74.4962	   20.2116	   0.11257	 3.5857e+07	   74.7631	   19.9765	  0.041614	3.01324e+07	   74.5875	   19.7344	         0	2.67203e+07	   74.3206	   19.9764	 0.0416063	2.93242e+07	
         R10	   5103	   74.7261	   20.2116	  0.112582	3.54086e+07	   75.0981	   20.2748	  0.137213	3.87029e+07	    75.225	   19.7344	         0	2.71584e+07	      74.8	   19.7344	         0	2.74026e+07	   74.9121	   20.2433	  0.124629	 3.7032e+07	   75.1615	   20.0094	 0.0496838	3.13532e+07	   75.0125	   19.7344	         0	2.72632e+07	   74.7631	   19.9765	  0.041614	2.98466e+07	
         R10	   5104	   75.0981	   20.2748	  0.137213	3.79537e+07	   75.5562	   20.2727	   0.13636	3.69133e+07	     75.65	   19.7344	         0	3.05569e+07	    75.225	   19.7344	         0	2.85563e+07	   75.3271	   20.2738	  0.136786	3.73941e+07	   75.6031	   20.0083	 0.0494065	3.21253e+07	   75.4375	   19.7344	         0	2.95437e+07	   75.1615	   20.0094	 0.0496838	 3.1775e+07	
         R10	   5105	   75.5562	   20.2727	   0.13636	 3.8569e+07	   76.0252	   20.2725	  0.136263	3.99251e+07	    76.075	   19.7344	         0	3.63003e+07	     75.65	   19.7344	         0	3.15828e+07	   75.7907	   20.2726	  0.136312	3.92222e+07	   76.0501	   20.0082	 0.0493752	3.77616e+07	   75.8625	   19.7344	         0	3.27645e+07	   75.6031	   20.0083	 0.0494065	3.34975e+07	
         R10	   5106	   76.0252	   20.2725	  0.136263	2.74109e+07	      76.5	   20.2104	   0.11214	3.82829e+07	      76.5	   19.7344	         0	4.48571e+07	    76.075	   19.7344	         0	3.16349e+07	   76.2626	   20.2415	  0.123943	 2.7713e+07	      76.5	   19.9759	  0.041468	4.15264e+07	   76.2875	   19.7344	         0	 3.4641e+07	   76.0501	   20.0082	 0.0493752	2.86735e+07	
         R10	   5107	   76.0252	   20.2725	  0.136263	3.07071e+07	   75.9688	   20.7284	  0.396646	2.89903e+07	      76.5	   20.7284	  0.396646	4.20012e+07	      76.5	   20.2104	   0.11214	4.06056e+07	    75.997	    20.509	  0.251428	2.98396e+07	   76.2344	   20.7284	  0.396646	2.98009e+07	      76.5	     20.48	  0.235152	4.12433e+07	   76.2626	   20.2415	  0.123943	2.87752e+07	
         R10	   5108	   75.5562	   20.2727	   0.13636	3.42129e+07	   75.4375	   20.7284	  0.396646	3.26913e+07	   75.9688	   20.7284	  0.396646	4.15561e+07	   76.0252	   20.2725	  0.136263	4.00366e+07	   75.4968	   20.5092	  0.251491	3.34363e+07	   75.7031	   20.7284	  0.396646	3.70936e+07	    75.997	    20.509	  0.251428	4.07771e+07	   75.7907	   20.2726	  0.136312	3.71243e+07	
         R10	   5109	   75.0981	   20.2748	  0.137213	3.54462e+07	   74.9063	   20.7284	  0.396646	3.58274e+07	   75.4375	   20.7284	  0.396646	3.53108e+07	   75.5562	   20.2727	   0.13636	3.56432e+07	   75.0022	   20.5101	  0.252051	 3.5583e+07	   75.1719	   20.7284	  0.396646	3.55495e+07	   75.4968	   20.5092	  0.251491	3.54539e+07	   75.3271	   20.2738	  0.136786	3.55053e+07	
         R10	   5110	   74.7261	   20.2116	  0.112582	3.52783e+07	    74.375	   20.7284	  0.396646	3.60091e+07	   74.9063	   20.7284	  0.396646	3.56602e+07	   75.0981	   20.2748	  0.137213	3.60093e+07	   74.5506	   20.4805	  0.235459	3.56215e+07	   74.6406	   20.7284	  0.396646	3.58311e+07	   75.0022	   20.5101	  0.252051	3.57901e+07	   74.9121	   20.2433	  0.124629	3.56338e+07	
         R10	   5111	   73.3125	   20.7284	  0.396646	3.46663e+07	   73.3115	   20.2458	  0.125604	3.37835e+07	   72.7546	   20.2716	  0.135881	  4.105e+07	   72.7813	   20.7284	  0.396646	4.19589e+07	    73.312	   20.4965	  0.244347	3.41899e+07	   73.0331	   20.2587	  0.130698	3.74153e+07	   72.7679	   20.5086	  0.251177	4.14678e+07	   73.0469	   20.7284	  0.396646	3.81849e+07	
         R10	   5112	   73.3115	   20.2458	  0.125604	3.40666e+07	   73.8403	   20.2728	  0.136409	3.88383e+07	     73.95	   19.7344	         0	2.69012e+07	    73.525	   19.7344	         0	3.08527e+07	   73.5759	   20.2593	  0.130957	3.63239e+07	   73.8951	   20.0084	 0.0494225	3.11897e+07	   73.7375	   19.7344	         0	2.85208e+07	   73.4183	   19.9943	 0.0458981	3.23308e+07	
         R10	   5113	   73.8438	   20.7284	  0.396646	3.64113e+07	   73.8403	   20.2728	  0.136409	3.50738e+07	   73.3115	   20.2458	  0.125604	3.70336e+07	   73.3125	   20.7284	  0.396646	3.71983e+07	    73.842	   20.5092	  0.251523	3.57167e+07	   73.5759	   20.2593	  0.130957	3.60533e+07	    73.312	   20.4965	  0.244347	3.71003e+07	   73.5781	   20.7284	  0.396646	3.68021e+07	
         R10	   5114	    74.375	   20.7284	  0.396646	3.59471e+07	   74.2663	   20.2115	  0.112559	 3.5658e+07	   73.8403	   20.2728	  0.136409	3.52907e+07	   73.8438	   20.7284	  0.396646	3.68167e+07	   74.3206	   20.4805	  0.235443	3.57705e+07	   74.0533	   20.2423	  0.124232	3.54652e+07	    73.842	   20.5092	  0.251523	3.60264e+07	   74.1094	   20.7284	  0.396646	3.63811e+07	
         R10	   5115	   73.3115	   20.2458	  0.125604	3.87068e+07	    73.525	   19.7344	         0	2.87251e+07	      73.1	   19.7344	         0	3.26604e+07	   73.4183	   19.9943	 0.0458981	3.27915e+07	   73.3125	   19.7344	         0	3.04978e+07	   73.2057	   19.9943	 0.0458981	3.51412e+07	       N/A	       N/A	       N/A	        N/A	       N/A	       N/A	       N/A	        N/A	
         R10	   5116	   74.7261	   20.2116	  0.112582	3.66938e+07	   74.2663	   20.2115	  0.112559	3.54577e+07	    74.375	   20.7284	  0.396646	3.55779e+07	   74.4962	   20.2116	   0.11257	3.60615e+07	   74.3206	   20.4805	  0.235443	3.55151e+07	   74.5506	   20.4805	  0.235459	3.61286e+07	       N/A	       N/A	       N/A	        N/A	       N/A	       N/A	       N/A	        N/A	
         R10	   5117	   77.0313	   20.7284	  0.396646	3.09802e+07	   77.0061	   20.2558	  0.129553	3.08855e+07	      76.5	   20.2104	   0.11214	4.00059e+07	      76.5	   20.7284	  0.396646	3.77149e+07	   77.0187	   20.5012	   0.24699	3.08815e+07	   76.7531	   20.2332	  0.120708	2.87581e+07	      76.5	     20.48	  0.235152	3.87986e+07	   76.7656	   20.7284	  0.396646	2.98125e+07	
         R10	   5118	   77.0061	   20.2558	  0.129553	2.83448e+07	    76.925	   19.7344	         0	3.26274e+07	      76.5	   19.7344	         0	4.35043e+07	      76.5	   20.2104	   0.11214	3.74363e+07	   76.9656	   19.9995	 0.0471891	 2.9677e+07	   76.7125	   19.7344	         0	3.48421e+07	      76.5	   19.9759	  0.041468	4.04288e+07	   76.7531	   20.2332	  0.120708	2.77807e+07	
         R10	   5119	   77.5678	   20.2271	  0.118391	3.26273e+07	     77.35	   19.7344	         0	3.35164e+07	    76.925	   19.7344	         0	3.52805e+07	   77.0061	   20.2558	  0.129553	 4.1855e+07	   77.4589	   19.9845	 0.0435307	3.28182e+07	   77.1375	   19.7344	         0	3.40661e+07	   76.9656	   19.9995	 0.0471891	3.83056e+07	   77.2869	   20.2415	  0.123917	3.70301e+07	
         R10	   5120	   78.1234	   20.2409	  0.123684	3.75956e+07	    78.625	   20.2104	   0.11214	3.66535e+07	    78.625	   19.7344	         0	2.71978e+07	      78.2	   19.7344	         0	2.72409e+07	   78.3742	   20.2257	   0.11785	3.70783e+07	    78.625	   19.9759	  0.041468	3.04737e+07	   78.4125	   19.7344	         0	2.72028e+07	   78.1617	   19.9917	 0.0452692	3.07499e+07	
         R10	   5121	   78.1234	   20.2409	  0.123684	3.53378e+07	   78.0938	   20.7284	  0.396646	3.54395e+07	    78.625	   20.7284	  0.396646	3.61172e+07	    78.625	   20.2104	   0.11214	3.52148e+07	   78.1086	   20.4942	  0.243054	3.53118e+07	   78.3594	   20.7284	  0.396646	3.57735e+07	    78.625	     20.48	  0.235152	3.56064e+07	   78.3742	   20.2257	   0.11785	3.52308e+07	
         R10	   5122	   77.5625	   20.7284	  0.396646	3.40157e+07	   77.5678	   20.2271	  0.118391	3.24491e+07	   77.0061	   20.2558	  0.129553	 4.1446e+07	   77.0313	   20.7284	  0.396646	3.99354e+07	   77.5651	   20.4878	  0.239459	 3.3159e+07	   77.2869	   20.2415	  0.123917	3.69361e+07	   77.0187	   20.5012	   0.24699	4.06649e+07	   77.2969	   20.7284	  0.396646	3.69133e+07	
         R10	   5123	   77.5678	   20.2271	  0.118391	3.37735e+07	   78.1234	   20.2409	  0.123684	3.79336e+07	      78.2	   19.7344	         0	2.72502e+07	    77.775	   19.7344	         0	3.05574e+07	   77.8456	    20.234	  0.121025	3.57516e+07	   78.1617	   19.9917	 0.0452692	3.08992e+07	   77.9875	   19.7344	         0	2.86006e+07	   77.6714	   19.9845	 0.0435307	3.19369e+07	
         R10	   5124	   77.5625	   20.7284	  0.396646	3.55829e+07	   78.0938	   20.7284	  0.396646	3.61327e+07	   78.1234	   20.2409	  0.123684	3.48936e+07	   77.5678	   20.2271	  0.118391	3.58158e+07	   77.8281	   20.7284	  0.396646	3.58455e+07	   78.1086	   20.4942	  0.243054	3.54861e+07	   77.8456	    20.234	  0.121025	3.53468e+07	   77.5651	   20.4878	  0.239459	 3.5608e+07	
         R10	   5125	   77.5678	   20.2271	  0.118391	4.11781e+07	    77.775	   19.7344	         0	 2.7734e+07	     77.35	   19.7344	         0	3.02244e+07	   77.6714	   19.9845	 0.0435307	3.32657e+07	   77.5625	   19.7344	         0	 2.8922e+07	   77.4589	   19.9845	 0.0435307	3.47461e+07	       N/A	       N/A	       N/A	        N/A	       N/A	       N/A	       N/A	        N/A	
         R10	   5126	   72.7222	      21.5	      2.25	4.75486e+07	     72.25	      21.5	      2.25	5.60455e+07	     72.25	      21.5	         3	 6.5388e+07	   72.7813	      21.5	         3	4.08064e+07	   72.4861	      21.5	      2.25	4.96998e+07	     72.25	      21.5	     2.625	 5.9693e+07	   72.5156	      21.5	         3	5.23556e+07	   72.7517	      21.5	     2.625	4.27633e+07	
         R10	   5127	   73.1944	      21.5	      2.25	 5.8518e+07	   72.7222	      21.5	      2.25	4.97479e+07	   72.7813	      21.5	         3	3.87415e+07	   73.3125	      21.5	         3	1.79019e+07	   72.9583	      21.5	      2.25	5.34029e+07	   72.7517	      21.5	     2.625	4.22399e+07	   73.0469	      21.5	         3	2.81061e+07	   73.2535	      21.5	     2.625	3.45889e+07	
         R10	   5128	   73.6667	      21.5	      2.25	6.09156e+07	   73.1944	      21.5	      2.25	5.82206e+07	   73.3125	      21.5	         3	1.89228e+07	   73.8438	      21.5	         3	7.63874e+06	   73.4306	      21.5	      2.25	5.94261e+07	   73.2535	      21.5	     2.625	3.46444e+07	   73.5781	      21.5	         3	1.29588e+07	   73.7552	      21.5	     2.625	3.04269e+07	
         R10	   5129	   74.1389	      21.5	      2.25	5.94334e+07	   73.6667	      21.5	      2.25	6.12099e+07	   73.8438	      21.5	         3	7.86596e+06	    74.375	      21.5	         3	2.86598e+06	   73.9028	      21.5	      2.25	6.03046e+07	   73.7552	      21.5	     2.625	3.07783e+07	   74.1094	      21.5	         3	5.34623e+06	   74.2569	      21.5	     2.625	2.95163e+07	
         R10	   5130	   74.6111	      21.5	      2.25	5.27047e+07	   74.1389	      21.5	      2.25	 6.0057e+07	    74.375	      21.5	         3	3.16114e+06	   74.9063	      21.5	         3	7.82711e+06	    74.375	      21.5	      2.25	5.63756e+07	   74.2569	      21.5	     2.625	3.00482e+07	   74.6406	      21.5	         3	4.56003e+06	   74.7587	      21.5	     2.625	2.99467e+07	
         R10	   5131	   75.0833	      21.5	      2.25	4.15609e+07	   74.6111	      21.5	      2.25	5.34973e+07	   74.9063	      21.5	         3	7.51494e+06	   75.4375	      21.5	         3	2.36709e+07	   74.8472	      21.5	      2.25	4.74156e+07	   74.7587	      21.5	     2.625	3.02791e+07	   75.1719	      21.5	         3	1.55869e+07	   75.2604	      21.5	     2.625	3.22761e+07	
         R10	   5132	   75.9688	      21.5	         3	4.87609e+07	      76.5	      21.5	         3	7.61724e+07	      76.5	      21.5	      2.25	5.19785e+07	   76.0278	      21.5	      2.25	4.14209e+07	   76.2344	      21.5	         3	6.17962e+07	      76.5	      21.5	     2.625	6.33837e+07	   76.2639	      21.5	      2.25	4.62661e+07	   75.9983	      21.5	     2.625	4.39379e+07	
         R10	   5133	   75.4375	      21.5	         3	2.79294e+07	   75.9688	      21.5	         3	4.57147e+07	   76.0278	      21.5	      2.25	4.27795e+07	   75.5556	      21.5	      2.25	4.12357e+07	   75.7031	      21.5	         3	 3.6594e+07	   75.9983	      21.5	     2.625	4.31578e+07	   75.7917	      21.5	      2.25	4.14504e+07	   75.4965	      21.5	     2.625	3.41772e+07	
         R10	   5134	   75.0833	      21.5	      2.25	4.07821e+07	   75.4375	      21.5	         3	2.54721e+07	   75.5556	      21.5	      2.25	4.06496e+07	   75.2604	      21.5	     2.625	3.29984e+07	   75.4965	      21.5	     2.625	3.30174e+07	   75.3194	      21.5	      2.25	4.05713e+07	       N/A	       N/A	       N/A	        N/A	       N/A	       N/A	       N/A	        N/A	
         R10	   5135	   72.7813	      21.5	         3	4.74443e+07	     72.25	      21.5	         3	6.50221e+07	     72.25	      21.5	      3.75	6.10637e+07	   72.8652	      21.5	      3.75	3.77527e+07	   72.5156	      21.5	         3	5.48321e+07	     72.25	      21.5	     3.375	 6.2809e+07	   72.5576	      21.5	      3.75	4.86554e+07	   72.8232	      21.5	     3.375	3.79447e+07	
         R10	   5136	   73.3125	      21.5	         3	2.98661e+07	   72.7813	      21.5	         3	4.65576e+07	   72.8652	      21.5	      3.75	3.56015e+07	   73.4777	      21.5	      3.75	1.80663e+07	   73.0469	      21.5	         3	3.79742e+07	   72.8232	      21.5	     3.375	3.62553e+07	   73.1714	      21.5	      3.75	2.66003e+07	   73.3951	      21.5	     3.375	2.16633e+07	
         R10	   5137	   73.8438	      21.5	         3	1.97741e+07	   73.3125	      21.5	         3	3.02143e+07	   73.4777	      21.5	      3.75	1.87519e+07	   74.0875	      21.5	      3.75	1.13882e+07	   73.5781	      21.5	         3	2.47659e+07	   73.3951	      21.5	     3.375	2.20763e+07	   73.7826	      21.5	      3.75	1.46766e+07	   73.9656	      21.5	     3.375	1.48622e+07	
         R10	   5138	    74.375	      21.5	         3	1.44925e+07	   73.8438	      21.5	         3	1.97601e+07	   74.0875	      21.5	      3.75	1.15509e+07	   74.6946	      21.5	      3.75	1.30907e+07	   74.1094	      21.5	         3	1.68242e+07	   73.9656	      21.5	     3.375	1.48579e+07	   74.3911	      21.5	      3.75	1.20296e+07	   74.5348	      21.5	     3.375	 1.3762e+07	
         R10	   5139	   74.9063	      21.5	         3	1.63856e+07	    74.375	      21.5	         3	1.44135e+07	   74.6946	      21.5	      3.75	1.31738e+07	   75.2991	      21.5	      3.75	2.19347e+07	   74.6406	      21.5	         3	1.49593e+07	   74.5348	      21.5	     3.375	1.37746e+07	   74.9969	      21.5	      3.75	1.72307e+07	   75.1027	      21.5	     3.375	1.77757e+07	
         R10	   5140	   75.4375	      21.5	         3	2.66226e+07	   74.9063	      21.5	         3	1.57391e+07	   75.2991	      21.5	      3.75	2.13678e+07	   75.9009	      21.5	      3.75	4.22174e+07	   75.1719	      21.5	         3	2.07868e+07	   75.1027	      21.5	     3.375	1.73144e+07	      75.6	      21.5	      3.75	3.15661e+07	   75.6692	      21.5	     3.375	2.96513e+07	
         R10	   5141	   75.9009	      21.5	      3.75	4.12206e+07	      76.5	      21.5	      3.75	6.67665e+07	      76.5	      21.5	         3	6.97574e+07	   75.9688	      21.5	         3	4.49127e+07	   76.2004	      21.5	      3.75	5.37522e+07	      76.5	      21.5	     3.375	6.74856e+07	   76.2344	      21.5	         3	5.64362e+07	   75.9348	      21.5	     3.375	3.95474e+07	
         R10	   5142	   75.4375	      21.5	         3	2.33699e+07	   75.9009	      21.5	      3.75	4.30623e+07	   75.9688	      21.5	         3	4.31001e+07	   75.6692	      21.5	     3.375	 2.8179e+07	   75.9348	      21.5	     3.375	3.81673e+07	   75.7031	      21.5	         3	3.30168e+07	       N/A	       N/A	       N/A	        N/A	       N/A	       N/A	       N/A	        N/A	
         R10	   5143	   72.8652	      21.5	      3.75	4.12697e+07	     72.25	      21.5	      3.75	5.73533e+07	     72.25	      21.5	       4.5	5.01365e+07	   72.9228	      21.5	       4.5	3.49141e+07	   72.5576	      21.5	      3.75	4.69849e+07	     72.25	      21.5	     4.125	5.37151e+07	   72.5864	      21.5	       4.5	4.10109e+07	    72.894	      21.5	     4.125	3.24391e+07	
         R10	   5144	   73.4777	      21.5	      3.75	2.36417e+07	   72.8652	      21.5	      3.75	3.84363e+07	   72.9228	      21.5	       4.5	3.19819e+07	   73.5737	      21.5	       4.5	1.68081e+07	   73.1714	      21.5	      3.75	3.06784e+07	    72.894	      21.5	     4.125	3.01927e+07	   73.2482	      21.5	       4.5	2.38252e+07	   73.5257	      21.5	     4.125	1.85373e+07	
         R10	   5145	   74.0875	      21.5	      3.75	1.85905e+07	   73.4777	      21.5	      3.75	2.37577e+07	   73.5737	      21.5	       4.5	1.72496e+07	   74.2027	      21.5	       4.5	1.15519e+07	   73.7826	      21.5	      3.75	2.08223e+07	   73.5257	      21.5	     4.125	1.87464e+07	   73.8882	      21.5	       4.5	1.39596e+07	   74.1451	      21.5	     4.125	1.48481e+07	
         R10	   5146	   74.6946	      21.5	      3.75	1.81923e+07	   74.0875	      21.5	      3.75	1.85717e+07	   74.2027	      21.5	       4.5	1.15384e+07	   74.8099	      21.5	       4.5	1.40638e+07	   74.3911	      21.5	      3.75	 1.8179e+07	   74.1451	      21.5	     4.125	1.48392e+07	   74.5063	      21.5	       4.5	1.23488e+07	   74.7523	      21.5	     4.125	1.56289e+07	
         R10	   5147	   75.2991	      21.5	      3.75	2.44215e+07	   74.6946	      21.5	      3.75	1.82262e+07	   74.8099	      21.5	       4.5	 1.4072e+07	   75.3951	      21.5	       4.5	  2.288e+07	   74.9969	      21.5	      3.75	2.09871e+07	   74.7523	      21.5	     4.125	1.56489e+07	   75.1025	      21.5	       4.5	1.81097e+07	   75.3471	      21.5	     4.125	2.14194e+07	
         R10	   5148	   75.9009	      21.5	      3.75	3.83417e+07	   75.2991	      21.5	      3.75	2.39441e+07	   75.3951	      21.5	       4.5	2.26465e+07	   75.9585	      21.5	       4.5	3.86731e+07	      75.6	      21.5	      3.75	3.07251e+07	   75.3471	      21.5	     4.125	2.12443e+07	   75.6768	      21.5	       4.5	 3.0332e+07	   75.9297	      21.5	     4.125	3.39555e+07	
         R10	   5149	      76.5	      21.5	      3.75	6.45151e+07	   75.9009	      21.5	      3.75	 3.9912e+07	   75.9585	      21.5	       4.5	4.02324e+07	      76.5	      21.5	       4.5	5.13533e+07	   76.2004	      21.5	      3.75	5.00729e+07	   75.9297	      21.5	     4.125	3.51754e+07	   76.2292	      21.5	       4.5	4.53356e+07	      76.5	      21.5	     4.125	5.73877e+07	
         R10	   5150	   72.9228	      21.5	       4.5	3.01818e+07	     72.25	      21.5	       4.5	4.78994e+07	     72.25	      21.5	      5.25	 4.5051e+07	   72.9512	      21.5	      5.25	2.51336e+07	   72.5864	      21.5	       4.5	3.77129e+07	     72.25	      21.5	     4.875	4.61109e+07	   72.6006	      21.5	      5.25	3.47237e+07	    72.937	      21.5	     4.875	2.59717e+07	
         R10	   5151	   73.5737	      21.5	       4.5	1.38502e+07	   72.9228	      21.5	       4.5	  3.123e+07	   72.9512	      21.5	      5.25	3.24801e+07	   73.6211	      21.5	      5.25	2.47577e+07	   73.2482	      21.5	       4.5	2.24278e+07	    72.937	      21.5	     4.875	2.77664e+07	   73.2861	      21.5	      5.25	2.73881e+07	   73.5974	      21.5	     4.875	1.82368e+07	
         R10	   5152	   74.2027	      21.5	       4.5	 9.3462e+06	   73.5737	      21.5	       4.5	1.41119e+07	   73.6211	      21.5	      5.25	2.47451e+07	   74.2596	      21.5	      5.25	2.33817e+07	   73.8882	      21.5	       4.5	1.14642e+07	   73.5974	      21.5	     4.875	1.83383e+07	   73.9403	      21.5	      5.25	2.38258e+07	   74.2311	      21.5	     4.875	1.62033e+07	
         R10	   5153	   74.8099	      21.5	       4.5	1.15677e+07	   74.2027	      21.5	       4.5	9.34745e+06	   74.2596	      21.5	      5.25	2.33346e+07	   74.8667	      21.5	      5.25	2.17087e+07	   74.5063	      21.5	       4.5	1.02839e+07	   74.2311	      21.5	     4.875	1.61412e+07	   74.5631	      21.5	      5.25	2.22602e+07	   74.8383	      21.5	     4.875	 1.6447e+07	
         R10	   5154	   75.3951	      21.5	       4.5	2.09039e+07	   74.8099	      21.5	       4.5	1.15345e+07	   74.8667	      21.5	      5.25	2.17181e+07	   75.4425	      21.5	      5.25	2.27999e+07	   75.1025	      21.5	       4.5	1.60486e+07	   74.8383	      21.5	     4.875	1.64879e+07	   75.1546	      21.5	      5.25	2.14748e+07	   75.4188	      21.5	     4.875	2.03952e+07	
         R10	   5155	   75.9585	      21.5	       4.5	3.48402e+07	   75.3951	      21.5	       4.5	2.11593e+07	   75.4425	      21.5	      5.25	2.28801e+07	   75.9869	      21.5	      5.25	3.35287e+07	   75.6768	      21.5	       4.5	  2.786e+07	   75.4188	      21.5	     4.875	2.05232e+07	   75.7147	      21.5	      5.25	2.75057e+07	   75.9727	      21.5	     4.875	3.00149e+07	
         R10	   5156	      76.5	      21.5	       4.5	5.39323e+07	   75.9585	      21.5	       4.5	3.76156e+07	   75.9869	      21.5	      5.25	    3.5e+07	      76.5	      21.5	      5.25	3.81142e+07	   76.2292	      21.5	       4.5	4.40417e+07	   75.9727	      21.5	     4.875	3.18701e+07	   76.2435	      21.5	      5.25	3.54065e+07	      76.5	      21.5	     4.875	4.50198e+07	
         R10	   5157	   77.0313	      21.5	      2.25	4.49922e+07	      76.5	      21.5	      2.25	5.25165e+07	      76.5	      21.5	         3	 7.6419e+07	   77.0313	      21.5	         3	4.53769e+07	   76.7656	      21.5	      2.25	4.78244e+07	      76.5	      21.5	     2.625	6.40088e+07	   76.7656	      21.5	         3	6.01242e+07	   77.0313	      21.5	     2.625	4.36832e+07	
         R10	   5158	   77.5625	      21.5	      2.25	5.24442e+07	   77.0313	      21.5	      2.25	4.62421e+07	   77.0313	      21.5	         3	4.20718e+07	   77.5625	      21.5	         3	1.84931e+07	   77.2969	      21.5	      2.25	4.84415e+07	   77.0313	      21.5	     2.625	4.28004e+07	   77.2969	      21.5	         3	3.02435e+07	   77.5625	      21.5	     2.625	 3.4148e+07	
         R10	   5159	   78.0938	      21.5	      2.25	6.04963e+07	   77.5625	      21.5	      2.25	5.24429e+07	   77.5625	      21.5	         3	1.89622e+07	   78.0938	      21.5	         3	6.36612e+06	   77.8281	      21.5	      2.25	5.62979e+07	   77.5625	      21.5	     2.625	3.42913e+07	   77.8281	      21.5	         3	1.23175e+07	   78.0938	      21.5	     2.625	3.12885e+07	
         R10	   5160	    78.625	      21.5	      2.25	6.58931e+07	   78.0938	      21.5	      2.25	6.05281e+07	   78.0938	      21.5	         3	6.22584e+06	    78.625	      21.5	         3	6.01022e+06	   78.3594	      21.5	      2.25	6.31945e+07	   78.0938	      21.5	     2.625	3.13088e+07	   78.3594	      21.5	         3	5.25161e+06	    78.625	      21.5	     2.625	3.10691e+07	
         R10	   5161	   77.0313	      21.5	         3	 4.7137e+07	      76.5	      21.5	         3	6.98674e+07	      76.5	      21.5	      3.75	6.58764e+07	   77.0242	      21.5	      3.75	4.40589e+07	   76.7656	      21.5	         3	5.72954e+07	      76.5	      21.5	     3.375	6.74563e+07	   76.7621	      21.5	      3.75	5.44982e+07	   77.0277	      21.5	     3.375	4.13677e+07	
         R10	   5162	   77.5625	      21.5	         3	 2.6701e+07	   77.0313	      21.5	         3	4.62042e+07	   77.0242	      21.5	      3.75	4.33651e+07	   77.5531	      21.5	      3.75	2.65965e+07	   77.2969	      21.5	         3	3.63519e+07	   77.0277	      21.5	     3.375	4.00531e+07	   77.2887	      21.5	      3.75	3.46516e+07	   77.5578	      21.5	     3.375	2.44316e+07	
         R10	   5163	   78.0938	      21.5	         3	1.59455e+07	   77.5625	      21.5	         3	2.75173e+07	   77.5531	      21.5	      3.75	2.71927e+07	   78.0867	      21.5	      3.75	1.88419e+07	   77.8281	      21.5	         3	2.16093e+07	   77.5578	      21.5	     3.375	2.49328e+07	   77.8199	      21.5	      3.75	2.27174e+07	   78.0902	      21.5	     3.375	1.65164e+07	
         R10	   5164	    78.625	      21.5	         3	1.22857e+07	   78.0938	      21.5	         3	1.61185e+07	   78.0867	      21.5	      3.75	1.88365e+07	    78.625	      21.5	      3.75	1.59853e+07	   78.3594	      21.5	         3	1.37921e+07	   78.0902	      21.5	     3.375	 1.6531e+07	   78.3559	      21.5	      3.75	1.72132e+07	    78.625	      21.5	     3.375	1.40585e+07	
         R10	   5165	   77.0242	      21.5	      3.75	4.27945e+07	      76.5	      21.5	      3.75	 6.4509e+07	      76.5	      21.5	       4.5	5.11495e+07	   76.9738	      21.5	       4.5	4.24051e+07	   76.7621	      21.5	      3.75	5.18212e+07	      76.5	      21.5	     4.125	5.73499e+07	   76.7369	      21.5	       4.5	4.63303e+07	    76.999	      21.5	     4.125	3.80695e+07	
         R10	   5166	   77.5531	      21.5	      3.75	2.65534e+07	   77.0242	      21.5	      3.75	4.12718e+07	   76.9738	      21.5	       4.5	4.09918e+07	   77.4859	      21.5	       4.5	2.50236e+07	   77.2887	      21.5	      3.75	3.37051e+07	    76.999	      21.5	     4.125	3.62653e+07	   77.2299	      21.5	       4.5	3.28151e+07	   77.5195	      21.5	     4.125	2.31203e+07	
         R10	   5167	   78.0867	      21.5	      3.75	 1.8869e+07	   77.5531	      21.5	      3.75	2.67098e+07	   77.4859	      21.5	       4.5	2.52651e+07	   78.0363	      21.5	       4.5	1.56123e+07	   77.8199	      21.5	      3.75	2.25558e+07	   77.5195	      21.5	     4.125	2.34474e+07	   77.7611	      21.5	       4.5	2.02032e+07	   78.0615	      21.5	     4.125	1.61467e+07	
         R10	   5168	    78.625	      21.5	      3.75	1.65585e+07	   78.0867	      21.5	      3.75	1.87205e+07	   78.0363	      21.5	       4.5	 1.5449e+07	    78.625	      21.5	       4.5	1.14055e+07	   78.3559	      21.5	      3.75	1.74203e+07	   78.0615	      21.5	     4.125	1.60597e+07	   78.3307	      21.5	       4.5	 1.3071e+07	    78.625	      21.5	     4.125	1.39652e+07	
         R10	   5169	   76.9738	      21.5	       4.5	3.94819e+07	      76.5	      21.5	       4.5	 5.5154e+07	      76.5	      21.5	      5.25	3.93292e+07	   76.9558	      21.5	      5.25	3.76301e+07	   76.7369	      21.5	       4.5	4.54197e+07	      76.5	      21.5	     4.875	4.60726e+07	   76.7279	      21.5	      5.25	3.70954e+07	   76.9648	      21.5	     4.875	3.42377e+07	
         R10	   5170	   77.4859	      21.5	       4.5	2.43458e+07	   76.9738	      21.5	       4.5	3.66563e+07	   76.9558	      21.5	      5.25	3.59605e+07	   77.4619	      21.5	      5.25	2.43224e+07	   77.2299	      21.5	       4.5	3.03473e+07	   76.9648	      21.5	     4.875	3.21909e+07	   77.2089	      21.5	      5.25	2.96802e+07	   77.4739	      21.5	     4.875	2.26028e+07	
         R10	   5171	   78.0363	      21.5	       4.5	1.45966e+07	   77.4859	      21.5	       4.5	2.43708e+07	   77.4619	      21.5	      5.25	2.44996e+07	   78.0183	      21.5	      5.25	2.12891e+07	   77.7611	      21.5	       4.5	1.93407e+07	   77.4739	      21.5	     4.875	 2.2683e+07	   77.7401	      21.5	      5.25	 2.2079e+07	   78.0273	      21.5	     4.875	1.77068e+07	
         R10	   5172	    78.625	      21.5	       4.5	1.02454e+07	   78.0363	      21.5	       4.5	 1.4486e+07	   78.0183	      21.5	      5.25	2.13539e+07	    78.625	      21.5	      5.25	2.37924e+07	   78.3307	      21.5	       4.5	1.21955e+07	   78.0273	      21.5	     4.875	1.76182e+07	   78.3217	      21.5	      5.25	 2.2203e+07	    78.625	      21.5	     4.875	1.68616e+07	
         R10	   5173	   72.9512	      21.5	      5.25	3.21745e+07	     72.25	      21.5	      5.25	4.50456e+07	     72.25	      21.5	         6	2.35902e+07	   72.9702	      21.5	         6	1.93906e+07	   72.6006	      21.5	      5.25	3.30098e+07	     72.25	      21.5	     5.625	3.39887e+07	   72.6101	      21.5	         6	 2.1136e+07	   72.9607	      21.5	     5.625	2.10432e+07	
         R10	   5174	   73.6211	      21.5	      5.25	2.01503e+07	   72.9512	      21.5	      5.25	2.60156e+07	   72.9702	      21.5	         6	1.49174e+07	   73.6528	      21.5	         6	1.49105e+07	   73.2861	      21.5	      5.25	2.23938e+07	   72.9607	      21.5	     5.625	1.70484e+07	   73.3115	      21.5	         6	1.37051e+07	   73.6369	      21.5	     5.625	1.23021e+07	
         R10	   5175	   74.2596	      21.5	      5.25	2.09174e+07	   73.6211	      21.5	      5.25	2.02276e+07	   73.6528	      21.5	         6	1.19117e+07	   74.2976	      21.5	         6	1.45664e+07	   73.9403	      21.5	      5.25	2.03527e+07	   73.6369	      21.5	     5.625	1.15463e+07	   73.9752	      21.5	         6	1.31897e+07	   74.2786	      21.5	     5.625	9.89097e+06	
         R10	   5176	   74.8667	      21.5	      5.25	2.41066e+07	   74.2596	      21.5	      5.25	2.09502e+07	   74.2976	      21.5	         6	1.33686e+07	   74.9048	      21.5	         6	1.57884e+07	   74.5631	      21.5	      5.25	2.24436e+07	   74.2786	      21.5	     5.625	9.40802e+06	   74.6012	      21.5	         6	1.45744e+07	   74.8857	      21.5	     5.625	1.09332e+07	
         R10	   5177	   75.4425	      21.5	      5.25	3.01697e+07	   74.8667	      21.5	      5.25	2.44516e+07	   74.9048	      21.5	         6	1.57325e+07	   75.4742	      21.5	         6	1.96931e+07	   75.1546	      21.5	      5.25	2.72029e+07	   74.8857	      21.5	     5.625	1.08605e+07	   75.1895	      21.5	         6	1.77081e+07	   75.4584	      21.5	     5.625	1.50551e+07	
         R10	   5178	   75.9869	      21.5	      5.25	3.33442e+07	   75.4425	      21.5	      5.25	3.02907e+07	   75.4742	      21.5	         6	2.14383e+07	    76.006	      21.5	         6	2.17816e+07	   75.7147	      21.5	      5.25	 3.1383e+07	   75.4584	      21.5	     5.625	1.45448e+07	   75.7401	      21.5	         6	2.09905e+07	   75.9964	      21.5	     5.625	 2.2249e+07	
         R10	   5179	      76.5	      21.5	      5.25	4.20118e+07	   75.9869	      21.5	      5.25	3.52493e+07	    76.006	      21.5	         6	1.77259e+07	      76.5	      21.5	         6	 2.7184e+07	   76.2435	      21.5	      5.25	3.76182e+07	   75.9964	      21.5	     5.625	2.07985e+07	    76.253	      21.5	         6	2.13317e+07	      76.5	      21.5	     5.625	3.40788e+07	
         R10	   5180	   76.9558	      21.5	      5.25	3.70924e+07	      76.5	      21.5	      5.25	4.54086e+07	      76.5	      21.5	         6	2.73676e+07	   76.9558	      21.5	         6	1.83146e+07	   76.7279	      21.5	      5.25	 4.0054e+07	      76.5	      21.5	     5.625	3.61446e+07	   76.7279	      21.5	         6	2.08724e+07	   76.9558	      21.5	     5.625	2.16453e+07	
         R10	   5181	   77.4619	      21.5	      5.25	3.12694e+07	   76.9558	      21.5	      5.25	3.41266e+07	   76.9558	      21.5	         6	2.24193e+07	   77.4619	      21.5	         6	2.35408e+07	   77.2089	      21.5	      5.25	3.22576e+07	   76.9558	      21.5	     5.625	2.34847e+07	   77.2089	      21.5	         6	2.23505e+07	   77.4619	      21.5	     5.625	1.62373e+07	
         R10	   5182	   78.0183	      21.5	      5.25	2.47658e+07	   77.4619	      21.5	      5.25	3.12922e+07	   77.4619	      21.5	         6	1.99105e+07	   78.0183	      21.5	         6	1.79513e+07	   77.7401	      21.5	      5.25	2.79095e+07	   77.4619	      21.5	     5.625	1.57758e+07	   77.7401	      21.5	         6	1.89175e+07	   78.0183	      21.5	     5.625	1.20895e+07	
         R10	   5183	    78.625	      21.5	      5.25	1.87274e+07	   78.0183	      21.5	      5.25	2.44417e+07	   78.0183	      21.5	         6	1.57507e+07	    78.625	      21.5	         6	1.38459e+07	   78.3217	      21.5	      5.25	2.15051e+07	   78.0183	      21.5	     5.625	1.10344e+07	   78.3217	      21.5	         6	1.46945e+07	    78.625	      21.5	     5.625	1.00602e+07	
         R10	   5184	   73.0678	      21.5	       7.7	1.51996e+07	     72.25	      21.5	       7.7	3.53125e+07	     72.25	      21.5	      8.55	2.69788e+07	   73.0346	      21.5	      8.55	2.46979e+07	   72.6589	      21.5	       7.7	2.06493e+07	     72.25	      21.5	     8.125	3.10806e+07	   72.6423	      21.5	      8.55	2.39295e+07	   73.0512	      21.5	     8.125	1.15371e+07	
         R10	   5185	   73.8418	      21.5	       7.7	 2.7726e+06	   73.0678	      21.5	       7.7	1.05844e+07	   73.0346	      21.5	      8.55	2.13707e+07	   73.7887	      21.5	      8.55	 6.7311e+06	   73.4548	      21.5	       7.7	 5.4004e+06	   73.0512	      21.5	     8.125	1.11066e+07	   73.4117	      21.5	      8.55	1.36558e+07	   73.8152	      21.5	     8.125	2.67223e+06	
         R10	   5186	    74.572	      21.5	       7.7	3.34619e+06	   73.8418	      21.5	       7.7	1.69705e+06	   73.7887	      21.5	      8.55	6.51444e+06	   74.5123	      21.5	      8.55	4.54426e+06	   74.2069	      21.5	       7.7	2.41022e+06	   73.8152	      21.5	     8.125	2.55182e+06	   74.1505	      21.5	      8.55	2.96927e+06	   74.5422	      21.5	     8.125	3.89425e+06	
         R10	   5187	   75.2585	      21.5	       7.7	2.78604e+06	    74.572	      21.5	       7.7	3.14241e+06	   74.5123	      21.5	      8.55	4.61157e+06	   75.2054	      21.5	      8.55	1.37164e+07	   74.9152	      21.5	       7.7	1.28746e+06	   74.5422	      21.5	     8.125	3.82513e+06	   74.8588	      21.5	      8.55	8.47385e+06	   75.2319	      21.5	     8.125	7.35039e+06	
         R10	   5188	   75.9011	      21.5	       7.7	1.28565e+07	   75.2585	      21.5	       7.7	2.49634e+06	   75.2054	      21.5	      8.55	1.39676e+07	   75.8679	      21.5	      8.55	2.69963e+07	   75.5798	      21.5	       7.7	7.55288e+06	   75.2319	      21.5	     8.125	7.40781e+06	   75.5367	      21.5	      8.55	2.02819e+07	   75.8845	      21.5	     8.125	1.64246e+07	
         R10	   5189	      76.5	      21.5	       7.7	3.50555e+07	   75.9011	      21.5	       7.7	1.54455e+07	   75.8679	      21.5	      8.55	2.74257e+07	      76.5	      21.5	      8.55	2.89226e+07	   76.2006	      21.5	       7.7	2.38936e+07	   75.8845	      21.5	     8.125	1.75456e+07	    76.184	      21.5	      8.55	2.71501e+07	      76.5	      21.5	     8.125	3.19572e+07	
         R10	   5190	   73.0346	      21.5	      8.55	9.40475e+06	     72.25	      21.5	      8.55	2.77103e+07	     72.25	      21.5	       9.4	2.43798e+07	   73.1513	      21.5	       9.4	1.25585e+07	   72.6423	      21.5	      8.55	1.73685e+07	     72.25	      21.5	     8.975	2.56075e+07	   72.7007	      21.5	       9.4	1.78766e+07	    73.093	      21.5	     8.975	7.73092e+06	
         R10	   5191	   73.7887	      21.5	      8.55	3.19395e+06	   73.0346	      21.5	      8.55	9.49099e+06	   73.1513	      21.5	       9.4	1.89263e+07	    74.027	      21.5	       9.4	3.10991e+06	   73.4117	      21.5	      8.55	4.32708e+06	    73.093	      21.5	     8.975	8.35499e+06	   73.5891	      21.5	       9.4	9.93372e+06	   73.9078	      21.5	     8.975	2.91983e+06	
         R10	   5192	   74.5123	      21.5	      8.55	4.45945e+06	   73.7887	      21.5	      8.55	2.92621e+06	    74.027	      21.5	       9.4	2.65709e+06	    74.877	      21.5	       9.4	6.06331e+06	   74.1505	      21.5	      8.55	3.56449e+06	   73.9078	      21.5	     8.975	2.22507e+06	    74.452	      21.5	       9.4	2.71405e+06	   74.6946	      21.5	     8.975	4.76767e+06	
         R10	   5193	   75.2054	      21.5	      8.55	 2.7527e+06	   74.5123	      21.5	      8.55	3.94006e+06	    74.877	      21.5	       9.4	7.04426e+06	   75.7013	      21.5	       9.4	1.90172e+07	   74.8588	      21.5	      8.55	2.53661e+06	   74.6946	      21.5	     8.975	5.18948e+06	   75.2892	      21.5	       9.4	1.25648e+07	   75.4534	      21.5	     8.975	9.61599e+06	
         R10	   5194	   75.7013	      21.5	       9.4	1.86334e+07	      76.5	      21.5	       9.4	2.50129e+07	      76.5	      21.5	      8.55	3.04048e+07	   75.8679	      21.5	      8.55	1.18237e+07	   76.1007	      21.5	       9.4	2.08938e+07	      76.5	      21.5	     8.975	 2.7437e+07	    76.184	      21.5	      8.55	2.04756e+07	   75.7846	      21.5	     8.975	1.27635e+07	
         R10	   5195	   75.2054	      21.5	      8.55	3.34716e+06	   75.7013	      21.5	       9.4	2.10714e+07	   75.8679	      21.5	      8.55	7.96101e+06	   75.4534	      21.5	     8.975	1.00801e+07	   75.7846	      21.5	     8.975	1.29838e+07	   75.5367	      21.5	      8.55	4.10793e+06	       N/A	       N/A	       N/A	        N/A	       N/A	       N/A	       N/A	        N/A	
         R10	   5196	   73.1513	      21.5	       9.4	1.35961e+07	     72.25	      21.5	       9.4	2.61839e+07	     72.25	      21.5	     10.25	1.09838e+07	   73.1109	      21.5	     10.25	1.24698e+07	   72.7007	      21.5	       9.4	1.26208e+07	     72.25	      21.5	     9.825	1.73322e+07	   72.6804	      21.5	     10.25	1.16072e+07	   73.1311	      21.5	     9.825	7.90407e+06	
         R10	   5197	    74.027	      21.5	       9.4	5.84444e+06	   73.1513	      21.5	       9.4	5.58377e+06	   73.1109	      21.5	     10.25	1.55033e+07	   73.9663	      21.5	     10.25	 1.2625e+07	   73.5891	      21.5	       9.4	4.45311e+06	   73.1311	      21.5	     9.825	8.01069e+06	   73.5386	      21.5	     10.25	1.31547e+07	   73.9967	      21.5	     9.825	6.87508e+06	
         R10	   5198	    74.877	      21.5	       9.4	1.86854e+06	    74.027	      21.5	       9.4	3.18796e+06	   73.9663	      21.5	     10.25	1.15855e+07	   74.8163	      21.5	     10.25	 1.2029e+07	    74.452	      21.5	       9.4	2.40457e+06	   73.9967	      21.5	     9.825	 5.8948e+06	   74.3913	      21.5	     10.25	1.17297e+07	   74.8466	      21.5	     9.825	5.76523e+06	
         R10	   5199	   75.7013	      21.5	       9.4	6.03569e+06	    74.877	      21.5	       9.4	3.22405e+06	   74.8163	      21.5	     10.25	1.31091e+07	   75.6609	      21.5	     10.25	1.73109e+07	   75.2892	      21.5	       9.4	2.76016e+06	   74.8466	      21.5	     9.825	6.51749e+06	   75.2386	      21.5	     10.25	1.42072e+07	   75.6811	      21.5	     9.825	1.01955e+07	
         R10	   5200	      76.5	      21.5	       9.4	2.51362e+07	   75.7013	      21.5	       9.4	7.27753e+06	   75.6609	      21.5	     10.25	1.57198e+07	      76.5	      21.5	     10.25	2.26503e+07	   76.1007	      21.5	       9.4	1.40242e+07	   75.6811	      21.5	     9.825	8.89536e+06	   76.0804	      21.5	     10.25	1.91429e+07	      76.5	      21.5	     9.825	2.06785e+07	
         R10	   5201	    77.141	      21.5	       7.7	1.57738e+07	      76.5	      21.5	       7.7	3.53037e+07	      76.5	      21.5	      8.55	2.96804e+07	    77.141	      21.5	      8.55	 2.8163e+07	   76.8205	      21.5	       7.7	2.41033e+07	      76.5	      21.5	     8.125	3.24607e+07	   76.8205	      21.5	      8.55	 2.7845e+07	    77.141	      21.5	     8.125	1.78291e+07	
         R10	   5202	   77.8494	      21.5	       7.7	2.59547e+06	    77.141	      21.5	       7.7	1.31981e+07	    77.141	      21.5	      8.55	2.74037e+07	   77.8494	      21.5	      8.55	1.17921e+07	   77.4952	      21.5	       7.7	7.66548e+06	    77.141	      21.5	     8.125	 1.6421e+07	   77.4952	      21.5	      8.55	1.93952e+07	   77.8494	      21.5	     8.125	6.36888e+06	
         R10	   5203	    78.625	      21.5	       7.7	2.95416e+06	   77.8494	      21.5	       7.7	2.62837e+06	   77.8494	      21.5	      8.55	1.19443e+07	    78.625	      21.5	      8.55	3.44363e+06	   78.2372	      21.5	       7.7	1.76163e+06	   77.8494	      21.5	     8.125	6.52347e+06	   78.2372	      21.5	      8.55	7.05637e+06	    78.625	      21.5	     8.125	2.80016e+06	
         R10	   5204	    77.141	      21.5	      8.55	1.21596e+07	      76.5	      21.5	      8.55	3.00931e+07	      76.5	      21.5	       9.4	2.56379e+07	   77.1656	      21.5	       9.4	2.24159e+07	   76.8205	      21.5	      8.55	2.04235e+07	      76.5	      21.5	     8.975	2.75316e+07	   76.8328	      21.5	       9.4	2.33982e+07	   77.1533	      21.5	     8.975	1.43755e+07	
         R10	   5205	   77.8494	      21.5	      8.55	3.49112e+06	    77.141	      21.5	      8.55	9.77395e+06	   77.1656	      21.5	       9.4	2.25515e+07	   77.8739	      21.5	       9.4	9.73316e+06	   77.4952	      21.5	      8.55	5.41487e+06	   77.1533	      21.5	     8.975	 1.3558e+07	   77.5197	      21.5	       9.4	1.59401e+07	   77.8616	      21.5	     8.975	6.27213e+06	
         R10	   5206	    78.625	      21.5	      8.55	3.58267e+06	   77.8494	      21.5	      8.55	3.58824e+06	   77.8739	      21.5	       9.4	1.00343e+07	    78.625	      21.5	       9.4	2.70899e+06	   78.2372	      21.5	      8.55	3.10697e+06	   77.8616	      21.5	     8.975	6.40627e+06	   78.2495	      21.5	       9.4	5.73354e+06	    78.625	      21.5	     8.975	3.11697e+06	
         R10	   5207	   77.1656	      21.5	       9.4	8.47541e+06	      76.5	      21.5	       9.4	2.45713e+07	      76.5	      21.5	     10.25	2.24143e+07	   77.1993	      21.5	     10.25	1.56623e+07	   76.8328	      21.5	       9.4	1.52604e+07	      76.5	      21.5	     9.825	2.05097e+07	   76.8496	      21.5	     10.25	 1.8951e+07	   77.1824	      21.5	     9.825	9.33698e+06	
         R10	   5208	   77.8739	      21.5	       9.4	1.10581e+06	   77.1656	      21.5	       9.4	6.50626e+06	   77.1993	      21.5	     10.25	 1.6421e+07	   77.9076	      21.5	     10.25	1.17966e+07	   77.5197	      21.5	       9.4	3.34349e+06	   77.1824	      21.5	     9.825	9.68468e+06	   77.5534	      21.5	     10.25	1.40823e+07	   77.8907	      21.5	     9.825	6.29545e+06	
         R10	   5209	    78.625	      21.5	       9.4	3.34476e+06	   77.8739	      21.5	       9.4	1.11713e+06	   77.9076	      21.5	     10.25	1.13483e+07	    78.625	      21.5	     10.25	1.35443e+07	   78.2495	      21.5	       9.4	1.90272e+06	   77.8907	      21.5	     9.825	6.23107e+06	   78.2663	      21.5	     10.25	 1.2435e+07	    78.625	      21.5	     9.825	7.49062e+06	
         R10	   5210	   72.6751	      19.3	         0	5.13531e+07	     72.25	      19.3	         0	 6.1294e+07	     72.25	   19.7344	         0	 4.5512e+07	    72.675	   19.7344	         0	5.46401e+07	   72.4625	      19.3	         0	 5.3841e+07	     72.25	   19.5172	         0	5.28322e+07	   72.4625	   19.7344	         0	4.68589e+07	    72.675	   19.5172	         0	4.80806e+07	
         R10	   5211	   73.1001	      19.3	         0	3.63157e+07	   72.6751	      19.3	         0	4.71299e+07	    72.675	   19.7344	         0	4.80573e+07	      73.1	   19.7344	         0	 5.4043e+07	   72.8876	      19.3	         0	4.15018e+07	    72.675	   19.5172	         0	4.14685e+07	   72.8875	   19.7344	         0	5.07949e+07	   73.1001	   19.5172	         0	3.88274e+07	
         R10	   5212	   73.5251	      19.3	         0	3.01837e+07	   73.1001	      19.3	         0	3.60517e+07	      73.1	   19.7344	         0	4.85868e+07	    73.525	   19.7344	         0	4.28074e+07	   73.3126	      19.3	         0	3.29999e+07	   73.1001	   19.5172	         0	 3.4883e+07	   73.3125	   19.7344	         0	4.56614e+07	   73.5251	   19.5172	         0	2.91471e+07	
         R10	   5213	   73.9501	      19.3	         0	2.69313e+07	   73.5251	      19.3	         0	2.99149e+07	    73.525	   19.7344	         0	4.33452e+07	     73.95	   19.7344	         0	3.98638e+07	   73.7376	      19.3	         0	2.82101e+07	   73.5251	   19.5172	         0	2.93329e+07	   73.7375	   19.7344	         0	4.15652e+07	   73.9501	   19.5172	         0	 2.3682e+07	
         R10	   5214	   74.3752	      19.3	         0	2.55391e+07	   73.9501	      19.3	         0	2.70153e+07	     73.95	   19.7344	         0	4.06701e+07	    74.375	   19.7344	         0	3.83807e+07	   74.1627	      19.3	         0	2.61295e+07	   73.9501	   19.5172	         0	2.43457e+07	   74.1625	   19.7344	         0	3.95004e+07	   74.3751	   19.5172	         0	2.13794e+07	
         R10	   5215	   74.8001	      19.3	         0	2.49174e+07	   74.3752	      19.3	         0	2.55387e+07	    74.375	   19.7344	         0	3.88585e+07	      74.8	   19.7344	         0	3.93561e+07	   74.5877	      19.3	         0	2.50855e+07	   74.3751	   19.5172	         0	2.17714e+07	   74.5875	   19.7344	         0	3.90632e+07	   74.8001	   19.5172	         0	2.28872e+07	
         R10	   5216	   75.2251	      19.3	         0	2.64056e+07	   74.8001	      19.3	         0	2.49769e+07	      74.8	   19.7344	         0	3.87682e+07	    75.225	   19.7344	         0	4.25333e+07	   75.0126	      19.3	         0	2.54108e+07	   74.8001	   19.5172	         0	2.24933e+07	   75.0125	   19.7344	         0	4.06344e+07	   75.2251	   19.5172	         0	2.73106e+07	
         R10	   5217	   75.6501	      19.3	         0	3.12261e+07	   75.2251	      19.3	         0	2.61878e+07	    75.225	   19.7344	         0	4.22378e+07	     75.65	   19.7344	         0	4.75188e+07	   75.4376	      19.3	         0	2.83976e+07	   75.2251	   19.5172	         0	2.70154e+07	   75.4375	   19.7344	         0	4.48755e+07	     75.65	   19.5172	         0	3.39429e+07	
         R10	   5218	   76.0751	      19.3	         0	4.05742e+07	   75.6501	      19.3	         0	2.95618e+07	     75.65	   19.7344	         0	4.62736e+07	    76.075	   19.7344	         0	5.14749e+07	   75.8626	      19.3	         0	3.45883e+07	     75.65	   19.5172	         0	3.22624e+07	   75.8625	   19.7344	         0	4.82918e+07	    76.075	   19.5172	         0	4.46366e+07	
         R10	   5219	      76.5	      19.3	         0	6.43924e+07	   76.0751	      19.3	         0	4.36102e+07	    76.075	   19.7344	         0	3.96391e+07	      76.5	   19.7344	         0	4.65777e+07	   76.2875	      19.3	         0	5.30291e+07	    76.075	   19.5172	         0	3.75266e+07	   76.2875	   19.7344	         0	3.75699e+07	      76.5	   19.5172	         0	5.52359e+07	
         R10	   5220	   76.9249	      19.3	         0	4.44937e+07	      76.5	      19.3	         0	6.60381e+07	      76.5	   19.7344	         0	4.51283e+07	    76.925	   19.7344	         0	4.01967e+07	   76.7125	      19.3	         0	 5.4168e+07	      76.5	   19.5172	         0	 5.5296e+07	   76.7125	   19.7344	         0	3.74459e+07	    76.925	   19.5172	         0	3.85149e+07	
         R10	   5221	   77.3499	      19.3	         0	3.00484e+07	   76.9249	      19.3	         0	 4.1844e+07	    76.925	   19.7344	         0	5.04277e+07	     77.35	   19.7344	         0	4.59925e+07	   77.1374	      19.3	         0	3.55583e+07	    76.925	   19.5172	         0	4.47907e+07	   77.1375	   19.7344	         0	4.78745e+07	     77.35	   19.5172	         0	3.34547e+07	
         R10	   5222	   77.7749	      19.3	         0	2.62486e+07	   77.3499	      19.3	         0	3.20593e+07	     77.35	   19.7344	         0	 4.5314e+07	    77.775	   19.7344	         0	4.07074e+07	   77.5624	      19.3	         0	2.88781e+07	     77.35	   19.5172	         0	3.38622e+07	   77.5625	   19.7344	         0	4.29783e+07	    77.775	   19.5172	         0	2.77223e+07	
         R10	   5223	   78.1999	      19.3	         0	2.58569e+07	   77.7749	      19.3	         0	2.59219e+07	    77.775	   19.7344	         0	4.24402e+07	      78.2	   19.7344	         0	3.98865e+07	   77.9874	      19.3	         0	2.54879e+07	    77.775	   19.5172	         0	2.86916e+07	   77.9875	   19.7344	         0	4.10115e+07	      78.2	   19.5172	         0	2.26643e+07	
         R10	   5224	    78.625	      19.3	         0	 2.5388e+07	   78.1999	      19.3	         0	2.58425e+07	      78.2	   19.7344	         0	4.13619e+07	    78.625	   19.7344	         0	3.85965e+07	   78.4125	      19.3	         0	2.54924e+07	      78.2	   19.5172	         0	 2.3819e+07	   78.4125	   19.7344	         0	 3.9933e+07	    78.625	   19.5172	         0	2.21343e+07	
         R10	   5225	   72.7826	   21.3636	    1.2195	2.98185e+07	   72.7815	   21.1005	  0.766202	3.29375e+07	     72.25	   21.0996	  0.765063	3.76092e+07	     72.25	   21.3636	    1.2195	3.49403e+07	   72.7821	    21.247	  0.984196	3.12559e+07	   72.5158	   21.1001	  0.765633	3.41346e+07	     72.25	   21.2466	  0.983574	3.62609e+07	   72.5163	   21.3636	    1.2195	3.02028e+07	
         R10	   5226	   72.7815	   21.1005	  0.766202	3.35672e+07	   72.7813	   20.7284	  0.396646	3.12639e+07	     72.25	   20.7284	  0.396646	4.12366e+07	     72.25	   21.0996	  0.765063	3.76523e+07	   72.7814	   20.9266	  0.569177	3.23564e+07	   72.5156	   20.7284	  0.396646	3.42297e+07	     72.25	   20.9261	   0.56867	3.93815e+07	   72.5158	   21.1001	  0.765633	3.43562e+07	
         R10	   5227	   73.3132	   21.1005	  0.766164	3.52836e+07	   73.3125	   20.7284	  0.396646	3.42866e+07	   72.7813	   20.7284	  0.396646	4.26682e+07	   72.7815	   21.1005	  0.766202	3.82915e+07	   73.3129	   20.9266	   0.56916	3.47507e+07	   73.0469	   20.7284	  0.396646	3.84464e+07	   72.7814	   20.9266	  0.569177	4.04734e+07	   73.0474	   21.1005	  0.766183	 3.6769e+07	
         R10	   5228	   73.3132	   21.1005	  0.766164	3.45121e+07	   73.8446	   21.1004	  0.766126	3.58879e+07	   73.8438	   20.7284	  0.396646	3.59804e+07	   73.3125	   20.7284	  0.396646	3.71245e+07	   73.5789	   21.1005	  0.766145	3.51864e+07	   73.8442	   20.9266	  0.569143	3.59213e+07	   73.5781	   20.7284	  0.396646	3.65432e+07	   73.3129	   20.9266	   0.56916	3.58061e+07	
         R10	   5229	   73.8446	   21.1004	  0.766126	3.44168e+07	   74.3762	   21.1004	  0.766087	3.44841e+07	    74.375	   20.7284	  0.396646	3.63634e+07	   73.8438	   20.7284	  0.396646	3.61623e+07	   74.1104	   21.1004	  0.766107	3.44165e+07	   74.3756	   20.9266	  0.569125	3.53907e+07	   74.1094	   20.7284	  0.396646	3.62498e+07	   73.8442	   20.9266	  0.569143	3.52825e+07	
         R10	   5230	   74.3762	   21.1004	  0.766087	3.42533e+07	   74.9073	   21.1004	  0.766048	3.42637e+07	   74.9063	   20.7284	  0.396646	3.54323e+07	    74.375	   20.7284	  0.396646	3.63086e+07	   74.6417	   21.1004	  0.766068	3.42349e+07	   74.9068	   20.9266	  0.569108	3.48372e+07	   74.6406	   20.7284	  0.396646	3.58678e+07	   74.3756	   20.9266	  0.569125	3.52634e+07	
         R10	   5231	   74.9073	   21.1004	  0.766048	3.51869e+07	   75.4384	   21.1004	   0.76601	3.39803e+07	   75.4375	   20.7284	  0.396646	3.54629e+07	   74.9063	   20.7284	  0.396646	3.50104e+07	   75.1729	   21.1004	  0.766029	3.45598e+07	    75.438	   20.9265	  0.569091	3.47123e+07	   75.1719	   20.7284	  0.396646	3.52308e+07	   74.9068	   20.9266	  0.569108	3.50861e+07	
         R10	   5232	   75.4384	   21.1004	   0.76601	3.24673e+07	   75.9692	   21.1003	  0.765971	3.87055e+07	   75.9688	   20.7284	  0.396646	4.22879e+07	   75.4375	   20.7284	  0.396646	 3.2249e+07	   75.7038	   21.1003	  0.765991	 3.5572e+07	    75.969	   20.9265	  0.569074	4.04824e+07	   75.7031	   20.7284	  0.396646	3.72536e+07	    75.438	   20.9265	  0.569091	3.23579e+07	
         R10	   5233	   75.9692	   21.1003	  0.765971	2.93449e+07	      76.5	   21.1005	  0.766142	3.76406e+07	      76.5	   20.7284	  0.396646	4.25367e+07	   75.9688	   20.7284	  0.396646	3.14521e+07	   76.2346	   21.1004	  0.766057	2.97121e+07	      76.5	   20.9266	   0.56915	3.98287e+07	   76.2344	   20.7284	  0.396646	2.92946e+07	    75.969	   20.9265	  0.569074	3.03137e+07	
         R10	   5234	   75.9692	   21.1003	  0.765971	3.16565e+07	   75.9701	   21.3636	    1.2195	2.73065e+07	      76.5	   21.3636	    1.2195	3.30331e+07	      76.5	   21.1005	  0.766142	3.74816e+07	   75.9697	   21.2469	   0.98407	2.94398e+07	   76.2351	   21.3636	    1.2195	2.81444e+07	      76.5	   21.2469	  0.984164	3.45649e+07	   76.2346	   21.1004	  0.766057	2.81937e+07	
         R10	   5235	   75.4384	   21.1004	   0.76601	3.27953e+07	   75.4399	   21.3636	    1.2195	3.05713e+07	   75.9701	   21.3636	    1.2195	3.66615e+07	   75.9692	   21.1003	  0.765971	 3.9824e+07	   75.4391	   21.2469	  0.984091	3.16674e+07	    75.705	   21.3636	    1.2195	3.36049e+07	   75.9697	   21.2469	   0.98407	3.82022e+07	   75.7038	   21.1003	  0.765991	3.63076e+07	
         R10	   5236	   74.9073	   21.1004	  0.766048	3.57298e+07	   74.9092	   21.3636	    1.2195	3.23578e+07	   75.4399	   21.3636	    1.2195	3.42409e+07	   75.4384	   21.1004	   0.76601	3.35856e+07	   74.9082	   21.2469	  0.984112	3.40397e+07	   75.1745	   21.3636	    1.2195	3.32962e+07	   75.4391	   21.2469	  0.984091	3.38785e+07	   75.1729	   21.1004	  0.766029	3.46443e+07	
         R10	   5237	   74.3762	   21.1004	  0.766087	3.49798e+07	   74.3782	   21.3636	    1.2195	3.28964e+07	   74.9092	   21.3636	    1.2195	3.34732e+07	   74.9073	   21.1004	  0.766048	3.43813e+07	   74.3772	   21.2469	  0.984133	3.39215e+07	   74.6437	   21.3636	    1.2195	3.31833e+07	   74.9082	   21.2469	  0.984112	 3.3898e+07	   74.6417	   21.1004	  0.766068	3.46684e+07	
         R10	   5238	   73.8446	   21.1004	  0.766126	3.45683e+07	   73.8467	   21.3636	    1.2195	3.35708e+07	   74.3782	   21.3636	    1.2195	3.21485e+07	   74.3762	   21.1004	  0.766087	3.52444e+07	   73.8456	   21.2469	  0.984155	3.40461e+07	   74.1124	   21.3636	    1.2195	3.28558e+07	   74.3772	   21.2469	  0.984133	3.36854e+07	   74.1104	   21.1004	  0.766107	3.48946e+07	
         R10	   5239	   73.3132	   21.1005	  0.766164	3.36466e+07	   73.3149	   21.3636	    1.2195	3.50289e+07	   73.8467	   21.3636	    1.2195	3.11389e+07	   73.8446	   21.1004	  0.766126	3.63101e+07	    73.314	    21.247	  0.984175	3.43075e+07	   73.5808	   21.3636	    1.2195	3.30763e+07	   73.8456	   21.2469	  0.984155	3.37217e+07	   73.5789	   21.1005	  0.766145	3.49565e+07	
         R10	   5240	   72.7815	   21.1005	  0.766202	3.78442e+07	   72.7826	   21.3636	    1.2195	3.77363e+07	   73.3149	   21.3636	    1.2195	2.99575e+07	   73.3132	   21.1005	  0.766164	3.55504e+07	   72.7821	    21.247	  0.984196	3.77851e+07	   73.0487	   21.3636	    1.2195	3.38033e+07	    73.314	    21.247	  0.984175	3.27298e+07	   73.0474	   21.1005	  0.766183	3.66971e+07	
         R10	   5241	   77.0299	   21.3636	    1.2195	2.78375e+07	     77.03	   21.1003	  0.765997	3.13745e+07	      76.5	   21.1005	  0.766142	3.71495e+07	      76.5	   21.3636	    1.2195	3.28192e+07	     77.03	   21.2469	  0.984084	 2.9535e+07	    76.765	   21.1004	  0.766069	 2.7772e+07	      76.5	   21.2469	  0.984164	3.42532e+07	   76.7649	   21.3636	    1.2195	2.82903e+07	
         R10	   5242	     77.03	   21.1003	  0.765997	   2.91e+07	   77.0313	   20.7284	  0.396646	3.28078e+07	      76.5	   20.7284	  0.396646	3.80558e+07	      76.5	   21.1005	  0.766142	3.74986e+07	   77.0306	   20.9265	  0.569085	3.09476e+07	   76.7656	   20.7284	  0.396646	2.89641e+07	      76.5	   20.9266	   0.56915	3.74824e+07	    76.765	   21.1004	  0.766069	2.96267e+07	
         R10	   5243	    77.561	   21.1004	  0.766087	3.17832e+07	   77.5625	   20.7284	  0.396646	3.26401e+07	   77.0313	   20.7284	  0.396646	4.15368e+07	     77.03	   21.1003	  0.765997	3.85307e+07	   77.5617	   20.9266	  0.569125	3.21924e+07	   77.2969	   20.7284	  0.396646	3.70872e+07	   77.0306	   20.9265	  0.569085	4.00049e+07	   77.2955	   21.1004	  0.766042	3.51042e+07	
         R10	   5244	    77.561	   21.1004	  0.766087	3.38104e+07	   78.0925	   21.1005	  0.766178	3.39053e+07	   78.0938	   20.7284	  0.396646	3.56787e+07	   77.5625	   20.7284	  0.396646	3.42632e+07	   77.8268	   21.1004	  0.766133	3.38499e+07	   78.0931	   20.9266	  0.569166	3.47904e+07	   77.8281	   20.7284	  0.396646	3.49674e+07	   77.5617	   20.9266	  0.569125	3.40347e+07	
         R10	   5245	   78.0925	   21.1005	  0.766178	3.37102e+07	    78.625	   21.0996	  0.765063	3.35716e+07	    78.625	   20.7284	  0.396646	3.55464e+07	   78.0938	   20.7284	  0.396646	3.48601e+07	   78.3588	      21.1	  0.765621	3.36132e+07	    78.625	   20.9261	   0.56867	3.45536e+07	   78.3594	   20.7284	  0.396646	 3.5202e+07	   78.0931	   20.9266	  0.569166	3.42706e+07	
         R10	   5246	   78.0925	   21.1005	  0.766178	3.40109e+07	   78.0924	   21.3636	    1.2195	3.26312e+07	    78.625	   21.3636	    1.2195	3.33224e+07	    78.625	   21.0996	  0.765063	3.40287e+07	   78.0925	    21.247	  0.984183	 3.3315e+07	   78.3587	   21.3636	    1.2195	3.29646e+07	    78.625	   21.2466	  0.983574	3.36572e+07	   78.3588	      21.1	  0.765621	3.40144e+07	
         R10	   5247	    77.561	   21.1004	  0.766087	3.33369e+07	   77.5607	   21.3636	    1.2195	3.29178e+07	   78.0924	   21.3636	    1.2195	 3.3365e+07	   78.0925	   21.1005	  0.766178	3.42846e+07	   77.5608	   21.2469	  0.984133	3.31153e+07	   77.8265	   21.3636	    1.2195	3.31339e+07	   78.0925	    21.247	  0.984183	3.38133e+07	   77.8268	   21.1004	  0.766133	3.37993e+07	
         R10	   5248	    77.561	   21.1004	  0.766087	3.17889e+07	     77.03	   21.1003	  0.765997	3.99671e+07	   77.0299	   21.3636	    1.2195	3.62061e+07	   77.5607	   21.3636	    1.2195	3.07848e+07	   77.2955	   21.1004	  0.766042	3.58732e+07	     77.03	   21.2469	  0.984084	3.80512e+07	   77.2953	   21.3636	    1.2195	3.34723e+07	   77.5608	   21.2469	  0.984133	3.12807e+07	
         R10	   5249	   72.7222	   21.5054	   1.77096	4.15637e+07	   72.7826	   21.3636	    1.2195	2.46976e+07	     72.25	   21.3636	    1.2195	3.57394e+07	     72.25	   21.5054	   1.77096	 3.0863e+07	   72.7524	   21.4542	   1.49016	3.24126e+07	   72.5163	   21.3636	    1.2195	 2.8744e+07	     72.25	   21.4542	   1.49016	3.26915e+07	   72.4861	   21.5054	   1.77096	3.54705e+07	
         R10	   5250	   73.1944	   21.5054	   1.77096	3.80927e+07	   73.3149	   21.3636	    1.2195	3.06028e+07	   72.7826	   21.3636	    1.2195	4.04146e+07	   72.7222	   21.5054	   1.77096	2.51169e+07	   73.2547	   21.4542	   1.49016	3.39192e+07	   73.0487	   21.3636	    1.2195	3.55062e+07	   72.7524	   21.4542	   1.49016	3.22057e+07	   72.9583	   21.5054	   1.77096	2.99366e+07	
         R10	   5251	   73.6667	   21.5054	   1.77096	2.85935e+07	   73.8467	   21.3636	    1.2195	3.18819e+07	   73.3149	   21.3636	    1.2195	 3.4107e+07	   73.1944	   21.5054	   1.77096	2.63531e+07	   73.7567	   21.4542	   1.49016	3.00637e+07	   73.5808	   21.3636	    1.2195	3.29666e+07	   73.2547	   21.4542	   1.49016	3.01493e+07	   73.4306	   21.5054	   1.77096	2.73879e+07	
         R10	   5252	   74.1389	   21.5054	   1.77096	2.51292e+07	   74.3782	   21.3636	    1.2195	3.28848e+07	   73.8467	   21.3636	    1.2195	3.40653e+07	   73.6667	   21.5054	   1.77096	2.49517e+07	   74.2585	   21.4542	   1.49016	2.89054e+07	   74.1124	   21.3636	    1.2195	3.34613e+07	   73.7567	   21.4542	   1.49016	2.93084e+07	   73.9028	   21.5054	   1.77096	 2.4894e+07	
         R10	   5253	   74.6111	   21.5054	   1.77096	 2.5064e+07	   74.9092	   21.3636	    1.2195	3.45541e+07	   74.3782	   21.3636	    1.2195	3.35377e+07	   74.1389	   21.5054	   1.77096	 2.3245e+07	   74.7602	   21.4542	   1.49016	2.95395e+07	   74.6437	   21.3636	    1.2195	3.40115e+07	   74.2585	   21.4542	   1.49016	2.81638e+07	    74.375	   21.5054	   1.77096	2.40182e+07	
         R10	   5254	   75.0833	   21.5054	   1.77096	2.81838e+07	   75.4399	   21.3636	    1.2195	3.42263e+07	   74.9092	   21.3636	    1.2195	3.40182e+07	   74.6111	   21.5054	   1.77096	2.31958e+07	   75.2616	   21.4542	   1.49016	3.10951e+07	   75.1745	   21.3636	    1.2195	3.40654e+07	   74.7602	   21.4542	   1.49016	  2.826e+07	   74.8472	   21.5054	   1.77096	2.55884e+07	
         R10	   5255	   75.5556	   21.5054	   1.77096	3.15795e+07	   75.9701	   21.3636	    1.2195	3.67829e+07	   75.4399	   21.3636	    1.2195	3.19154e+07	   75.0833	   21.5054	   1.77096	2.59213e+07	   75.7628	   21.4542	   1.49016	3.40599e+07	    75.705	   21.3636	    1.2195	3.42385e+07	   75.2616	   21.4542	   1.49016	2.87633e+07	   75.3194	   21.5054	   1.77096	2.87093e+07	
         R10	   5256	   75.9701	   21.3636	    1.2195	2.40684e+07	   76.0278	   21.5054	   1.77096	3.48373e+07	      76.5	   21.5054	   1.77096	3.15048e+07	      76.5	   21.3636	    1.2195	3.09225e+07	    75.999	   21.4542	   1.49016	2.92818e+07	   76.2639	   21.5054	   1.77096	3.25992e+07	      76.5	   21.4542	   1.49016	2.97006e+07	   76.2351	   21.3636	    1.2195	2.33668e+07	
         R10	   5257	   75.5556	   21.5054	   1.77096	2.68992e+07	   76.0278	   21.5054	   1.77096	3.79849e+07	   75.9701	   21.3636	    1.2195	3.56137e+07	   75.7917	   21.5054	   1.77096	3.23694e+07	    75.999	   21.4542	   1.49016	3.67744e+07	   75.7628	   21.4542	   1.49016	3.11338e+07	       N/A	       N/A	       N/A	        N/A	       N/A	       N/A	       N/A	        N/A	
         R10	   5258	   72.7222	      21.5	      2.25	5.51413e+07	   72.7222	   21.5054	   1.77096	4.59008e+07	     72.25	   21.5054	   1.77096	  2.903e+07	     72.25	      21.5	      2.25	 5.4122e+07	   72.7222	   21.5171	   2.01064	4.75777e+07	   72.4861	   21.5054	   1.77096	3.68798e+07	     72.25	   21.5171	   2.01064	3.73805e+07	   72.4861	      21.5	      2.25	 4.5166e+07	
         R10	   5259	   73.1944	      21.5	      2.25	3.31182e+07	   73.1944	   21.5054	   1.77096	4.45557e+07	   72.7222	   21.5054	   1.77096	2.23382e+07	   72.7222	      21.5	      2.25	4.11503e+07	   73.1944	   21.5171	   2.01064	3.30175e+07	   72.9583	   21.5054	   1.77096	3.18911e+07	   72.7222	   21.5171	   2.01064	 2.9915e+07	   72.9583	      21.5	      2.25	3.50912e+07	
         R10	   5260	   73.6667	      21.5	      2.25	3.18808e+07	   73.6667	   21.5054	   1.77096	3.22346e+07	   73.1944	   21.5054	   1.77096	2.88842e+07	   73.1944	      21.5	      2.25	3.43122e+07	   73.6667	   21.5171	   2.01064	2.41864e+07	   73.4306	   21.5054	   1.77096	3.01633e+07	   73.1944	   21.5171	   2.01064	2.47675e+07	   73.4306	      21.5	      2.25	3.26082e+07	
         R10	   5261	   74.1389	      21.5	      2.25	2.89107e+07	   74.1389	   21.5054	   1.77096	 2.6586e+07	   73.6667	   21.5054	   1.77096	2.74158e+07	   73.6667	      21.5	      2.25	3.29173e+07	   74.1389	   21.5171	   2.01064	1.89543e+07	   73.9028	   21.5054	   1.77096	 2.6965e+07	   73.6667	   21.5171	   2.01064	2.17902e+07	   73.9028	      21.5	      2.25	3.04424e+07	
         R10	   5262	   74.6111	      21.5	      2.25	2.27864e+07	   74.6111	   21.5054	   1.77096	2.38888e+07	   74.1389	   21.5054	   1.77096	 2.6538e+07	   74.1389	      21.5	      2.25	2.93775e+07	   74.6111	   21.5171	   2.01064	1.71402e+07	    74.375	   21.5054	   1.77096	2.51766e+07	   74.1389	   21.5171	   2.01064	1.90688e+07	    74.375	      21.5	      2.25	2.53932e+07	
         R10	   5263	   75.0833	      21.5	      2.25	2.09301e+07	   75.0833	   21.5054	   1.77096	2.35257e+07	   74.6111	   21.5054	   1.77096	2.55023e+07	   74.6111	      21.5	      2.25	2.24908e+07	   75.0833	   21.5171	   2.01064	2.07542e+07	   74.8472	   21.5054	   1.77096	 2.4391e+07	   74.6111	   21.5171	   2.01064	1.79858e+07	   74.8472	      21.5	      2.25	1.95046e+07	
         R10	   5264	   75.5556	      21.5	      2.25	2.88342e+07	   75.5556	   21.5054	   1.77096	2.66455e+07	   75.0833	   21.5054	   1.77096	2.54257e+07	   75.0833	      21.5	      2.25	2.15339e+07	   75.5556	   21.5171	   2.01064	2.72603e+07	   75.3194	   21.5054	   1.77096	2.59744e+07	   75.0833	   21.5171	   2.01064	   2.21e+07	   75.3194	      21.5	      2.25	2.44872e+07	
         R10	   5265	   76.0278	      21.5	      2.25	4.37843e+07	   76.0278	   21.5054	   1.77096	3.12418e+07	   75.5556	   21.5054	   1.77096	2.74357e+07	   75.5556	      21.5	      2.25	2.88361e+07	   76.0278	   21.5171	   2.01064	3.62623e+07	   75.7917	   21.5054	   1.77096	2.93073e+07	   75.5556	   21.5171	   2.01064	2.70896e+07	   75.7917	      21.5	      2.25	3.60556e+07	
         R10	   5266	      76.5	      21.5	      2.25	5.95588e+07	      76.5	   21.5054	   1.77096	 2.7223e+07	   76.0278	   21.5054	   1.77096	2.71911e+07	   76.0278	      21.5	      2.25	5.08257e+07	      76.5	   21.5171	   2.01064	4.14891e+07	   76.2639	   21.5054	   1.77096	 2.6495e+07	   76.0278	   21.5171	   2.01064	3.80281e+07	   76.2639	      21.5	      2.25	5.30202e+07	
         R10	   5267	   77.0313	   21.5054	   1.77096	3.43714e+07	   77.0299	   21.3636	    1.2195	2.65741e+07	      76.5	   21.3636	    1.2195	3.05087e+07	      76.5	   21.5054	   1.77096	3.12829e+07	   77.0306	   21.4542	   1.49016	3.01924e+07	   76.7649	   21.3636	    1.2195	2.39987e+07	      76.5	   21.4542	   1.49016	2.94826e+07	   76.7656	   21.5054	   1.77096	3.24009e+07	
         R10	   5268	   77.5625	   21.5054	   1.77096	2.54265e+07	   77.5607	   21.3636	    1.2195	3.43548e+07	   77.0299	   21.3636	    1.2195	3.55936e+07	   77.0313	   21.5054	   1.77096	3.65525e+07	   77.5616	   21.4542	   1.49016	2.93772e+07	   77.2953	   21.3636	    1.2195	3.49393e+07	   77.0306	   21.4542	   1.49016	3.60432e+07	   77.2969	   21.5054	   1.77096	3.05975e+07	
         R10	   5269	   78.0938	   21.5054	   1.77096	2.42485e+07	   78.0924	   21.3636	    1.2195	3.46753e+07	   77.5607	   21.3636	    1.2195	3.38799e+07	   77.5625	   21.5054	   1.77096	3.00058e+07	   78.0931	   21.4542	   1.49016	2.92406e+07	   77.8265	   21.3636	    1.2195	3.42401e+07	   77.5616	   21.4542	   1.49016	3.11751e+07	   77.8281	   21.5054	   1.77096	2.70448e+07	
         R10	   5270	    78.625	   21.5054	   1.77096	 2.4342e+07	    78.625	   21.3636	    1.2195	3.38924e+07	   78.0924	   21.3636	    1.2195	3.41842e+07	   78.0938	   21.5054	   1.77096	2.52195e+07	    78.625	   21.4542	   1.49016	2.88808e+07	   78.3587	   21.3636	    1.2195	 3.4026e+07	   78.0931	   21.4542	   1.49016	2.92689e+07	   78.3594	   21.5054	   1.77096	2.46346e+07	
         R10	   5271	   77.0313	      21.5	      2.25	5.01289e+07	   77.0313	   21.5054	   1.77096	2.67883e+07	      76.5	   21.5054	   1.77096	2.62298e+07	      76.5	      21.5	      2.25	6.13418e+07	   77.0313	   21.5171	   2.01064	  3.713e+07	   76.7656	   21.5054	   1.77096	2.60941e+07	      76.5	   21.5171	   2.01064	4.19374e+07	   76.7656	      21.5	      2.25	5.30726e+07	
         R10	   5272	   77.5625	      21.5	      2.25	2.63486e+07	   77.5625	   21.5054	   1.77096	2.83198e+07	   77.0313	   21.5054	   1.77096	3.20291e+07	   77.0313	      21.5	      2.25	4.22486e+07	   77.5625	   21.5171	   2.01064	2.49512e+07	   77.2969	   21.5054	   1.77096	2.98858e+07	   77.0313	   21.5171	   2.01064	3.58496e+07	   77.2969	      21.5	      2.25	3.24444e+07	
         R10	   5273	   78.0938	      21.5	      2.25	2.77777e+07	   78.0938	   21.5054	   1.77096	2.67195e+07	   77.5625	   21.5054	   1.77096	2.68161e+07	   77.5625	      21.5	      2.25	2.68576e+07	   78.0938	   21.5171	   2.01064	2.09869e+07	   77.8281	   21.5054	   1.77096	2.67568e+07	   77.5625	   21.5171	   2.01064	2.46973e+07	   77.8281	      21.5	      2.25	  2.534e+07	
         R10	   5274	    78.625	      21.5	      2.25	3.34438e+07	    78.625	   21.5054	   1.77096	2.63193e+07	   78.0938	   21.5054	   1.77096	2.41723e+07	   78.0938	      21.5	      2.25	2.81096e+07	    78.625	   21.5171	   2.01064	2.07084e+07	   78.3594	   21.5054	   1.77096	2.52171e+07	   78.0938	   21.5171	   2.01064	1.95817e+07	   78.3594	      21.5	      2.25	2.99532e+07	
         R10	   5275	    76.364	   15.3122	   2.41186	1.54902e+07	    76.364	      15.3	       2.4	2.67794e+07	    76.347	      15.3	       2.4	3.12412e+07	    76.347	   15.3122	   2.41186	2.08883e+07	    76.364	   15.3061	   2.40593	2.10799e+07	   76.3555	      15.3	       2.4	2.90057e+07	    76.347	   15.3061	   2.40593	2.59512e+07	   76.3555	   15.3122	   2.41186	1.81651e+07	
         R10	   5276	    76.381	   15.3122	   2.41186	1.22668e+07	    76.381	      15.3	       2.4	2.30632e+07	    76.364	      15.3	       2.4	2.65229e+07	    76.364	   15.3122	   2.41186	1.56947e+07	    76.381	   15.3061	   2.40593	1.75895e+07	   76.3725	      15.3	       2.4	2.47783e+07	    76.364	   15.3061	   2.40593	2.10474e+07	   76.3725	   15.3122	   2.41186	1.39078e+07	
         R10	   5277	    76.398	   15.3122	   2.41185	9.80149e+06	    76.398	      15.3	       2.4	2.21109e+07	    76.381	      15.3	       2.4	2.33457e+07	    76.381	   15.3122	   2.41186	1.17435e+07	    76.398	   15.3061	   2.40593	1.54681e+07	   76.3895	      15.3	       2.4	2.27101e+07	    76.381	   15.3061	   2.40593	1.74245e+07	   76.3895	   15.3122	   2.41186	1.03964e+07	
         R10	   5278	    76.415	   15.3122	   2.41185	1.12847e+07	    76.415	      15.3	       2.4	2.34213e+07	    76.398	      15.3	       2.4	2.19388e+07	    76.398	   15.3122	   2.41185	9.64538e+06	    76.415	   15.3061	   2.40593	1.59619e+07	   76.4065	      15.3	       2.4	2.26243e+07	    76.398	   15.3061	   2.40593	1.52714e+07	   76.4065	   15.3122	   2.41185	1.01519e+07	
         R10	   5279	    76.432	   15.3122	   2.41185	1.69475e+07	    76.432	      15.3	       2.4	3.01168e+07	    76.415	      15.3	       2.4	2.44926e+07	    76.415	   15.3122	   2.41185	 1.1132e+07	    76.432	   15.3061	   2.40593	 1.8918e+07	   76.4235	      15.3	       2.4	2.72497e+07	    76.415	   15.3061	   2.40593	1.60896e+07	   76.4235	   15.3122	   2.41185	1.36784e+07	
         R10	   5280	    76.449	   15.3122	   2.41185	2.05734e+07	    76.449	      15.3	       2.4	3.96108e+07	    76.432	      15.3	       2.4	3.10567e+07	    76.432	   15.3122	   2.41185	1.72512e+07	    76.449	   15.3061	   2.40593	2.26628e+07	   76.4405	      15.3	       2.4	3.53098e+07	    76.432	   15.3061	   2.40593	1.98548e+07	   76.4405	   15.3122	   2.41185	1.86898e+07	
         R10	   5281	    76.466	   15.3122	   2.41186	 2.8444e+07	    76.466	      15.3	       2.4	5.51184e+07	    76.449	      15.3	       2.4	4.48991e+07	    76.449	   15.3122	   2.41185	2.18522e+07	    76.466	   15.3061	   2.40593	 2.3623e+07	   76.4575	      15.3	       2.4	 4.9979e+07	    76.449	   15.3061	   2.40593	 2.4406e+07	   76.4575	   15.3122	   2.41186	2.46146e+07	
         R10	   5282	    76.483	   15.3122	   2.41186	5.50196e+07	    76.483	      15.3	       2.4	 7.1115e+07	    76.466	      15.3	       2.4	5.95586e+07	    76.466	   15.3122	   2.41186	2.85397e+07	    76.483	   15.3061	   2.40593	1.54519e+07	   76.4745	      15.3	       2.4	6.44011e+07	    76.466	   15.3061	   2.40593	2.65949e+07	   76.4745	   15.3122	   2.41186	3.82613e+07	
         R10	   5283	      76.5	   15.3122	   2.41185	1.57896e+08	      76.5	      15.3	       2.4	9.58905e+07	    76.483	      15.3	       2.4	 7.4781e+07	    76.483	   15.3122	   2.41186	5.33124e+07	      76.5	   15.3061	   2.40593	1.10507e+08	   76.4915	      15.3	       2.4	6.96842e+07	    76.483	   15.3061	   2.40593	1.47628e+07	   76.4915	   15.3122	   2.41186	9.89554e+07	
         R10	   5284	      76.5	   15.3244	   2.42371	1.47398e+08	      76.5	   15.3122	   2.41185	1.45663e+08	    76.483	   15.3122	   2.41186	 5.3624e+07	    76.483	   15.3244	   2.42371	9.74187e+07	      76.5	   15.3183	   2.41778	1.46027e+08	   76.4915	   15.3122	   2.41186	9.17896e+07	    76.483	   15.3183	   2.41778	7.44787e+07	   76.4915	   15.3244	   2.42371	1.17733e+08	
         R10	   5285	    76.483	   15.3366	   2.43557	1.00626e+08	      76.5	   15.3366	   2.43556	1.26616e+08	      76.5	   15.3244	   2.42371	 1.4387e+08	    76.483	   15.3244	   2.42371	 9.3218e+07	   76.4915	   15.3366	   2.43557	1.11444e+08	      76.5	   15.3305	   2.42964	1.35123e+08	   76.4915	   15.3244	   2.42371	1.14546e+08	    76.483	   15.3305	   2.42964	9.68286e+07	
         R10	   5286	    76.483	   15.3487	   2.44742	9.46386e+07	      76.5	   15.3487	   2.44742	1.05314e+08	      76.5	   15.3366	   2.43556	1.25422e+08	    76.483	   15.3366	   2.43557	1.00233e+08	   76.4915	   15.3487	   2.44742	9.87661e+07	      76.5	   15.3426	   2.44149	1.15243e+08	   76.4915	   15.3366	   2.43557	 1.1061e+08	    76.483	   15.3426	   2.44149	9.74074e+07	
         R10	   5287	    76.483	   15.3609	   2.45928	8.42557e+07	      76.5	   15.3609	   2.45928	8.86185e+07	      76.5	   15.3487	   2.44742	1.04192e+08	    76.483	   15.3487	   2.44742	9.73885e+07	   76.4915	   15.3609	   2.45928	8.57294e+07	      76.5	   15.3548	   2.45335	9.62133e+07	   76.4915	   15.3487	   2.44742	9.93719e+07	    76.483	   15.3548	   2.45335	9.07943e+07	
         R10	   5288	    76.483	   15.3731	   2.47113	7.54536e+07	      76.5	   15.3731	   2.47113	7.54064e+07	      76.5	   15.3609	   2.45928	8.71556e+07	    76.483	   15.3609	   2.45928	8.86036e+07	   76.4915	   15.3731	   2.47113	 7.4964e+07	      76.5	    15.367	    2.4652	8.10498e+07	   76.4915	   15.3609	   2.45928	8.72108e+07	    76.483	    15.367	    2.4652	  8.194e+07	
         R10	   5289	    76.483	   15.3853	   2.48299	 7.2327e+07	      76.5	   15.3853	   2.48299	6.55961e+07	      76.5	   15.3731	   2.47113	7.44056e+07	    76.483	   15.3731	   2.47113	  7.807e+07	   76.4915	   15.3853	   2.48299	 6.8681e+07	      76.5	   15.3792	   2.47706	6.97568e+07	   76.4915	   15.3731	   2.47113	7.58611e+07	    76.483	   15.3792	   2.47706	 7.5075e+07	
         R10	   5290	    76.483	   15.3975	   2.49484	6.63652e+07	      76.5	   15.3975	   2.49484	5.99715e+07	      76.5	   15.3853	   2.48299	6.55133e+07	    76.483	   15.3853	   2.48299	7.22969e+07	   76.4915	   15.3975	   2.49484	 6.2961e+07	      76.5	   15.3914	   2.48891	6.24408e+07	   76.4915	   15.3853	   2.48299	6.86585e+07	    76.483	   15.3914	   2.48891	6.92015e+07	
         R10	   5291	    76.483	   15.4097	    2.5067	6.42786e+07	      76.5	   15.4097	    2.5067	 5.7056e+07	      76.5	   15.3975	   2.49484	6.06455e+07	    76.483	   15.3975	   2.49484	 6.6579e+07	   76.4915	   15.4097	    2.5067	6.04882e+07	      76.5	   15.4036	   2.50077	5.85954e+07	   76.4915	   15.3975	   2.49484	6.33972e+07	    76.483	   15.4036	   2.50077	6.52255e+07	
         R10	   5292	    76.483	   15.4218	   2.51855	 6.1996e+07	      76.5	   15.4218	   2.51855	5.86229e+07	      76.5	   15.4097	    2.5067	5.75947e+07	    76.483	   15.4097	    2.5067	6.42603e+07	   76.4915	   15.4218	   2.51855	6.00756e+07	      76.5	   15.4158	   2.51262	5.78507e+07	   76.4915	   15.4097	    2.5067	6.06915e+07	    76.483	   15.4158	   2.51262	6.29681e+07	
         R10	   5293	    76.466	   15.4218	   2.51855	6.72855e+07	    76.483	   15.4218	   2.51855	6.19021e+07	    76.483	   15.4097	    2.5067	6.42768e+07	    76.466	   15.4097	    2.5067	6.97539e+07	   76.4745	   15.4218	   2.51855	6.45174e+07	    76.483	   15.4158	   2.51262	6.30008e+07	   76.4745	   15.4097	    2.5067	6.69439e+07	    76.466	   15.4158	   2.51262	6.84347e+07	
         R10	   5294	    76.449	   15.4097	    2.5067	7.21516e+07	    76.449	   15.4218	   2.51855	7.10764e+07	    76.466	   15.4218	   2.51855	6.69873e+07	    76.466	   15.4097	    2.5067	6.91928e+07	    76.449	   15.4158	   2.51262	7.15569e+07	   76.4575	   15.4218	   2.51855	6.90105e+07	    76.466	   15.4158	   2.51262	 6.8054e+07	   76.4575	   15.4097	    2.5067	7.06703e+07	
         R10	   5295	    76.432	   15.4097	    2.5067	7.37604e+07	    76.432	   15.4218	   2.51855	6.86662e+07	    76.449	   15.4218	   2.51855	 7.1352e+07	    76.449	   15.4097	    2.5067	7.33042e+07	    76.432	   15.4158	   2.51262	7.11478e+07	   76.4405	   15.4218	   2.51855	6.99898e+07	    76.449	   15.4158	   2.51262	7.23116e+07	   76.4405	   15.4097	    2.5067	7.35306e+07	
         R10	   5296	    76.415	   15.4097	    2.5067	6.24782e+07	    76.415	   15.4218	   2.51855	  6.884e+07	    76.432	   15.4218	   2.51855	7.12993e+07	    76.432	   15.4097	    2.5067	7.98271e+07	    76.415	   15.4158	   2.51262	6.54731e+07	   76.4235	   15.4218	   2.51855	6.99537e+07	    76.432	   15.4158	   2.51262	7.55009e+07	   76.4235	   15.4097	    2.5067	7.10586e+07	
         R10	   5297	    76.398	   15.4097	    2.5067	6.70446e+07	    76.398	   15.4218	   2.51855	6.45299e+07	    76.415	   15.4218	   2.51855	7.33268e+07	    76.415	   15.4097	    2.5067	7.46838e+07	    76.398	   15.4158	   2.51262	6.53213e+07	   76.4065	   15.4218	   2.51855	6.87358e+07	    76.415	   15.4158	   2.51262	7.35096e+07	   76.4065	   15.4097	    2.5067	7.04961e+07	
         R10	   5298	    76.381	   15.4097	    2.5067	 6.3121e+07	    76.381	   15.4218	   2.51855	6.74061e+07	    76.398	   15.4218	   2.51855	 7.6359e+07	    76.398	   15.4097	    2.5067	6.04793e+07	    76.381	   15.4158	   2.51262	6.46049e+07	   76.3895	   15.4218	   2.51855	7.14433e+07	    76.398	   15.4158	   2.51262	6.80159e+07	   76.3895	   15.4097	   2.50669	6.13897e+07	
         R10	   5299	    76.364	   15.4097	    2.5067	6.72369e+07	    76.364	   15.4218	   2.51855	6.47314e+07	    76.381	   15.4218	   2.51855	 7.8561e+07	    76.381	   15.4097	    2.5067	5.87861e+07	    76.364	   15.4158	   2.51262	6.58711e+07	   76.3725	   15.4218	   2.51855	 7.0858e+07	    76.381	   15.4158	   2.51262	6.80349e+07	   76.3725	   15.4097	    2.5067	6.30099e+07	
         R10	   5300	    76.347	   15.4097	    2.5067	6.52331e+07	    76.347	   15.4218	   2.51855	6.67222e+07	    76.364	   15.4218	   2.51855	7.13474e+07	    76.364	   15.4097	    2.5067	6.36219e+07	    76.347	   15.4158	   2.51262	6.58936e+07	   76.3555	   15.4218	   2.51855	6.90149e+07	    76.364	   15.4158	   2.51262	6.72572e+07	   76.3555	   15.4097	    2.5067	 6.3769e+07	
         R10	   5301	     76.33	   15.4097	    2.5067	6.10782e+07	     76.33	   15.4218	   2.51855	  6.349e+07	    76.347	   15.4218	   2.51855	6.84412e+07	    76.347	   15.4097	    2.5067	6.21553e+07	     76.33	   15.4158	   2.51262	6.22579e+07	   76.3385	   15.4218	   2.51855	6.59238e+07	    76.347	   15.4158	   2.51262	6.52652e+07	   76.3385	   15.4097	    2.5067	6.15736e+07	
         R10	   5302	     76.33	   15.3975	   2.49484	5.08575e+07	     76.33	   15.4097	    2.5067	6.28002e+07	    76.347	   15.4097	    2.5067	6.40155e+07	    76.347	   15.3975	   2.49484	5.89264e+07	     76.33	   15.4036	   2.50077	5.62152e+07	   76.3385	   15.4097	    2.5067	6.33853e+07	    76.347	   15.4036	   2.50077	6.14405e+07	   76.3385	   15.3975	   2.49484	5.42665e+07	
         R10	   5303	    76.347	   15.3853	   2.48299	5.00897e+07	     76.33	   15.3853	   2.48299	4.94168e+07	     76.33	   15.3975	   2.49484	5.07726e+07	    76.347	   15.3975	   2.49484	6.07387e+07	   76.3385	   15.3853	   2.48299	4.96843e+07	     76.33	   15.3914	   2.48891	 4.9913e+07	   76.3385	   15.3975	   2.49484	5.56812e+07	    76.347	   15.3914	   2.48891	 5.5265e+07	
         R10	   5304	    76.347	   15.3731	   2.47113	4.24575e+07	     76.33	   15.3731	   2.47113	3.91254e+07	     76.33	   15.3853	   2.48299	5.08641e+07	    76.347	   15.3853	   2.48299	4.98637e+07	   76.3385	   15.3731	   2.47113	4.01321e+07	     76.33	   15.3792	   2.47706	4.49408e+07	   76.3385	   15.3853	   2.48299	5.02404e+07	    76.347	   15.3792	   2.47706	 4.5895e+07	
         R10	   5305	    76.347	   15.3609	   2.45928	2.75727e+07	     76.33	   15.3609	   2.45928	3.17279e+07	     76.33	   15.3731	   2.47113	 3.8833e+07	    76.347	   15.3731	   2.47113	 3.9889e+07	   76.3385	   15.3609	   2.45928	2.96037e+07	     76.33	    15.367	    2.4652	3.52687e+07	   76.3385	   15.3731	   2.47113	3.87113e+07	    76.347	    15.367	    2.4652	3.30439e+07	
         R10	   5306	    76.347	   15.3487	   2.44742	2.19978e+07	     76.33	   15.3487	   2.44742	2.12959e+07	     76.33	   15.3609	   2.45928	2.92546e+07	    76.347	   15.3609	   2.45928	3.19021e+07	   76.3385	   15.3487	   2.44742	2.07186e+07	     76.33	   15.3548	   2.45335	2.47482e+07	   76.3385	   15.3609	   2.45928	3.05463e+07	    76.347	   15.3548	   2.45335	2.68675e+07	
         R10	   5307	    76.347	   15.3366	   2.43556	1.27434e+07	     76.33	   15.3366	   2.43556	1.39243e+07	     76.33	   15.3487	   2.44742	1.85203e+07	    76.347	   15.3487	   2.44742	2.08108e+07	   76.3385	   15.3366	   2.43556	1.31634e+07	     76.33	   15.3426	   2.44149	1.57875e+07	   76.3385	   15.3487	   2.44742	 1.9442e+07	    76.347	   15.3426	   2.44149	1.65149e+07	
         R10	   5308	    76.347	   15.3244	   2.42371	1.20407e+07	     76.33	   15.3244	   2.42371	1.64955e+07	     76.33	   15.3366	   2.43556	1.51267e+07	    76.347	   15.3366	   2.43556	1.15954e+07	   76.3385	   15.3244	   2.42371	1.42331e+07	     76.33	   15.3305	   2.42964	1.44961e+07	   76.3385	   15.3366	   2.43556	1.28641e+07	    76.347	   15.3305	   2.42964	9.63513e+06	
         R10	   5309	    76.347	   15.3122	   2.41186	2.05957e+07	    76.347	      15.3	       2.4	3.11904e+07	     76.33	      15.3	       2.4	3.65758e+07	     76.33	   15.3122	   2.41185	2.62918e+07	    76.347	   15.3061	   2.40593	2.58015e+07	   76.3385	      15.3	       2.4	  3.388e+07	     76.33	   15.3061	   2.40593	3.12733e+07	   76.3385	   15.3122	   2.41185	2.34218e+07	
         R10	   5310	    76.381	   15.3244	   2.42371	4.08496e+06	    76.381	   15.3122	   2.41186	1.13902e+07	    76.364	   15.3122	   2.41186	1.57957e+07	    76.364	   15.3244	   2.42371	5.98135e+06	    76.381	   15.3183	   2.41778	5.11515e+06	   76.3725	   15.3122	   2.41186	1.34993e+07	    76.364	   15.3183	   2.41778	 9.8712e+06	   76.3725	   15.3244	   2.42371	3.58914e+06	
         R10	   5311	    76.398	   15.3244	   2.42371	9.50042e+06	    76.398	   15.3122	   2.41185	9.39134e+06	    76.381	   15.3122	   2.41186	 1.1771e+07	    76.381	   15.3244	   2.42371	 4.4456e+06	    76.398	   15.3183	   2.41778	5.60183e+06	   76.3895	   15.3122	   2.41186	1.02286e+07	    76.381	   15.3183	   2.41778	 4.8368e+06	   76.3895	   15.3244	   2.42371	6.81132e+06	
         R10	   5312	    76.415	   15.3244	   2.42371	 1.8623e+07	    76.415	   15.3122	   2.41185	1.07752e+07	    76.398	   15.3122	   2.41185	9.96301e+06	    76.398	   15.3244	   2.42371	1.16586e+07	    76.415	   15.3183	   2.41778	1.17915e+07	   76.4065	   15.3122	   2.41185	9.84648e+06	    76.398	   15.3183	   2.41778	5.87106e+06	   76.4065	   15.3244	   2.42371	1.50619e+07	
         R10	   5313	    76.432	   15.3244	   2.42371	 3.0341e+07	    76.432	   15.3122	   2.41185	1.54102e+07	    76.415	   15.3122	   2.41185	1.14266e+07	    76.415	   15.3244	   2.42371	2.04931e+07	    76.432	   15.3183	   2.41778	1.94584e+07	   76.4235	   15.3122	   2.41185	1.32813e+07	    76.415	   15.3183	   2.41778	1.25644e+07	   76.4235	   15.3244	   2.42371	2.53977e+07	
         R10	   5314	    76.449	   15.3244	   2.42371	4.44057e+07	    76.449	   15.3122	   2.41185	2.02258e+07	    76.432	   15.3122	   2.41185	1.75703e+07	    76.432	   15.3244	   2.42371	3.01589e+07	    76.449	   15.3183	   2.41778	2.86927e+07	   76.4405	   15.3122	   2.41185	1.88441e+07	    76.432	   15.3183	   2.41778	2.09725e+07	   76.4405	   15.3244	   2.42371	 3.7182e+07	
         R10	   5315	    76.466	   15.3244	   2.42371	6.24654e+07	    76.466	   15.3122	   2.41186	 2.6769e+07	    76.449	   15.3122	   2.41185	2.24162e+07	    76.449	   15.3244	   2.42371	4.51952e+07	    76.466	   15.3183	   2.41778	4.18494e+07	   76.4575	   15.3122	   2.41186	2.38831e+07	    76.449	   15.3183	   2.41778	3.09721e+07	   76.4575	   15.3244	   2.42371	5.31312e+07	
         R10	   5316	    76.483	   15.3244	   2.42371	9.12067e+07	    76.483	   15.3122	   2.41186	5.15838e+07	    76.466	   15.3122	   2.41186	2.99538e+07	    76.466	   15.3244	   2.42371	6.59484e+07	    76.483	   15.3183	   2.41778	7.08799e+07	   76.4745	   15.3122	   2.41186	3.55282e+07	    76.466	   15.3183	   2.41778	4.47433e+07	   76.4745	   15.3244	   2.42371	 7.6628e+07	
         R10	   5317	    76.483	   15.3366	   2.43557	1.00624e+08	    76.483	   15.3244	   2.42371	9.04248e+07	    76.466	   15.3244	   2.42371	6.36983e+07	    76.466	   15.3366	   2.43557	7.93007e+07	    76.483	   15.3305	   2.42964	9.53997e+07	   76.4745	   15.3244	   2.42371	7.52455e+07	    76.466	   15.3305	   2.42964	7.09358e+07	   76.4745	   15.3366	   2.43557	8.89921e+07	
         R10	   5318	    76.466	   15.3487	   2.44742	8.40227e+07	    76.483	   15.3487	   2.44742	 9.6543e+07	    76.483	   15.3366	   2.43557	9.90575e+07	    76.466	   15.3366	   2.43557	7.85147e+07	   76.4745	   15.3487	   2.44742	8.90536e+07	    76.483	   15.3426	   2.44149	9.77569e+07	   76.4745	   15.3366	   2.43557	8.78704e+07	    76.466	   15.3426	   2.44149	8.11474e+07	
         R10	   5319	    76.466	   15.3609	   2.45927	8.07886e+07	    76.483	   15.3609	   2.45928	8.94613e+07	    76.483	   15.3487	   2.44742	8.96222e+07	    76.466	   15.3487	   2.44742	8.74164e+07	   76.4745	   15.3609	   2.45927	8.43901e+07	    76.483	   15.3548	   2.45335	8.95282e+07	   76.4745	   15.3487	   2.44742	 8.8242e+07	    76.466	   15.3548	   2.45335	8.39573e+07	
         R10	   5320	    76.466	   15.3731	   2.47113	7.69733e+07	    76.483	   15.3731	   2.47113	8.21396e+07	    76.483	   15.3609	   2.45928	8.24575e+07	    76.466	   15.3609	   2.45927	8.48314e+07	   76.4745	   15.3731	   2.47113	7.90377e+07	    76.483	    15.367	    2.4652	8.22924e+07	   76.4745	   15.3609	   2.45927	8.34476e+07	    76.466	    15.367	    2.4652	8.07668e+07	
         R10	   5321	    76.466	   15.3853	   2.48299	7.41202e+07	    76.483	   15.3853	   2.48299	7.23514e+07	    76.483	   15.3731	   2.47113	7.76691e+07	    76.466	   15.3731	   2.47113	8.07261e+07	   76.4745	   15.3853	   2.48299	 7.3118e+07	    76.483	   15.3792	   2.47706	7.49796e+07	   76.4745	   15.3731	   2.47113	7.91233e+07	    76.466	   15.3792	   2.47706	7.73593e+07	
         R10	   5322	    76.466	   15.3975	   2.49484	6.93276e+07	    76.483	   15.3975	   2.49484	6.90265e+07	    76.483	   15.3853	   2.48299	 6.9842e+07	    76.466	   15.3853	   2.48299	7.90579e+07	   76.4745	   15.3975	   2.49484	6.91152e+07	    76.483	   15.3914	   2.48891	6.91531e+07	   76.4745	   15.3853	   2.48299	7.41822e+07	    76.466	   15.3914	   2.48891	7.41671e+07	
         R10	   5323	    76.466	   15.4097	    2.5067	6.93475e+07	    76.483	   15.4097	    2.5067	6.37265e+07	    76.483	   15.3975	   2.49484	6.80664e+07	    76.466	   15.3975	   2.49484	7.01805e+07	   76.4745	   15.4097	    2.5067	6.64168e+07	    76.483	   15.4036	   2.50077	6.57021e+07	   76.4745	   15.3975	   2.49484	6.90525e+07	    76.466	   15.4036	   2.50077	6.97256e+07	
         R10	   5324	    76.449	   15.4097	    2.5067	7.15413e+07	    76.466	   15.4097	    2.5067	6.95451e+07	    76.466	   15.3975	   2.49484	7.13451e+07	    76.449	   15.3975	   2.49484	7.36407e+07	   76.4575	   15.4097	    2.5067	7.05138e+07	    76.466	   15.4036	   2.50077	7.04082e+07	   76.4575	   15.3975	   2.49484	7.23885e+07	    76.449	   15.4036	   2.50077	7.24233e+07	
         R10	   5325	    76.432	   15.3975	   2.49484	7.28858e+07	    76.432	   15.4097	    2.5067	7.61158e+07	    76.449	   15.4097	    2.5067	7.51351e+07	    76.449	   15.3975	   2.49484	  7.097e+07	    76.432	   15.4036	   2.50077	7.43241e+07	   76.4405	   15.4097	    2.5067	7.56026e+07	    76.449	   15.4036	   2.50077	7.29716e+07	   76.4405	   15.3975	   2.49484	7.17996e+07	
         R10	   5326	    76.415	   15.3975	   2.49484	7.56761e+07	    76.415	   15.4097	    2.5067	6.57952e+07	    76.432	   15.4097	    2.5067	7.52915e+07	    76.432	   15.3975	   2.49484	7.35479e+07	    76.415	   15.4036	   2.50077	7.05779e+07	   76.4235	   15.4097	    2.5067	7.04086e+07	    76.432	   15.4036	   2.50077	7.43868e+07	   76.4235	   15.3975	   2.49484	7.43637e+07	
         R10	   5327	    76.398	   15.3975	   2.49484	  7.674e+07	    76.398	   15.4097	    2.5067	5.82331e+07	    76.415	   15.4097	    2.5067	7.10212e+07	    76.415	   15.3975	   2.49484	6.43981e+07	    76.398	   15.4036	   2.50077	6.74761e+07	   76.4065	   15.4097	    2.5067	6.43987e+07	    76.415	   15.4036	   2.50077	6.69955e+07	   76.4065	   15.3975	   2.49484	7.04943e+07	
         R10	   5328	    76.381	   15.3975	   2.49484	7.35609e+07	    76.381	   15.4097	    2.5067	5.38902e+07	    76.398	   15.4097	    2.5067	6.85607e+07	    76.398	   15.3975	   2.49484	6.28145e+07	    76.381	   15.4036	   2.50077	 6.3631e+07	   76.3895	   15.4097	   2.50669	6.09693e+07	    76.398	   15.4036	   2.50077	6.49679e+07	   76.3895	   15.3975	   2.49484	6.81712e+07	
         R10	   5329	    76.364	   15.3975	   2.49484	6.25247e+07	    76.364	   15.4097	    2.5067	6.49391e+07	    76.381	   15.4097	    2.5067	6.49703e+07	    76.381	   15.3975	   2.49484	6.05102e+07	    76.364	   15.4036	   2.50077	6.32823e+07	   76.3725	   15.4097	    2.5067	6.44513e+07	    76.381	   15.4036	   2.50077	6.19686e+07	   76.3725	   15.3975	   2.49484	6.11008e+07	
         R10	   5330	    76.347	   15.3975	   2.49484	6.08568e+07	    76.347	   15.4097	    2.5067	 6.3213e+07	    76.364	   15.4097	    2.5067	6.60861e+07	    76.364	   15.3975	   2.49484	5.46024e+07	    76.347	   15.4036	   2.50077	 6.1764e+07	   76.3555	   15.4097	    2.5067	6.43648e+07	    76.364	   15.4036	   2.50077	6.01699e+07	   76.3555	   15.3975	   2.49484	5.76487e+07	
         R10	   5331	    76.347	   15.3853	   2.48299	 5.2809e+07	    76.347	   15.3975	   2.49484	 5.4465e+07	    76.364	   15.3975	   2.49484	6.38432e+07	    76.364	   15.3853	   2.48298	5.38592e+07	    76.347	   15.3914	   2.48891	5.36287e+07	   76.3555	   15.3975	   2.49484	5.89705e+07	    76.364	   15.3914	   2.48891	 5.8423e+07	   76.3555	   15.3853	   2.48299	5.28907e+07	
         R10	   5332	    76.364	   15.3731	   2.47113	3.76049e+07	    76.347	   15.3731	   2.47113	3.87225e+07	    76.347	   15.3853	   2.48299	4.88346e+07	    76.364	   15.3853	   2.48298	5.95308e+07	   76.3555	   15.3731	   2.47113	3.75414e+07	    76.347	   15.3792	   2.47706	4.35395e+07	   76.3555	   15.3853	   2.48299	 5.3706e+07	    76.364	   15.3792	   2.47706	4.83807e+07	
         R10	   5333	    76.364	   15.3609	   2.45927	3.30761e+07	    76.347	   15.3609	   2.45928	3.73185e+07	    76.347	   15.3731	   2.47113	3.86308e+07	    76.364	   15.3731	   2.47113	4.09912e+07	   76.3555	   15.3609	   2.45928	3.49341e+07	    76.347	    15.367	    2.4652	3.77396e+07	   76.3555	   15.3731	   2.47113	3.91562e+07	    76.364	    15.367	    2.4652	  3.638e+07	
         R10	   5334	    76.364	   15.3487	   2.44742	2.76907e+07	    76.347	   15.3487	   2.44742	2.02709e+07	    76.347	   15.3609	   2.45928	3.50664e+07	    76.364	   15.3609	   2.45927	 3.4045e+07	   76.3555	   15.3487	   2.44742	2.26263e+07	    76.347	   15.3548	   2.45335	2.68859e+07	   76.3555	   15.3609	   2.45928	3.43436e+07	    76.364	   15.3548	   2.45335	3.02654e+07	
         R10	   5335	    76.364	   15.3366	   2.43557	1.35915e+07	    76.347	   15.3366	   2.43556	1.36439e+07	    76.347	   15.3487	   2.44742	 2.1935e+07	    76.364	   15.3487	   2.44742	2.50605e+07	   76.3555	   15.3366	   2.43557	1.22611e+07	    76.347	   15.3426	   2.44149	1.61586e+07	   76.3555	   15.3487	   2.44742	2.32765e+07	    76.364	   15.3426	   2.44149	1.92043e+07	
         R10	   5336	    76.347	   15.3122	   2.41186	2.13981e+07	     76.33	   15.3122	   2.41185	2.54983e+07	     76.33	   15.3244	   2.42371	1.66756e+07	    76.347	   15.3244	   2.42371	1.08606e+07	   76.3385	   15.3122	   2.41185	2.34358e+07	     76.33	   15.3183	   2.41778	 2.0801e+07	   76.3385	   15.3244	   2.42371	1.36622e+07	    76.347	   15.3183	   2.41778	1.54968e+07	
         R10	   5337	    76.364	   15.3244	   2.42371	6.36142e+06	    76.364	   15.3122	   2.41186	1.57249e+07	    76.347	   15.3122	   2.41186	2.02049e+07	    76.347	   15.3244	   2.42371	1.11774e+07	    76.364	   15.3183	   2.41778	 1.0059e+07	   76.3555	   15.3122	   2.41186	1.79255e+07	    76.347	   15.3183	   2.41778	1.52842e+07	   76.3555	   15.3244	   2.42371	8.49496e+06	
         R10	   5338	    76.398	   15.3366	   2.43557	2.62667e+07	    76.398	   15.3244	   2.42371	1.06578e+07	    76.381	   15.3244	   2.42371	5.23984e+06	    76.381	   15.3366	   2.43557	 1.6045e+07	    76.398	   15.3305	   2.42964	1.78592e+07	   76.3895	   15.3244	   2.42371	7.48154e+06	    76.381	   15.3305	   2.42964	1.04516e+07	   76.3895	   15.3366	   2.43557	2.09555e+07	
         R10	   5339	    76.415	   15.3366	   2.43556	3.45843e+07	    76.415	   15.3244	   2.42371	1.94879e+07	    76.398	   15.3244	   2.42371	1.15867e+07	    76.398	   15.3366	   2.43557	2.55683e+07	    76.415	   15.3305	   2.42964	2.63189e+07	   76.4065	   15.3244	   2.42371	1.54598e+07	    76.398	   15.3305	   2.42964	1.78051e+07	   76.4065	   15.3366	   2.43556	3.00436e+07	
         R10	   5340	    76.432	   15.3366	   2.43556	4.73523e+07	    76.432	   15.3244	   2.42371	3.01137e+07	    76.415	   15.3244	   2.42371	1.94806e+07	    76.415	   15.3366	   2.43556	3.54132e+07	    76.432	   15.3305	   2.42964	3.81682e+07	   76.4235	   15.3244	   2.42371	2.47645e+07	    76.415	   15.3305	   2.42964	2.67478e+07	   76.4235	   15.3366	   2.43556	4.13769e+07	
         R10	   5341	    76.449	   15.3366	   2.43556	6.11195e+07	    76.449	   15.3244	   2.42371	4.41347e+07	    76.432	   15.3244	   2.42371	3.02178e+07	    76.432	   15.3366	   2.43556	4.90203e+07	    76.449	   15.3305	   2.42964	5.17049e+07	   76.4405	   15.3244	   2.42371	3.71149e+07	    76.432	   15.3305	   2.42964	3.91115e+07	   76.4405	   15.3366	   2.43556	5.48436e+07	
         R10	   5342	    76.466	   15.3366	   2.43557	7.97464e+07	    76.466	   15.3244	   2.42371	6.09479e+07	    76.449	   15.3244	   2.42371	4.49199e+07	    76.449	   15.3366	   2.43556	6.35388e+07	    76.466	   15.3305	   2.42964	6.98413e+07	   76.4575	   15.3244	   2.42371	5.24028e+07	    76.449	   15.3305	   2.42964	 5.3494e+07	   76.4575	   15.3366	   2.43557	7.11514e+07	
         R10	   5343	    76.466	   15.3487	   2.44742	8.41806e+07	    76.466	   15.3366	   2.43557	8.08294e+07	    76.449	   15.3366	   2.43556	5.92647e+07	    76.449	   15.3487	   2.44742	7.37729e+07	    76.466	   15.3426	   2.44149	8.23354e+07	   76.4575	   15.3366	   2.43557	6.97145e+07	    76.449	   15.3426	   2.44149	6.61924e+07	   76.4575	   15.3487	   2.44742	7.87038e+07	
         R10	   5344	    76.449	   15.3609	   2.45928	6.95137e+07	    76.466	   15.3609	   2.45927	8.73719e+07	    76.466	   15.3487	   2.44742	  7.923e+07	    76.449	   15.3487	   2.44742	7.91624e+07	   76.4575	   15.3609	   2.45927	7.82705e+07	    76.466	   15.3548	   2.45335	8.32957e+07	   76.4575	   15.3487	   2.44742	7.87145e+07	    76.449	   15.3548	   2.45335	7.40613e+07	
         R10	   5345	    76.449	   15.3731	   2.47113	6.92388e+07	    76.466	   15.3731	   2.47113	8.32548e+07	    76.466	   15.3609	   2.45927	7.90927e+07	    76.449	   15.3609	   2.45928	8.20622e+07	   76.4575	   15.3731	   2.47113	7.59209e+07	    76.466	    15.367	    2.4652	8.11677e+07	   76.4575	   15.3609	   2.45927	 8.0397e+07	    76.449	    15.367	    2.4652	7.53222e+07	
         R10	   5346	    76.449	   15.3853	   2.48299	7.55781e+07	    76.466	   15.3853	   2.48299	7.68819e+07	    76.466	   15.3731	   2.47113	7.85485e+07	    76.449	   15.3731	   2.47113	 7.5851e+07	   76.4575	   15.3853	   2.48299	 7.5943e+07	    76.466	   15.3792	   2.47706	7.76906e+07	   76.4575	   15.3731	   2.47113	7.71962e+07	    76.449	   15.3792	   2.47706	7.55278e+07	
         R10	   5347	    76.449	   15.3975	   2.49484	7.38478e+07	    76.466	   15.3975	   2.49484	 7.0387e+07	    76.466	   15.3853	   2.48299	7.41584e+07	    76.449	   15.3853	   2.48299	7.70512e+07	   76.4575	   15.3975	   2.49484	 7.1704e+07	    76.466	   15.3914	   2.48891	 7.2203e+07	   76.4575	   15.3853	   2.48299	7.55622e+07	    76.449	   15.3914	   2.48891	7.51319e+07	
         R10	   5348	    76.432	   15.3975	   2.49484	7.56536e+07	    76.449	   15.3975	   2.49484	7.18866e+07	    76.449	   15.3853	   2.48299	7.70103e+07	    76.432	   15.3853	   2.48299	7.30927e+07	   76.4405	   15.3975	   2.49484	7.36198e+07	    76.449	   15.3914	   2.48891	7.44135e+07	   76.4405	   15.3853	   2.48299	7.50374e+07	    76.432	   15.3914	   2.48891	7.42964e+07	
         R10	   5349	    76.415	   15.3853	   2.48299	7.26352e+07	    76.415	   15.3975	   2.49484	6.94108e+07	    76.432	   15.3975	   2.49484	7.61444e+07	    76.432	   15.3853	   2.48299	7.07233e+07	    76.415	   15.3914	   2.48891	7.09597e+07	   76.4235	   15.3975	   2.49484	7.27579e+07	    76.432	   15.3914	   2.48891	7.34154e+07	   76.4235	   15.3853	   2.48299	7.16558e+07	
         R10	   5350	    76.398	   15.3853	   2.48299	6.86851e+07	    76.398	   15.3975	   2.49484	 6.4851e+07	    76.415	   15.3975	   2.49484	7.43892e+07	    76.415	   15.3853	   2.48299	6.14125e+07	    76.398	   15.3914	   2.48891	6.67499e+07	   76.4065	   15.3975	   2.49484	6.96192e+07	    76.415	   15.3914	   2.48891	6.78898e+07	   76.4065	   15.3853	   2.48299	6.50455e+07	
         R10	   5351	    76.381	   15.3853	   2.48298	 5.1238e+07	    76.381	   15.3975	   2.49484	6.42005e+07	    76.398	   15.3975	   2.49484	6.40299e+07	    76.398	   15.3853	   2.48299	6.81444e+07	    76.381	   15.3914	   2.48891	5.71521e+07	   76.3895	   15.3975	   2.49484	6.38478e+07	    76.398	   15.3914	   2.48891	6.59646e+07	   76.3895	   15.3853	   2.48298	5.93309e+07	
         R10	   5352	    76.364	   15.3853	   2.48298	4.65563e+07	    76.364	   15.3975	   2.49484	 6.6071e+07	    76.381	   15.3975	   2.49484	6.33299e+07	    76.381	   15.3853	   2.48298	6.11517e+07	    76.364	   15.3914	   2.48891	5.58388e+07	   76.3725	   15.3975	   2.49484	6.45056e+07	    76.381	   15.3914	   2.48891	 6.0942e+07	   76.3725	   15.3853	   2.48298	5.21094e+07	
         R10	   5353	    76.364	   15.3731	   2.47113	5.25684e+07	    76.364	   15.3853	   2.48298	4.09903e+07	    76.381	   15.3853	   2.48298	 5.9578e+07	    76.381	   15.3731	   2.47113	4.65752e+07	    76.364	   15.3792	   2.47706	4.57372e+07	   76.3725	   15.3853	   2.48298	4.92314e+07	    76.381	   15.3792	   2.47706	  5.274e+07	   76.3725	   15.3731	   2.47113	4.91823e+07	
         R10	   5354	    76.381	   15.3609	   2.45927	3.70618e+07	    76.364	   15.3609	   2.45927	4.32092e+07	    76.364	   15.3731	   2.47113	3.90961e+07	    76.381	   15.3731	   2.47113	5.41152e+07	   76.3725	   15.3609	   2.45927	3.96662e+07	    76.364	    15.367	    2.4652	 4.1113e+07	   76.3725	   15.3731	   2.47113	4.65649e+07	    76.381	    15.367	    2.4652	 4.5353e+07	
         R10	   5355	    76.381	   15.3487	   2.44742	3.17618e+07	    76.364	   15.3487	   2.44742	2.49254e+07	    76.364	   15.3609	   2.45927	4.18634e+07	    76.381	   15.3609	   2.45927	3.99466e+07	   76.3725	   15.3487	   2.44742	2.79121e+07	    76.364	   15.3548	   2.45335	3.29513e+07	   76.3725	   15.3609	   2.45927	 4.0198e+07	    76.381	   15.3548	   2.45335	3.52742e+07	
         R10	   5356	    76.364	   15.3244	   2.42371	3.95883e+06	    76.347	   15.3244	   2.42371	1.15596e+07	    76.347	   15.3366	   2.43556	1.16544e+07	    76.364	   15.3366	   2.43557	1.32428e+07	   76.3555	   15.3244	   2.42371	7.69169e+06	    76.347	   15.3305	   2.42964	9.63729e+06	   76.3555	   15.3366	   2.43557	1.21694e+07	    76.364	   15.3305	   2.42964	7.46948e+06	
         R10	   5357	    76.381	   15.3366	   2.43557	1.88202e+07	    76.381	   15.3244	   2.42371	3.85122e+06	    76.364	   15.3244	   2.42371	6.19491e+06	    76.364	   15.3366	   2.43557	1.26759e+07	    76.381	   15.3305	   2.42964	1.10048e+07	   76.3725	   15.3244	   2.42371	3.94729e+06	    76.364	   15.3305	   2.42964	7.28041e+06	   76.3725	   15.3366	   2.43557	1.54063e+07	
         R10	   5358	    76.415	   15.3487	   2.44742	4.96396e+07	    76.415	   15.3366	   2.43556	3.71198e+07	    76.398	   15.3366	   2.43557	2.38892e+07	    76.398	   15.3487	   2.44742	3.81249e+07	    76.415	   15.3426	   2.44149	4.32176e+07	   76.4065	   15.3366	   2.43556	3.04319e+07	    76.398	   15.3426	   2.44149	3.08572e+07	   76.4065	   15.3487	   2.44742	4.37894e+07	
         R10	   5359	    76.432	   15.3487	   2.44742	6.35899e+07	    76.432	   15.3366	   2.43556	4.46664e+07	    76.415	   15.3366	   2.43556	3.39165e+07	    76.415	   15.3487	   2.44742	4.78029e+07	    76.432	   15.3426	   2.44149	5.40525e+07	   76.4235	   15.3366	   2.43556	3.92907e+07	    76.415	   15.3426	   2.44149	4.06484e+07	   76.4235	   15.3487	   2.44742	5.55536e+07	
         R10	   5360	    76.449	   15.3487	   2.44742	7.44064e+07	    76.449	   15.3366	   2.43556	6.28263e+07	    76.432	   15.3366	   2.43556	5.12905e+07	    76.432	   15.3487	   2.44742	5.42806e+07	    76.449	   15.3426	   2.44149	6.82667e+07	   76.4405	   15.3366	   2.43556	5.69771e+07	    76.432	   15.3426	   2.44149	5.23629e+07	   76.4405	   15.3487	   2.44742	 6.4286e+07	
         R10	   5361	    76.449	   15.3609	   2.45928	8.08122e+07	    76.449	   15.3487	   2.44742	6.55742e+07	    76.432	   15.3487	   2.44742	6.65345e+07	    76.432	   15.3609	   2.45928	6.21119e+07	    76.449	   15.3548	   2.45335	7.31821e+07	   76.4405	   15.3487	   2.44742	6.56435e+07	    76.432	   15.3548	   2.45335	6.37955e+07	   76.4405	   15.3609	   2.45928	7.14482e+07	
         R10	   5362	    76.432	   15.3731	   2.47113	6.79184e+07	    76.449	   15.3731	   2.47113	8.19151e+07	    76.449	   15.3609	   2.45928	6.94362e+07	    76.432	   15.3609	   2.45928	6.99453e+07	   76.4405	   15.3731	   2.47113	7.46649e+07	    76.449	    15.367	    2.4652	7.55756e+07	   76.4405	   15.3609	   2.45928	6.95459e+07	    76.432	    15.367	    2.4652	6.83582e+07	
         R10	   5363	    76.432	   15.3853	   2.48299	7.02107e+07	    76.449	   15.3853	   2.48299	7.74508e+07	    76.449	   15.3731	   2.47113	7.47422e+07	    76.432	   15.3731	   2.47113	7.59137e+07	   76.4405	   15.3853	   2.48299	7.38075e+07	    76.449	   15.3792	   2.47706	7.60761e+07	   76.4405	   15.3731	   2.47113	 7.5266e+07	    76.432	   15.3792	   2.47706	7.28495e+07	
         R10	   5364	    76.415	   15.3853	   2.48299	 7.5763e+07	    76.432	   15.3853	   2.48299	7.30728e+07	    76.432	   15.3731	   2.47113	7.11565e+07	    76.415	   15.3731	   2.47113	5.56668e+07	   76.4235	   15.3853	   2.48299	 7.4316e+07	    76.432	   15.3792	   2.47706	7.19509e+07	   76.4235	   15.3731	   2.47113	6.31185e+07	    76.415	   15.3792	   2.47706	6.52619e+07	
         R10	   5365	    76.398	   15.3731	   2.47113	5.06026e+07	    76.398	   15.3853	   2.48299	 6.2323e+07	    76.415	   15.3853	   2.48299	6.77288e+07	    76.415	   15.3731	   2.47113	7.19476e+07	    76.398	   15.3792	   2.47706	5.54702e+07	   76.4065	   15.3853	   2.48299	6.48872e+07	    76.415	   15.3792	   2.47706	6.91885e+07	   76.4065	   15.3731	   2.47113	6.02693e+07	
         R10	   5366	    76.381	   15.3731	   2.47113	5.46618e+07	    76.381	   15.3853	   2.48298	4.85724e+07	    76.398	   15.3853	   2.48299	7.22805e+07	    76.398	   15.3731	   2.47113	5.48798e+07	    76.381	   15.3792	   2.47706	5.15953e+07	   76.3895	   15.3853	   2.48298	6.03615e+07	    76.398	   15.3792	   2.47706	6.33273e+07	   76.3895	   15.3731	   2.47113	5.46236e+07	
         R10	   5367	    76.381	   15.3609	   2.45927	5.08286e+07	    76.381	   15.3731	   2.47113	4.88071e+07	    76.398	   15.3731	   2.47113	5.76048e+07	    76.398	   15.3609	   2.45928	4.09912e+07	    76.381	    15.367	    2.4652	4.96984e+07	   76.3895	   15.3731	   2.47113	5.30115e+07	    76.398	    15.367	    2.4652	4.92507e+07	   76.3895	   15.3609	   2.45928	 4.5895e+07	
         R10	   5368	    76.381	   15.3366	   2.43557	1.62928e+07	    76.364	   15.3366	   2.43557	1.46696e+07	    76.364	   15.3487	   2.44742	2.42773e+07	    76.381	   15.3487	   2.44742	3.31679e+07	   76.3725	   15.3366	   2.43557	1.52993e+07	    76.364	   15.3426	   2.44149	1.94541e+07	   76.3725	   15.3487	   2.44742	2.84343e+07	    76.381	   15.3426	   2.44149	2.45586e+07	
         R10	   5369	    76.398	   15.3487	   2.44742	3.99652e+07	    76.398	   15.3366	   2.43557	2.55047e+07	    76.381	   15.3366	   2.43557	1.84687e+07	    76.381	   15.3487	   2.44742	3.06427e+07	    76.398	   15.3426	   2.44149	3.24737e+07	   76.3895	   15.3366	   2.43557	2.18735e+07	    76.381	   15.3426	   2.44149	2.44731e+07	   76.3895	   15.3487	   2.44742	3.52308e+07	
         R10	   5370	    76.432	   15.3609	   2.45928	6.58837e+07	    76.432	   15.3487	   2.44742	6.01257e+07	    76.415	   15.3487	   2.44742	5.08391e+07	    76.415	   15.3609	   2.45928	5.73114e+07	    76.432	   15.3548	   2.45335	6.25213e+07	   76.4235	   15.3487	   2.44742	5.51901e+07	    76.415	   15.3548	   2.45335	5.37631e+07	   76.4235	   15.3609	   2.45928	6.10812e+07	
         R10	   5371	    76.415	   15.3731	   2.47113	6.05232e+07	    76.432	   15.3731	   2.47113	7.37917e+07	    76.432	   15.3609	   2.45928	 6.6093e+07	    76.415	   15.3609	   2.45928	6.07073e+07	   76.4235	   15.3731	   2.47113	 6.6661e+07	    76.432	    15.367	    2.4652	6.90487e+07	   76.4235	   15.3609	   2.45928	6.30353e+07	    76.415	    15.367	    2.4652	6.02279e+07	
         R10	   5372	    76.398	   15.3609	   2.45928	5.28945e+07	    76.398	   15.3731	   2.47113	5.84936e+07	    76.415	   15.3731	   2.47113	6.67164e+07	    76.415	   15.3609	   2.45928	4.97864e+07	    76.398	    15.367	    2.4652	5.48064e+07	   76.4065	   15.3731	   2.47113	6.17593e+07	    76.415	    15.367	    2.4652	5.79683e+07	   76.4065	   15.3609	   2.45928	5.11269e+07	
         R10	   5373	    76.398	   15.3487	   2.44742	3.94719e+07	    76.381	   15.3487	   2.44742	  2.979e+07	    76.381	   15.3609	   2.45927	4.71261e+07	    76.398	   15.3609	   2.45928	4.54933e+07	   76.3895	   15.3487	   2.44742	3.45827e+07	    76.381	   15.3548	   2.45335	3.83132e+07	   76.3895	   15.3609	   2.45928	4.62897e+07	    76.398	   15.3548	   2.45335	4.24739e+07	
         R10	   5374	    76.415	   15.3487	   2.44742	4.76627e+07	    76.398	   15.3487	   2.44742	3.93829e+07	    76.398	   15.3609	   2.45928	5.24311e+07	    76.415	   15.3609	   2.45928	 5.6154e+07	   76.4065	   15.3487	   2.44742	4.35005e+07	    76.398	   15.3548	   2.45335	4.58923e+07	   76.4065	   15.3609	   2.45928	5.41986e+07	    76.415	   15.3548	   2.45335	5.17563e+07	
         R10	   5375	    76.534	   15.3122	   2.41186	2.95342e+07	    76.534	      15.3	       2.4	6.05241e+07	    76.517	      15.3	       2.4	7.25907e+07	    76.517	   15.3122	   2.41186	5.54531e+07	    76.534	   15.3061	   2.40593	2.74355e+07	   76.5255	      15.3	       2.4	6.57484e+07	    76.517	   15.3061	   2.40593	1.73078e+07	   76.5255	   15.3122	   2.41186	3.83236e+07	
         R10	   5376	    76.551	   15.3122	   2.41186	2.11518e+07	    76.551	      15.3	       2.4	4.33411e+07	    76.534	      15.3	       2.4	 5.7447e+07	    76.534	   15.3122	   2.41186	2.75461e+07	    76.551	   15.3061	   2.40593	  2.446e+07	   76.5425	      15.3	       2.4	5.03273e+07	    76.534	   15.3061	   2.40593	2.49153e+07	   76.5425	   15.3122	   2.41186	2.36073e+07	
         R10	   5377	    76.568	   15.3122	   2.41185	1.69438e+07	    76.568	      15.3	       2.4	3.18152e+07	    76.551	      15.3	       2.4	 4.2514e+07	    76.551	   15.3122	   2.41186	2.21214e+07	    76.568	   15.3061	   2.40593	2.02795e+07	   76.5595	      15.3	       2.4	3.71443e+07	    76.551	   15.3061	   2.40593	2.42641e+07	   76.5595	   15.3122	   2.41185	1.93343e+07	
         R10	   5378	    76.585	   15.3122	   2.41185	1.10731e+07	    76.585	      15.3	       2.4	2.60035e+07	    76.568	      15.3	       2.4	3.07235e+07	    76.568	   15.3122	   2.41185	1.69308e+07	    76.585	   15.3061	   2.40593	1.69255e+07	   76.5765	      15.3	       2.4	2.82898e+07	    76.568	   15.3061	   2.40593	1.99087e+07	   76.5765	   15.3122	   2.41185	1.38398e+07	
         R10	   5379	    76.602	   15.3122	   2.41186	1.09048e+07	    76.602	      15.3	       2.4	2.32437e+07	    76.585	      15.3	       2.4	2.44041e+07	    76.585	   15.3122	   2.41185	  1.128e+07	    76.602	   15.3061	   2.40593	1.66124e+07	   76.5935	      15.3	       2.4	2.37711e+07	    76.585	   15.3061	   2.40593	 1.6413e+07	   76.5935	   15.3122	   2.41186	1.06844e+07	
         R10	   5380	    76.619	   15.3122	   2.41186	1.27872e+07	    76.619	      15.3	       2.4	2.45771e+07	    76.602	      15.3	       2.4	2.30969e+07	    76.602	   15.3122	   2.41186	1.01808e+07	    76.619	   15.3061	   2.40593	1.85817e+07	   76.6105	      15.3	       2.4	2.38146e+07	    76.602	   15.3061	   2.40593	1.62089e+07	   76.6105	   15.3122	   2.41186	1.11964e+07	
         R10	   5381	    76.636	   15.3122	   2.41186	1.66999e+07	    76.636	      15.3	       2.4	2.78368e+07	    76.619	      15.3	       2.4	  2.442e+07	    76.619	   15.3122	   2.41186	1.26587e+07	    76.636	   15.3061	   2.40593	2.22065e+07	   76.6275	      15.3	       2.4	2.61178e+07	    76.619	   15.3061	   2.40593	1.84777e+07	   76.6275	   15.3122	   2.41186	1.45942e+07	
         R10	   5382	    76.653	   15.3122	   2.41185	2.13761e+07	    76.653	      15.3	       2.4	 3.2662e+07	    76.636	      15.3	       2.4	2.79505e+07	    76.636	   15.3122	   2.41186	1.67661e+07	    76.653	   15.3061	   2.40593	2.69174e+07	   76.6445	      15.3	       2.4	3.03005e+07	    76.636	   15.3061	   2.40593	2.22997e+07	   76.6445	   15.3122	   2.41185	1.90435e+07	
         R10	   5383	     76.67	   15.3122	   2.41185	2.74532e+07	     76.67	      15.3	       2.4	3.78471e+07	    76.653	      15.3	       2.4	3.25326e+07	    76.653	   15.3122	   2.41185	 2.1842e+07	     76.67	   15.3061	   2.40593	3.24963e+07	   76.6615	      15.3	       2.4	 3.5188e+07	    76.653	   15.3061	   2.40593	2.70904e+07	   76.6615	   15.3122	   2.41185	2.46209e+07	
         R10	   5384	     76.67	   15.3244	   2.42371	1.79774e+07	     76.67	   15.3122	   2.41185	2.67179e+07	    76.653	   15.3122	   2.41185	2.21884e+07	    76.653	   15.3244	   2.42371	1.09797e+07	     76.67	   15.3183	   2.41778	 2.1878e+07	   76.6615	   15.3122	   2.41185	2.44434e+07	    76.653	   15.3183	   2.41778	1.60391e+07	   76.6615	   15.3244	   2.42371	1.44623e+07	
         R10	   5385	    76.653	   15.3366	   2.43557	1.35958e+07	     76.67	   15.3366	   2.43556	1.31958e+07	     76.67	   15.3244	   2.42371	1.71684e+07	    76.653	   15.3244	   2.42371	1.11306e+07	   76.6615	   15.3366	   2.43556	1.23363e+07	     76.67	   15.3305	   2.42964	1.44428e+07	   76.6615	   15.3244	   2.42371	1.41484e+07	    76.653	   15.3305	   2.42964	1.02432e+07	
         R10	   5386	    76.653	   15.3487	   2.44742	2.27157e+07	     76.67	   15.3487	   2.44742	1.96861e+07	     76.67	   15.3366	   2.43556	1.51715e+07	    76.653	   15.3366	   2.43557	9.96598e+06	   76.6615	   15.3487	   2.44742	2.09922e+07	     76.67	   15.3426	   2.44149	1.69209e+07	   76.6615	   15.3366	   2.43556	1.23796e+07	    76.653	   15.3426	   2.44149	1.59613e+07	
         R10	   5387	    76.653	   15.3609	   2.45928	3.36938e+07	     76.67	   15.3609	   2.45928	2.56439e+07	     76.67	   15.3487	   2.44742	2.16057e+07	    76.653	   15.3487	   2.44742	  2.036e+07	   76.6615	   15.3609	   2.45928	2.96014e+07	     76.67	   15.3548	   2.45335	 2.3588e+07	   76.6615	   15.3487	   2.44742	 2.0979e+07	    76.653	   15.3548	   2.45335	2.69795e+07	
         R10	   5388	    76.653	   15.3731	   2.47113	4.79038e+07	     76.67	   15.3731	   2.47113	3.57863e+07	     76.67	   15.3609	   2.45928	3.00305e+07	    76.653	   15.3609	   2.45928	2.67118e+07	   76.6615	   15.3731	   2.47113	4.06849e+07	     76.67	    15.367	    2.4652	3.26926e+07	   76.6615	   15.3609	   2.45928	2.79805e+07	    76.653	    15.367	    2.4652	 3.6277e+07	
         R10	   5389	    76.653	   15.3853	   2.48299	4.58522e+07	     76.67	   15.3853	   2.48299	 4.7207e+07	     76.67	   15.3731	   2.47113	4.00666e+07	    76.653	   15.3731	   2.47113	4.53503e+07	   76.6615	   15.3853	   2.48299	4.62855e+07	     76.67	   15.3792	   2.47706	 4.3261e+07	   76.6615	   15.3731	   2.47113	4.22698e+07	    76.653	   15.3792	   2.47706	4.53087e+07	
         R10	   5390	    76.653	   15.3975	   2.49484	6.37428e+07	     76.67	   15.3975	   2.49484	 4.5386e+07	     76.67	   15.3853	   2.48299	5.36255e+07	    76.653	   15.3853	   2.48299	4.71727e+07	   76.6615	   15.3975	   2.49484	5.33477e+07	     76.67	   15.3914	   2.48891	4.85264e+07	   76.6615	   15.3853	   2.48299	5.01844e+07	    76.653	   15.3914	   2.48891	5.53148e+07	
         R10	   5391	    76.653	   15.4097	    2.5067	6.27307e+07	     76.67	   15.4097	    2.5067	6.28099e+07	     76.67	   15.3975	   2.49484	5.90644e+07	    76.653	   15.3975	   2.49484	5.37839e+07	   76.6615	   15.4097	    2.5067	 6.2484e+07	     76.67	   15.4036	   2.50077	 6.0674e+07	   76.6615	   15.3975	   2.49484	5.64012e+07	    76.653	   15.4036	   2.50077	 5.8219e+07	
         R10	   5392	    76.653	   15.4218	   2.51855	6.85034e+07	     76.67	   15.4218	   2.51855	6.03988e+07	     76.67	   15.4097	    2.5067	5.55357e+07	    76.653	   15.4097	    2.5067	6.54456e+07	   76.6615	   15.4218	   2.51855	6.43503e+07	     76.67	   15.4158	   2.51262	5.76976e+07	   76.6615	   15.4097	    2.5067	6.03994e+07	    76.653	   15.4158	   2.51262	6.69743e+07	
         R10	   5393	    76.636	   15.4218	   2.51855	6.83757e+07	    76.653	   15.4218	   2.51855	6.74529e+07	    76.653	   15.4097	    2.5067	5.96171e+07	    76.636	   15.4097	    2.5067	6.86228e+07	   76.6445	   15.4218	   2.51855	6.79048e+07	    76.653	   15.4158	   2.51262	6.33799e+07	   76.6445	   15.4097	    2.5067	6.38462e+07	    76.636	   15.4158	   2.51262	6.84467e+07	
         R10	   5394	    76.619	   15.4097	    2.5067	6.47014e+07	    76.619	   15.4218	   2.51855	7.60454e+07	    76.636	   15.4218	   2.51855	6.81227e+07	    76.636	   15.4097	    2.5067	6.74861e+07	    76.619	   15.4158	   2.51262	7.00339e+07	   76.6275	   15.4218	   2.51855	7.15971e+07	    76.636	   15.4158	   2.51262	6.76008e+07	   76.6275	   15.4097	    2.5067	6.59169e+07	
         R10	   5395	    76.602	   15.4097	    2.5067	7.23896e+07	    76.602	   15.4218	   2.51855	7.24213e+07	    76.619	   15.4218	   2.51855	6.55158e+07	    76.619	   15.4097	    2.5067	7.25534e+07	    76.602	   15.4158	   2.51262	7.23438e+07	   76.6105	   15.4218	   2.51855	6.88794e+07	    76.619	   15.4158	   2.51262	6.89184e+07	   76.6105	   15.4097	    2.5067	7.23876e+07	
         R10	   5396	    76.585	   15.4097	    2.5067	7.07579e+07	    76.585	   15.4218	   2.51855	7.58684e+07	    76.602	   15.4218	   2.51855	7.26948e+07	    76.602	   15.4097	    2.5067	7.29952e+07	    76.585	   15.4158	   2.51262	7.33087e+07	   76.5935	   15.4218	   2.51855	7.42808e+07	    76.602	   15.4158	   2.51262	7.28334e+07	   76.5935	   15.4097	    2.5067	7.18651e+07	
         R10	   5397	    76.568	   15.4097	    2.5067	7.25273e+07	    76.568	   15.4218	   2.51855	7.37055e+07	    76.585	   15.4218	   2.51855	7.31502e+07	    76.585	   15.4097	    2.5067	7.47022e+07	    76.568	   15.4158	   2.51262	7.31127e+07	   76.5765	   15.4218	   2.51855	7.34221e+07	    76.585	   15.4158	   2.51262	7.38722e+07	   76.5765	   15.4097	    2.5067	7.35916e+07	
         R10	   5398	    76.551	   15.4097	    2.5067	7.23814e+07	    76.551	   15.4218	   2.51855	7.19312e+07	    76.568	   15.4218	   2.51855	7.29279e+07	    76.568	   15.4097	    2.5067	7.50016e+07	    76.551	   15.4158	   2.51262	7.21154e+07	   76.5595	   15.4218	   2.51855	7.23949e+07	    76.568	   15.4158	   2.51262	7.39445e+07	   76.5595	   15.4097	    2.5067	7.36879e+07	
         R10	   5399	    76.534	   15.4097	    2.5067	6.56034e+07	    76.534	   15.4218	   2.51855	6.86256e+07	    76.551	   15.4218	   2.51855	6.96731e+07	    76.551	   15.4097	    2.5067	 7.7013e+07	    76.534	   15.4158	   2.51262	6.70058e+07	   76.5425	   15.4218	   2.51855	6.90049e+07	    76.551	   15.4158	   2.51262	7.31929e+07	   76.5425	   15.4097	    2.5067	7.12774e+07	
         R10	   5400	    76.517	   15.4097	    2.5067	6.17436e+07	    76.517	   15.4218	   2.51855	6.17454e+07	    76.534	   15.4218	   2.51855	6.80945e+07	    76.534	   15.4097	    2.5067	7.13582e+07	    76.517	   15.4158	   2.51262	6.17164e+07	   76.5255	   15.4218	   2.51855	6.48167e+07	    76.534	   15.4158	   2.51262	6.91696e+07	   76.5255	   15.4097	   2.50669	6.60915e+07	
         R10	   5401	      76.5	   15.4097	    2.5067	5.77663e+07	      76.5	   15.4218	   2.51855	5.84444e+07	    76.517	   15.4218	   2.51855	 6.0719e+07	    76.517	   15.4097	    2.5067	6.47937e+07	      76.5	   15.4158	   2.51262	5.79008e+07	   76.5085	   15.4218	   2.51855	5.92299e+07	    76.517	   15.4158	   2.51262	6.26804e+07	   76.5085	   15.4097	    2.5067	6.11622e+07	
         R10	   5402	      76.5	   15.3975	   2.49484	6.05213e+07	      76.5	   15.4097	    2.5067	5.68917e+07	    76.517	   15.4097	    2.5067	6.27647e+07	    76.517	   15.3975	   2.49484	6.81885e+07	      76.5	   15.4036	   2.50077	5.86404e+07	   76.5085	   15.4097	    2.5067	5.97178e+07	    76.517	   15.4036	   2.50077	6.52526e+07	   76.5085	   15.3975	   2.49484	6.40874e+07	
         R10	   5403	    76.517	   15.3853	   2.48299	7.18384e+07	      76.5	   15.3853	   2.48299	6.56844e+07	      76.5	   15.3975	   2.49484	 6.0418e+07	    76.517	   15.3975	   2.49484	6.68003e+07	   76.5085	   15.3853	   2.48299	6.85222e+07	      76.5	   15.3914	   2.48891	6.28764e+07	   76.5085	   15.3975	   2.49484	6.33775e+07	    76.517	   15.3914	   2.48891	6.91861e+07	
         R10	   5404	    76.517	   15.3731	   2.47113	7.98912e+07	      76.5	   15.3731	   2.47113	7.51807e+07	      76.5	   15.3853	   2.48299	6.60445e+07	    76.517	   15.3853	   2.48299	7.13874e+07	   76.5085	   15.3731	   2.47113	7.70358e+07	      76.5	   15.3792	   2.47706	7.03617e+07	   76.5085	   15.3853	   2.48299	6.84845e+07	    76.517	   15.3792	   2.47706	7.55953e+07	
         R10	   5405	    76.517	   15.3609	   2.45928	8.81609e+07	      76.5	   15.3609	   2.45928	8.77707e+07	      76.5	   15.3731	   2.47113	7.57374e+07	    76.517	   15.3731	   2.47113	7.90566e+07	   76.5085	   15.3609	   2.45928	8.71424e+07	      76.5	    15.367	    2.4652	8.14997e+07	   76.5085	   15.3731	   2.47113	7.70207e+07	    76.517	    15.367	    2.4652	 8.3584e+07	
         R10	   5406	    76.517	   15.3487	   2.44742	9.61742e+07	      76.5	   15.3487	   2.44742	1.05099e+08	      76.5	   15.3609	   2.45928	8.93779e+07	    76.517	   15.3609	   2.45928	8.67528e+07	   76.5085	   15.3487	   2.44742	9.92598e+07	      76.5	   15.3548	   2.45335	9.70462e+07	   76.5085	   15.3609	   2.45928	8.73826e+07	    76.517	   15.3548	   2.45335	9.14446e+07	
         R10	   5407	    76.517	   15.3366	   2.43557	1.00318e+08	      76.5	   15.3366	   2.43556	1.25197e+08	      76.5	   15.3487	   2.44742	1.06477e+08	    76.517	   15.3487	   2.44742	9.54248e+07	   76.5085	   15.3366	   2.43557	1.10692e+08	      76.5	   15.3426	   2.44149	1.15745e+08	   76.5085	   15.3487	   2.44742	9.96485e+07	    76.517	   15.3426	   2.44149	9.78228e+07	
         R10	   5408	    76.517	   15.3244	   2.42371	9.36354e+07	      76.5	   15.3244	   2.42371	 1.4534e+08	      76.5	   15.3366	   2.43556	 1.2753e+08	    76.517	   15.3366	   2.43557	1.00832e+08	   76.5085	   15.3244	   2.42371	1.15056e+08	      76.5	   15.3305	   2.42964	 1.3631e+08	   76.5085	   15.3366	   2.43557	1.12014e+08	    76.517	   15.3305	   2.42964	 9.7096e+07	
         R10	   5409	    76.517	   15.3122	   2.41186	5.28018e+07	    76.517	      15.3	       2.4	7.46794e+07	      76.5	      15.3	       2.4	9.67867e+07	      76.5	   15.3122	   2.41185	1.59099e+08	    76.517	   15.3061	   2.40593	 1.5375e+07	   76.5085	      15.3	       2.4	7.02298e+07	      76.5	   15.3061	   2.40593	1.11591e+08	   76.5085	   15.3122	   2.41186	9.88222e+07	
         R10	   5410	    76.551	   15.3244	   2.42371	4.53135e+07	    76.551	   15.3122	   2.41186	2.28713e+07	    76.534	   15.3122	   2.41186	2.71989e+07	    76.534	   15.3244	   2.42371	6.18664e+07	    76.551	   15.3183	   2.41778	 2.9559e+07	   76.5425	   15.3122	   2.41186	2.32807e+07	    76.534	   15.3183	   2.41778	4.22391e+07	   76.5425	   15.3244	   2.42371	5.31138e+07	
         R10	   5411	    76.568	   15.3244	   2.42371	3.06486e+07	    76.568	   15.3122	   2.41185	1.64752e+07	    76.551	   15.3122	   2.41186	 2.2414e+07	    76.551	   15.3244	   2.42371	4.20684e+07	    76.568	   15.3183	   2.41778	1.95861e+07	   76.5595	   15.3122	   2.41185	1.89028e+07	    76.551	   15.3183	   2.41778	2.92315e+07	   76.5595	   15.3244	   2.42371	3.62555e+07	
         R10	   5412	    76.585	   15.3244	   2.42371	 2.0127e+07	    76.585	   15.3122	   2.41185	1.10797e+07	    76.568	   15.3122	   2.41185	1.71805e+07	    76.568	   15.3244	   2.42371	2.94711e+07	    76.585	   15.3183	   2.41778	1.15805e+07	   76.5765	   15.3122	   2.41185	1.37096e+07	    76.568	   15.3183	   2.41778	1.97354e+07	   76.5765	   15.3244	   2.42371	2.47721e+07	
         R10	   5413	    76.602	   15.3244	   2.42371	1.03097e+07	    76.602	   15.3122	   2.41186	  1.052e+07	    76.585	   15.3122	   2.41185	1.09531e+07	    76.585	   15.3244	   2.42371	 1.8265e+07	    76.602	   15.3183	   2.41778	5.40167e+06	   76.5935	   15.3122	   2.41186	1.03953e+07	    76.585	   15.3183	   2.41778	1.12098e+07	   76.5935	   15.3244	   2.42371	1.41931e+07	
         R10	   5414	    76.619	   15.3244	   2.42371	 3.5476e+06	    76.619	   15.3122	   2.41186	1.21455e+07	    76.602	   15.3122	   2.41186	1.02496e+07	    76.602	   15.3244	   2.42371	9.41686e+06	    76.619	   15.3183	   2.41778	5.63286e+06	   76.6105	   15.3122	   2.41186	1.09435e+07	    76.602	   15.3183	   2.41778	5.10053e+06	   76.6105	   15.3244	   2.42371	6.15382e+06	
         R10	   5415	    76.636	   15.3244	   2.42371	5.40741e+06	    76.636	   15.3122	   2.41186	 1.5992e+07	    76.619	   15.3122	   2.41186	1.28595e+07	    76.619	   15.3244	   2.42371	4.60053e+06	    76.636	   15.3183	   2.41778	1.02717e+07	   76.6275	   15.3122	   2.41186	1.43373e+07	    76.619	   15.3183	   2.41778	5.90293e+06	   76.6275	   15.3244	   2.42371	 3.3733e+06	
         R10	   5416	    76.653	   15.3244	   2.42371	1.19387e+07	    76.653	   15.3122	   2.41185	2.05647e+07	    76.636	   15.3122	   2.41186	1.76253e+07	    76.636	   15.3244	   2.42371	6.09808e+06	    76.653	   15.3183	   2.41778	1.58891e+07	   76.6445	   15.3122	   2.41185	 1.9067e+07	    76.636	   15.3183	   2.41778	1.09007e+07	   76.6445	   15.3244	   2.42371	8.77765e+06	
         R10	   5417	    76.653	   15.3366	   2.43557	1.27521e+07	    76.653	   15.3244	   2.42371	1.17763e+07	    76.636	   15.3244	   2.42371	5.51812e+06	    76.636	   15.3366	   2.43557	1.32448e+07	    76.653	   15.3305	   2.42964	1.06627e+07	   76.6445	   15.3244	   2.42371	8.60268e+06	    76.636	   15.3305	   2.42964	7.13483e+06	   76.6445	   15.3366	   2.43557	1.21173e+07	
         R10	   5418	    76.636	   15.3487	   2.44742	 2.5684e+07	    76.653	   15.3487	   2.44742	2.26241e+07	    76.653	   15.3366	   2.43557	1.21281e+07	    76.636	   15.3366	   2.43557	1.25533e+07	   76.6445	   15.3487	   2.44742	2.38814e+07	    76.653	   15.3426	   2.44149	1.71995e+07	   76.6445	   15.3366	   2.43557	1.20808e+07	    76.636	   15.3426	   2.44149	1.89629e+07	
         R10	   5419	    76.636	   15.3609	   2.45928	3.77599e+07	    76.653	   15.3609	   2.45928	3.20875e+07	    76.653	   15.3487	   2.44742	2.22731e+07	    76.636	   15.3487	   2.44742	 2.5122e+07	   76.6445	   15.3609	   2.45928	3.48458e+07	    76.653	   15.3548	   2.45335	2.67943e+07	   76.6445	   15.3487	   2.44742	2.34559e+07	    76.636	   15.3548	   2.45335	3.14208e+07	
         R10	   5420	    76.636	   15.3731	   2.47113	4.82311e+07	    76.653	   15.3731	   2.47113	3.49279e+07	    76.653	   15.3609	   2.45928	3.74807e+07	    76.636	   15.3609	   2.45928	3.66694e+07	   76.6445	   15.3731	   2.47113	4.14132e+07	    76.653	    15.367	    2.4652	3.58142e+07	   76.6445	   15.3609	   2.45928	3.68508e+07	    76.636	    15.367	    2.4652	4.24469e+07	
         R10	   5421	    76.636	   15.3853	   2.48299	5.09553e+07	    76.653	   15.3853	   2.48299	 5.4994e+07	    76.653	   15.3731	   2.47113	3.89719e+07	    76.636	   15.3731	   2.47113	4.98925e+07	   76.6445	   15.3853	   2.48299	5.24672e+07	    76.653	   15.3792	   2.47706	4.61123e+07	   76.6445	   15.3731	   2.47113	4.38425e+07	    76.636	   15.3792	   2.47706	5.00841e+07	
         R10	   5422	    76.636	   15.3975	   2.49484	5.86072e+07	    76.653	   15.3975	   2.49484	6.08623e+07	    76.653	   15.3853	   2.48299	4.56927e+07	    76.636	   15.3853	   2.48299	6.00646e+07	   76.6445	   15.3975	   2.49484	5.90858e+07	    76.653	   15.3914	   2.48891	5.21767e+07	   76.6445	   15.3853	   2.48299	5.13258e+07	    76.636	   15.3914	   2.48891	5.83356e+07	
         R10	   5423	    76.636	   15.4097	    2.5067	6.69617e+07	    76.653	   15.4097	    2.5067	6.18231e+07	    76.653	   15.3975	   2.49484	5.90215e+07	    76.636	   15.3975	   2.49484	6.05949e+07	   76.6445	   15.4097	    2.5067	 6.4132e+07	    76.653	   15.4036	   2.50077	5.99034e+07	   76.6445	   15.3975	   2.49484	5.90884e+07	    76.636	   15.4036	   2.50077	6.33858e+07	
         R10	   5424	    76.619	   15.4097	    2.5067	7.59151e+07	    76.636	   15.4097	    2.5067	6.21282e+07	    76.636	   15.3975	   2.49484	6.71842e+07	    76.619	   15.3975	   2.49484	5.66776e+07	   76.6275	   15.4097	    2.5067	  6.895e+07	    76.636	   15.4036	   2.50077	6.46297e+07	   76.6275	   15.3975	   2.49484	6.16229e+07	    76.619	   15.4036	   2.50077	6.61004e+07	
         R10	   5425	    76.602	   15.3975	   2.49484	7.07385e+07	    76.602	   15.4097	    2.5067	7.30088e+07	    76.619	   15.4097	    2.5067	6.59103e+07	    76.619	   15.3975	   2.49484	6.24572e+07	    76.602	   15.4036	   2.50077	7.17271e+07	   76.6105	   15.4097	    2.5067	6.93798e+07	    76.619	   15.4036	   2.50077	6.40451e+07	   76.6105	   15.3975	   2.49484	6.65216e+07	
         R10	   5426	    76.585	   15.3975	   2.49484	6.64156e+07	    76.585	   15.4097	    2.5067	8.41626e+07	    76.602	   15.4097	    2.5067	6.47781e+07	    76.602	   15.3975	   2.49484	6.68153e+07	    76.585	   15.4036	   2.50077	7.51706e+07	   76.5935	   15.4097	    2.5067	7.40862e+07	    76.602	   15.4036	   2.50077	6.57634e+07	   76.5935	   15.3975	   2.49484	6.64609e+07	
         R10	   5427	    76.568	   15.3975	   2.49484	7.79673e+07	    76.568	   15.4097	    2.5067	7.80418e+07	    76.585	   15.4097	    2.5067	6.17179e+07	    76.585	   15.3975	   2.49484	 6.9274e+07	    76.568	   15.4036	   2.50077	7.79937e+07	   76.5765	   15.4097	    2.5067	6.97116e+07	    76.585	   15.4036	   2.50077	6.48161e+07	   76.5765	   15.3975	   2.49484	7.33667e+07	
         R10	   5428	    76.551	   15.3975	   2.49484	8.21375e+07	    76.551	   15.4097	    2.5067	 7.0601e+07	    76.568	   15.4097	    2.5067	7.85021e+07	    76.568	   15.3975	   2.49484	6.58648e+07	    76.551	   15.4036	   2.50077	7.62275e+07	   76.5595	   15.4097	    2.5067	7.45507e+07	    76.568	   15.4036	   2.50077	 7.2168e+07	   76.5595	   15.3975	   2.49484	7.38909e+07	
         R10	   5429	    76.534	   15.3975	   2.49484	7.53738e+07	    76.534	   15.4097	    2.5067	7.20973e+07	    76.551	   15.4097	    2.5067	7.30738e+07	    76.551	   15.3975	   2.49484	6.80002e+07	    76.534	   15.4036	   2.50077	7.35977e+07	   76.5425	   15.4097	    2.5067	7.24551e+07	    76.551	   15.4036	   2.50077	7.04787e+07	   76.5425	   15.3975	   2.49484	7.16112e+07	
         R10	   5430	    76.517	   15.3975	   2.49484	6.84925e+07	    76.517	   15.4097	    2.5067	6.22119e+07	    76.534	   15.4097	    2.5067	6.87895e+07	    76.534	   15.3975	   2.49484	6.95497e+07	    76.517	   15.4036	   2.50077	6.52794e+07	   76.5255	   15.4097	   2.50669	6.51566e+07	    76.534	   15.4036	   2.50077	6.88983e+07	   76.5255	   15.3975	   2.49484	6.89935e+07	
         R10	   5431	    76.517	   15.3853	   2.48299	7.28874e+07	    76.517	   15.3975	   2.49484	6.89926e+07	    76.534	   15.3975	   2.49484	6.83042e+07	    76.534	   15.3853	   2.48298	7.43339e+07	    76.517	   15.3914	   2.48891	7.07536e+07	   76.5255	   15.3975	   2.49484	 6.8585e+07	    76.534	   15.3914	   2.48891	7.11649e+07	   76.5255	   15.3853	   2.48299	7.35788e+07	
         R10	   5432	    76.534	   15.3731	   2.47113	8.00612e+07	    76.517	   15.3731	   2.47113	7.86204e+07	    76.517	   15.3853	   2.48299	7.29517e+07	    76.534	   15.3853	   2.48298	7.47774e+07	   76.5255	   15.3731	   2.47113	7.92238e+07	    76.517	   15.3792	   2.47706	7.57086e+07	   76.5255	   15.3853	   2.48299	 7.3708e+07	    76.534	   15.3792	   2.47706	7.72844e+07	
         R10	   5433	    76.534	   15.3609	   2.45928	8.64018e+07	    76.517	   15.3609	   2.45928	8.61768e+07	    76.517	   15.3731	   2.47113	8.01434e+07	    76.534	   15.3731	   2.47113	7.83216e+07	   76.5255	   15.3609	   2.45928	8.59414e+07	    76.517	    15.367	    2.4652	8.31281e+07	   76.5255	   15.3731	   2.47113	7.89594e+07	    76.534	    15.367	    2.4652	8.23436e+07	
         R10	   5434	    76.534	   15.3487	   2.44742	 8.4841e+07	    76.517	   15.3487	   2.44742	9.42744e+07	    76.517	   15.3609	   2.45928	8.85046e+07	    76.534	   15.3609	   2.45928	8.31404e+07	   76.5255	   15.3487	   2.44742	8.89685e+07	    76.517	   15.3548	   2.45335	9.13796e+07	   76.5255	   15.3609	   2.45928	8.53532e+07	    76.534	   15.3548	   2.45335	8.39262e+07	
         R10	   5435	    76.534	   15.3366	   2.43557	8.01515e+07	    76.517	   15.3366	   2.43557	9.80085e+07	    76.517	   15.3487	   2.44742	9.65271e+07	    76.534	   15.3487	   2.44742	8.37503e+07	   76.5255	   15.3366	   2.43557	8.79862e+07	    76.517	   15.3426	   2.44149	9.72482e+07	   76.5255	   15.3487	   2.44742	8.94607e+07	    76.534	   15.3426	   2.44149	8.16953e+07	
         R10	   5436	    76.517	   15.3122	   2.41186	5.41348e+07	      76.5	   15.3122	   2.41185	1.46389e+08	      76.5	   15.3244	   2.42371	1.47255e+08	    76.517	   15.3244	   2.42371	9.65016e+07	   76.5085	   15.3122	   2.41186	9.24409e+07	      76.5	   15.3183	   2.41778	1.46313e+08	   76.5085	   15.3244	   2.42371	1.17762e+08	    76.517	   15.3183	   2.41778	7.41095e+07	
         R10	   5437	    76.534	   15.3244	   2.42371	6.48344e+07	    76.534	   15.3122	   2.41186	2.74191e+07	    76.517	   15.3122	   2.41186	 5.0622e+07	    76.517	   15.3244	   2.42371	9.29826e+07	    76.534	   15.3183	   2.41778	4.32256e+07	   76.5255	   15.3122	   2.41186	 3.4742e+07	    76.517	   15.3183	   2.41778	7.13208e+07	   76.5255	   15.3244	   2.42371	7.68786e+07	
         R10	   5438	    76.568	   15.3366	   2.43556	 4.7103e+07	    76.568	   15.3244	   2.42371	3.10445e+07	    76.551	   15.3244	   2.42371	4.19522e+07	    76.551	   15.3366	   2.43557	 6.3197e+07	    76.568	   15.3305	   2.42964	3.83405e+07	   76.5595	   15.3244	   2.42371	3.63766e+07	    76.551	   15.3305	   2.42964	5.18706e+07	   76.5595	   15.3366	   2.43556	5.50628e+07	
         R10	   5439	    76.585	   15.3366	   2.43556	3.57442e+07	    76.585	   15.3244	   2.42371	1.92528e+07	    76.568	   15.3244	   2.42371	2.98272e+07	    76.568	   15.3366	   2.43556	4.69772e+07	    76.585	   15.3305	   2.42964	2.69008e+07	   76.5765	   15.3244	   2.42371	2.45003e+07	    76.568	   15.3305	   2.42964	3.77674e+07	   76.5765	   15.3366	   2.43556	4.13452e+07	
         R10	   5440	    76.602	   15.3366	   2.43557	2.56883e+07	    76.602	   15.3244	   2.42371	9.56018e+06	    76.585	   15.3244	   2.42371	1.89465e+07	    76.585	   15.3366	   2.43556	3.39605e+07	    76.602	   15.3305	   2.42964	1.72009e+07	   76.5935	   15.3244	   2.42371	1.42302e+07	    76.585	   15.3305	   2.42964	2.58477e+07	   76.5935	   15.3366	   2.43556	2.98101e+07	
         R10	   5441	    76.619	   15.3366	   2.43557	 1.5926e+07	    76.619	   15.3244	   2.42371	4.89591e+06	    76.602	   15.3244	   2.42371	1.01603e+07	    76.602	   15.3366	   2.43557	2.44694e+07	    76.619	   15.3305	   2.42964	9.86189e+06	   76.6105	   15.3244	   2.42371	7.07286e+06	    76.602	   15.3305	   2.42964	 1.6879e+07	   76.6105	   15.3366	   2.43557	2.00805e+07	
         R10	   5442	    76.636	   15.3366	   2.43557	1.17187e+07	    76.636	   15.3244	   2.42371	7.11504e+06	    76.619	   15.3244	   2.42371	 1.8183e+06	    76.619	   15.3366	   2.43557	1.88442e+07	    76.636	   15.3305	   2.42964	6.97912e+06	   76.6275	   15.3244	   2.42371	3.57684e+06	    76.619	   15.3305	   2.42964	1.02364e+07	   76.6275	   15.3366	   2.43557	1.49177e+07	
         R10	   5443	    76.636	   15.3487	   2.44742	2.52229e+07	    76.636	   15.3366	   2.43557	1.34347e+07	    76.619	   15.3366	   2.43557	1.64853e+07	    76.619	   15.3487	   2.44742	3.18004e+07	    76.636	   15.3426	   2.44149	1.92248e+07	   76.6275	   15.3366	   2.43557	1.45625e+07	    76.619	   15.3426	   2.44149	2.41082e+07	   76.6275	   15.3487	   2.44742	2.83484e+07	
         R10	   5444	    76.619	   15.3609	   2.45927	4.10812e+07	    76.636	   15.3609	   2.45928	3.66552e+07	    76.636	   15.3487	   2.44742	2.70185e+07	    76.619	   15.3487	   2.44742	3.14871e+07	   76.6275	   15.3609	   2.45928	 3.8823e+07	    76.636	   15.3548	   2.45335	3.17883e+07	   76.6275	   15.3487	   2.44742	2.90598e+07	    76.619	   15.3548	   2.45335	3.61827e+07	
         R10	   5445	    76.619	   15.3731	   2.47113	5.47969e+07	    76.636	   15.3731	   2.47113	4.92459e+07	    76.636	   15.3609	   2.45928	3.68491e+07	    76.619	   15.3609	   2.45927	 3.6631e+07	   76.6275	   15.3731	   2.47113	5.14877e+07	    76.636	    15.367	    2.4652	4.29861e+07	   76.6275	   15.3609	   2.45928	3.66425e+07	    76.619	    15.367	    2.4652	4.55232e+07	
         R10	   5446	    76.619	   15.3853	   2.48298	6.00893e+07	    76.636	   15.3853	   2.48299	5.25353e+07	    76.636	   15.3731	   2.47113	 4.8845e+07	    76.619	   15.3731	   2.47113	5.02669e+07	   76.6275	   15.3853	   2.48299	5.62713e+07	    76.636	   15.3792	   2.47706	5.05964e+07	   76.6275	   15.3731	   2.47113	4.94205e+07	    76.619	   15.3792	   2.47706	 5.5128e+07	
         R10	   5447	    76.619	   15.3975	   2.49484	6.46243e+07	    76.636	   15.3975	   2.49484	6.30237e+07	    76.636	   15.3853	   2.48299	5.29333e+07	    76.619	   15.3853	   2.48298	5.53022e+07	   76.6275	   15.3975	   2.49484	6.32852e+07	    76.636	   15.3914	   2.48891	5.78678e+07	   76.6275	   15.3853	   2.48299	5.39659e+07	    76.619	   15.3914	   2.48891	5.95839e+07	
         R10	   5448	    76.602	   15.3975	   2.49484	7.35114e+07	    76.619	   15.3975	   2.49484	5.72092e+07	    76.619	   15.3853	   2.48298	6.98644e+07	    76.602	   15.3853	   2.48298	5.03138e+07	   76.6105	   15.3975	   2.49484	6.51207e+07	    76.619	   15.3914	   2.48891	6.31367e+07	   76.6105	   15.3853	   2.48298	5.88833e+07	    76.602	   15.3914	   2.48891	6.08669e+07	
         R10	   5449	    76.585	   15.3853	   2.48299	 5.9387e+07	    76.585	   15.3975	   2.49484	7.00605e+07	    76.602	   15.3975	   2.49484	6.61786e+07	    76.602	   15.3853	   2.48298	7.55126e+07	    76.585	   15.3914	   2.48891	6.34916e+07	   76.5935	   15.3975	   2.49484	6.71564e+07	    76.602	   15.3914	   2.48891	6.91319e+07	   76.5935	   15.3853	   2.48299	6.55683e+07	
         R10	   5450	    76.568	   15.3853	   2.48299	6.64702e+07	    76.568	   15.3975	   2.49484	7.74687e+07	    76.585	   15.3975	   2.49484	6.71312e+07	    76.585	   15.3853	   2.48299	7.60449e+07	    76.568	   15.3914	   2.48891	7.18971e+07	   76.5765	   15.3975	   2.49484	7.17536e+07	    76.585	   15.3914	   2.48891	7.10342e+07	   76.5765	   15.3853	   2.48299	7.09962e+07	
         R10	   5451	    76.551	   15.3853	   2.48299	6.55984e+07	    76.551	   15.3975	   2.49484	7.97285e+07	    76.568	   15.3975	   2.49484	6.82422e+07	    76.568	   15.3853	   2.48299	8.31682e+07	    76.551	   15.3914	   2.48891	7.26629e+07	   76.5595	   15.3975	   2.49484	7.39101e+07	    76.568	   15.3914	   2.48891	7.56142e+07	   76.5595	   15.3853	   2.48299	7.43415e+07	
         R10	   5452	    76.534	   15.3853	   2.48298	7.39925e+07	    76.534	   15.3975	   2.49484	 7.5372e+07	    76.551	   15.3975	   2.49484	6.75271e+07	    76.551	   15.3853	   2.48299	7.70396e+07	    76.534	   15.3914	   2.48891	7.46448e+07	   76.5425	   15.3975	   2.49484	7.12409e+07	    76.551	   15.3914	   2.48891	7.18941e+07	   76.5425	   15.3853	   2.48299	7.54041e+07	
         R10	   5453	    76.534	   15.3731	   2.47113	7.38946e+07	    76.534	   15.3853	   2.48298	 7.9604e+07	    76.551	   15.3853	   2.48299	6.77445e+07	    76.551	   15.3731	   2.47113	8.53543e+07	    76.534	   15.3792	   2.47706	7.67042e+07	   76.5425	   15.3853	   2.48299	  7.357e+07	    76.551	   15.3792	   2.47706	7.63354e+07	   76.5425	   15.3731	   2.47113	7.94504e+07	
         R10	   5454	    76.551	   15.3609	   2.45928	7.57255e+07	    76.534	   15.3609	   2.45928	8.15242e+07	    76.534	   15.3731	   2.47113	 7.9075e+07	    76.551	   15.3731	   2.47113	 8.1111e+07	   76.5425	   15.3609	   2.45928	7.84676e+07	    76.534	    15.367	    2.4652	8.02971e+07	   76.5425	   15.3731	   2.47113	7.97822e+07	    76.551	    15.367	    2.4652	7.83406e+07	
         R10	   5455	    76.551	   15.3487	   2.44742	7.11694e+07	    76.534	   15.3487	   2.44742	8.43001e+07	    76.534	   15.3609	   2.45928	 8.3564e+07	    76.551	   15.3609	   2.45928	7.71673e+07	   76.5425	   15.3487	   2.44742	7.74474e+07	    76.534	   15.3548	   2.45335	 8.3887e+07	   76.5425	   15.3609	   2.45928	8.02199e+07	    76.551	   15.3548	   2.45335	7.39922e+07	
         R10	   5456	    76.534	   15.3244	   2.42371	6.34566e+07	    76.517	   15.3244	   2.42371	9.02909e+07	    76.517	   15.3366	   2.43557	1.01045e+08	    76.534	   15.3366	   2.43557	7.92232e+07	   76.5255	   15.3244	   2.42371	7.50379e+07	    76.517	   15.3305	   2.42964	 9.5565e+07	   76.5255	   15.3366	   2.43557	 8.8945e+07	    76.534	   15.3305	   2.42964	 7.0886e+07	
         R10	   5457	    76.551	   15.3366	   2.43557	6.17237e+07	    76.551	   15.3244	   2.42371	 4.5198e+07	    76.534	   15.3244	   2.42371	6.03709e+07	    76.534	   15.3366	   2.43557	8.03311e+07	    76.551	   15.3305	   2.42964	5.27199e+07	   76.5425	   15.3244	   2.42371	5.22509e+07	    76.534	   15.3305	   2.42964	 6.9904e+07	   76.5425	   15.3366	   2.43557	7.06806e+07	
         R10	   5458	    76.585	   15.3487	   2.44742	4.53106e+07	    76.585	   15.3366	   2.43556	3.82466e+07	    76.568	   15.3366	   2.43556	4.47892e+07	    76.568	   15.3487	   2.44742	6.20405e+07	    76.585	   15.3426	   2.44149	4.16437e+07	   76.5765	   15.3366	   2.43556	4.15083e+07	    76.568	   15.3426	   2.44149	5.31445e+07	   76.5765	   15.3487	   2.44742	5.36208e+07	
         R10	   5459	    76.602	   15.3487	   2.44742	 3.9178e+07	    76.602	   15.3366	   2.43557	 2.5671e+07	    76.585	   15.3366	   2.43556	3.22826e+07	    76.585	   15.3487	   2.44742	4.85571e+07	    76.602	   15.3426	   2.44149	  3.215e+07	   76.5935	   15.3366	   2.43556	2.89491e+07	    76.585	   15.3426	   2.44149	4.03304e+07	   76.5935	   15.3487	   2.44742	4.36617e+07	
         R10	   5460	    76.619	   15.3487	   2.44742	3.06949e+07	    76.619	   15.3366	   2.43557	1.82351e+07	    76.602	   15.3366	   2.43557	2.47426e+07	    76.602	   15.3487	   2.44742	3.88589e+07	    76.619	   15.3426	   2.44149	2.43728e+07	   76.6105	   15.3366	   2.43557	2.13376e+07	    76.602	   15.3426	   2.44149	3.16767e+07	   76.6105	   15.3487	   2.44742	 3.4643e+07	
         R10	   5461	    76.619	   15.3609	   2.45927	4.53109e+07	    76.619	   15.3487	   2.44742	3.03064e+07	    76.602	   15.3487	   2.44742	3.81791e+07	    76.602	   15.3609	   2.45927	4.98587e+07	    76.619	   15.3548	   2.45335	3.76172e+07	   76.6105	   15.3487	   2.44742	 3.4025e+07	    76.602	   15.3548	   2.45335	4.37208e+07	   76.6105	   15.3609	   2.45927	4.73406e+07	
         R10	   5462	    76.602	   15.3731	   2.47113	5.78675e+07	    76.619	   15.3731	   2.47113	4.49929e+07	    76.619	   15.3609	   2.45927	4.77132e+07	    76.602	   15.3609	   2.45927	5.16542e+07	   76.6105	   15.3731	   2.47113	5.13527e+07	    76.619	    15.367	    2.4652	4.61651e+07	   76.6105	   15.3609	   2.45927	4.94983e+07	    76.602	    15.367	    2.4652	5.47243e+07	
         R10	   5463	    76.602	   15.3853	   2.48298	6.89681e+07	    76.619	   15.3853	   2.48298	5.47772e+07	    76.619	   15.3731	   2.47113	5.32747e+07	    76.602	   15.3731	   2.47113	5.50124e+07	   76.6105	   15.3853	   2.48298	6.10213e+07	    76.619	   15.3792	   2.47706	5.37155e+07	   76.6105	   15.3731	   2.47113	5.40172e+07	    76.602	   15.3792	   2.47706	6.14957e+07	
         R10	   5464	    76.585	   15.3853	   2.48299	7.80624e+07	    76.602	   15.3853	   2.48298	5.57794e+07	    76.602	   15.3731	   2.47113	6.59991e+07	    76.585	   15.3731	   2.47113	5.64146e+07	   76.5935	   15.3853	   2.48299	6.55064e+07	    76.602	   15.3792	   2.47706	6.00893e+07	   76.5935	   15.3731	   2.47113	6.07928e+07	    76.585	   15.3792	   2.47706	6.63417e+07	
         R10	   5465	    76.568	   15.3731	   2.47113	6.89153e+07	    76.568	   15.3853	   2.48299	7.82663e+07	    76.585	   15.3853	   2.48299	6.18278e+07	    76.585	   15.3731	   2.47113	7.21395e+07	    76.568	   15.3792	   2.47706	7.31378e+07	   76.5765	   15.3853	   2.48299	6.94773e+07	    76.585	   15.3792	   2.47706	6.60083e+07	   76.5765	   15.3731	   2.47113	6.97431e+07	
         R10	   5466	    76.551	   15.3731	   2.47113	6.83233e+07	    76.551	   15.3853	   2.48299	7.87283e+07	    76.568	   15.3853	   2.48299	7.09913e+07	    76.568	   15.3731	   2.47113	7.62965e+07	    76.551	   15.3792	   2.47706	7.30396e+07	   76.5595	   15.3853	   2.48299	7.42145e+07	    76.568	   15.3792	   2.47706	7.32336e+07	   76.5595	   15.3731	   2.47113	7.19968e+07	
         R10	   5467	    76.551	   15.3609	   2.45928	7.61223e+07	    76.551	   15.3731	   2.47113	7.56733e+07	    76.568	   15.3731	   2.47113	6.94554e+07	    76.568	   15.3609	   2.45928	7.11723e+07	    76.551	    15.367	    2.4652	7.55263e+07	   76.5595	   15.3731	   2.47113	7.17007e+07	    76.568	    15.367	    2.4652	7.00248e+07	   76.5595	   15.3609	   2.45928	  7.361e+07	
         R10	   5468	    76.551	   15.3366	   2.43557	6.21895e+07	    76.534	   15.3366	   2.43557	7.82057e+07	    76.534	   15.3487	   2.44742	8.54603e+07	    76.551	   15.3487	   2.44742	7.28327e+07	   76.5425	   15.3366	   2.43557	6.98382e+07	    76.534	   15.3426	   2.44149	8.16485e+07	   76.5425	   15.3487	   2.44742	 7.8845e+07	    76.551	   15.3426	   2.44149	6.73052e+07	
         R10	   5469	    76.568	   15.3487	   2.44742	6.20398e+07	    76.568	   15.3366	   2.43556	4.61535e+07	    76.551	   15.3366	   2.43557	6.43015e+07	    76.551	   15.3487	   2.44742	 6.9593e+07	    76.568	   15.3426	   2.44149	5.38647e+07	   76.5595	   15.3366	   2.43556	5.51982e+07	    76.551	   15.3426	   2.44149	6.62965e+07	   76.5595	   15.3487	   2.44742	6.50891e+07	
         R10	   5470	    76.602	   15.3609	   2.45927	4.61309e+07	    76.602	   15.3487	   2.44742	4.28902e+07	    76.585	   15.3487	   2.44742	 4.2607e+07	    76.585	   15.3609	   2.45927	6.39475e+07	    76.602	   15.3548	   2.45335	4.44366e+07	   76.5935	   15.3487	   2.44742	   4.27e+07	    76.585	   15.3548	   2.45335	5.32364e+07	   76.5935	   15.3609	   2.45927	5.49229e+07	
         R10	   5471	    76.585	   15.3731	   2.47113	 6.6215e+07	    76.602	   15.3731	   2.47113	  6.122e+07	    76.602	   15.3609	   2.45927	4.84225e+07	    76.585	   15.3609	   2.45927	5.59868e+07	   76.5935	   15.3731	   2.47113	6.36616e+07	    76.602	    15.367	    2.4652	5.47703e+07	   76.5935	   15.3609	   2.45927	5.21216e+07	    76.585	    15.367	    2.4652	6.09509e+07	
         R10	   5472	    76.568	   15.3609	   2.45928	6.15351e+07	    76.568	   15.3731	   2.47113	7.54786e+07	    76.585	   15.3731	   2.47113	6.22522e+07	    76.585	   15.3609	   2.45927	6.25662e+07	    76.568	    15.367	    2.4652	  6.814e+07	   76.5765	   15.3731	   2.47113	6.82751e+07	    76.585	    15.367	    2.4652	 6.2058e+07	   76.5765	   15.3609	   2.45927	6.19214e+07	
         R10	   5473	    76.568	   15.3487	   2.44742	6.00238e+07	    76.551	   15.3487	   2.44742	7.26228e+07	    76.551	   15.3609	   2.45928	 7.7207e+07	    76.568	   15.3609	   2.45928	6.60138e+07	   76.5595	   15.3487	   2.44742	6.62165e+07	    76.551	   15.3548	   2.45335	7.44751e+07	   76.5595	   15.3609	   2.45928	7.14433e+07	    76.568	   15.3548	   2.45335	 6.2766e+07	
         R10	   5474	    76.585	   15.3487	   2.44742	5.34477e+07	    76.568	   15.3487	   2.44742	5.51835e+07	    76.568	   15.3609	   2.45928	7.25943e+07	    76.585	   15.3609	   2.45927	5.12142e+07	   76.5765	   15.3487	   2.44742	5.41449e+07	    76.568	   15.3548	   2.45335	6.38772e+07	   76.5765	   15.3609	   2.45927	6.17981e+07	    76.585	   15.3548	   2.45335	5.17205e+07	
         R10	   5475	    76.364	    15.147	       2.4	5.87281e+07	    76.364	     15.13	       2.4	6.28591e+07	    76.347	     15.13	       2.4	6.14508e+07	    76.347	    15.147	       2.4	5.68998e+07	    76.364	   15.1385	       2.4	6.07927e+07	   76.3555	     15.13	       2.4	 6.2112e+07	    76.347	   15.1385	       2.4	5.91724e+07	   76.3555	    15.147	       2.4	5.77641e+07	
         R10	   5476	    76.381	    15.147	       2.4	6.09685e+07	    76.381	     15.13	       2.4	6.44437e+07	    76.364	     15.13	       2.4	6.28478e+07	    76.364	    15.147	       2.4	5.87341e+07	    76.381	   15.1385	       2.4	 6.2704e+07	   76.3725	     15.13	       2.4	6.36003e+07	    76.364	   15.1385	       2.4	  6.079e+07	   76.3725	    15.147	       2.4	5.98006e+07	
         R10	   5477	    76.398	    15.147	       2.4	6.35097e+07	    76.398	     15.13	       2.4	  6.616e+07	    76.381	     15.13	       2.4	6.44704e+07	    76.381	    15.147	       2.4	6.09868e+07	    76.398	   15.1385	       2.4	6.48291e+07	   76.3895	     15.13	       2.4	6.52677e+07	    76.381	   15.1385	       2.4	6.27264e+07	   76.3895	    15.147	       2.4	6.21999e+07	
         R10	   5478	    76.415	    15.147	       2.4	6.61267e+07	    76.415	     15.13	       2.4	6.77982e+07	    76.398	     15.13	       2.4	6.62337e+07	    76.398	    15.147	       2.4	6.35214e+07	    76.415	   15.1385	       2.4	6.69512e+07	   76.4065	     15.13	       2.4	 6.6967e+07	    76.398	   15.1385	       2.4	6.48711e+07	   76.4065	    15.147	       2.4	6.47802e+07	
         R10	   5479	    76.432	    15.147	       2.4	6.84415e+07	    76.432	     15.13	       2.4	6.91882e+07	    76.415	     15.13	       2.4	 6.7837e+07	    76.415	    15.147	       2.4	6.61417e+07	    76.432	   15.1385	       2.4	6.87944e+07	   76.4235	     15.13	       2.4	6.84597e+07	    76.415	   15.1385	       2.4	6.69778e+07	   76.4235	    15.147	       2.4	6.72507e+07	
         R10	   5480	    76.449	    15.147	       2.4	 6.9779e+07	    76.449	     15.13	       2.4	7.01182e+07	    76.432	     15.13	       2.4	6.91108e+07	    76.432	    15.147	       2.4	6.84835e+07	    76.449	   15.1385	       2.4	6.99117e+07	   76.4405	     15.13	       2.4	6.95578e+07	    76.432	   15.1385	       2.4	 6.8777e+07	   76.4405	    15.147	       2.4	6.90846e+07	
         R10	   5481	    76.466	    15.147	       2.4	7.04929e+07	    76.466	     15.13	       2.4	6.99776e+07	    76.449	     15.13	       2.4	7.03252e+07	    76.449	    15.147	       2.4	6.98511e+07	    76.466	   15.1385	       2.4	7.01685e+07	   76.4575	     15.13	       2.4	 7.0047e+07	    76.449	   15.1385	       2.4	7.00457e+07	   76.4575	    15.147	       2.4	7.01177e+07	
         R10	   5482	    76.483	    15.147	       2.4	  6.961e+07	    76.483	     15.13	       2.4	7.01787e+07	    76.466	     15.13	       2.4	6.99795e+07	    76.466	    15.147	       2.4	7.04018e+07	    76.483	   15.1385	       2.4	6.97738e+07	   76.4745	     15.13	       2.4	6.99416e+07	    76.466	   15.1385	       2.4	7.01216e+07	   76.4745	    15.147	       2.4	6.98876e+07	
         R10	   5483	      76.5	    15.147	       2.4	6.90467e+07	      76.5	     15.13	       2.4	7.11571e+07	    76.483	     15.13	       2.4	7.02093e+07	    76.483	    15.147	       2.4	6.96116e+07	      76.5	   15.1385	       2.4	6.99173e+07	   76.4915	     15.13	       2.4	7.04193e+07	    76.483	   15.1385	       2.4	6.97853e+07	   76.4915	    15.147	       2.4	6.91192e+07	
         R10	   5484	      76.5	    15.164	       2.4	6.89004e+07	      76.5	    15.147	       2.4	6.90488e+07	    76.483	    15.147	       2.4	6.96081e+07	    76.483	    15.164	       2.4	7.04912e+07	      76.5	   15.1555	       2.4	6.87469e+07	   76.4915	    15.147	       2.4	6.91131e+07	    76.483	   15.1555	       2.4	6.99202e+07	   76.4915	    15.164	       2.4	6.95234e+07	
         R10	   5485	    76.483	    15.181	       2.4	7.29079e+07	      76.5	    15.181	       2.4	7.12088e+07	      76.5	    15.164	       2.4	6.88888e+07	    76.483	    15.164	       2.4	7.04888e+07	   76.4915	    15.181	       2.4	7.19091e+07	      76.5	   15.1725	       2.4	6.98018e+07	   76.4915	    15.164	       2.4	6.95173e+07	    76.483	   15.1725	       2.4	7.15743e+07	
         R10	   5486	    76.483	    15.198	       2.4	7.69093e+07	      76.5	    15.198	       2.4	7.63738e+07	      76.5	    15.181	       2.4	 7.1183e+07	    76.483	    15.181	       2.4	7.28965e+07	   76.4915	    15.198	       2.4	7.64683e+07	      76.5	   15.1895	       2.4	7.35371e+07	   76.4915	    15.181	       2.4	7.18927e+07	    76.483	   15.1895	       2.4	7.47978e+07	
         R10	   5487	    76.483	    15.215	       2.4	8.22703e+07	      76.5	    15.215	       2.4	8.46743e+07	      76.5	    15.198	       2.4	7.63412e+07	    76.483	    15.198	       2.4	7.69266e+07	   76.4915	    15.215	       2.4	8.31926e+07	      76.5	   15.2065	       2.4	8.02998e+07	   76.4915	    15.198	       2.4	7.64632e+07	    76.483	   15.2065	       2.4	7.95197e+07	
         R10	   5488	    76.483	    15.232	       2.4	8.82462e+07	      76.5	    15.232	       2.4	9.60547e+07	      76.5	    15.215	       2.4	8.46498e+07	    76.483	    15.215	       2.4	8.24044e+07	   76.4915	    15.232	       2.4	9.15939e+07	      76.5	   15.2235	       2.4	9.01905e+07	   76.4915	    15.215	       2.4	8.32498e+07	    76.483	   15.2235	       2.4	8.52686e+07	
         R10	   5489	    76.483	    15.249	       2.4	9.26673e+07	      76.5	    15.249	       2.4	1.09613e+08	      76.5	    15.232	       2.4	9.60992e+07	    76.483	    15.232	       2.4	8.86904e+07	   76.4915	    15.249	       2.4	1.00044e+08	      76.5	   15.2405	       2.4	1.02764e+08	   76.4915	    15.232	       2.4	9.18365e+07	    76.483	   15.2405	       2.4	9.05693e+07	
         R10	   5490	    76.483	    15.266	       2.4	9.12686e+07	      76.5	    15.266	       2.4	1.21627e+08	      76.5	    15.249	       2.4	 1.1002e+08	    76.483	    15.249	       2.4	9.39405e+07	   76.4915	    15.266	       2.4	1.03562e+08	      76.5	   15.2575	       2.4	1.15729e+08	   76.4915	    15.249	       2.4	1.00879e+08	    76.483	   15.2575	       2.4	9.22405e+07	
         R10	   5491	    76.483	    15.283	       2.4	8.01873e+07	      76.5	    15.283	       2.4	1.16808e+08	      76.5	    15.266	       2.4	1.23162e+08	    76.483	    15.266	       2.4	9.56998e+07	   76.4915	    15.283	       2.4	8.99283e+07	      76.5	   15.2745	       2.4	1.19946e+08	   76.4915	    15.266	       2.4	1.06524e+08	    76.483	   15.2745	       2.4	8.48581e+07	
         R10	   5492	    76.483	      15.3	       2.4	5.04625e+07	      76.5	      15.3	       2.4	9.23678e+07	      76.5	    15.283	       2.4	1.26588e+08	    76.483	    15.283	       2.4	8.34212e+07	   76.4915	      15.3	       2.4	5.47886e+07	      76.5	   15.2915	       2.4	9.77962e+07	   76.4915	    15.283	       2.4	9.47488e+07	    76.483	   15.2915	       2.4	4.57543e+07	
         R10	   5493	    76.466	      15.3	       2.4	4.74697e+07	    76.483	      15.3	       2.4	5.35616e+07	    76.483	    15.283	       2.4	8.33113e+07	    76.466	    15.283	       2.4	5.45546e+07	   76.4745	      15.3	       2.4	4.99569e+07	    76.483	   15.2915	       2.4	4.82079e+07	   76.4745	    15.283	       2.4	6.61172e+07	    76.466	   15.2915	       2.4	4.22895e+07	
         R10	   5494	    76.449	    15.283	       2.4	3.92476e+07	    76.449	      15.3	       2.4	4.03517e+07	    76.466	      15.3	       2.4	4.60173e+07	    76.466	    15.283	       2.4	5.23304e+07	    76.449	   15.2915	       2.4	3.50041e+07	   76.4575	      15.3	       2.4	4.31335e+07	    76.466	   15.2915	       2.4	4.02873e+07	   76.4575	    15.283	       2.4	4.51821e+07	
         R10	   5495	    76.432	    15.283	       2.4	2.85734e+07	    76.432	      15.3	       2.4	3.40446e+07	    76.449	      15.3	       2.4	3.97379e+07	    76.449	    15.283	       2.4	3.87752e+07	    76.432	   15.2915	       2.4	2.91136e+07	   76.4405	      15.3	       2.4	3.68525e+07	    76.449	   15.2915	       2.4	3.44144e+07	   76.4405	    15.283	       2.4	3.32716e+07	
         R10	   5496	    76.415	    15.283	       2.4	2.22679e+07	    76.415	      15.3	       2.4	3.10982e+07	    76.432	      15.3	       2.4	3.34925e+07	    76.432	    15.283	       2.4	2.84628e+07	    76.415	   15.2915	       2.4	2.58256e+07	   76.4235	      15.3	       2.4	3.22457e+07	    76.432	   15.2915	       2.4	 2.8704e+07	   76.4235	    15.283	       2.4	2.49619e+07	
         R10	   5497	    76.398	    15.283	       2.4	2.06016e+07	    76.398	      15.3	       2.4	3.11684e+07	    76.415	      15.3	       2.4	 3.0879e+07	    76.415	    15.283	       2.4	2.23355e+07	    76.398	   15.2915	       2.4	 2.5652e+07	   76.4065	      15.3	       2.4	3.09563e+07	    76.415	   15.2915	       2.4	2.57181e+07	   76.4065	    15.283	       2.4	2.10457e+07	
         R10	   5498	    76.381	    15.283	       2.4	2.27398e+07	    76.381	      15.3	       2.4	3.37692e+07	    76.398	      15.3	       2.4	3.10886e+07	    76.398	    15.283	       2.4	 2.0626e+07	    76.381	   15.2915	       2.4	2.81753e+07	   76.3895	      15.3	       2.4	3.23796e+07	    76.398	   15.2915	       2.4	2.56182e+07	   76.3895	    15.283	       2.4	2.13921e+07	
         R10	   5499	    76.364	    15.283	       2.4	 2.7108e+07	    76.364	      15.3	       2.4	3.83159e+07	    76.381	      15.3	       2.4	3.37857e+07	    76.381	    15.283	       2.4	2.27807e+07	    76.364	   15.2915	       2.4	 3.2611e+07	   76.3725	      15.3	       2.4	3.60112e+07	    76.381	   15.2915	       2.4	 2.8209e+07	   76.3725	    15.283	       2.4	 2.4814e+07	
         R10	   5500	    76.347	    15.283	       2.4	3.26373e+07	    76.347	      15.3	       2.4	4.39515e+07	    76.364	      15.3	       2.4	3.83042e+07	    76.364	    15.283	       2.4	2.71206e+07	    76.347	   15.2915	       2.4	3.81408e+07	   76.3555	      15.3	       2.4	4.11048e+07	    76.364	   15.2915	       2.4	 3.2614e+07	   76.3555	    15.283	       2.4	2.98264e+07	
         R10	   5501	     76.33	    15.283	       2.4	3.88017e+07	     76.33	      15.3	       2.4	5.05953e+07	    76.347	      15.3	       2.4	4.39989e+07	    76.347	    15.283	       2.4	3.26585e+07	     76.33	   15.2915	       2.4	4.45194e+07	   76.3385	      15.3	       2.4	4.72796e+07	    76.347	   15.2915	       2.4	3.81761e+07	   76.3385	    15.283	       2.4	3.57095e+07	
         R10	   5502	     76.33	    15.266	       2.4	2.84484e+07	     76.33	    15.283	       2.4	3.87797e+07	    76.347	    15.283	       2.4	3.25987e+07	    76.347	    15.266	       2.4	2.21896e+07	     76.33	   15.2745	       2.4	3.33144e+07	   76.3385	    15.283	       2.4	3.56669e+07	    76.347	   15.2745	       2.4	2.70965e+07	   76.3385	    15.266	       2.4	2.52987e+07	
         R10	   5503	    76.347	    15.249	       2.4	1.58271e+07	     76.33	    15.249	       2.4	2.18613e+07	     76.33	    15.266	       2.4	2.84175e+07	    76.347	    15.266	       2.4	2.21095e+07	   76.3385	    15.249	       2.4	1.87723e+07	     76.33	   15.2575	       2.4	2.45018e+07	   76.3385	    15.266	       2.4	2.52432e+07	    76.347	   15.2575	       2.4	1.80948e+07	
         R10	   5504	    76.347	    15.232	       2.4	1.85601e+07	     76.33	    15.232	       2.4	2.16722e+07	     76.33	    15.249	       2.4	2.17945e+07	    76.347	    15.249	       2.4	1.58152e+07	   76.3385	    15.232	       2.4	1.98904e+07	     76.33	   15.2405	       2.4	2.08274e+07	   76.3385	    15.249	       2.4	1.87325e+07	    76.347	   15.2405	       2.4	1.60829e+07	
         R10	   5505	    76.347	    15.215	       2.4	2.67933e+07	     76.33	    15.215	       2.4	2.72248e+07	     76.33	    15.232	       2.4	2.16329e+07	    76.347	    15.232	       2.4	1.85812e+07	   76.3385	    15.215	       2.4	2.68104e+07	     76.33	   15.2235	       2.4	2.39098e+07	   76.3385	    15.232	       2.4	 1.9875e+07	    76.347	   15.2235	       2.4	2.23316e+07	
         R10	   5506	    76.347	    15.198	       2.4	3.58058e+07	     76.33	    15.198	       2.4	3.48168e+07	     76.33	    15.215	       2.4	2.72929e+07	    76.347	    15.215	       2.4	2.67867e+07	   76.3385	    15.198	       2.4	 3.5179e+07	     76.33	   15.2065	       2.4	3.08674e+07	   76.3385	    15.215	       2.4	2.68433e+07	    76.347	   15.2065	       2.4	3.12027e+07	
         R10	   5507	    76.347	    15.181	       2.4	4.40559e+07	     76.33	    15.181	       2.4	4.26102e+07	     76.33	    15.198	       2.4	3.48711e+07	    76.347	    15.198	       2.4	3.58063e+07	   76.3385	    15.181	       2.4	4.32454e+07	     76.33	   15.1895	       2.4	3.86705e+07	   76.3385	    15.198	       2.4	3.52076e+07	    76.347	   15.1895	       2.4	3.99021e+07	
         R10	   5508	    76.347	    15.164	       2.4	 5.1133e+07	     76.33	    15.164	       2.4	 4.9529e+07	     76.33	    15.181	       2.4	4.25987e+07	    76.347	    15.181	       2.4	4.40598e+07	   76.3385	    15.164	       2.4	5.02702e+07	     76.33	   15.1725	       2.4	4.60343e+07	   76.3385	    15.181	       2.4	 4.3243e+07	    76.347	   15.1725	       2.4	4.75856e+07	
         R10	   5509	    76.347	    15.147	       2.4	5.69177e+07	    76.347	     15.13	       2.4	6.14342e+07	     76.33	     15.13	       2.4	6.03679e+07	     76.33	    15.147	       2.4	5.54405e+07	    76.347	   15.1385	       2.4	5.91729e+07	   76.3385	     15.13	       2.4	6.08619e+07	     76.33	   15.1385	       2.4	5.78962e+07	   76.3385	    15.147	       2.4	5.61332e+07	
         R10	   5510	    76.381	    15.164	       2.4	5.61647e+07	    76.381	    15.147	       2.4	6.09862e+07	    76.364	    15.147	       2.4	5.87516e+07	    76.364	    15.164	       2.4	5.33046e+07	    76.381	   15.1555	       2.4	5.85718e+07	   76.3725	    15.147	       2.4	5.98181e+07	    76.364	   15.1555	       2.4	5.60267e+07	   76.3725	    15.164	       2.4	5.46718e+07	
         R10	   5511	    76.398	    15.164	       2.4	5.96425e+07	    76.398	    15.147	       2.4	6.35366e+07	    76.381	    15.147	       2.4	 6.0997e+07	    76.381	    15.164	       2.4	5.61725e+07	    76.398	   15.1555	       2.4	6.15797e+07	   76.3895	    15.147	       2.4	6.22186e+07	    76.381	   15.1555	       2.4	5.85811e+07	   76.3895	    15.164	       2.4	5.78523e+07	
         R10	   5512	    76.415	    15.164	       2.4	6.34434e+07	    76.415	    15.147	       2.4	 6.6153e+07	    76.398	    15.147	       2.4	6.35519e+07	    76.398	    15.164	       2.4	5.96664e+07	    76.415	   15.1555	       2.4	6.47808e+07	   76.4065	    15.147	       2.4	6.48087e+07	    76.398	   15.1555	       2.4	6.15995e+07	   76.4065	    15.164	       2.4	6.15116e+07	
         R10	   5513	    76.432	    15.164	       2.4	6.71045e+07	    76.432	    15.147	       2.4	6.83916e+07	    76.415	    15.147	       2.4	 6.6201e+07	    76.415	    15.164	       2.4	6.34859e+07	    76.432	   15.1555	       2.4	6.77231e+07	   76.4235	    15.147	       2.4	6.72549e+07	    76.415	   15.1555	       2.4	6.48261e+07	   76.4235	    15.164	       2.4	6.52635e+07	
         R10	   5514	    76.449	    15.164	       2.4	 6.9884e+07	    76.449	    15.147	       2.4	6.99473e+07	    76.432	    15.147	       2.4	 6.8478e+07	    76.432	    15.164	       2.4	6.71503e+07	    76.449	   15.1555	       2.4	6.98775e+07	   76.4405	    15.147	       2.4	6.91683e+07	    76.432	   15.1555	       2.4	 6.7789e+07	   76.4405	    15.164	       2.4	6.84898e+07	
         R10	   5515	    76.466	    15.164	       2.4	7.10959e+07	    76.466	    15.147	       2.4	7.03342e+07	    76.449	    15.147	       2.4	6.99253e+07	    76.449	    15.164	       2.4	6.99059e+07	    76.466	   15.1555	       2.4	7.06458e+07	   76.4575	    15.147	       2.4	7.00698e+07	    76.449	   15.1555	       2.4	6.98785e+07	   76.4575	    15.164	       2.4	7.04661e+07	
         R10	   5516	    76.483	    15.164	       2.4	7.05436e+07	    76.483	    15.147	       2.4	6.96476e+07	    76.466	    15.147	       2.4	7.03344e+07	    76.466	    15.164	       2.4	7.11626e+07	    76.483	   15.1555	       2.4	6.99679e+07	   76.4745	    15.147	       2.4	6.98811e+07	    76.466	   15.1555	       2.4	7.06819e+07	   76.4745	    15.164	       2.4	7.07823e+07	
         R10	   5517	    76.483	    15.181	       2.4	7.29273e+07	    76.483	    15.164	       2.4	7.05221e+07	    76.466	    15.164	       2.4	7.11444e+07	    76.466	    15.181	       2.4	7.25981e+07	    76.483	   15.1725	       2.4	7.16026e+07	   76.4745	    15.164	       2.4	7.07621e+07	    76.466	   15.1725	       2.4	7.18084e+07	   76.4745	    15.181	       2.4	7.27123e+07	
         R10	   5518	    76.466	    15.198	       2.4	7.44965e+07	    76.483	    15.198	       2.4	7.68966e+07	    76.483	    15.181	       2.4	7.29204e+07	    76.466	    15.181	       2.4	7.26388e+07	   76.4745	    15.198	       2.4	7.56359e+07	    76.483	   15.1895	       2.4	7.48046e+07	   76.4745	    15.181	       2.4	7.27281e+07	    76.466	   15.1895	       2.4	7.35075e+07	
         R10	   5519	    76.466	    15.215	       2.4	7.63027e+07	    76.483	    15.215	       2.4	8.22118e+07	    76.483	    15.198	       2.4	7.69116e+07	    76.466	    15.198	       2.4	7.46024e+07	   76.4745	    15.215	       2.4	7.91426e+07	    76.483	   15.2065	       2.4	7.94844e+07	   76.4745	    15.198	       2.4	7.56952e+07	    76.466	   15.2065	       2.4	7.53772e+07	
         R10	   5520	    76.466	    15.232	       2.4	7.70475e+07	    76.483	    15.232	       2.4	 8.8066e+07	    76.483	    15.215	       2.4	8.22681e+07	    76.466	    15.215	       2.4	7.65517e+07	   76.4745	    15.232	       2.4	8.23053e+07	    76.483	   15.2235	       2.4	8.51004e+07	   76.4745	    15.215	       2.4	7.92953e+07	    76.466	   15.2235	       2.4	7.66623e+07	
         R10	   5521	    76.466	    15.249	       2.4	7.49491e+07	    76.483	    15.249	       2.4	9.23567e+07	    76.483	    15.232	       2.4	8.82681e+07	    76.466	    15.232	       2.4	7.76123e+07	   76.4745	    15.249	       2.4	 8.3112e+07	    76.483	   15.2405	       2.4	9.02147e+07	   76.4745	    15.232	       2.4	8.26913e+07	    76.466	   15.2405	       2.4	7.59144e+07	
         R10	   5522	    76.466	    15.266	       2.4	6.67623e+07	    76.483	    15.266	       2.4	9.13754e+07	    76.483	    15.249	       2.4	9.28729e+07	    76.466	    15.249	       2.4	7.58556e+07	   76.4745	    15.266	       2.4	7.80263e+07	    76.483	   15.2575	       2.4	9.16424e+07	   76.4745	    15.249	       2.4	8.38187e+07	    76.466	   15.2575	       2.4	7.04167e+07	
         R10	   5523	    76.466	    15.283	       2.4	 5.4295e+07	    76.483	    15.283	       2.4	7.00011e+07	    76.483	    15.266	       2.4	9.15646e+07	    76.466	    15.266	       2.4	6.86717e+07	   76.4745	    15.283	       2.4	5.99649e+07	    76.483	   15.2745	       2.4	7.93183e+07	   76.4745	    15.266	       2.4	7.90817e+07	    76.466	   15.2745	       2.4	5.83893e+07	
         R10	   5524	    76.449	    15.283	       2.4	3.81556e+07	    76.466	    15.283	       2.4	5.21129e+07	    76.466	    15.266	       2.4	6.78289e+07	    76.449	    15.266	       2.4	4.77341e+07	   76.4575	    15.283	       2.4	4.45065e+07	    76.466	   15.2745	       2.4	 5.7062e+07	   76.4575	    15.266	       2.4	5.73155e+07	    76.449	   15.2745	       2.4	4.02823e+07	
         R10	   5525	    76.432	    15.266	       2.4	3.11361e+07	    76.432	    15.283	       2.4	2.80448e+07	    76.449	    15.283	       2.4	3.78625e+07	    76.449	    15.266	       2.4	4.75114e+07	    76.432	   15.2745	       2.4	2.71565e+07	   76.4405	    15.283	       2.4	3.25665e+07	    76.449	   15.2745	       2.4	3.99929e+07	   76.4405	    15.266	       2.4	3.91154e+07	
         R10	   5526	    76.415	    15.266	       2.4	1.85191e+07	    76.415	    15.283	       2.4	2.19905e+07	    76.432	    15.283	       2.4	 2.8193e+07	    76.432	    15.266	       2.4	3.10026e+07	    76.415	   15.2745	       2.4	1.81097e+07	   76.4235	    15.283	       2.4	2.46621e+07	    76.432	   15.2745	       2.4	2.71267e+07	   76.4235	    15.266	       2.4	2.45401e+07	
         R10	   5527	    76.398	    15.266	       2.4	1.04231e+07	    76.398	    15.283	       2.4	 2.0422e+07	    76.415	    15.283	       2.4	2.20841e+07	    76.415	    15.266	       2.4	1.84356e+07	    76.398	   15.2745	       2.4	1.43206e+07	   76.4065	    15.283	       2.4	2.08062e+07	    76.415	   15.2745	       2.4	1.81025e+07	   76.4065	    15.266	       2.4	1.38452e+07	
         R10	   5528	    76.381	    15.266	       2.4	1.03495e+07	    76.381	    15.283	       2.4	2.26385e+07	    76.398	    15.283	       2.4	2.04446e+07	    76.398	    15.266	       2.4	1.03461e+07	    76.381	   15.2745	       2.4	1.62363e+07	   76.3895	    15.283	       2.4	2.12411e+07	    76.398	   15.2745	       2.4	1.42947e+07	   76.3895	    15.266	       2.4	9.21308e+06	
         R10	   5529	    76.364	    15.266	       2.4	1.58072e+07	    76.364	    15.283	       2.4	2.70488e+07	    76.381	    15.283	       2.4	2.26281e+07	    76.381	    15.266	       2.4	1.02903e+07	    76.364	   15.2745	       2.4	2.11715e+07	   76.3725	    15.283	       2.4	2.47029e+07	    76.381	   15.2745	       2.4	1.62039e+07	   76.3725	    15.266	       2.4	 1.2714e+07	
         R10	   5530	    76.347	    15.266	       2.4	2.21931e+07	    76.347	    15.283	       2.4	3.25932e+07	    76.364	    15.283	       2.4	2.70459e+07	    76.364	    15.266	       2.4	1.57821e+07	    76.347	   15.2745	       2.4	2.70968e+07	   76.3555	    15.283	       2.4	2.97666e+07	    76.364	   15.2745	       2.4	2.11583e+07	   76.3555	    15.266	       2.4	 1.8917e+07	
         R10	   5531	    76.347	    15.249	       2.4	1.58558e+07	    76.347	    15.266	       2.4	2.21253e+07	    76.364	    15.266	       2.4	1.56773e+07	    76.364	    15.249	       2.4	1.00553e+07	    76.347	   15.2575	       2.4	1.81164e+07	   76.3555	    15.266	       2.4	1.88299e+07	    76.364	   15.2575	       2.4	1.13654e+07	   76.3555	    15.249	       2.4	1.27181e+07	
         R10	   5532	    76.364	    15.232	       2.4	1.74362e+07	    76.347	    15.232	       2.4	1.85446e+07	    76.347	    15.249	       2.4	1.58347e+07	    76.364	    15.249	       2.4	1.00308e+07	   76.3555	    15.232	       2.4	1.75836e+07	    76.347	   15.2405	       2.4	1.60858e+07	   76.3555	    15.249	       2.4	1.26912e+07	    76.364	   15.2405	       2.4	1.27017e+07	
         R10	   5533	    76.364	    15.215	       2.4	2.80504e+07	    76.347	    15.215	       2.4	2.67681e+07	    76.347	    15.232	       2.4	1.85721e+07	    76.364	    15.232	       2.4	1.74663e+07	   76.3555	    15.215	       2.4	2.71655e+07	    76.347	   15.2235	       2.4	 2.2313e+07	   76.3555	    15.232	       2.4	1.76144e+07	    76.364	   15.2235	       2.4	 2.2623e+07	
         R10	   5534	    76.364	    15.198	       2.4	3.79419e+07	    76.347	    15.198	       2.4	3.57887e+07	    76.347	    15.215	       2.4	2.67839e+07	    76.364	    15.215	       2.4	2.80733e+07	   76.3555	    15.198	       2.4	 3.6721e+07	    76.347	   15.2065	       2.4	3.11924e+07	   76.3555	    15.215	       2.4	2.71863e+07	    76.364	   15.2065	       2.4	3.29817e+07	
         R10	   5535	    76.364	    15.181	       2.4	4.64046e+07	    76.347	    15.181	       2.4	4.40447e+07	    76.347	    15.198	       2.4	3.57871e+07	    76.364	    15.198	       2.4	3.79513e+07	   76.3555	    15.181	       2.4	4.51319e+07	    76.347	   15.1895	       2.4	3.98871e+07	   76.3555	    15.198	       2.4	 3.6725e+07	    76.364	   15.1895	       2.4	4.21708e+07	
         R10	   5536	    76.347	    15.147	       2.4	5.69152e+07	     76.33	    15.147	       2.4	 5.5433e+07	     76.33	    15.164	       2.4	4.95425e+07	    76.347	    15.164	       2.4	5.11186e+07	   76.3385	    15.147	       2.4	5.61274e+07	     76.33	   15.1555	       2.4	5.24744e+07	   76.3385	    15.164	       2.4	5.02711e+07	    76.347	   15.1555	       2.4	 5.4012e+07	
         R10	   5537	    76.364	    15.164	       2.4	5.33045e+07	    76.364	    15.147	       2.4	5.87434e+07	    76.347	    15.147	       2.4	5.69121e+07	    76.347	    15.164	       2.4	5.11168e+07	    76.364	   15.1555	       2.4	5.60226e+07	   76.3555	    15.147	       2.4	5.77782e+07	    76.347	   15.1555	       2.4	5.40095e+07	   76.3555	    15.164	       2.4	5.21459e+07	
         R10	   5538	    76.398	    15.181	       2.4	5.42669e+07	    76.398	    15.164	       2.4	5.96683e+07	    76.381	    15.164	       2.4	5.61959e+07	    76.381	    15.181	       2.4	4.98007e+07	    76.398	   15.1725	       2.4	5.69504e+07	   76.3895	    15.164	       2.4	5.78771e+07	    76.381	   15.1725	       2.4	5.29921e+07	   76.3895	    15.181	       2.4	5.19622e+07	
         R10	   5539	    76.415	    15.181	       2.4	5.95203e+07	    76.415	    15.164	       2.4	6.34897e+07	    76.398	    15.164	       2.4	5.96978e+07	    76.398	    15.181	       2.4	5.42856e+07	    76.415	   15.1725	       2.4	6.14757e+07	   76.4065	    15.164	       2.4	6.15506e+07	    76.398	   15.1725	       2.4	5.69743e+07	   76.4065	    15.181	       2.4	5.68543e+07	
         R10	   5540	    76.432	    15.181	       2.4	6.49506e+07	    76.432	    15.164	       2.4	6.71303e+07	    76.415	    15.164	       2.4	6.35329e+07	    76.415	    15.181	       2.4	5.95608e+07	    76.432	   15.1725	       2.4	 6.6003e+07	   76.4235	    15.164	       2.4	6.52998e+07	    76.415	   15.1725	       2.4	6.15175e+07	   76.4235	    15.181	       2.4	 6.2228e+07	
         R10	   5541	    76.449	    15.181	       2.4	6.96448e+07	    76.449	    15.164	       2.4	6.98942e+07	    76.432	    15.164	       2.4	6.71892e+07	    76.432	    15.181	       2.4	6.50176e+07	    76.449	   15.1725	       2.4	6.97258e+07	   76.4405	    15.164	       2.4	6.85148e+07	    76.432	   15.1725	       2.4	6.60664e+07	   76.4405	    15.181	       2.4	 6.7315e+07	
         R10	   5542	    76.466	    15.181	       2.4	7.25615e+07	    76.466	    15.164	       2.4	7.11103e+07	    76.449	    15.164	       2.4	6.99746e+07	    76.449	    15.181	       2.4	  6.972e+07	    76.466	   15.1725	       2.4	7.17732e+07	   76.4575	    15.164	       2.4	7.05073e+07	    76.449	   15.1725	       2.4	6.98038e+07	   76.4575	    15.181	       2.4	7.11206e+07	
         R10	   5543	    76.466	    15.198	       2.4	7.44059e+07	    76.466	    15.181	       2.4	7.25705e+07	    76.449	    15.181	       2.4	6.97943e+07	    76.449	    15.198	       2.4	6.89805e+07	    76.466	   15.1895	       2.4	7.34263e+07	   76.4575	    15.181	       2.4	7.11624e+07	    76.449	   15.1895	       2.4	6.93261e+07	   76.4575	    15.198	       2.4	7.16741e+07	
         R10	   5544	    76.449	    15.215	       2.4	6.71306e+07	    76.466	    15.215	       2.4	7.61603e+07	    76.466	    15.198	       2.4	 7.4446e+07	    76.449	    15.198	       2.4	6.91242e+07	   76.4575	    15.215	       2.4	7.16118e+07	    76.466	   15.2065	       2.4	7.52269e+07	   76.4575	    15.198	       2.4	7.17665e+07	    76.449	   15.2065	       2.4	6.80164e+07	
         R10	   5545	    76.449	    15.232	       2.4	6.33438e+07	    76.466	    15.232	       2.4	7.67923e+07	    76.466	    15.215	       2.4	7.62855e+07	    76.449	    15.215	       2.4	 6.7362e+07	   76.4575	    15.232	       2.4	6.99923e+07	    76.466	   15.2235	       2.4	7.63949e+07	   76.4575	    15.215	       2.4	7.17903e+07	    76.449	   15.2235	       2.4	6.51256e+07	
         R10	   5546	    76.449	    15.249	       2.4	5.68149e+07	    76.466	    15.249	       2.4	7.44217e+07	    76.466	    15.232	       2.4	 7.7028e+07	    76.449	    15.232	       2.4	6.37343e+07	   76.4575	    15.249	       2.4	6.54333e+07	    76.466	   15.2405	       2.4	7.53976e+07	   76.4575	    15.232	       2.4	 7.0304e+07	    76.449	   15.2405	       2.4	 5.9761e+07	
         R10	   5547	    76.449	    15.266	       2.4	4.71436e+07	    76.466	    15.266	       2.4	6.64704e+07	    76.466	    15.249	       2.4	7.54306e+07	    76.449	    15.249	       2.4	5.71318e+07	   76.4575	    15.266	       2.4	5.64124e+07	    76.466	   15.2575	       2.4	 7.0032e+07	   76.4575	    15.249	       2.4	 6.6089e+07	    76.449	   15.2575	       2.4	5.09948e+07	
         R10	   5548	    76.432	    15.266	       2.4	3.10388e+07	    76.449	    15.266	       2.4	4.67952e+07	    76.449	    15.249	       2.4	5.69553e+07	    76.432	    15.249	       2.4	4.02309e+07	   76.4405	    15.266	       2.4	3.87191e+07	    76.449	   15.2575	       2.4	5.07538e+07	   76.4405	    15.249	       2.4	4.85534e+07	    76.432	   15.2575	       2.4	3.43619e+07	
         R10	   5549	    76.415	    15.249	       2.4	2.59719e+07	    76.415	    15.266	       2.4	1.84218e+07	    76.432	    15.266	       2.4	3.08812e+07	    76.432	    15.249	       2.4	4.02169e+07	    76.415	   15.2575	       2.4	2.06401e+07	   76.4235	    15.266	       2.4	2.44432e+07	    76.432	   15.2575	       2.4	3.42876e+07	   76.4235	    15.249	       2.4	3.30765e+07	
         R10	   5550	    76.398	    15.249	       2.4	1.46893e+07	    76.398	    15.266	       2.4	 1.0294e+07	    76.415	    15.266	       2.4	1.83695e+07	    76.415	    15.249	       2.4	2.60268e+07	    76.398	   15.2575	       2.4	9.97955e+06	   76.4065	    15.266	       2.4	1.37627e+07	    76.415	   15.2575	       2.4	2.06498e+07	   76.4065	    15.249	       2.4	2.02396e+07	
         R10	   5551	    76.381	    15.249	       2.4	  8.061e+06	    76.381	    15.266	       2.4	1.01996e+07	    76.398	    15.266	       2.4	1.02642e+07	    76.398	    15.249	       2.4	1.47553e+07	    76.381	   15.2575	       2.4	 5.8867e+06	   76.3895	    15.266	       2.4	9.07548e+06	    76.398	   15.2575	       2.4	1.00056e+07	   76.3895	    15.249	       2.4	1.07223e+07	
         R10	   5552	    76.364	    15.249	       2.4	1.00628e+07	    76.364	    15.266	       2.4	1.57081e+07	    76.381	    15.266	       2.4	1.01677e+07	    76.381	    15.249	       2.4	8.10245e+06	    76.364	   15.2575	       2.4	1.13931e+07	   76.3725	    15.266	       2.4	1.25963e+07	    76.381	   15.2575	       2.4	5.87691e+06	   76.3725	    15.249	       2.4	8.01405e+06	
         R10	   5553	    76.364	    15.232	       2.4	1.74008e+07	    76.364	    15.249	       2.4	1.00382e+07	    76.381	    15.249	       2.4	8.14639e+06	    76.381	    15.232	       2.4	2.00062e+07	    76.364	   15.2405	       2.4	1.26842e+07	   76.3725	    15.249	       2.4	8.02251e+06	    76.381	   15.2405	       2.4	1.37057e+07	   76.3725	    15.232	       2.4	1.82249e+07	
         R10	   5554	    76.381	    15.215	       2.4	3.16832e+07	    76.364	    15.215	       2.4	2.80172e+07	    76.364	    15.232	       2.4	 1.7441e+07	    76.381	    15.232	       2.4	2.00459e+07	   76.3725	    15.215	       2.4	2.96148e+07	    76.364	   15.2235	       2.4	 2.2593e+07	   76.3725	    15.232	       2.4	1.82686e+07	    76.381	   15.2235	       2.4	2.58169e+07	
         R10	   5555	    76.381	    15.198	       2.4	 4.1684e+07	    76.364	    15.198	       2.4	 3.7917e+07	    76.364	    15.215	       2.4	2.80526e+07	    76.381	    15.215	       2.4	3.16922e+07	   76.3725	    15.198	       2.4	 3.9664e+07	    76.364	   15.2065	       2.4	3.29587e+07	   76.3725	    15.215	       2.4	2.96384e+07	    76.381	   15.2065	       2.4	  3.667e+07	
         R10	   5556	    76.364	    15.164	       2.4	5.33156e+07	    76.347	    15.164	       2.4	5.11246e+07	    76.347	    15.181	       2.4	4.40543e+07	    76.364	    15.181	       2.4	4.63979e+07	   76.3555	    15.164	       2.4	5.21556e+07	    76.347	   15.1725	       2.4	4.75786e+07	   76.3555	    15.181	       2.4	4.51334e+07	    76.364	   15.1725	       2.4	 4.9854e+07	
         R10	   5557	    76.381	    15.181	       2.4	4.97989e+07	    76.381	    15.164	       2.4	5.61858e+07	    76.364	    15.164	       2.4	5.33142e+07	    76.364	    15.181	       2.4	4.63936e+07	    76.381	   15.1725	       2.4	5.29862e+07	   76.3725	    15.164	       2.4	5.46871e+07	    76.364	   15.1725	       2.4	4.98511e+07	   76.3725	    15.181	       2.4	4.80085e+07	
         R10	   5558	    76.415	    15.198	       2.4	5.39554e+07	    76.415	    15.181	       2.4	5.95682e+07	    76.398	    15.181	       2.4	 5.4321e+07	    76.398	    15.198	       2.4	4.71043e+07	    76.415	   15.1895	       2.4	5.67081e+07	   76.4065	    15.181	       2.4	5.68961e+07	    76.398	   15.1895	       2.4	5.06815e+07	   76.4065	    15.198	       2.4	5.04684e+07	
         R10	   5559	    76.432	    15.198	       2.4	6.15847e+07	    76.432	    15.181	       2.4	6.50049e+07	    76.415	    15.181	       2.4	5.96231e+07	    76.415	    15.198	       2.4	5.39974e+07	    76.432	   15.1895	       2.4	6.32298e+07	   76.4235	    15.181	       2.4	6.22866e+07	    76.415	   15.1895	       2.4	 5.6756e+07	   76.4235	    15.198	       2.4	5.77659e+07	
         R10	   5560	    76.449	    15.198	       2.4	6.88715e+07	    76.449	    15.181	       2.4	6.96907e+07	    76.432	    15.181	       2.4	6.50934e+07	    76.432	    15.198	       2.4	6.16651e+07	    76.449	   15.1895	       2.4	6.92189e+07	   76.4405	    15.181	       2.4	 6.7376e+07	    76.432	   15.1895	       2.4	6.33141e+07	   76.4405	    15.198	       2.4	6.52591e+07	
         R10	   5561	    76.449	    15.215	       2.4	6.69829e+07	    76.449	    15.198	       2.4	6.89556e+07	    76.432	    15.198	       2.4	6.17814e+07	    76.432	    15.215	       2.4	5.66013e+07	    76.449	   15.2065	       2.4	6.78594e+07	   76.4405	    15.198	       2.4	6.53596e+07	    76.432	   15.2065	       2.4	5.90652e+07	   76.4405	    15.215	       2.4	6.17881e+07	
         R10	   5562	    76.432	    15.232	       2.4	4.93826e+07	    76.449	    15.232	       2.4	6.31441e+07	    76.449	    15.215	       2.4	6.71533e+07	    76.432	    15.215	       2.4	5.67451e+07	   76.4405	    15.232	       2.4	5.62589e+07	    76.449	   15.2235	       2.4	6.49235e+07	   76.4405	    15.215	       2.4	6.19454e+07	    76.432	   15.2235	       2.4	5.28078e+07	
         R10	   5563	    76.432	    15.249	       2.4	4.01336e+07	    76.449	    15.249	       2.4	5.64706e+07	    76.449	    15.232	       2.4	6.34356e+07	    76.432	    15.232	       2.4	4.95387e+07	   76.4405	    15.249	       2.4	4.82663e+07	    76.449	   15.2405	       2.4	5.94596e+07	   76.4405	    15.232	       2.4	5.64821e+07	    76.432	   15.2405	       2.4	4.42859e+07	
         R10	   5564	    76.415	    15.249	       2.4	2.59908e+07	    76.432	    15.249	       2.4	4.00139e+07	    76.432	    15.232	       2.4	4.94653e+07	    76.415	    15.232	       2.4	3.68394e+07	   76.4235	    15.249	       2.4	3.29844e+07	    76.432	   15.2405	       2.4	4.41969e+07	   76.4235	    15.232	       2.4	4.31357e+07	    76.415	   15.2405	       2.4	3.08928e+07	
         R10	   5565	    76.398	    15.232	       2.4	2.66851e+07	    76.398	    15.249	       2.4	1.47594e+07	    76.415	    15.249	       2.4	2.59847e+07	    76.415	    15.232	       2.4	3.68699e+07	    76.398	   15.2405	       2.4	2.03085e+07	   76.4065	    15.249	       2.4	2.02535e+07	    76.415	   15.2405	       2.4	3.09086e+07	   76.4065	    15.232	       2.4	 3.1666e+07	
         R10	   5566	    76.381	    15.232	       2.4	1.99422e+07	    76.381	    15.249	       2.4	8.11064e+06	    76.398	    15.249	       2.4	1.47984e+07	    76.398	    15.232	       2.4	 2.6751e+07	    76.381	   15.2405	       2.4	1.36523e+07	   76.3895	    15.249	       2.4	1.07771e+07	    76.398	   15.2405	       2.4	2.03628e+07	   76.3895	    15.232	       2.4	2.30467e+07	
         R10	   5567	    76.381	    15.215	       2.4	3.16395e+07	    76.381	    15.232	       2.4	2.00086e+07	    76.398	    15.232	       2.4	2.67558e+07	    76.398	    15.215	       2.4	3.79272e+07	    76.381	   15.2235	       2.4	2.57758e+07	   76.3895	    15.232	       2.4	2.30842e+07	    76.398	   15.2235	       2.4	3.22198e+07	   76.3895	    15.215	       2.4	 3.4615e+07	
         R10	   5568	    76.381	    15.181	       2.4	4.98182e+07	    76.364	    15.181	       2.4	4.63933e+07	    76.364	    15.198	       2.4	3.79354e+07	    76.381	    15.198	       2.4	4.16733e+07	   76.3725	    15.181	       2.4	4.80178e+07	    76.364	   15.1895	       2.4	4.21572e+07	   76.3725	    15.198	       2.4	3.96684e+07	    76.381	   15.1895	       2.4	4.57356e+07	
         R10	   5569	    76.398	    15.198	       2.4	4.70935e+07	    76.398	    15.181	       2.4	   5.43e+07	    76.381	    15.181	       2.4	4.98156e+07	    76.381	    15.198	       2.4	4.16638e+07	    76.398	   15.1895	       2.4	5.06659e+07	   76.3895	    15.181	       2.4	5.19862e+07	    76.381	   15.1895	       2.4	4.57294e+07	   76.3895	    15.198	       2.4	4.42742e+07	
         R10	   5570	    76.432	    15.215	       2.4	5.65036e+07	    76.432	    15.198	       2.4	6.16696e+07	    76.415	    15.198	       2.4	5.40662e+07	    76.415	    15.215	       2.4	4.64509e+07	    76.432	   15.2065	       2.4	 5.8962e+07	   76.4235	    15.198	       2.4	5.78431e+07	    76.415	   15.2065	       2.4	5.01543e+07	   76.4235	    15.215	       2.4	5.14543e+07	
         R10	   5571	    76.415	    15.232	       2.4	3.68227e+07	    76.432	    15.232	       2.4	4.92752e+07	    76.432	    15.215	       2.4	5.66357e+07	    76.415	    15.215	       2.4	4.65099e+07	   76.4235	    15.232	       2.4	4.30315e+07	    76.432	   15.2235	       2.4	5.27043e+07	   76.4235	    15.215	       2.4	5.15504e+07	    76.415	   15.2235	       2.4	4.14508e+07	
         R10	   5572	    76.398	    15.215	       2.4	3.78997e+07	    76.398	    15.232	       2.4	2.67321e+07	    76.415	    15.232	       2.4	   3.68e+07	    76.415	    15.215	       2.4	4.64902e+07	    76.398	   15.2235	       2.4	3.21926e+07	   76.4065	    15.232	       2.4	 3.1654e+07	    76.415	   15.2235	       2.4	 4.1433e+07	   76.4065	    15.215	       2.4	4.21115e+07	
         R10	   5573	    76.398	    15.198	       2.4	4.71272e+07	    76.381	    15.198	       2.4	4.16634e+07	    76.381	    15.215	       2.4	3.16693e+07	    76.398	    15.215	       2.4	3.79041e+07	   76.3895	    15.198	       2.4	4.42908e+07	    76.381	   15.2065	       2.4	 3.6648e+07	   76.3895	    15.215	       2.4	 3.4619e+07	    76.398	   15.2065	       2.4	4.24586e+07	
         R10	   5574	    76.415	    15.198	       2.4	5.40204e+07	    76.398	    15.198	       2.4	4.71298e+07	    76.398	    15.215	       2.4	3.79002e+07	    76.415	    15.215	       2.4	4.64148e+07	   76.4065	    15.198	       2.4	5.05139e+07	    76.398	   15.2065	       2.4	4.24572e+07	   76.4065	    15.215	       2.4	4.20738e+07	    76.415	   15.2065	       2.4	5.01146e+07	
         R10	   5575	    76.534	    15.147	       2.4	6.95682e+07	    76.534	     15.13	       2.4	6.93007e+07	    76.517	     15.13	       2.4	6.96042e+07	    76.517	    15.147	       2.4	6.90223e+07	    76.534	   15.1385	       2.4	6.93674e+07	   76.5255	     15.13	       2.4	6.92956e+07	    76.517	   15.1385	       2.4	6.91868e+07	   76.5255	    15.147	       2.4	 6.9185e+07	
         R10	   5576	    76.551	    15.147	       2.4	6.90801e+07	    76.551	     15.13	       2.4	6.91994e+07	    76.534	     15.13	       2.4	6.93063e+07	    76.534	    15.147	       2.4	6.95752e+07	    76.551	   15.1385	       2.4	6.91009e+07	   76.5425	     15.13	       2.4	6.91602e+07	    76.534	   15.1385	       2.4	6.93732e+07	   76.5425	    15.147	       2.4	6.92681e+07	
         R10	   5577	    76.568	    15.147	       2.4	6.75165e+07	    76.568	     15.13	       2.4	6.82155e+07	    76.551	     15.13	       2.4	6.91672e+07	    76.551	    15.147	       2.4	6.90477e+07	    76.568	   15.1385	       2.4	6.78458e+07	   76.5595	     15.13	       2.4	6.86256e+07	    76.551	   15.1385	       2.4	6.90691e+07	   76.5595	    15.147	       2.4	6.82388e+07	
         R10	   5578	    76.585	    15.147	       2.4	6.51192e+07	    76.585	     15.13	       2.4	6.68665e+07	    76.568	     15.13	       2.4	6.81876e+07	    76.568	    15.147	       2.4	6.74872e+07	    76.585	   15.1385	       2.4	6.59801e+07	   76.5765	     15.13	       2.4	6.74744e+07	    76.568	   15.1385	       2.4	6.78169e+07	   76.5765	    15.147	       2.4	6.62637e+07	
         R10	   5579	    76.602	    15.147	       2.4	6.24359e+07	    76.602	     15.13	       2.4	6.50621e+07	    76.585	     15.13	       2.4	6.68397e+07	    76.585	    15.147	       2.4	6.50761e+07	    76.602	   15.1385	       2.4	 6.3743e+07	   76.5935	     15.13	       2.4	 6.5904e+07	    76.585	   15.1385	       2.4	6.59455e+07	   76.5935	    15.147	       2.4	6.37117e+07	
         R10	   5580	    76.619	    15.147	       2.4	5.97879e+07	    76.619	     15.13	       2.4	6.33802e+07	    76.602	     15.13	       2.4	6.50485e+07	    76.602	    15.147	       2.4	6.24408e+07	    76.619	   15.1385	       2.4	6.15812e+07	   76.6105	     15.13	       2.4	6.41647e+07	    76.602	   15.1385	       2.4	6.37386e+07	   76.6105	    15.147	       2.4	6.10672e+07	
         R10	   5581	    76.636	    15.147	       2.4	5.74764e+07	    76.636	     15.13	       2.4	6.16436e+07	    76.619	     15.13	       2.4	6.32943e+07	    76.619	    15.147	       2.4	5.97879e+07	    76.636	   15.1385	       2.4	5.95592e+07	   76.6275	     15.13	       2.4	 6.2424e+07	    76.619	   15.1385	       2.4	6.15389e+07	   76.6275	    15.147	       2.4	 5.8582e+07	
         R10	   5582	    76.653	    15.147	       2.4	5.56073e+07	    76.653	     15.13	       2.4	6.00961e+07	    76.636	     15.13	       2.4	6.16466e+07	    76.636	    15.147	       2.4	5.74196e+07	    76.653	   15.1385	       2.4	5.78482e+07	   76.6445	     15.13	       2.4	 6.0832e+07	    76.636	   15.1385	       2.4	5.95323e+07	   76.6445	    15.147	       2.4	5.64616e+07	
         R10	   5583	     76.67	    15.147	       2.4	5.40361e+07	     76.67	     15.13	       2.4	5.90557e+07	    76.653	     15.13	       2.4	6.02029e+07	    76.653	    15.147	       2.4	5.56098e+07	     76.67	   15.1385	       2.4	5.65396e+07	   76.6615	     15.13	       2.4	5.95904e+07	    76.653	   15.1385	       2.4	5.79037e+07	   76.6615	    15.147	       2.4	5.47779e+07	
         R10	   5584	     76.67	    15.164	       2.4	 4.8017e+07	     76.67	    15.147	       2.4	5.40492e+07	    76.653	    15.147	       2.4	5.55803e+07	    76.653	    15.164	       2.4	4.96936e+07	     76.67	   15.1555	       2.4	  5.102e+07	   76.6615	    15.147	       2.4	5.47673e+07	    76.653	   15.1555	       2.4	5.26324e+07	   76.6615	    15.164	       2.4	 4.8794e+07	
         R10	   5585	    76.653	    15.181	       2.4	4.25177e+07	     76.67	    15.181	       2.4	4.09287e+07	     76.67	    15.164	       2.4	4.79989e+07	    76.653	    15.164	       2.4	4.97162e+07	   76.6615	    15.181	       2.4	4.16316e+07	     76.67	   15.1725	       2.4	4.44334e+07	   76.6615	    15.164	       2.4	4.87974e+07	    76.653	   15.1725	       2.4	4.61077e+07	
         R10	   5586	    76.653	    15.198	       2.4	3.41729e+07	     76.67	    15.198	       2.4	3.30494e+07	     76.67	    15.181	       2.4	4.09979e+07	    76.653	    15.181	       2.4	4.24972e+07	   76.6615	    15.198	       2.4	3.34763e+07	     76.67	   15.1895	       2.4	 3.6955e+07	   76.6615	    15.181	       2.4	4.16581e+07	    76.653	   15.1895	       2.4	3.83079e+07	
         R10	   5587	    76.653	    15.215	       2.4	2.49589e+07	     76.67	    15.215	       2.4	2.52565e+07	     76.67	    15.198	       2.4	3.30479e+07	    76.653	    15.198	       2.4	 3.4147e+07	   76.6615	    15.215	       2.4	2.48933e+07	     76.67	   15.2065	       2.4	2.89567e+07	   76.6615	    15.198	       2.4	3.34566e+07	    76.653	   15.2065	       2.4	2.94607e+07	
         R10	   5588	    76.653	    15.232	       2.4	1.66615e+07	     76.67	    15.232	       2.4	1.97341e+07	     76.67	    15.215	       2.4	2.52419e+07	    76.653	    15.215	       2.4	2.49601e+07	   76.6615	    15.232	       2.4	1.79518e+07	     76.67	   15.2235	       2.4	  2.192e+07	   76.6615	    15.215	       2.4	2.48846e+07	    76.653	   15.2235	       2.4	2.04179e+07	
         R10	   5589	    76.653	    15.249	       2.4	 1.4463e+07	     76.67	    15.249	       2.4	2.07854e+07	     76.67	    15.232	       2.4	1.96571e+07	    76.653	    15.232	       2.4	1.66722e+07	   76.6615	    15.249	       2.4	1.75634e+07	     76.67	   15.2405	       2.4	1.92851e+07	   76.6615	    15.232	       2.4	 1.7907e+07	    76.653	   15.2405	       2.4	1.42669e+07	
         R10	   5590	    76.653	    15.266	       2.4	2.21047e+07	     76.67	    15.266	       2.4	2.82243e+07	     76.67	    15.249	       2.4	2.09375e+07	    76.653	    15.249	       2.4	1.45083e+07	   76.6615	    15.266	       2.4	2.51438e+07	     76.67	   15.2575	       2.4	2.39172e+07	   76.6615	    15.249	       2.4	1.76585e+07	    76.653	   15.2575	       2.4	  1.754e+07	
         R10	   5591	    76.653	    15.283	       2.4	3.33732e+07	     76.67	    15.283	       2.4	3.92156e+07	     76.67	    15.266	       2.4	2.83168e+07	    76.653	    15.266	       2.4	2.21851e+07	   76.6615	    15.283	       2.4	3.62558e+07	     76.67	   15.2745	       2.4	3.35433e+07	   76.6615	    15.266	       2.4	 2.5229e+07	    76.653	   15.2745	       2.4	2.75188e+07	
         R10	   5592	    76.653	      15.3	       2.4	4.50895e+07	     76.67	      15.3	       2.4	 5.1536e+07	     76.67	    15.283	       2.4	3.93462e+07	    76.653	    15.283	       2.4	3.33476e+07	   76.6615	      15.3	       2.4	4.82966e+07	     76.67	   15.2915	       2.4	4.52728e+07	   76.6615	    15.283	       2.4	3.63085e+07	    76.653	   15.2915	       2.4	3.91008e+07	
         R10	   5593	    76.636	      15.3	       2.4	3.95557e+07	    76.653	      15.3	       2.4	4.51086e+07	    76.653	    15.283	       2.4	3.32923e+07	    76.636	    15.283	       2.4	2.80398e+07	   76.6445	      15.3	       2.4	4.23009e+07	    76.653	   15.2915	       2.4	 3.9082e+07	   76.6445	    15.283	       2.4	3.06037e+07	    76.636	   15.2915	       2.4	3.37182e+07	
         R10	   5594	    76.619	    15.283	       2.4	 2.4103e+07	    76.619	      15.3	       2.4	3.51967e+07	    76.636	      15.3	       2.4	3.95695e+07	    76.636	    15.283	       2.4	2.80153e+07	    76.619	   15.2915	       2.4	2.95751e+07	   76.6275	      15.3	       2.4	3.73411e+07	    76.636	   15.2915	       2.4	3.37098e+07	   76.6275	    15.283	       2.4	2.59126e+07	
         R10	   5595	    76.602	    15.283	       2.4	2.25244e+07	    76.602	      15.3	       2.4	3.26275e+07	    76.619	      15.3	       2.4	3.52261e+07	    76.619	    15.283	       2.4	2.40427e+07	    76.602	   15.2915	       2.4	2.73117e+07	   76.6105	      15.3	       2.4	3.38742e+07	    76.619	   15.2915	       2.4	2.95588e+07	   76.6105	    15.283	       2.4	 2.3001e+07	
         R10	   5596	    76.585	    15.283	       2.4	2.45939e+07	    76.585	      15.3	       2.4	3.25866e+07	    76.602	      15.3	       2.4	3.27783e+07	    76.602	    15.283	       2.4	2.24668e+07	    76.585	   15.2915	       2.4	2.77016e+07	   76.5935	      15.3	       2.4	3.26209e+07	    76.602	   15.2915	       2.4	 2.7372e+07	   76.5935	    15.283	       2.4	2.31475e+07	
         R10	   5597	    76.568	    15.283	       2.4	3.08841e+07	    76.568	      15.3	       2.4	3.55071e+07	    76.585	      15.3	       2.4	3.28227e+07	    76.585	    15.283	       2.4	2.46051e+07	    76.568	   15.2915	       2.4	3.10593e+07	   76.5765	      15.3	       2.4	3.41001e+07	    76.585	   15.2915	       2.4	2.78539e+07	   76.5765	    15.283	       2.4	2.73857e+07	
         R10	   5598	    76.551	    15.283	       2.4	4.10771e+07	    76.551	      15.3	       2.4	4.15258e+07	    76.568	      15.3	       2.4	3.57789e+07	    76.568	    15.283	       2.4	 3.1053e+07	    76.551	   15.2915	       2.4	3.67367e+07	   76.5595	      15.3	       2.4	3.86219e+07	    76.568	   15.2915	       2.4	3.13082e+07	   76.5595	    15.283	       2.4	3.56798e+07	
         R10	   5599	    76.534	    15.283	       2.4	 5.4322e+07	    76.534	      15.3	       2.4	4.77352e+07	    76.551	      15.3	       2.4	4.20724e+07	    76.551	    15.283	       2.4	4.15678e+07	    76.534	   15.2915	       2.4	4.24708e+07	   76.5425	      15.3	       2.4	4.48572e+07	    76.551	   15.2915	       2.4	3.72636e+07	   76.5425	    15.283	       2.4	4.73377e+07	
         R10	   5600	    76.517	    15.283	       2.4	8.46341e+07	    76.517	      15.3	       2.4	5.49584e+07	    76.534	      15.3	       2.4	4.93902e+07	    76.534	    15.283	       2.4	5.66107e+07	    76.517	   15.2915	       2.4	5.01031e+07	   76.5255	      15.3	       2.4	5.16984e+07	    76.534	   15.2915	       2.4	4.46334e+07	   76.5255	    15.283	       2.4	 6.7779e+07	
         R10	   5601	      76.5	    15.283	       2.4	1.26738e+08	      76.5	      15.3	       2.4	9.42069e+07	    76.517	      15.3	       2.4	5.17535e+07	    76.517	    15.283	       2.4	8.48344e+07	      76.5	   15.2915	       2.4	9.87601e+07	   76.5085	      15.3	       2.4	5.68003e+07	    76.517	   15.2915	       2.4	4.77015e+07	   76.5085	    15.283	       2.4	9.53446e+07	
         R10	   5602	      76.5	    15.266	       2.4	1.23313e+08	      76.5	    15.283	       2.4	1.17008e+08	    76.517	    15.283	       2.4	8.14732e+07	    76.517	    15.266	       2.4	9.59846e+07	      76.5	   15.2745	       2.4	1.20122e+08	   76.5085	    15.283	       2.4	9.05321e+07	    76.517	   15.2745	       2.4	 8.5625e+07	   76.5085	    15.266	       2.4	1.06709e+08	
         R10	   5603	    76.517	    15.249	       2.4	9.38579e+07	      76.5	    15.249	       2.4	1.09981e+08	      76.5	    15.266	       2.4	1.21762e+08	    76.517	    15.266	       2.4	9.15253e+07	   76.5085	    15.249	       2.4	1.00807e+08	      76.5	   15.2575	       2.4	1.15778e+08	   76.5085	    15.266	       2.4	1.03725e+08	    76.517	   15.2575	       2.4	9.23255e+07	
         R10	   5604	    76.517	    15.232	       2.4	8.84102e+07	      76.5	    15.232	       2.4	9.59721e+07	      76.5	    15.249	       2.4	1.09584e+08	    76.517	    15.249	       2.4	9.26062e+07	   76.5085	    15.232	       2.4	9.16302e+07	      76.5	   15.2405	       2.4	1.02686e+08	   76.5085	    15.249	       2.4	9.99883e+07	    76.517	   15.2405	       2.4	9.03994e+07	
         R10	   5605	    76.517	    15.215	       2.4	8.20059e+07	      76.5	    15.215	       2.4	8.44417e+07	      76.5	    15.232	       2.4	9.59317e+07	    76.517	    15.232	       2.4	8.79739e+07	   76.5085	    15.215	       2.4	 8.2945e+07	      76.5	   15.2235	       2.4	9.00251e+07	   76.5085	    15.232	       2.4	9.13937e+07	    76.517	   15.2235	       2.4	 8.4934e+07	
         R10	   5606	    76.517	    15.198	       2.4	7.64416e+07	      76.5	    15.198	       2.4	7.60672e+07	      76.5	    15.215	       2.4	8.44705e+07	    76.517	    15.215	       2.4	8.18741e+07	   76.5085	    15.198	       2.4	7.60821e+07	      76.5	   15.2065	       2.4	8.00606e+07	   76.5085	    15.215	       2.4	8.28912e+07	    76.517	   15.2065	       2.4	7.90794e+07	
         R10	   5607	    76.517	    15.181	       2.4	7.23473e+07	      76.5	    15.181	       2.4	7.08534e+07	      76.5	    15.198	       2.4	7.61024e+07	    76.517	    15.198	       2.4	7.64248e+07	   76.5085	    15.181	       2.4	7.14513e+07	      76.5	   15.1895	       2.4	 7.3236e+07	   76.5085	    15.198	       2.4	7.60887e+07	    76.517	   15.1895	       2.4	7.42808e+07	
         R10	   5608	    76.517	    15.164	       2.4	6.98922e+07	      76.5	    15.164	       2.4	6.85151e+07	      76.5	    15.181	       2.4	7.08802e+07	    76.517	    15.181	       2.4	7.23596e+07	   76.5085	    15.164	       2.4	6.90302e+07	      76.5	   15.1725	       2.4	6.94494e+07	   76.5085	    15.181	       2.4	7.14686e+07	    76.517	   15.1725	       2.4	7.10015e+07	
         R10	   5609	    76.517	    15.147	       2.4	6.90102e+07	    76.517	     15.13	       2.4	6.94956e+07	      76.5	     15.13	       2.4	 7.0748e+07	      76.5	    15.147	       2.4	 6.8599e+07	    76.517	   15.1385	       2.4	6.91301e+07	   76.5085	     15.13	       2.4	6.98668e+07	      76.5	   15.1385	       2.4	6.94865e+07	   76.5085	    15.147	       2.4	6.85862e+07	
         R10	   5610	    76.551	    15.164	       2.4	6.91071e+07	    76.551	    15.147	       2.4	6.90954e+07	    76.534	    15.147	       2.4	6.95525e+07	    76.534	    15.164	       2.4	7.03816e+07	    76.551	   15.1555	       2.4	6.90631e+07	   76.5425	    15.147	       2.4	6.92638e+07	    76.534	   15.1555	       2.4	 6.9899e+07	   76.5425	    15.164	       2.4	6.97102e+07	
         R10	   5611	    76.568	    15.164	       2.4	6.62494e+07	    76.568	    15.147	       2.4	6.75355e+07	    76.551	    15.147	       2.4	6.90692e+07	    76.551	    15.164	       2.4	6.90646e+07	    76.568	   15.1555	       2.4	6.68666e+07	   76.5595	    15.147	       2.4	6.82595e+07	    76.551	   15.1555	       2.4	6.90283e+07	   76.5595	    15.164	       2.4	6.76307e+07	
         R10	   5612	    76.585	    15.164	       2.4	6.25013e+07	    76.585	    15.147	       2.4	6.51584e+07	    76.568	    15.147	       2.4	6.74892e+07	    76.568	    15.164	       2.4	6.61963e+07	    76.585	   15.1555	       2.4	6.38115e+07	   76.5765	    15.147	       2.4	6.62838e+07	    76.568	   15.1555	       2.4	6.68166e+07	   76.5765	    15.164	       2.4	6.43179e+07	
         R10	   5613	    76.602	    15.164	       2.4	5.85808e+07	    76.602	    15.147	       2.4	6.24677e+07	    76.585	    15.147	       2.4	6.51222e+07	    76.585	    15.164	       2.4	6.24699e+07	    76.602	   15.1555	       2.4	6.05133e+07	   76.5935	    15.147	       2.4	6.37514e+07	    76.585	   15.1555	       2.4	6.37776e+07	   76.5935	    15.164	       2.4	6.04834e+07	
         R10	   5614	    76.619	    15.164	       2.4	5.49731e+07	    76.619	    15.147	       2.4	5.98156e+07	    76.602	    15.147	       2.4	6.24341e+07	    76.602	    15.164	       2.4	5.85512e+07	    76.619	   15.1555	       2.4	  5.739e+07	   76.6105	    15.147	       2.4	6.10775e+07	    76.602	   15.1555	       2.4	6.04816e+07	   76.6105	    15.164	       2.4	5.67082e+07	
         R10	   5615	    76.636	    15.164	       2.4	5.19856e+07	    76.636	    15.147	       2.4	5.74728e+07	    76.619	    15.147	       2.4	5.98242e+07	    76.619	    15.164	       2.4	5.49577e+07	    76.636	   15.1555	       2.4	5.47278e+07	   76.6275	    15.147	       2.4	 5.8598e+07	    76.619	   15.1555	       2.4	5.73865e+07	   76.6275	    15.164	       2.4	 5.3409e+07	
         R10	   5616	    76.653	    15.164	       2.4	 4.9685e+07	    76.653	    15.147	       2.4	5.56128e+07	    76.636	    15.147	       2.4	5.74604e+07	    76.636	    15.164	       2.4	5.20039e+07	    76.653	   15.1555	       2.4	5.26448e+07	   76.6445	    15.147	       2.4	5.64857e+07	    76.636	   15.1555	       2.4	5.47307e+07	   76.6445	    15.164	       2.4	5.07798e+07	
         R10	   5617	    76.653	    15.181	       2.4	4.25246e+07	    76.653	    15.164	       2.4	4.96918e+07	    76.636	    15.164	       2.4	5.20021e+07	    76.636	    15.181	       2.4	4.50172e+07	    76.653	   15.1725	       2.4	4.60986e+07	   76.6445	    15.164	       2.4	 5.0782e+07	    76.636	   15.1725	       2.4	4.85067e+07	   76.6445	    15.181	       2.4	4.36778e+07	
         R10	   5618	    76.636	    15.198	       2.4	3.65001e+07	    76.653	    15.198	       2.4	3.41469e+07	    76.653	    15.181	       2.4	 4.2497e+07	    76.636	    15.181	       2.4	4.50332e+07	   76.6445	    15.198	       2.4	3.51758e+07	    76.653	   15.1895	       2.4	3.82949e+07	   76.6445	    15.181	       2.4	4.36715e+07	    76.636	   15.1895	       2.4	4.07594e+07	
         R10	   5619	    76.636	    15.215	       2.4	2.65269e+07	    76.653	    15.215	       2.4	 2.4959e+07	    76.653	    15.198	       2.4	3.41231e+07	    76.636	    15.198	       2.4	3.64997e+07	   76.6445	    15.215	       2.4	2.54872e+07	    76.653	   15.2065	       2.4	2.94482e+07	   76.6445	    15.198	       2.4	3.51642e+07	    76.636	   15.2065	       2.4	3.14882e+07	
         R10	   5620	    76.636	    15.232	       2.4	1.57961e+07	    76.653	    15.232	       2.4	1.65873e+07	    76.653	    15.215	       2.4	2.49551e+07	    76.636	    15.215	       2.4	2.65029e+07	   76.6445	    15.232	       2.4	 1.5734e+07	    76.653	   15.2235	       2.4	2.03802e+07	   76.6445	    15.215	       2.4	2.54728e+07	    76.636	   15.2235	       2.4	2.10123e+07	
         R10	   5621	    76.636	    15.249	       2.4	8.73367e+06	    76.653	    15.249	       2.4	1.46084e+07	    76.653	    15.232	       2.4	1.66265e+07	    76.636	    15.232	       2.4	1.57464e+07	   76.6445	    15.249	       2.4	1.14107e+07	    76.653	   15.2405	       2.4	1.43376e+07	   76.6445	    15.232	       2.4	 1.5731e+07	    76.636	   15.2405	       2.4	1.09765e+07	
         R10	   5622	    76.636	    15.266	       2.4	1.59964e+07	    76.653	    15.266	       2.4	2.21219e+07	    76.653	    15.249	       2.4	1.46046e+07	    76.636	    15.249	       2.4	8.74101e+06	   76.6445	    15.266	       2.4	1.89557e+07	    76.653	   15.2575	       2.4	1.75626e+07	   76.6445	    15.249	       2.4	1.14149e+07	    76.636	   15.2575	       2.4	1.10084e+07	
         R10	   5623	    76.636	    15.283	       2.4	2.79871e+07	    76.653	    15.283	       2.4	3.32834e+07	    76.653	    15.266	       2.4	2.21488e+07	    76.636	    15.266	       2.4	1.61328e+07	   76.6445	    15.283	       2.4	3.05704e+07	    76.653	   15.2745	       2.4	 2.7472e+07	   76.6445	    15.266	       2.4	1.90411e+07	    76.636	   15.2745	       2.4	2.18678e+07	
         R10	   5624	    76.619	    15.283	       2.4	2.39604e+07	    76.636	    15.283	       2.4	 2.7965e+07	    76.636	    15.266	       2.4	 1.6148e+07	    76.619	    15.266	       2.4	1.15463e+07	   76.6275	    15.283	       2.4	2.58127e+07	    76.636	   15.2745	       2.4	2.18643e+07	   76.6275	    15.266	       2.4	 1.3442e+07	    76.619	   15.2745	       2.4	1.75077e+07	
         R10	   5625	    76.602	    15.266	       2.4	1.25103e+07	    76.602	    15.283	       2.4	2.23503e+07	    76.619	    15.283	       2.4	2.39544e+07	    76.619	    15.266	       2.4	1.16069e+07	    76.602	   15.2745	       2.4	1.63989e+07	   76.6105	    15.283	       2.4	2.28572e+07	    76.619	   15.2745	       2.4	1.75306e+07	   76.6105	    15.266	       2.4	1.11054e+07	
         R10	   5626	    76.585	    15.266	       2.4	2.04151e+07	    76.585	    15.283	       2.4	 2.4404e+07	    76.602	    15.283	       2.4	2.22929e+07	    76.602	    15.266	       2.4	1.25988e+07	    76.585	   15.2745	       2.4	2.04748e+07	   76.5935	    15.283	       2.4	2.29478e+07	    76.602	   15.2745	       2.4	1.64098e+07	   76.5935	    15.266	       2.4	1.59712e+07	
         R10	   5627	    76.568	    15.266	       2.4	3.26635e+07	    76.568	    15.283	       2.4	3.05447e+07	    76.585	    15.283	       2.4	2.43087e+07	    76.585	    15.266	       2.4	2.05087e+07	    76.568	   15.2745	       2.4	2.92651e+07	   76.5765	    15.283	       2.4	2.70467e+07	    76.585	   15.2745	       2.4	2.04838e+07	   76.5765	    15.266	       2.4	2.63372e+07	
         R10	   5628	    76.551	    15.266	       2.4	4.88486e+07	    76.551	    15.283	       2.4	4.00735e+07	    76.568	    15.283	       2.4	3.05387e+07	    76.568	    15.266	       2.4	3.28024e+07	    76.551	   15.2745	       2.4	4.18194e+07	   76.5595	    15.283	       2.4	3.49294e+07	    76.568	   15.2745	       2.4	2.93613e+07	   76.5595	    15.266	       2.4	4.05856e+07	
         R10	   5629	    76.534	    15.266	       2.4	6.86845e+07	    76.534	    15.283	       2.4	5.41271e+07	    76.551	    15.283	       2.4	4.03839e+07	    76.551	    15.266	       2.4	 4.9072e+07	    76.534	   15.2745	       2.4	5.84826e+07	   76.5425	    15.283	       2.4	4.66243e+07	    76.551	   15.2745	       2.4	4.21128e+07	   76.5425	    15.266	       2.4	5.83713e+07	
         R10	   5630	    76.517	    15.266	       2.4	9.19675e+07	    76.517	    15.283	       2.4	7.11349e+07	    76.534	    15.283	       2.4	5.61902e+07	    76.534	    15.266	       2.4	6.95193e+07	    76.517	   15.2745	       2.4	 8.0052e+07	   76.5255	    15.283	       2.4	6.14646e+07	    76.534	   15.2745	       2.4	5.97718e+07	   76.5255	    15.266	       2.4	7.96696e+07	
         R10	   5631	    76.517	    15.249	       2.4	9.28231e+07	    76.517	    15.266	       2.4	 9.1764e+07	    76.534	    15.266	       2.4	6.76048e+07	    76.534	    15.249	       2.4	7.60467e+07	    76.517	   15.2575	       2.4	9.18106e+07	   76.5255	    15.266	       2.4	 7.8598e+07	    76.534	   15.2575	       2.4	7.09114e+07	   76.5255	    15.249	       2.4	8.38701e+07	
         R10	   5632	    76.534	    15.232	       2.4	7.74131e+07	    76.517	    15.232	       2.4	8.80161e+07	    76.517	    15.249	       2.4	9.23084e+07	    76.534	    15.249	       2.4	7.51393e+07	   76.5255	    15.232	       2.4	8.24601e+07	    76.517	   15.2405	       2.4	9.00652e+07	   76.5255	    15.249	       2.4	8.31628e+07	    76.534	   15.2405	       2.4	7.59032e+07	
         R10	   5633	    76.534	    15.215	       2.4	7.61208e+07	    76.517	    15.215	       2.4	8.18793e+07	    76.517	    15.232	       2.4	8.78141e+07	    76.534	    15.232	       2.4	7.68447e+07	   76.5255	    15.215	       2.4	7.88842e+07	    76.517	   15.2235	       2.4	 8.4781e+07	   76.5255	    15.232	       2.4	8.20722e+07	    76.534	   15.2235	       2.4	7.63434e+07	
         R10	   5634	    76.534	    15.198	       2.4	7.40262e+07	    76.517	    15.198	       2.4	7.64325e+07	    76.517	    15.215	       2.4	8.18233e+07	    76.534	    15.215	       2.4	7.58762e+07	   76.5255	    15.198	       2.4	7.51675e+07	    76.517	   15.2065	       2.4	7.90509e+07	   76.5255	    15.215	       2.4	7.87337e+07	    76.534	   15.2065	       2.4	7.48752e+07	
         R10	   5635	    76.534	    15.181	       2.4	 7.1973e+07	    76.517	    15.181	       2.4	7.23739e+07	    76.517	    15.198	       2.4	7.64184e+07	    76.534	    15.198	       2.4	7.39232e+07	   76.5255	    15.181	       2.4	7.21217e+07	    76.517	   15.1895	       2.4	7.42922e+07	   76.5255	    15.198	       2.4	7.51101e+07	    76.534	   15.1895	       2.4	7.28874e+07	
         R10	   5636	    76.517	    15.147	       2.4	6.89947e+07	      76.5	    15.147	       2.4	6.86356e+07	      76.5	    15.164	       2.4	6.85359e+07	    76.517	    15.164	       2.4	6.99087e+07	   76.5085	    15.147	       2.4	6.85984e+07	      76.5	   15.1555	       2.4	6.83584e+07	   76.5085	    15.164	       2.4	6.90469e+07	    76.517	   15.1555	       2.4	6.93216e+07	
         R10	   5637	    76.534	    15.164	       2.4	 7.0408e+07	    76.534	    15.147	       2.4	6.95715e+07	    76.517	    15.147	       2.4	6.90118e+07	    76.517	    15.164	       2.4	 6.9948e+07	    76.534	   15.1555	       2.4	6.99215e+07	   76.5255	    15.147	       2.4	6.91819e+07	    76.517	   15.1555	       2.4	6.93521e+07	   76.5255	    15.164	       2.4	7.01076e+07	
         R10	   5638	    76.568	    15.181	       2.4	 6.4197e+07	    76.568	    15.164	       2.4	6.62968e+07	    76.551	    15.164	       2.4	6.90804e+07	    76.551	    15.181	       2.4	6.89065e+07	    76.568	   15.1725	       2.4	6.52078e+07	   76.5595	    15.164	       2.4	6.76624e+07	    76.551	   15.1725	       2.4	6.89488e+07	   76.5595	    15.181	       2.4	 6.6537e+07	
         R10	   5639	    76.585	    15.181	       2.4	5.86413e+07	    76.585	    15.164	       2.4	6.25535e+07	    76.568	    15.164	       2.4	6.62294e+07	    76.568	    15.181	       2.4	6.41336e+07	    76.585	   15.1725	       2.4	6.05654e+07	   76.5765	    15.164	       2.4	6.43606e+07	    76.568	   15.1725	       2.4	6.51423e+07	   76.5765	    15.181	       2.4	6.13621e+07	
         R10	   5640	    76.602	    15.181	       2.4	5.32323e+07	    76.602	    15.164	       2.4	 5.8609e+07	    76.585	    15.164	       2.4	6.25035e+07	    76.585	    15.181	       2.4	5.85983e+07	    76.602	   15.1725	       2.4	5.59007e+07	   76.5935	    15.164	       2.4	6.05146e+07	    76.585	   15.1725	       2.4	 6.0519e+07	   76.5935	    15.181	       2.4	5.58692e+07	
         R10	   5641	    76.619	    15.181	       2.4	4.85937e+07	    76.619	    15.164	       2.4	5.49967e+07	    76.602	    15.164	       2.4	5.85828e+07	    76.602	    15.181	       2.4	5.32144e+07	    76.619	   15.1725	       2.4	5.17872e+07	   76.6105	    15.164	       2.4	5.67358e+07	    76.602	   15.1725	       2.4	5.58788e+07	   76.6105	    15.181	       2.4	5.08347e+07	
         R10	   5642	    76.636	    15.181	       2.4	 4.5015e+07	    76.636	    15.164	       2.4	5.20002e+07	    76.619	    15.164	       2.4	5.49821e+07	    76.619	    15.181	       2.4	4.85917e+07	    76.636	   15.1725	       2.4	4.85047e+07	   76.6275	    15.164	       2.4	5.34287e+07	    76.619	   15.1725	       2.4	5.17791e+07	   76.6275	    15.181	       2.4	4.67162e+07	
         R10	   5643	    76.636	    15.198	       2.4	 3.6485e+07	    76.636	    15.181	       2.4	4.50211e+07	    76.619	    15.181	       2.4	4.86095e+07	    76.619	    15.198	       2.4	 4.0471e+07	    76.636	   15.1895	       2.4	4.07457e+07	   76.6275	    15.181	       2.4	4.67281e+07	    76.619	   15.1895	       2.4	4.45265e+07	   76.6275	    15.198	       2.4	3.83434e+07	
         R10	   5644	    76.619	    15.215	       2.4	3.05194e+07	    76.636	    15.215	       2.4	2.65135e+07	    76.636	    15.198	       2.4	3.64758e+07	    76.619	    15.198	       2.4	4.04829e+07	   76.6275	    15.215	       2.4	2.82837e+07	    76.636	   15.2065	       2.4	3.14692e+07	   76.6275	    15.198	       2.4	3.83441e+07	    76.619	   15.2065	       2.4	3.54752e+07	
         R10	   5645	    76.619	    15.232	       2.4	1.89685e+07	    76.636	    15.232	       2.4	 1.5759e+07	    76.636	    15.215	       2.4	2.64678e+07	    76.619	    15.215	       2.4	3.05175e+07	   76.6275	    15.232	       2.4	1.68758e+07	    76.636	   15.2235	       2.4	2.09753e+07	   76.6275	    15.215	       2.4	2.82585e+07	    76.619	   15.2235	       2.4	2.46724e+07	
         R10	   5646	    76.619	    15.249	       2.4	7.64651e+06	    76.636	    15.249	       2.4	8.73705e+06	    76.636	    15.232	       2.4	1.57083e+07	    76.619	    15.232	       2.4	 1.8937e+07	   76.6275	    15.249	       2.4	6.93803e+06	    76.636	   15.2405	       2.4	1.09591e+07	   76.6275	    15.232	       2.4	1.68319e+07	    76.619	   15.2405	       2.4	1.27452e+07	
         R10	   5647	    76.619	    15.266	       2.4	1.14329e+07	    76.636	    15.266	       2.4	1.60472e+07	    76.636	    15.249	       2.4	8.78006e+06	    76.619	    15.249	       2.4	7.62263e+06	   76.6275	    15.266	       2.4	1.33295e+07	    76.636	   15.2575	       2.4	1.10588e+07	   76.6275	    15.249	       2.4	6.94708e+06	    76.619	   15.2575	       2.4	 6.6058e+06	
         R10	   5648	    76.602	    15.266	       2.4	1.24338e+07	    76.619	    15.266	       2.4	1.14659e+07	    76.619	    15.249	       2.4	 7.5863e+06	    76.602	    15.249	       2.4	1.51485e+07	   76.6105	    15.266	       2.4	1.09803e+07	    76.619	   15.2575	       2.4	6.62218e+06	   76.6105	    15.249	       2.4	1.08215e+07	    76.602	   15.2575	       2.4	1.13953e+07	
         R10	   5649	    76.585	    15.249	       2.4	2.66402e+07	    76.585	    15.266	       2.4	2.03265e+07	    76.602	    15.266	       2.4	1.24728e+07	    76.602	    15.249	       2.4	1.50983e+07	    76.585	   15.2575	       2.4	2.18971e+07	   76.5935	    15.266	       2.4	1.58727e+07	    76.602	   15.2575	       2.4	1.13865e+07	   76.5935	    15.249	       2.4	2.07775e+07	
         R10	   5650	    76.568	    15.249	       2.4	4.08102e+07	    76.568	    15.266	       2.4	3.25305e+07	    76.585	    15.266	       2.4	2.03848e+07	    76.585	    15.249	       2.4	2.65963e+07	    76.568	   15.2575	       2.4	3.53664e+07	   76.5765	    15.266	       2.4	2.62199e+07	    76.585	   15.2575	       2.4	2.19003e+07	   76.5765	    15.249	       2.4	3.36789e+07	
         R10	   5651	    76.551	    15.249	       2.4	5.73833e+07	    76.551	    15.266	       2.4	 4.8082e+07	    76.568	    15.266	       2.4	3.26668e+07	    76.568	    15.249	       2.4	4.08348e+07	    76.551	   15.2575	       2.4	5.15778e+07	   76.5595	    15.266	       2.4	4.01465e+07	    76.568	   15.2575	       2.4	3.54423e+07	   76.5595	    15.249	       2.4	4.90526e+07	
         R10	   5652	    76.534	    15.249	       2.4	 7.5622e+07	    76.534	    15.266	       2.4	 6.7315e+07	    76.551	    15.266	       2.4	4.84513e+07	    76.551	    15.249	       2.4	5.75806e+07	    76.534	   15.2575	       2.4	7.05319e+07	   76.5425	    15.266	       2.4	5.74513e+07	    76.551	   15.2575	       2.4	5.18422e+07	   76.5425	    15.249	       2.4	6.63882e+07	
         R10	   5653	    76.534	    15.232	       2.4	 7.6839e+07	    76.534	    15.249	       2.4	7.46153e+07	    76.551	    15.249	       2.4	5.72438e+07	    76.551	    15.232	       2.4	6.36262e+07	    76.534	   15.2405	       2.4	 7.5393e+07	   76.5425	    15.249	       2.4	6.57245e+07	    76.551	   15.2405	       2.4	5.99022e+07	   76.5425	    15.232	       2.4	7.01485e+07	
         R10	   5654	    76.551	    15.215	       2.4	6.69337e+07	    76.534	    15.215	       2.4	 7.5864e+07	    76.534	    15.232	       2.4	7.66065e+07	    76.551	    15.232	       2.4	6.32365e+07	   76.5425	    15.215	       2.4	7.13642e+07	    76.534	   15.2235	       2.4	7.60894e+07	   76.5425	    15.232	       2.4	 6.9839e+07	    76.551	   15.2235	       2.4	6.48489e+07	
         R10	   5655	    76.551	    15.198	       2.4	6.85029e+07	    76.534	    15.198	       2.4	7.38763e+07	    76.534	    15.215	       2.4	7.57411e+07	    76.551	    15.215	       2.4	6.66993e+07	   76.5425	    15.198	       2.4	7.11715e+07	    76.534	   15.2065	       2.4	7.47318e+07	   76.5425	    15.215	       2.4	7.11854e+07	    76.551	   15.2065	       2.4	 6.7486e+07	
         R10	   5656	    76.534	    15.164	       2.4	7.04124e+07	    76.517	    15.164	       2.4	6.99305e+07	    76.517	    15.181	       2.4	7.23799e+07	    76.534	    15.181	       2.4	7.19348e+07	   76.5255	    15.164	       2.4	   7.01e+07	    76.517	   15.1725	       2.4	7.10322e+07	   76.5255	    15.181	       2.4	7.21068e+07	    76.534	   15.1725	       2.4	7.11106e+07	
         R10	   5657	    76.551	    15.181	       2.4	6.89752e+07	    76.551	    15.164	       2.4	6.91473e+07	    76.534	    15.164	       2.4	7.03881e+07	    76.534	    15.181	       2.4	7.18955e+07	    76.551	   15.1725	       2.4	 6.9017e+07	   76.5425	    15.164	       2.4	6.97334e+07	    76.534	   15.1725	       2.4	7.10784e+07	   76.5425	    15.181	       2.4	 7.0416e+07	
         R10	   5658	    76.585	    15.198	       2.4	5.31949e+07	    76.585	    15.181	       2.4	 5.8701e+07	    76.568	    15.181	       2.4	6.41876e+07	    76.568	    15.198	       2.4	6.08963e+07	    76.585	   15.1895	       2.4	 5.5888e+07	   76.5765	    15.181	       2.4	6.14191e+07	    76.568	   15.1895	       2.4	6.24729e+07	   76.5765	    15.198	       2.4	5.70239e+07	
         R10	   5659	    76.602	    15.198	       2.4	4.61266e+07	    76.602	    15.181	       2.4	5.32697e+07	    76.585	    15.181	       2.4	5.86484e+07	    76.585	    15.198	       2.4	5.31526e+07	    76.602	   15.1895	       2.4	4.96612e+07	   76.5935	    15.181	       2.4	5.59132e+07	    76.585	   15.1895	       2.4	5.58412e+07	   76.5935	    15.198	       2.4	4.95833e+07	
         R10	   5660	    76.619	    15.198	       2.4	4.04648e+07	    76.619	    15.181	       2.4	4.86084e+07	    76.602	    15.181	       2.4	5.32485e+07	    76.602	    15.198	       2.4	4.61159e+07	    76.619	   15.1895	       2.4	4.45227e+07	   76.6105	    15.181	       2.4	5.08591e+07	    76.602	   15.1895	       2.4	4.96456e+07	   76.6105	    15.198	       2.4	4.31907e+07	
         R10	   5661	    76.619	    15.215	       2.4	3.04995e+07	    76.619	    15.198	       2.4	4.04642e+07	    76.602	    15.198	       2.4	4.61509e+07	    76.602	    15.215	       2.4	3.70673e+07	    76.619	   15.2065	       2.4	3.54556e+07	   76.6105	    15.198	       2.4	4.32078e+07	    76.602	   15.2065	       2.4	4.15385e+07	   76.6105	    15.215	       2.4	3.36266e+07	
         R10	   5662	    76.602	    15.232	       2.4	2.62382e+07	    76.619	    15.232	       2.4	1.89342e+07	    76.619	    15.215	       2.4	3.04774e+07	    76.602	    15.215	       2.4	3.70952e+07	   76.6105	    15.232	       2.4	 2.2321e+07	    76.619	   15.2235	       2.4	2.46345e+07	   76.6105	    15.215	       2.4	3.36291e+07	    76.602	   15.2235	       2.4	3.15072e+07	
         R10	   5663	    76.602	    15.249	       2.4	1.51781e+07	    76.619	    15.249	       2.4	7.61661e+06	    76.619	    15.232	       2.4	1.88759e+07	    76.602	    15.232	       2.4	2.62412e+07	   76.6105	    15.249	       2.4	1.08584e+07	    76.619	   15.2405	       2.4	1.26952e+07	   76.6105	    15.232	       2.4	 2.2292e+07	    76.602	   15.2405	       2.4	 2.0153e+07	
         R10	   5664	    76.585	    15.249	       2.4	2.65781e+07	    76.602	    15.249	       2.4	 1.5144e+07	    76.602	    15.232	       2.4	2.61775e+07	    76.585	    15.232	       2.4	3.66752e+07	   76.5935	    15.249	       2.4	2.07699e+07	    76.602	   15.2405	       2.4	2.01023e+07	   76.5935	    15.232	       2.4	3.13377e+07	    76.585	   15.2405	       2.4	 3.1033e+07	
         R10	   5665	    76.568	    15.232	       2.4	 4.9386e+07	    76.568	    15.249	       2.4	4.05909e+07	    76.585	    15.249	       2.4	2.65971e+07	    76.585	    15.232	       2.4	 3.6655e+07	    76.568	   15.2405	       2.4	 4.4407e+07	   76.5765	    15.249	       2.4	3.35707e+07	    76.585	   15.2405	       2.4	3.10288e+07	   76.5765	    15.232	       2.4	4.30102e+07	
         R10	   5666	    76.551	    15.232	       2.4	6.33323e+07	    76.551	    15.249	       2.4	5.68906e+07	    76.568	    15.249	       2.4	4.07194e+07	    76.568	    15.232	       2.4	4.94622e+07	    76.551	   15.2405	       2.4	5.95988e+07	   76.5595	    15.249	       2.4	4.87532e+07	    76.568	   15.2405	       2.4	4.45009e+07	   76.5595	    15.232	       2.4	5.63887e+07	
         R10	   5667	    76.551	    15.215	       2.4	6.67225e+07	    76.551	    15.232	       2.4	6.30346e+07	    76.568	    15.232	       2.4	   4.93e+07	    76.568	    15.215	       2.4	5.62818e+07	    76.551	   15.2235	       2.4	6.46446e+07	   76.5595	    15.232	       2.4	5.61597e+07	    76.568	   15.2235	       2.4	5.25159e+07	   76.5595	    15.215	       2.4	6.14991e+07	
         R10	   5668	    76.551	    15.181	       2.4	6.90509e+07	    76.534	    15.181	       2.4	7.19047e+07	    76.534	    15.198	       2.4	7.38372e+07	    76.551	    15.198	       2.4	  6.836e+07	   76.5425	    15.181	       2.4	7.04586e+07	    76.534	   15.1895	       2.4	7.28087e+07	   76.5425	    15.198	       2.4	7.10801e+07	    76.551	   15.1895	       2.4	6.86423e+07	
         R10	   5669	    76.568	    15.198	       2.4	6.09769e+07	    76.568	    15.181	       2.4	6.42752e+07	    76.551	    15.181	       2.4	6.89484e+07	    76.551	    15.198	       2.4	6.82538e+07	    76.568	   15.1895	       2.4	6.25568e+07	   76.5595	    15.181	       2.4	6.65972e+07	    76.551	   15.1895	       2.4	6.85372e+07	   76.5595	    15.198	       2.4	6.46079e+07	
         R10	   5670	    76.602	    15.215	       2.4	3.70646e+07	    76.602	    15.198	       2.4	4.61532e+07	    76.585	    15.198	       2.4	5.32169e+07	    76.585	    15.215	       2.4	4.58213e+07	    76.602	   15.2065	       2.4	4.15375e+07	   76.5935	    15.198	       2.4	4.96289e+07	    76.585	   15.2065	       2.4	4.94033e+07	   76.5935	    15.215	       2.4	4.13696e+07	
         R10	   5671	    76.585	    15.232	       2.4	3.65975e+07	    76.602	    15.232	       2.4	2.62164e+07	    76.602	    15.215	       2.4	3.70665e+07	    76.585	    15.215	       2.4	4.58998e+07	   76.5935	    15.232	       2.4	3.13176e+07	    76.602	   15.2235	       2.4	3.14801e+07	   76.5935	    15.215	       2.4	4.14102e+07	    76.585	   15.2235	       2.4	4.10057e+07	
         R10	   5672	    76.568	    15.215	       2.4	5.61743e+07	    76.568	    15.232	       2.4	4.91901e+07	    76.585	    15.232	       2.4	3.66276e+07	    76.585	    15.215	       2.4	4.59235e+07	    76.568	   15.2235	       2.4	 5.2412e+07	   76.5765	    15.232	       2.4	4.28978e+07	    76.585	   15.2235	       2.4	4.10291e+07	   76.5765	    15.215	       2.4	5.10319e+07	
         R10	   5673	    76.568	    15.198	       2.4	6.10931e+07	    76.551	    15.198	       2.4	6.83358e+07	    76.551	    15.215	       2.4	 6.6552e+07	    76.568	    15.215	       2.4	5.61371e+07	   76.5595	    15.198	       2.4	6.47072e+07	    76.551	   15.2065	       2.4	6.73298e+07	   76.5595	    15.215	       2.4	6.13414e+07	    76.568	   15.2065	       2.4	5.84803e+07	
         R10	   5674	    76.585	    15.198	       2.4	5.32654e+07	    76.568	    15.198	       2.4	 6.0983e+07	    76.568	    15.215	       2.4	5.60394e+07	    76.585	    15.215	       2.4	4.58599e+07	   76.5765	    15.198	       2.4	5.71028e+07	    76.568	   15.2065	       2.4	5.83782e+07	   76.5765	    15.215	       2.4	5.09322e+07	    76.585	   15.2065	       2.4	4.94454e+07	
         R10	   5675	      76.5	   15.3687	   1.73882	1.30359e+07	      76.5	      15.3	   1.75401	1.20233e+07	      76.5	      15.3	   1.82323	  1.276e+07	      76.5	   15.3662	   1.81951	1.37685e+07	      76.5	   15.3343	   1.74641	1.20801e+07	      76.5	      15.3	   1.78862	1.20525e+07	      76.5	   15.3331	   1.82137	1.30865e+07	      76.5	   15.3674	   1.77917	1.33386e+07	
         R10	   5676	      76.5	   15.3662	   1.81951	1.49396e+07	      76.5	      15.3	   1.82323	1.24698e+07	      76.5	      15.3	   1.88726	1.45914e+07	      76.5	   15.3619	   1.88534	1.69888e+07	      76.5	   15.3331	   1.82137	1.35415e+07	      76.5	      15.3	   1.85525	1.34517e+07	      76.5	    15.331	    1.8863	1.56525e+07	      76.5	    15.364	   1.85243	 1.5879e+07	
         R10	   5677	      76.5	   15.3619	   1.88534	1.72591e+07	      76.5	      15.3	   1.88726	1.44509e+07	      76.5	      15.3	    1.9461	1.72461e+07	      76.5	   15.3567	   1.94418	1.98577e+07	      76.5	    15.331	    1.8863	1.57104e+07	      76.5	      15.3	   1.91668	1.57789e+07	      76.5	   15.3283	   1.94514	1.84423e+07	      76.5	   15.3593	   1.91476	1.85189e+07	
         R10	   5678	      76.5	   15.3567	   1.94418	 1.9963e+07	      76.5	      15.3	    1.9461	1.72366e+07	      76.5	      15.3	   1.99975	2.04638e+07	      76.5	   15.3514	   1.99781	2.30935e+07	      76.5	   15.3283	   1.94514	1.84879e+07	      76.5	      15.3	   1.97293	1.88109e+07	      76.5	   15.3257	   1.99878	2.16837e+07	      76.5	   15.3541	   1.97099	2.14944e+07	
         R10	   5679	      76.5	   15.3514	   1.99781	2.31344e+07	      76.5	      15.3	   1.99975	2.04527e+07	      76.5	      15.3	   2.04821	2.40399e+07	      76.5	   15.3465	   2.04651	2.66609e+07	      76.5	   15.3257	   1.99878	2.16966e+07	      76.5	      15.3	   2.02398	2.22198e+07	      76.5	   15.3233	   2.04736	2.52644e+07	      76.5	    15.349	   2.02216	2.48739e+07	
         R10	   5680	      76.5	   15.3465	   2.04651	2.66787e+07	      76.5	      15.3	   2.04821	2.40354e+07	      76.5	      15.3	   2.09149	2.78883e+07	      76.5	    15.342	   2.08988	3.04985e+07	      76.5	   15.3233	   2.04736	2.52699e+07	      76.5	      15.3	   2.06985	 2.5944e+07	      76.5	    15.321	   2.09068	2.91143e+07	      76.5	   15.3443	    2.0682	2.85717e+07	
         R10	   5681	      76.5	    15.342	   2.08988	3.05059e+07	      76.5	      15.3	   2.09149	2.78863e+07	      76.5	      15.3	   2.12957	3.19092e+07	      76.5	   15.3373	   2.12784	3.44532e+07	      76.5	    15.321	   2.09068	2.91162e+07	      76.5	      15.3	   2.11053	2.98854e+07	      76.5	   15.3186	   2.12871	3.31101e+07	      76.5	   15.3397	   2.10886	3.24677e+07	
         R10	   5682	      76.5	   15.3373	   2.12784	3.44687e+07	      76.5	      15.3	   2.12957	 3.1907e+07	      76.5	      15.3	   2.16246	 3.6001e+07	      76.5	   15.3318	   2.16055	3.83549e+07	      76.5	   15.3186	   2.12871	3.31162e+07	      76.5	      15.3	   2.14601	3.39454e+07	      76.5	   15.3159	   2.16151	3.71186e+07	      76.5	   15.3345	    2.1442	3.64032e+07	
         R10	   5683	      76.5	   15.3318	   2.16055	 3.8391e+07	      76.5	      15.3	   2.16246	    3.6e+07	      76.5	      15.3	   2.19016	4.00148e+07	      76.5	   15.3262	   2.18837	4.21614e+07	      76.5	   15.3159	   2.16151	3.71364e+07	      76.5	      15.3	   2.17631	3.80015e+07	      76.5	   15.3131	   2.18927	4.10419e+07	      76.5	    15.329	   2.17446	4.02701e+07	
         R10	   5684	      76.5	   15.3262	   2.18837	4.21745e+07	      76.5	      15.3	   2.19016	4.00232e+07	      76.5	      15.3	   2.21268	4.37597e+07	      76.5	   15.3214	   2.21456	4.63876e+07	      76.5	   15.3131	   2.18927	4.10523e+07	      76.5	      15.3	   2.20142	4.18878e+07	      76.5	   15.3107	   2.21362	4.50374e+07	      76.5	   15.3238	   2.20147	4.42758e+07	
         R10	   5685	      76.5	   15.3214	   2.21456	4.63787e+07	      76.5	      15.3	   2.21268	4.37662e+07	      76.5	      15.3	      2.23	4.70694e+07	      76.5	   15.3141	   2.23981	5.07663e+07	      76.5	   15.3107	   2.21362	4.50357e+07	      76.5	      15.3	   2.22134	4.54155e+07	      76.5	   15.3071	    2.2349	4.88976e+07	      76.5	   15.3178	   2.22718	4.85668e+07	
         R10	   5686	      76.5	    15.337	   2.23521	5.24452e+07	      76.5	   15.3283	   2.24961	5.49919e+07	      76.5	   15.3424	   2.25942	5.93431e+07	      76.5	   15.3523	   2.24433	5.62443e+07	      76.5	   15.3326	   2.24241	5.37137e+07	      76.5	   15.3354	   2.25452	5.71283e+07	      76.5	   15.3474	   2.25187	5.77886e+07	      76.5	   15.3446	   2.23977	5.43052e+07	
         R10	   5687	      76.5	   15.3523	   2.24433	 5.6252e+07	      76.5	   15.3424	   2.25942	5.93355e+07	      76.5	   15.3566	   2.26923	6.37806e+07	      76.5	   15.3646	   2.25493	6.01592e+07	      76.5	   15.3474	   2.25187	5.77889e+07	      76.5	   15.3495	   2.26432	 6.1505e+07	      76.5	   15.3606	   2.26208	6.19679e+07	      76.5	   15.3585	   2.24963	5.81664e+07	
         R10	   5688	      76.5	   15.3646	   2.25493	6.02913e+07	      76.5	   15.3566	   2.26923	6.38384e+07	      76.5	   15.3707	   2.27903	6.81185e+07	      76.5	    15.381	     2.265	6.40567e+07	      76.5	   15.3606	   2.26208	6.20628e+07	      76.5	   15.3636	   2.27413	6.59086e+07	      76.5	   15.3758	   2.27202	6.60848e+07	      76.5	   15.3728	   2.25996	6.21039e+07	
         R10	   5689	      76.5	    15.381	     2.265	6.41487e+07	      76.5	   15.3707	   2.27903	 6.8081e+07	      76.5	   15.3848	   2.28884	  7.187e+07	      76.5	   15.3943	   2.27234	6.66758e+07	      76.5	   15.3758	   2.27202	 6.6112e+07	      76.5	   15.3778	   2.28393	6.98917e+07	      76.5	   15.3896	   2.28059	6.92708e+07	      76.5	   15.3876	   2.26867	6.53586e+07	
         R10	   5690	      76.5	   15.3943	   2.27234	6.66173e+07	      76.5	   15.3848	   2.28884	7.19418e+07	      76.5	    15.399	   2.29864	7.49485e+07	      76.5	   15.4075	   2.28366	6.99828e+07	      76.5	   15.3896	   2.28059	 6.9277e+07	      76.5	   15.3919	   2.29374	7.33477e+07	      76.5	   15.4032	   2.29115	7.24605e+07	      76.5	   15.4009	     2.278	6.82245e+07	
         R10	   5691	      76.5	   15.4075	   2.28366	7.00628e+07	      76.5	    15.399	   2.29864	7.49792e+07	      76.5	   15.4131	   2.30845	7.71548e+07	      76.5	   15.4241	   2.29331	7.18102e+07	      76.5	   15.4032	   2.29115	7.25161e+07	      76.5	   15.4061	   2.30355	7.59654e+07	      76.5	   15.4186	   2.30088	7.44766e+07	      76.5	   15.4158	   2.28849	7.08403e+07	
         R10	   5692	      76.5	   15.4241	   2.29331	7.18396e+07	      76.5	   15.4131	   2.30845	 7.7106e+07	      76.5	   15.4273	   2.31826	7.83331e+07	      76.5	   15.4366	   2.30084	7.28064e+07	      76.5	   15.4186	   2.30088	7.44671e+07	      76.5	   15.4202	   2.31335	7.76219e+07	      76.5	    15.432	   2.30955	7.55488e+07	      76.5	   15.4304	   2.29708	7.22699e+07	
         R10	   5693	      76.5	   15.4366	   2.30084	7.28482e+07	      76.5	   15.4273	   2.31826	7.83201e+07	      76.5	   15.4414	   2.32806	7.86703e+07	      76.5	   15.4515	   2.31319	7.40907e+07	      76.5	    15.432	   2.30955	 7.5563e+07	      76.5	   15.4343	   2.32316	7.84037e+07	      76.5	   15.4465	   2.32063	7.63637e+07	      76.5	   15.4441	   2.30702	7.33721e+07	
         R10	   5694	      76.5	   15.4515	   2.31319	7.40304e+07	      76.5	   15.4414	   2.32806	7.86445e+07	      76.5	   15.4555	   2.33787	7.82759e+07	      76.5	   15.4656	   2.32337	7.41759e+07	      76.5	   15.4465	   2.32063	7.63209e+07	      76.5	   15.4485	   2.33297	7.83821e+07	      76.5	   15.4606	   2.33062	7.62059e+07	      76.5	   15.4586	   2.31828	 7.4035e+07	
         R10	   5695	      76.5	   15.4656	   2.32337	 7.4155e+07	      76.5	   15.4555	   2.33787	7.82425e+07	      76.5	   15.4697	   2.34768	7.73343e+07	      76.5	   15.4797	   2.33317	7.37152e+07	      76.5	   15.4606	   2.33062	7.61788e+07	      76.5	   15.4626	   2.34277	7.77237e+07	      76.5	   15.4747	   2.34042	7.55013e+07	      76.5	   15.4727	   2.32827	7.38786e+07	
         R10	   5696	      76.5	   15.4797	   2.33317	7.36986e+07	      76.5	   15.4697	   2.34768	7.73017e+07	      76.5	   15.4838	   2.35748	7.60102e+07	      76.5	   15.4939	   2.34298	7.28901e+07	      76.5	   15.4747	   2.34042	7.54768e+07	      76.5	   15.4768	   2.35258	7.66039e+07	      76.5	   15.4889	   2.35023	7.44246e+07	      76.5	   15.4868	   2.33808	7.32472e+07	
         R10	   5697	      76.5	   15.4939	   2.34298	7.28754e+07	      76.5	   15.4838	   2.35748	7.59861e+07	      76.5	    15.498	   2.36729	7.44589e+07	      76.5	    15.508	   2.35279	7.18012e+07	      76.5	   15.4889	   2.35023	7.44052e+07	      76.5	   15.4909	   2.36239	7.51815e+07	      76.5	    15.503	   2.36004	7.31036e+07	      76.5	    15.501	   2.34788	7.22998e+07	
         R10	   5698	      76.5	    15.508	   2.35279	7.17949e+07	      76.5	    15.498	   2.36729	7.44387e+07	      76.5	   15.5121	   2.37709	7.27906e+07	      76.5	   15.5228	   2.36281	7.04721e+07	      76.5	    15.503	   2.36004	7.30904e+07	      76.5	    15.505	   2.37219	 7.3583e+07	      76.5	   15.5175	   2.36995	7.16066e+07	      76.5	   15.5154	    2.3578	7.11007e+07	
         R10	   5699	      76.5	   15.5228	   2.36281	7.04979e+07	      76.5	   15.5121	   2.37709	7.27679e+07	      76.5	   15.5263	    2.3869	 7.1063e+07	      76.5	   15.5376	   2.37521	6.91786e+07	      76.5	   15.5175	   2.36995	7.16079e+07	      76.5	   15.5192	     2.382	7.18907e+07	      76.5	   15.5319	   2.38105	 7.0105e+07	      76.5	   15.5302	   2.36901	6.98031e+07	
         R10	   5700	      76.5	   15.5467	   2.42018	6.86786e+07	      76.5	   15.5285	   2.40889	7.10493e+07	      76.5	   15.5167	   2.42108	7.25856e+07	      76.5	   15.5316	   2.43326	 7.0228e+07	      76.5	   15.5376	   2.41454	6.98457e+07	      76.5	   15.5226	   2.41498	7.17945e+07	      76.5	   15.5242	   2.42717	 7.1387e+07	      76.5	   15.5391	   2.42672	6.94279e+07	
         R10	   5701	      76.5	   15.5316	   2.43326	 7.0278e+07	      76.5	   15.5167	   2.42108	7.25914e+07	      76.5	   15.5048	   2.43326	7.39204e+07	      76.5	   15.5178	   2.44575	7.14814e+07	      76.5	   15.5242	   2.42717	7.14151e+07	      76.5	   15.5108	   2.42717	7.32297e+07	      76.5	   15.5113	    2.4395	7.26811e+07	      76.5	   15.5247	   2.43951	7.08535e+07	
         R10	   5702	      76.5	   15.5178	   2.44575	7.15211e+07	      76.5	   15.5048	   2.43326	7.39256e+07	      76.5	    15.493	   2.44544	7.49478e+07	      76.5	   15.5061	   2.45739	7.22324e+07	      76.5	   15.5113	    2.4395	7.27043e+07	      76.5	   15.4989	   2.43935	7.44077e+07	      76.5	   15.4996	   2.45142	7.35737e+07	      76.5	    15.512	   2.45157	7.18524e+07	
         R10	   5703	      76.5	   15.5061	   2.45739	7.22475e+07	      76.5	    15.493	   2.44544	7.49562e+07	      76.5	   15.4811	   2.45763	 7.5558e+07	      76.5	   15.4939	   2.46863	 7.2748e+07	      76.5	   15.4996	   2.45142	7.35862e+07	      76.5	    15.487	   2.45154	7.52256e+07	      76.5	   15.4875	   2.46313	7.41419e+07	      76.5	      15.5	   2.46301	7.24738e+07	
         R10	   5704	      76.5	   15.4939	   2.46863	 7.2746e+07	      76.5	   15.4811	   2.45763	7.55733e+07	      76.5	   15.4693	   2.46981	7.55862e+07	      76.5	   15.4827	   2.48074	7.26707e+07	      76.5	   15.4875	   2.46313	7.41486e+07	      76.5	   15.4752	   2.46372	7.55475e+07	      76.5	    15.476	   2.47528	7.41203e+07	      76.5	   15.4883	   2.47469	7.26824e+07	
         R10	   5705	      76.5	   15.4827	   2.48074	7.26813e+07	      76.5	   15.4693	   2.46981	7.55994e+07	      76.5	   15.4574	     2.482	7.50179e+07	      76.5	   15.4712	   2.49513	7.17224e+07	      76.5	    15.476	   2.47528	7.41324e+07	      76.5	   15.4633	   2.47591	7.52778e+07	      76.5	   15.4643	   2.48856	7.33613e+07	      76.5	   15.4769	   2.48794	7.21707e+07	
         R10	   5706	      76.5	   15.4712	   2.49513	7.17342e+07	      76.5	   15.4574	     2.482	 7.5003e+07	      76.5	   15.4456	   2.49418	 7.3691e+07	      76.5	   15.4602	   2.50524	7.09897e+07	      76.5	   15.4643	   2.48856	7.33598e+07	      76.5	   15.4515	   2.48809	7.43219e+07	      76.5	   15.4529	   2.49971	 7.2337e+07	      76.5	   15.4657	   2.50019	7.13478e+07	
         R10	   5707	      76.5	   15.4602	   2.50524	7.09022e+07	      76.5	   15.4456	   2.49418	7.37224e+07	      76.5	   15.4337	   2.50637	7.18302e+07	      76.5	   15.4462	    2.5201	6.92718e+07	      76.5	   15.4529	   2.49971	7.23083e+07	      76.5	   15.4396	   2.50027	7.27574e+07	      76.5	     15.44	   2.51323	7.05464e+07	      76.5	   15.4532	   2.51267	7.00699e+07	
         R10	   5708	      76.5	   15.4462	    2.5201	6.89844e+07	      76.5	   15.4337	   2.50637	 7.1628e+07	      76.5	   15.4218	   2.51855	6.97272e+07	      76.5	   15.4344	   2.53078	6.77849e+07	      76.5	     15.44	   2.51323	 7.0304e+07	      76.5	   15.4278	   2.51246	 7.0669e+07	      76.5	   15.4281	   2.52466	6.87554e+07	      76.5	   15.4403	   2.52544	6.83791e+07	
         R10	   5709	      76.5	   15.4462	    2.5201	6.92211e+07	      76.5	   15.4344	   2.53078	6.87752e+07	      76.5	   15.4512	   2.54714	6.46237e+07	      76.5	   15.4726	   2.52798	6.74434e+07	      76.5	   15.4403	   2.52544	6.89962e+07	      76.5	   15.4428	   2.53896	6.66834e+07	      76.5	   15.4619	   2.53756	6.60031e+07	      76.5	   15.4594	   2.52404	6.83298e+07	
         R10	   5710	      76.5	   15.4726	   2.52798	6.69466e+07	      76.5	   15.4512	   2.54714	6.60821e+07	      76.5	   15.4723	   2.56762	6.31349e+07	      76.5	   15.4958	   2.54589	6.45561e+07	      76.5	   15.4619	   2.53756	6.65045e+07	      76.5	   15.4618	   2.55738	6.45986e+07	      76.5	    15.484	   2.55676	6.38211e+07	      76.5	   15.4842	   2.53693	6.57476e+07	
         R10	   5711	      76.5	   15.4958	   2.54589	6.44006e+07	      76.5	   15.4723	   2.56762	6.37919e+07	      76.5	   15.4976	   2.59224	6.07195e+07	      76.5	   15.5257	   2.56725	6.18567e+07	      76.5	    15.484	   2.55676	6.40823e+07	      76.5	   15.4849	   2.57993	6.22486e+07	      76.5	   15.5116	   2.57975	6.12567e+07	      76.5	   15.5107	   2.55657	6.31248e+07	
         R10	   5712	      76.5	   15.5257	   2.56725	6.16518e+07	      76.5	   15.4976	   2.59224	6.17138e+07	      76.5	   15.5271	     2.621	5.88544e+07	      76.5	   15.5601	   2.59072	5.94075e+07	      76.5	   15.5116	   2.57975	6.16688e+07	      76.5	   15.5124	   2.60662	6.02752e+07	      76.5	   15.5436	   2.60586	5.90904e+07	      76.5	   15.5429	   2.57899	6.05257e+07	
         R10	   5713	      76.5	   15.5601	   2.59072	 5.9207e+07	      76.5	   15.5271	     2.621	5.95488e+07	      76.5	   15.5609	   2.65388	5.73706e+07	      76.5	   15.5977	   2.61892	 5.7066e+07	      76.5	   15.5436	   2.60586	5.93533e+07	      76.5	    15.544	   2.63744	5.84555e+07	      76.5	   15.5793	    2.6364	5.71752e+07	      76.5	   15.5789	   2.60482	5.81322e+07	
         R10	   5714	      76.5	   15.5977	   2.61892	5.69744e+07	      76.5	   15.5609	   2.65388	5.75198e+07	      76.5	    15.599	   2.69089	5.63099e+07	      76.5	   15.6389	   2.65253	5.48455e+07	      76.5	   15.5793	    2.6364	5.72082e+07	      76.5	     15.58	   2.67238	5.69129e+07	      76.5	   15.6189	   2.67171	5.55329e+07	      76.5	   15.6183	   2.63573	5.59058e+07	
         R10	   5715	      76.5	   15.6389	   2.65253	5.49582e+07	      76.5	    15.599	   2.69089	5.56788e+07	      76.5	   15.6413	   2.73204	5.54086e+07	      76.5	   15.6855	   2.69013	5.30935e+07	      76.5	   15.6189	   2.67171	 5.5255e+07	      76.5	   15.6201	   2.71146	5.55379e+07	      76.5	   15.6634	   2.71108	5.41873e+07	      76.5	   15.6622	   2.67133	5.40169e+07	
         R10	   5716	      76.5	   15.6855	   2.69013	5.34433e+07	      76.5	   15.6413	   2.73204	5.45243e+07	      76.5	   15.6878	   2.77731	5.50258e+07	      76.5	    15.737	    2.7305	5.16564e+07	      76.5	   15.6634	   2.71108	 5.3883e+07	      76.5	   15.6645	   2.75467	5.47581e+07	      76.5	   15.7124	    2.7539	5.32118e+07	      76.5	   15.7112	   2.71031	5.25207e+07	
         R10	   5717	      76.5	    15.737	    2.7305	5.19109e+07	      76.5	   15.6878	   2.77731	5.41284e+07	      76.5	   15.7386	   2.82672	5.31353e+07	      76.5	   15.7874	   2.77603	5.50637e+07	      76.5	   15.7124	    2.7539	 5.2823e+07	      76.5	   15.7132	   2.80201	5.35719e+07	      76.5	    15.763	   2.80137	5.37198e+07	      76.5	   15.7622	   2.75326	5.33764e+07	
         R10	   5718	      76.5	   15.7874	   2.77603	5.44838e+07	      76.5	   15.7386	   2.82672	5.56648e+07	      76.5	   15.7936	   2.88026	6.00486e+07	      76.5	   15.8419	   2.82919	5.72222e+07	      76.5	    15.763	   2.80137	5.46105e+07	      76.5	   15.7661	   2.85349	5.75974e+07	      76.5	   15.8178	   2.85472	5.81467e+07	      76.5	   15.8147	   2.80261	 5.5556e+07	
         R10	   5719	      76.5	   15.8419	   2.82919	5.48878e+07	      76.5	   15.7936	   2.88026	 6.3676e+07	      76.5	   15.8529	   2.93793	4.95812e+07	      76.5	   15.9033	   2.87798	1.22529e+08	      76.5	   15.8178	   2.85472	5.77695e+07	      76.5	   15.8232	   2.90909	5.36887e+07	      76.5	   15.8781	   2.90795	8.14607e+07	      76.5	   15.8726	   2.85359	 8.7862e+07	
         R10	   5720	      76.5	   15.9033	   2.87798	  1.148e+08	      76.5	   15.8529	   2.93793	1.08246e+08	      76.5	   15.9164	   2.99973	2.62615e+08	      76.5	   15.9593	   2.92175	1.60036e+08	      76.5	   15.8781	   2.90795	1.01359e+08	      76.5	   15.8846	   2.96883	1.56088e+08	      76.5	   15.9378	   2.96074	2.06069e+08	      76.5	   15.9313	   2.89986	1.32678e+08	
         R10	   5721	      76.5	   15.9033	   2.87798	1.10463e+08	      76.5	   15.9593	   2.92175	1.68403e+08	      76.5	   16.0036	   2.84119	 1.1745e+08	      76.5	   15.9321	   2.79079	 9.3206e+07	      76.5	   15.9313	   2.89986	1.32457e+08	      76.5	   15.9814	   2.88147	 1.4239e+08	      76.5	   15.9679	   2.81599	1.04891e+08	      76.5	   15.9177	   2.83439	1.00268e+08	
         R10	   5722	      76.5	   15.9321	   2.79079	9.18687e+07	      76.5	   16.0036	   2.84119	1.16611e+08	      76.5	   16.0493	   2.75805	9.32312e+07	      76.5	   15.9769	   2.70814	8.17596e+07	      76.5	   15.9679	   2.81599	1.03286e+08	      76.5	   16.0265	   2.79962	1.04883e+08	      76.5	   16.0131	   2.73309	8.71432e+07	      76.5	   15.9545	   2.74947	8.67527e+07	
         R10	   5723	      76.5	   15.9769	   2.70814	8.19637e+07	      76.5	   16.0493	   2.75805	9.45141e+07	      76.5	   16.0965	   2.67232	7.97516e+07	      76.5	    16.012	   2.62473	7.43568e+07	      76.5	   16.0131	   2.73309	8.78246e+07	      76.5	   16.0729	   2.71519	 8.7109e+07	      76.5	   16.0542	   2.64853	7.68145e+07	      76.5	   15.9945	   2.66643	7.81586e+07	
         R10	   5724	      76.5	    16.012	   2.62473	7.41571e+07	      76.5	   16.0965	   2.67232	8.01653e+07	      76.5	    16.145	   2.58402	 7.0347e+07	      76.5	   16.0584	   2.53504	6.69225e+07	      76.5	   16.0542	   2.64853	7.69047e+07	      76.5	   16.1208	   2.62817	7.52048e+07	      76.5	   16.1017	   2.55953	6.84924e+07	      76.5	   16.0352	   2.57989	7.05252e+07	
         R10	   5725	      76.5	   16.0584	   2.53504	6.68747e+07	      76.5	    16.145	   2.58402	7.04609e+07	      76.5	    16.195	   2.49314	6.29377e+07	      76.5	   16.1062	   2.44317	6.03281e+07	      76.5	   16.1017	   2.55953	6.85201e+07	      76.5	     16.17	   2.53858	6.66321e+07	      76.5	   16.1506	   2.46816	6.15268e+07	      76.5	   16.0823	   2.48911	6.35532e+07	
         R10	   5726	      76.5	   16.1062	   2.44317	 6.0327e+07	      76.5	    16.195	   2.49314	6.30042e+07	      76.5	   16.2464	   2.39967	5.69086e+07	      76.5	   16.1551	   2.34774	5.43646e+07	      76.5	   16.1506	   2.46816	6.15568e+07	      76.5	   16.2207	    2.4464	5.98753e+07	      76.5	   16.2008	   2.37371	5.55427e+07	      76.5	   16.1307	   2.39546	5.72681e+07	
         R10	   5727	      76.5	   16.1551	   2.34774	5.43838e+07	      76.5	   16.2464	   2.39967	5.69107e+07	      76.5	   16.2993	   2.30363	5.17741e+07	      76.5	   16.2041	   2.24944	4.93098e+07	      76.5	   16.2008	   2.37371	5.55522e+07	      76.5	   16.2729	   2.35165	5.42492e+07	      76.5	   16.2517	   2.27654	5.04475e+07	      76.5	   16.1796	   2.29859	5.17429e+07	
         R10	   5728	      76.5	   16.2041	   2.24944	4.92979e+07	      76.5	   16.2993	   2.30363	5.17892e+07	      76.5	   16.3535	     2.205	4.74371e+07	      76.5	   16.2567	   2.15454	4.57101e+07	      76.5	   16.2517	   2.27654	5.04451e+07	      76.5	   16.3264	   2.25431	4.95029e+07	      76.5	   16.3051	   2.17977	4.64844e+07	      76.5	   16.2304	   2.20199	4.73936e+07	
         R10	   5729	      76.5	   16.2567	   2.15454	4.57322e+07	      76.5	   16.3535	     2.205	4.76048e+07	      76.5	   16.4092	   2.10379	4.46996e+07	      76.5	   16.3126	   2.05747	4.27335e+07	      76.5	   16.3051	   2.17977	4.65744e+07	      76.5	   16.3814	   2.15439	4.59733e+07	      76.5	   16.3609	   2.08063	4.36579e+07	      76.5	   16.2847	   2.10601	4.41576e+07	
         R10	   5730	      76.5	   16.3126	   2.05747	4.33298e+07	      76.5	   16.4092	   2.10379	 4.4374e+07	      76.5	   16.4663	         2	4.20993e+07	      76.5	   16.3597	   1.96344	4.21842e+07	      76.5	   16.3609	   2.08063	4.38061e+07	      76.5	   16.4377	   2.05189	4.31248e+07	      76.5	    16.413	   1.98172	4.20755e+07	      76.5	   16.3361	   2.01045	4.26152e+07	
         R10	   5731	      76.5	   16.3126	   2.05747	4.48274e+07	      76.5	   16.3597	   1.96344	4.20564e+07	      76.5	   16.2559	   1.92784	   4.17e+07	      76.5	   16.2166	   2.02144	4.26941e+07	      76.5	   16.3361	   2.01045	4.33562e+07	      76.5	   16.3078	   1.94564	4.18331e+07	      76.5	   16.2362	   1.97464	4.21149e+07	      76.5	   16.2646	   2.03946	4.37022e+07	
         R10	   5732	      76.5	   16.2166	   2.02144	4.35256e+07	      76.5	   16.2559	   1.92784	4.17878e+07	      76.5	   16.1549	    1.8932	4.05904e+07	      76.5	   16.1197	   1.98743	4.18207e+07	      76.5	   16.2362	   1.97464	4.25803e+07	      76.5	   16.2054	   1.91052	4.11299e+07	      76.5	   16.1373	   1.94032	4.11346e+07	      76.5	   16.1681	   2.00444	4.26121e+07	
         R10	   5733	      76.5	   16.1197	   1.98743	4.23143e+07	      76.5	   16.1549	    1.8932	4.05765e+07	      76.5	   16.0567	   1.85954	3.87598e+07	      76.5	   16.0256	   1.95475	4.03326e+07	      76.5	   16.1373	   1.94032	4.13765e+07	      76.5	   16.1058	   1.87637	3.96057e+07	      76.5	   16.0412	   1.90714	3.94787e+07	      76.5	   16.0727	   1.97109	4.12544e+07	
         R10	   5734	      76.5	   16.0256	   1.95475	4.06425e+07	      76.5	   16.0567	   1.85954	 3.8752e+07	      76.5	   15.9614	   1.82684	3.63811e+07	      76.5	    15.931	   1.91877	3.81117e+07	      76.5	   16.0412	   1.90714	3.96311e+07	      76.5	   16.0091	   1.84319	3.74988e+07	      76.5	   15.9462	    1.8728	3.71877e+07	      76.5	   15.9783	   1.93676	3.92895e+07	
         R10	   5735	      76.5	    15.931	   1.91877	3.83056e+07	      76.5	   15.9614	   1.82684	3.63776e+07	      76.5	   15.8689	    1.7951	3.34786e+07	      76.5	   15.8394	   1.88459	3.53415e+07	      76.5	   15.9462	    1.8728	3.72831e+07	      76.5	   15.9151	   1.81097	3.48544e+07	      76.5	   15.8541	   1.83984	3.43573e+07	      76.5	   15.8852	   1.90168	3.67253e+07	
         R10	   5736	      76.5	   15.8394	   1.88459	3.54457e+07	      76.5	   15.8689	    1.7951	 3.3475e+07	      76.5	   15.7791	   1.76433	3.00886e+07	      76.5	   15.7506	   1.85109	3.20387e+07	      76.5	   15.8541	   1.83984	3.44073e+07	      76.5	    15.824	   1.77972	3.17006e+07	      76.5	   15.7649	   1.80771	3.10138e+07	      76.5	    15.795	   1.86784	3.36324e+07	
         R10	   5737	      76.5	   15.7506	   1.85109	3.20799e+07	      76.5	   15.7791	   1.76433	3.00788e+07	      76.5	   15.6922	   1.73453	2.63083e+07	      76.5	   15.6645	   1.81869	 2.8335e+07	      76.5	   15.7649	   1.80771	3.10298e+07	      76.5	   15.7357	   1.74943	2.81008e+07	      76.5	   15.6784	   1.77661	2.72708e+07	      76.5	   15.7076	   1.83489	3.00862e+07	
         R10	   5738	      76.5	   15.6645	   1.81869	2.83317e+07	      76.5	   15.6922	   1.73453	   2.63e+07	      76.5	   15.6082	   1.70569	2.23693e+07	      76.5	   15.5845	   1.78673	2.45872e+07	      76.5	   15.6784	   1.77661	2.72653e+07	      76.5	   15.6502	   1.72011	2.42165e+07	      76.5	   15.5963	   1.74621	2.34253e+07	      76.5	   15.6245	   1.80271	 2.6337e+07	
         R10	   5739	      76.5	   15.5845	   1.78673	 2.4593e+07	      76.5	   15.6082	   1.70569	2.23468e+07	      76.5	   15.5269	   1.67782	1.86682e+07	      76.5	   15.5047	   1.75641	2.13211e+07	      76.5	   15.5963	   1.74621	2.34158e+07	      76.5	   15.5675	   1.69176	 2.0337e+07	      76.5	   15.5158	   1.71711	1.99144e+07	      76.5	   15.5446	   1.77157	2.28123e+07	
         R10	   5740	      76.5	   15.5047	   1.75641	2.13951e+07	      76.5	   15.5269	   1.67782	1.86941e+07	      76.5	   15.4484	   1.65091	1.72543e+07	      76.5	   15.4339	   1.73552	1.83058e+07	      76.5	   15.5158	   1.71711	1.99719e+07	      76.5	   15.4877	   1.66437	1.76818e+07	      76.5	   15.4412	   1.69322	1.75759e+07	      76.5	   15.4693	   1.74596	1.97915e+07	
         R10	   5741	      76.5	   15.4326	   1.82068	1.93712e+07	      76.5	   15.3662	   1.81951	1.47757e+07	      76.5	   15.3619	   1.88534	1.69106e+07	      76.5	   15.4233	    1.8906	2.07074e+07	      76.5	   15.3994	    1.8201	  1.694e+07	      76.5	    15.364	   1.85243	1.57803e+07	      76.5	   15.3926	   1.88797	1.86976e+07	      76.5	   15.4279	   1.85564	2.00026e+07	
         R10	   5742	      76.5	   15.4233	    1.8906	2.08116e+07	      76.5	   15.3619	   1.88534	1.73231e+07	      76.5	   15.3567	   1.94418	1.99075e+07	      76.5	   15.4125	   1.94919	2.32499e+07	      76.5	   15.3926	   1.88797	1.89538e+07	      76.5	   15.3593	   1.91476	1.85703e+07	      76.5	   15.3846	   1.94668	2.14742e+07	      76.5	   15.4179	   1.91989	2.19926e+07	
         R10	   5743	      76.5	   15.4125	   1.94919	 2.3322e+07	      76.5	   15.3567	   1.94418	1.99892e+07	      76.5	   15.3514	   1.99781	2.30992e+07	      76.5	   15.4017	   2.00274	2.62975e+07	      76.5	   15.3846	   1.94668	2.15515e+07	      76.5	   15.3541	   1.97099	2.15119e+07	      76.5	   15.3766	   2.00027	2.46023e+07	      76.5	   15.4071	   1.97596	2.47807e+07	
         R10	   5744	      76.5	   15.4017	   2.00274	2.63053e+07	      76.5	   15.3514	   1.99781	2.31469e+07	      76.5	   15.3465	   2.04651	2.66742e+07	      76.5	    15.392	   2.05185	2.98351e+07	      76.5	   15.3766	   2.00027	2.46307e+07	      76.5	    15.349	   2.02216	2.48868e+07	      76.5	   15.3693	   2.04918	2.81647e+07	      76.5	   15.3969	    2.0273	2.80477e+07	
         R10	   5745	      76.5	    15.392	   2.05185	2.98332e+07	      76.5	   15.3465	   2.04651	2.66945e+07	      76.5	    15.342	   2.08988	3.05164e+07	      76.5	   15.3849	   2.09576	3.38524e+07	      76.5	   15.3693	   2.04918	2.81741e+07	      76.5	   15.3443	    2.0682	2.85887e+07	      76.5	   15.3635	   2.09282	3.20911e+07	      76.5	   15.3885	    2.0738	 3.1826e+07	
         R10	   5746	      76.5	   15.3849	   2.09576	 3.3856e+07	      76.5	    15.342	   2.08988	3.05314e+07	      76.5	   15.3373	   2.12784	3.44617e+07	      76.5	   15.3761	   2.13434	3.79747e+07	      76.5	   15.3635	   2.09282	3.21003e+07	      76.5	   15.3397	   2.10886	3.24848e+07	      76.5	   15.3567	   2.13109	3.61265e+07	      76.5	   15.3805	   2.11505	3.59031e+07	
         R10	   5747	      76.5	   15.3761	   2.13434	3.79544e+07	      76.5	   15.3373	   2.12784	3.44898e+07	      76.5	   15.3318	   2.16055	3.83723e+07	      76.5	   15.3656	   2.16659	4.19178e+07	      76.5	   15.3567	   2.13109	3.61289e+07	      76.5	   15.3345	    2.1442	3.64227e+07	      76.5	   15.3487	   2.16357	4.00637e+07	      76.5	   15.3709	   2.15046	3.99277e+07	
         R10	   5748	      76.5	   15.3656	   2.16659	4.18487e+07	      76.5	   15.3318	   2.16055	3.84206e+07	      76.5	   15.3262	   2.18837	4.21554e+07	      76.5	   15.3523	   2.19368	 4.5444e+07	      76.5	   15.3487	   2.16357	4.00499e+07	      76.5	    15.329	   2.17446	4.02817e+07	      76.5	   15.3393	   2.19103	4.37423e+07	      76.5	    15.359	   2.18014	4.36377e+07	
         R10	   5749	      76.5	   15.3523	   2.19368	4.53558e+07	      76.5	   15.3262	   2.18837	4.21869e+07	      76.5	   15.3214	   2.21456	4.63391e+07	      76.5	    15.345	    2.2154	4.89917e+07	      76.5	   15.3393	   2.19103	 4.3714e+07	      76.5	   15.3238	   2.20147	4.42579e+07	      76.5	   15.3332	   2.21498	4.76129e+07	      76.5	   15.3487	   2.20454	4.71703e+07	
         R10	   5750	      76.5	   15.3214	   2.21456	4.63118e+07	      76.5	   15.3141	   2.23981	5.07873e+07	      76.5	   15.3283	   2.24961	5.49421e+07	      76.5	    15.337	   2.23521	5.23862e+07	      76.5	   15.3178	   2.22718	4.85433e+07	      76.5	   15.3212	   2.24471	5.28373e+07	      76.5	   15.3326	   2.24241	5.36599e+07	      76.5	   15.3292	   2.22489	4.93094e+07	
         R10	   5751	      76.5	    15.345	    2.2154	4.88629e+07	      76.5	    15.337	   2.23521	5.24654e+07	      76.5	   15.3523	   2.24433	 5.6224e+07	      76.5	   15.3637	   2.22617	5.29038e+07	      76.5	    15.341	    2.2253	5.06606e+07	      76.5	   15.3446	   2.23977	5.43052e+07	      76.5	    15.358	   2.23525	5.45583e+07	      76.5	   15.3544	   2.22078	5.08305e+07	
         R10	   5752	      76.5	   15.3637	   2.22617	5.29443e+07	      76.5	   15.3523	   2.24433	5.62008e+07	      76.5	   15.3646	   2.25493	6.02407e+07	      76.5	   15.3825	   2.23961	5.73005e+07	      76.5	    15.358	   2.23525	5.45672e+07	      76.5	   15.3585	   2.24963	5.81813e+07	      76.5	   15.3736	   2.24727	5.87517e+07	      76.5	   15.3731	   2.23289	5.50481e+07	
         R10	   5753	      76.5	   15.4105	   2.24985	 6.1005e+07	      76.5	   15.3943	   2.27234	 6.6573e+07	      76.5	   15.4075	   2.28366	7.00258e+07	      76.5	   15.4278	   2.27102	6.59961e+07	      76.5	   15.4024	   2.26109	6.37835e+07	      76.5	   15.4009	     2.278	6.82174e+07	      76.5	   15.4177	   2.27734	 6.7998e+07	      76.5	   15.4192	   2.26043	6.33677e+07	
         R10	   5754	      76.5	   15.4467	   2.28414	 6.8131e+07	      76.5	   15.4366	   2.30084	7.28543e+07	      76.5	   15.4515	   2.31319	7.40718e+07	      76.5	   15.4623	   2.29777	6.97864e+07	      76.5	   15.4417	   2.29249	7.04822e+07	      76.5	   15.4441	   2.30702	7.33637e+07	      76.5	   15.4569	   2.30548	7.19165e+07	      76.5	   15.4545	   2.29096	6.88699e+07	
         R10	   5755	      76.5	   15.4623	   2.29777	6.97352e+07	      76.5	   15.4515	   2.31319	7.40189e+07	      76.5	   15.4656	   2.32337	 7.4169e+07	      76.5	   15.4761	    2.3085	7.02949e+07	      76.5	   15.4569	   2.30548	7.18646e+07	      76.5	   15.4586	   2.31828	7.40263e+07	      76.5	   15.4709	   2.31593	 7.2217e+07	      76.5	   15.4692	   2.30313	6.99553e+07	
         R10	   5756	      76.5	   15.4761	    2.3085	 7.0274e+07	      76.5	   15.4656	   2.32337	7.41412e+07	      76.5	   15.4797	   2.33317	7.37078e+07	      76.5	   15.4902	   2.31811	7.01804e+07	      76.5	   15.4709	   2.31593	7.21927e+07	      76.5	   15.4727	   2.32827	7.38681e+07	      76.5	    15.485	   2.32564	7.19252e+07	      76.5	   15.4832	    2.3133	7.01799e+07	
         R10	   5757	      76.5	   15.4902	   2.31811	7.01689e+07	      76.5	   15.4797	   2.33317	7.36884e+07	      76.5	   15.4939	   2.34298	7.28759e+07	      76.5	   15.5043	   2.32792	6.97619e+07	      76.5	    15.485	   2.32564	7.19098e+07	      76.5	   15.4868	   2.33808	7.32351e+07	      76.5	   15.4991	   2.33545	7.12976e+07	      76.5	   15.4973	   2.32301	6.99235e+07	
         R10	   5758	      76.5	   15.5043	   2.32792	6.97392e+07	      76.5	   15.4939	   2.34298	7.28603e+07	      76.5	    15.508	   2.35279	7.17951e+07	      76.5	   15.5185	   2.33774	6.90585e+07	      76.5	   15.4991	   2.33545	7.12784e+07	      76.5	    15.501	   2.34788	7.22894e+07	      76.5	   15.5133	   2.34526	7.04044e+07	      76.5	   15.5114	   2.33283	6.93632e+07	
         R10	   5759	      76.5	   15.5185	   2.33774	6.90507e+07	      76.5	    15.508	   2.35279	7.17812e+07	      76.5	   15.5228	   2.36281	7.04685e+07	      76.5	   15.5339	   2.34848	6.81249e+07	      76.5	   15.5133	   2.34526	7.03935e+07	      76.5	   15.5154	    2.3578	7.10926e+07	      76.5	   15.5284	   2.35564	6.92766e+07	      76.5	   15.5262	   2.34311	6.85533e+07	
         R10	   5760	      76.5	   15.5339	   2.34848	6.80674e+07	      76.5	   15.5228	   2.36281	7.04934e+07	      76.5	   15.5376	   2.37521	 6.9138e+07	      76.5	   15.5555	   2.35957	 6.6377e+07	      76.5	   15.5284	   2.35564	6.92605e+07	      76.5	   15.5302	   2.36901	6.97808e+07	      76.5	   15.5465	   2.36739	6.77353e+07	      76.5	   15.5447	   2.35402	6.71879e+07	
         R10	   5761	      76.5	    15.557	   2.40256	6.74835e+07	      76.5	   15.5404	   2.39671	6.93918e+07	      76.5	   15.5285	   2.40889	7.10375e+07	      76.5	   15.5467	   2.42018	6.87119e+07	      76.5	   15.5487	   2.39963	6.84306e+07	      76.5	   15.5345	    2.4028	7.01943e+07	      76.5	   15.5376	   2.41454	6.98564e+07	      76.5	   15.5518	   2.41137	6.80605e+07	
         R10	   5762	      76.5	   15.5371	   2.45443	6.87778e+07	      76.5	   15.5178	   2.44575	 7.1477e+07	      76.5	   15.5061	   2.45739	7.21986e+07	      76.5	   15.5285	   2.47502	6.85028e+07	      76.5	   15.5275	   2.45009	7.01204e+07	      76.5	    15.512	   2.45157	7.18122e+07	      76.5	   15.5173	   2.46621	7.03301e+07	      76.5	   15.5328	   2.46473	 6.8593e+07	
         R10	   5763	      76.5	   15.5139	   2.52159	 6.5906e+07	      76.5	   15.4958	   2.54589	6.45005e+07	      76.5	   15.5257	   2.56725	6.19627e+07	      76.5	   15.5474	    2.5366	  6.286e+07	      76.5	   15.5048	   2.53374	6.51602e+07	      76.5	   15.5107	   2.55657	 6.3228e+07	      76.5	   15.5365	   2.55193	6.23633e+07	      76.5	   15.5306	    2.5291	6.43789e+07	
         R10	   5764	      76.5	   15.5474	    2.5366	6.28898e+07	      76.5	   15.5257	   2.56725	6.17863e+07	      76.5	   15.5601	   2.59072	5.95113e+07	      76.5	   15.5869	   2.55385	5.99037e+07	      76.5	   15.5365	   2.55193	6.22831e+07	      76.5	   15.5429	   2.57899	6.06455e+07	      76.5	   15.5735	   2.57228	5.96447e+07	      76.5	   15.5671	   2.54523	6.13911e+07	
         R10	   5765	      76.5	   15.5869	   2.55385	5.99433e+07	      76.5	   15.5601	   2.59072	5.93673e+07	      76.5	   15.5977	   2.61892	5.71418e+07	      76.5	   15.6283	   2.57859	5.71922e+07	      76.5	   15.5735	   2.57228	5.95877e+07	      76.5	   15.5789	   2.60482	5.82513e+07	      76.5	    15.613	   2.59876	5.70944e+07	      76.5	   15.6076	   2.56622	5.85608e+07	
         R10	   5766	      76.5	   15.6283	   2.57859	5.72279e+07	      76.5	   15.5977	   2.61892	5.71051e+07	      76.5	   15.6389	   2.65253	5.49674e+07	      76.5	   15.6722	   2.60997	5.49813e+07	      76.5	    15.613	   2.59876	5.70953e+07	      76.5	   15.6183	   2.63573	5.60326e+07	      76.5	   15.6556	   2.63125	5.48899e+07	      76.5	   15.6503	   2.59428	5.60949e+07	
         R10	   5767	      76.5	   15.6722	   2.60997	5.49815e+07	      76.5	   15.6389	   2.65253	5.51037e+07	      76.5	   15.6855	   2.69013	5.30499e+07	      76.5	   15.7217	   2.64523	5.37849e+07	      76.5	   15.6556	   2.63125	5.49674e+07	      76.5	   15.6622	   2.67133	5.40696e+07	      76.5	   15.7036	   2.66768	5.33069e+07	      76.5	    15.697	    2.6276	 5.4358e+07	
         R10	   5768	      76.5	   15.7217	   2.64523	5.36513e+07	      76.5	   15.6855	   2.69013	5.32499e+07	      76.5	    15.737	    2.7305	5.23337e+07	      76.5	   15.7791	   2.68022	5.47052e+07	      76.5	   15.7036	   2.66768	5.33535e+07	      76.5	   15.7112	   2.71031	5.27526e+07	      76.5	    15.758	   2.70536	 5.3379e+07	      76.5	   15.7504	   2.66272	5.41076e+07	
         R10	   5769	      76.5	   15.7791	   2.68022	5.44266e+07	      76.5	    15.737	    2.7305	5.25407e+07	      76.5	   15.7874	   2.77603	5.35049e+07	      76.5	    15.833	   2.72333	6.02529e+07	      76.5	    15.758	   2.70536	5.33431e+07	      76.5	   15.7622	   2.75326	5.29473e+07	      76.5	   15.8102	   2.74968	5.67043e+07	      76.5	    15.806	   2.70177	5.72352e+07	
         R10	   5770	      76.5	   15.8894	   2.66886	6.70661e+07	      76.5	   15.9769	   2.70814	8.15967e+07	      76.5	    16.012	   2.62473	7.40465e+07	      76.5	   15.9277	   2.58173	6.61112e+07	      76.5	   15.9332	    2.6885	7.42142e+07	      76.5	   15.9945	   2.66643	7.78204e+07	      76.5	   15.9699	   2.60323	6.99591e+07	      76.5	   15.9086	   2.62529	 6.6586e+07	
         R10	   5771	      76.5	   15.9277	   2.58173	6.60636e+07	      76.5	    16.012	   2.62473	7.40211e+07	      76.5	   16.0584	   2.53504	6.72039e+07	      76.5	   15.9747	   2.49193	6.26475e+07	      76.5	   15.9699	   2.60323	6.99213e+07	      76.5	   16.0352	   2.57989	7.05944e+07	      76.5	   16.0166	   2.51349	6.48161e+07	      76.5	   15.9512	   2.53683	 6.4334e+07	
         R10	   5772	      76.5	   15.9747	   2.49193	 6.2571e+07	      76.5	   16.0584	   2.53504	6.72688e+07	      76.5	   16.1062	   2.44317	6.08852e+07	      76.5	   16.0208	   2.39962	5.79171e+07	      76.5	   16.0166	   2.51349	6.48094e+07	      76.5	   16.0823	   2.48911	6.40287e+07	      76.5	   16.0635	    2.4214	5.92967e+07	      76.5	   15.9978	   2.44577	6.01912e+07	
         R10	   5773	      76.5	   16.0208	   2.39962	5.78432e+07	      76.5	   16.1062	   2.44317	6.09087e+07	      76.5	   16.1551	   2.34774	5.51004e+07	      76.5	    16.069	   2.30326	5.28064e+07	      76.5	   16.0635	    2.4214	5.92691e+07	      76.5	   16.1307	   2.39546	5.79253e+07	      76.5	   16.1121	    2.3255	5.38564e+07	      76.5	   16.0449	   2.35144	5.52426e+07	
         R10	   5774	      76.5	    16.069	   2.30326	5.27758e+07	      76.5	   16.1551	   2.34774	5.51427e+07	      76.5	   16.2041	   2.24944	5.02247e+07	      76.5	   16.1145	   2.20696	4.83181e+07	      76.5	   16.1121	    2.3255	5.38613e+07	      76.5	   16.1796	   2.29859	5.25804e+07	      76.5	   16.1593	    2.2282	4.91877e+07	      76.5	   16.0917	   2.25511	5.04505e+07	
         R10	   5775	      76.5	   16.1145	   2.20696	4.83172e+07	      76.5	   16.2041	   2.24944	5.02695e+07	      76.5	   16.2567	   2.15454	4.67117e+07	      76.5	   16.1647	   2.11263	4.49015e+07	      76.5	   16.1593	    2.2282	4.92095e+07	      76.5	   16.2304	   2.20199	4.83975e+07	      76.5	   16.2107	   2.13358	 4.5728e+07	      76.5	   16.1396	   2.15979	4.65098e+07	
         R10	   5776	      76.5	   16.1647	   2.11263	4.49494e+07	      76.5	   16.2567	   2.15454	4.66416e+07	      76.5	   16.3126	   2.05747	4.41322e+07	      76.5	   16.2166	   2.02144	4.27463e+07	      76.5	   16.2107	   2.13358	4.57162e+07	      76.5	   16.2847	   2.10601	4.52635e+07	      76.5	   16.2646	   2.03946	4.33917e+07	      76.5	   16.1906	   2.06703	4.37692e+07	
         R10	   5777	      76.5	   16.1647	   2.11263	 4.5641e+07	      76.5	   16.2166	   2.02144	4.35434e+07	      76.5	   16.1197	   1.98743	4.16938e+07	      76.5	   16.0762	   2.07972	4.40358e+07	      76.5	   16.1906	   2.06703	 4.4513e+07	      76.5	   16.1681	   2.00444	4.25547e+07	      76.5	   16.0979	   2.03357	4.27845e+07	      76.5	   16.1204	   2.09617	4.47712e+07	
         R10	   5778	      76.5	   16.0762	   2.07972	4.44897e+07	      76.5	   16.1197	   1.98743	4.22196e+07	      76.5	   16.0256	   1.95475	4.02079e+07	      76.5	   15.9907	   2.04191	4.24927e+07	      76.5	   16.0979	   2.03357	4.32757e+07	      76.5	   16.0727	   1.97109	4.11446e+07	      76.5	   16.0082	   1.99833	4.12825e+07	      76.5	   16.0334	   2.06082	4.34065e+07	
         R10	   5779	      76.5	   15.9907	   2.04191	4.27687e+07	      76.5	   16.0256	   1.95475	4.05327e+07	      76.5	    15.931	   1.91877	3.79973e+07	      76.5	   15.8976	   2.00532	4.04155e+07	      76.5	   16.0082	   1.99833	4.15815e+07	      76.5	   15.9783	   1.93676	3.91763e+07	      76.5	   15.9143	   1.96204	3.91421e+07	      76.5	   15.9441	   2.02361	4.14814e+07	
         R10	   5780	      76.5	   15.8976	   2.00532	4.05293e+07	      76.5	    15.931	   1.91877	3.81854e+07	      76.5	   15.8394	   1.88459	3.52155e+07	      76.5	   15.8076	   1.96933	3.77678e+07	      76.5	   15.9143	   1.96204	3.92933e+07	      76.5	   15.8852	   1.90168	3.66024e+07	      76.5	   15.8235	   1.92696	3.64299e+07	      76.5	   15.8526	   1.98732	3.90254e+07	
         R10	   5781	      76.5	   15.8076	   1.96933	3.78671e+07	      76.5	   15.8394	   1.88459	3.53202e+07	      76.5	   15.7506	   1.85109	3.19038e+07	      76.5	   15.7197	   1.93316	3.44212e+07	      76.5	   15.8235	   1.92696	3.65335e+07	      76.5	    15.795	   1.86784	3.35029e+07	      76.5	   15.7352	   1.89213	3.31067e+07	      76.5	   15.7637	   1.95125	3.60019e+07	
         R10	   5782	      76.5	   15.7197	   1.93316	 3.4483e+07	      76.5	   15.7506	   1.85109	3.19492e+07	      76.5	   15.6645	   1.81869	2.82015e+07	      76.5	   15.6373	   1.89656	3.05902e+07	      76.5	   15.7352	   1.89213	3.31605e+07	      76.5	   15.7076	   1.83489	2.99551e+07	      76.5	   15.6509	   1.85762	2.93437e+07	      76.5	   15.6785	   1.91486	3.23908e+07	
         R10	   5783	      76.5	   15.6373	   1.89656	3.05871e+07	      76.5	   15.6645	   1.81869	2.81893e+07	      76.5	   15.5845	   1.78673	2.44777e+07	      76.5	   15.5632	   1.86115	2.65736e+07	      76.5	   15.6509	   1.85762	2.93368e+07	      76.5	   15.6245	   1.80271	2.62072e+07	      76.5	   15.5738	   1.82394	2.54732e+07	      76.5	   15.6002	   1.87885	 2.8458e+07	
         R10	   5784	      76.5	   15.4938	    1.8307	2.24527e+07	      76.5	   15.4326	   1.82068	1.91868e+07	      76.5	   15.4233	    1.8906	2.08795e+07	      76.5	   15.4804	   1.90204	2.45369e+07	      76.5	   15.4632	   1.82569	 2.0766e+07	      76.5	   15.4279	   1.85564	1.99808e+07	      76.5	   15.4518	   1.89632	2.26283e+07	      76.5	   15.4871	   1.86637	2.34415e+07	
         R10	   5785	      76.5	   15.4804	   1.90204	2.45627e+07	      76.5	   15.4233	    1.8906	2.09164e+07	      76.5	   15.4125	   1.94919	2.32477e+07	      76.5	   15.4662	   1.95931	2.68314e+07	      76.5	   15.4518	   1.89632	2.26679e+07	      76.5	   15.4179	   1.91989	2.20462e+07	      76.5	   15.4394	   1.95425	2.49507e+07	      76.5	   15.4733	   1.93068	2.56652e+07	
         R10	   5786	      76.5	   15.4662	   1.95931	2.68466e+07	      76.5	   15.4125	   1.94919	2.33202e+07	      76.5	   15.4017	   2.00274	2.63101e+07	      76.5	   15.4501	    2.0121	 2.9584e+07	      76.5	   15.4394	   1.95425	2.49965e+07	      76.5	   15.4071	   1.97596	2.47859e+07	      76.5	   15.4259	   2.00742	 2.7858e+07	      76.5	   15.4582	    1.9857	2.81873e+07	
         R10	   5787	      76.5	   15.4501	    2.0121	2.96502e+07	      76.5	   15.4017	   2.00274	2.63174e+07	      76.5	    15.392	   2.05185	2.98598e+07	      76.5	   15.4372	   2.06081	3.31123e+07	      76.5	   15.4259	   2.00742	2.78965e+07	      76.5	   15.3969	    2.0273	 2.8066e+07	      76.5	   15.4146	   2.05633	3.13937e+07	      76.5	   15.4436	   2.03646	3.13588e+07	
         R10	   5788	      76.5	   15.4372	   2.06081	3.31288e+07	      76.5	    15.392	   2.05185	2.98608e+07	      76.5	   15.3849	   2.09576	3.38716e+07	      76.5	   15.4276	   2.10533	3.73311e+07	      76.5	   15.4146	   2.05633	3.14026e+07	      76.5	   15.3885	    2.0738	3.18496e+07	      76.5	   15.4063	   2.10054	3.54985e+07	      76.5	   15.4324	   2.08307	3.52113e+07	
         R10	   5789	      76.5	   15.4276	   2.10533	3.73233e+07	      76.5	   15.3849	   2.09576	 3.3875e+07	      76.5	   15.3761	   2.13434	3.80328e+07	      76.5	   15.4151	   2.14429	4.15777e+07	      76.5	   15.4063	   2.10054	3.54966e+07	      76.5	   15.3805	   2.11505	3.59417e+07	      76.5	   15.3956	   2.13931	 3.9699e+07	      76.5	   15.4214	   2.12481	3.94371e+07	
         R10	   5790	      76.5	   15.4151	   2.14429	4.15961e+07	      76.5	   15.3761	   2.13434	3.80333e+07	      76.5	   15.3656	   2.16659	 4.1952e+07	      76.5	   15.4036	   2.18325	4.70044e+07	      76.5	   15.3956	   2.13931	3.97076e+07	      76.5	   15.3709	   2.15046	3.99844e+07	      76.5	   15.3846	   2.17492	4.43336e+07	      76.5	   15.4093	   2.16377	4.42868e+07	
         R10	   5791	      76.5	   15.3756	   2.20538	   4.94e+07	      76.5	   15.3523	   2.19368	4.53997e+07	      76.5	    15.345	    2.2154	4.88914e+07	      76.5	   15.3637	   2.22617	5.28129e+07	      76.5	   15.3639	   2.19953	4.73368e+07	      76.5	   15.3487	   2.20454	 4.7142e+07	      76.5	   15.3544	   2.22078	5.07998e+07	      76.5	   15.3696	   2.21577	5.11013e+07	
         R10	   5792	      76.5	   15.3825	   2.23961	5.76023e+07	      76.5	    15.381	     2.265	 6.4011e+07	      76.5	   15.3943	   2.27234	6.66297e+07	      76.5	   15.4105	   2.24985	  6.081e+07	      76.5	   15.3817	   2.25231	6.07836e+07	      76.5	   15.3876	   2.26867	6.52615e+07	      76.5	   15.4024	   2.26109	6.37143e+07	      76.5	   15.3965	   2.24473	5.90608e+07	
         R10	   5793	      76.5	   15.4278	   2.27102	6.60776e+07	      76.5	   15.4241	   2.29331	7.18498e+07	      76.5	   15.4366	   2.30084	7.27687e+07	      76.5	   15.4467	   2.28414	6.81943e+07	      76.5	    15.426	   2.28216	6.89208e+07	      76.5	   15.4304	   2.29708	7.22527e+07	      76.5	   15.4417	   2.29249	7.04695e+07	      76.5	   15.4373	   2.27758	6.70229e+07	
         R10	   5794	      76.5	   15.4611	   2.26646	6.35648e+07	      76.5	   15.4467	   2.28414	6.81853e+07	      76.5	   15.4623	   2.29777	6.97521e+07	      76.5	   15.4748	   2.28112	6.56055e+07	      76.5	   15.4539	    2.2753	6.58694e+07	      76.5	   15.4545	   2.29096	6.88776e+07	      76.5	   15.4685	   2.28945	6.76692e+07	      76.5	   15.4679	   2.27379	6.45167e+07	
         R10	   5795	      76.5	   15.4748	   2.28112	6.55726e+07	      76.5	   15.4623	   2.29777	 6.9712e+07	      76.5	   15.4761	    2.3085	7.02916e+07	      76.5	   15.4877	   2.29329	6.66259e+07	      76.5	   15.4685	   2.28945	6.76325e+07	      76.5	   15.4692	   2.30313	6.99428e+07	      76.5	   15.4819	   2.30089	 6.8448e+07	      76.5	   15.4813	    2.2872	6.60457e+07	
         R10	   5796	      76.5	   15.4877	   2.29329	6.66132e+07	      76.5	   15.4761	    2.3085	7.02618e+07	      76.5	   15.4902	   2.31811	7.01756e+07	      76.5	   15.5013	   2.30211	6.67152e+07	      76.5	   15.4819	   2.30089	6.84268e+07	      76.5	   15.4832	    2.3133	7.01714e+07	      76.5	   15.4957	   2.31011	6.84291e+07	      76.5	   15.4945	    2.2977	6.66287e+07	
         R10	   5797	      76.5	   15.5013	   2.30211	6.67089e+07	      76.5	   15.4902	   2.31811	7.01628e+07	      76.5	   15.5043	   2.32792	6.97497e+07	      76.5	   15.5154	   2.31193	6.66174e+07	      76.5	   15.4957	   2.31011	6.84196e+07	      76.5	   15.4973	   2.32301	6.99143e+07	      76.5	   15.5099	   2.31992	 6.8165e+07	      76.5	   15.5084	   2.30702	 6.6626e+07	
         R10	   5798	      76.5	   15.5154	   2.31193	6.66385e+07	      76.5	   15.5043	   2.32792	6.97285e+07	      76.5	   15.5185	   2.33774	6.90603e+07	      76.5	   15.5298	   2.32182	6.62194e+07	      76.5	   15.5099	   2.31992	6.81652e+07	      76.5	   15.5114	   2.33283	6.93591e+07	      76.5	   15.5242	   2.32978	  6.762e+07	      76.5	   15.5226	   2.31687	6.63965e+07	
         R10	   5799	      76.5	   15.5298	   2.32182	6.62361e+07	      76.5	   15.5185	   2.33774	6.90423e+07	      76.5	   15.5339	   2.34848	6.80943e+07	      76.5	   15.5451	   2.33301	6.57242e+07	      76.5	   15.5242	   2.32978	6.76195e+07	      76.5	   15.5262	   2.34311	6.85331e+07	      76.5	   15.5395	   2.34075	 6.6889e+07	      76.5	   15.5375	   2.32741	6.59472e+07	
         R10	   5800	      76.5	   15.5451	   2.33301	6.56799e+07	      76.5	   15.5339	   2.34848	6.81234e+07	      76.5	   15.5555	   2.35957	6.63553e+07	      76.5	   15.5585	   2.34324	6.51587e+07	      76.5	   15.5395	   2.34075	6.68818e+07	      76.5	   15.5447	   2.35402	 6.7205e+07	      76.5	    15.557	    2.3514	  6.573e+07	      76.5	   15.5518	   2.33812	6.53963e+07	
         R10	   5801	      76.5	   15.5376	   2.37521	6.91783e+07	      76.5	   15.5404	   2.39671	6.94798e+07	      76.5	    15.557	   2.40256	6.75167e+07	      76.5	   15.5612	    2.3816	6.66871e+07	      76.5	    15.539	   2.38596	6.92652e+07	      76.5	   15.5487	   2.39963	6.84916e+07	      76.5	   15.5591	   2.39208	6.70543e+07	      76.5	   15.5494	    2.3784	6.79189e+07	
         R10	   5802	      76.5	    15.529	   2.49683	6.69118e+07	      76.5	   15.5139	   2.52159	6.59063e+07	      76.5	   15.5474	    2.5366	6.28741e+07	      76.5	   15.5623	    2.5036	6.39461e+07	      76.5	   15.5215	   2.50921	 6.6354e+07	      76.5	   15.5306	    2.5291	6.43862e+07	      76.5	   15.5549	    2.5201	6.33354e+07	      76.5	   15.5457	   2.50021	6.54231e+07	
         R10	   5803	      76.5	   15.5623	    2.5036	 6.3903e+07	      76.5	   15.5474	    2.5366	6.28969e+07	      76.5	   15.5869	   2.55385	5.99518e+07	      76.5	   15.6068	   2.51448	6.06528e+07	      76.5	   15.5549	    2.5201	6.33283e+07	      76.5	   15.5671	   2.54523	6.14182e+07	      76.5	   15.5969	   2.53417	6.02134e+07	      76.5	   15.5846	   2.50904	6.22663e+07	
         R10	   5804	      76.5	   15.6068	   2.51448	6.05902e+07	      76.5	   15.5869	   2.55385	5.99862e+07	      76.5	   15.6283	   2.57859	5.72571e+07	      76.5	   15.6544	   2.53682	5.77451e+07	      76.5	   15.5969	   2.53417	6.02021e+07	      76.5	   15.6076	   2.56622	5.86144e+07	      76.5	   15.6413	   2.55771	5.74119e+07	      76.5	   15.6306	   2.52565	5.91547e+07	
         R10	   5805	      76.5	   15.6544	   2.53682	5.76944e+07	      76.5	   15.6283	   2.57859	5.72815e+07	      76.5	   15.6722	   2.60997	5.51109e+07	      76.5	   15.7018	   2.56674	5.58928e+07	      76.5	   15.6413	   2.55771	5.73999e+07	      76.5	   15.6503	   2.59428	5.61857e+07	      76.5	    15.687	   2.58835	5.54188e+07	      76.5	   15.6781	   2.55178	5.67781e+07	
         R10	   5806	      76.5	   15.7018	   2.56674	5.57376e+07	      76.5	   15.6722	   2.60997	5.50805e+07	      76.5	   15.7217	   2.64523	5.37991e+07	      76.5	   15.7508	   2.59913	 5.5621e+07	      76.5	    15.687	   2.58835	5.53267e+07	      76.5	    15.697	    2.6276	5.44157e+07	      76.5	   15.7362	   2.62218	5.46364e+07	      76.5	   15.7263	   2.58294	5.56535e+07	
         R10	   5807	      76.5	   15.7508	   2.59913	5.52176e+07	      76.5	   15.7217	   2.64523	5.36432e+07	      76.5	   15.7791	   2.68022	5.52527e+07	      76.5	    15.817	   2.62796	5.84394e+07	      76.5	   15.7362	   2.62218	 5.4359e+07	      76.5	   15.7504	   2.66272	5.43674e+07	      76.5	    15.798	   2.65409	5.67889e+07	      76.5	   15.7839	   2.61355	5.67572e+07	
         R10	   5808	      76.5	   15.8774	   2.52854	 6.0715e+07	      76.5	   15.9277	   2.58173	6.60874e+07	      76.5	   15.9747	   2.49193	6.28665e+07	      76.5	   15.8938	   2.45438	5.87514e+07	      76.5	   15.9025	   2.55513	6.33643e+07	      76.5	   15.9512	   2.53683	6.44518e+07	      76.5	   15.9343	   2.47315	6.07306e+07	      76.5	   15.8856	   2.49146	5.96812e+07	
         R10	   5809	      76.5	   15.8938	   2.45438	5.89086e+07	      76.5	   15.9747	   2.49193	 6.2836e+07	      76.5	   16.0208	   2.39962	5.82915e+07	      76.5	   15.9431	    2.3619	 5.5635e+07	      76.5	   15.9343	   2.47315	 6.0796e+07	      76.5	   15.9978	   2.44577	6.05084e+07	      76.5	   15.9819	   2.38076	5.68775e+07	      76.5	   15.9184	   2.40814	5.71927e+07	
         R10	   5810	      76.5	   15.9431	    2.3619	5.55634e+07	      76.5	   16.0208	   2.39962	5.82124e+07	      76.5	    16.069	   2.30326	5.33045e+07	      76.5	   15.9879	   2.26414	5.11784e+07	      76.5	   15.9819	   2.38076	5.68043e+07	      76.5	   16.0449	   2.35144	5.56753e+07	      76.5	   16.0284	    2.2837	5.21476e+07	      76.5	   15.9655	   2.31302	5.32667e+07	
         R10	   5811	      76.5	   15.9879	   2.26414	5.11402e+07	      76.5	    16.069	   2.30326	5.32612e+07	      76.5	   16.1145	   2.20696	4.89088e+07	      76.5	   16.0256	   2.17045	4.71574e+07	      76.5	   16.0284	    2.2837	5.21078e+07	      76.5	   16.0917	   2.25511	5.09857e+07	      76.5	   16.0701	    2.1887	4.79437e+07	      76.5	   16.0068	    2.2173	4.90484e+07	
         R10	   5812	      76.5	   16.0256	   2.17045	4.71209e+07	      76.5	   16.1145	   2.20696	4.89662e+07	      76.5	   16.1647	   2.11263	4.56098e+07	      76.5	   16.0762	   2.07972	4.39586e+07	      76.5	   16.0701	    2.1887	4.79522e+07	      76.5	   16.1396	   2.15979	4.71938e+07	      76.5	   16.1204	   2.09617	4.47161e+07	      76.5	   16.0509	   2.12509	4.54563e+07	
         R10	   5813	      76.5	   15.9476	   2.13299	4.55525e+07	      76.5	   16.0256	   2.17045	4.75226e+07	      76.5	   16.0762	   2.07972	4.44309e+07	      76.5	   15.9907	   2.04191	4.24448e+07	      76.5	   15.9866	   2.15172	4.64461e+07	      76.5	   16.0509	   2.12509	4.58919e+07	      76.5	   16.0334	   2.06082	 4.3351e+07	      76.5	   15.9691	   2.08745	4.39125e+07	
         R10	   5814	      76.5	   15.9476	   2.13299	4.57767e+07	      76.5	   15.9907	   2.04191	4.27245e+07	      76.5	   15.8976	   2.00532	4.03328e+07	      76.5	   15.8617	   2.09868	4.38397e+07	      76.5	   15.9691	   2.08745	4.41641e+07	      76.5	   15.9441	   2.02361	4.14184e+07	      76.5	   15.8796	     2.052	4.19926e+07	      76.5	   15.9047	   2.11583	  4.469e+07	
         R10	   5815	      76.5	   15.8617	   2.09868	4.39538e+07	      76.5	   15.8976	   2.00532	4.05216e+07	      76.5	   15.8076	   1.96933	  3.768e+07	      76.5	   15.7729	   2.04263	4.05463e+07	      76.5	   15.8796	     2.052	4.21428e+07	      76.5	   15.8526	   1.98732	3.89763e+07	      76.5	   15.7903	   2.00598	 3.9058e+07	      76.5	   15.8173	   2.07065	4.20488e+07	
         R10	   5816	      76.5	   15.7729	   2.04263	4.05253e+07	      76.5	   15.8076	   1.96933	3.77838e+07	      76.5	   15.7197	   1.93316	3.43484e+07	      76.5	   15.6886	   2.00876	3.74711e+07	      76.5	   15.7903	   2.00598	3.90995e+07	      76.5	   15.7637	   1.95125	3.59234e+07	      76.5	   15.7042	   1.97096	3.58533e+07	      76.5	   15.7308	    2.0257	 3.8838e+07	
         R10	   5817	      76.5	   15.6886	   2.00876	3.74589e+07	      76.5	   15.7197	   1.93316	3.44039e+07	      76.5	   15.6373	   1.89656	3.04918e+07	      76.5	   15.6099	   1.97055	3.34296e+07	      76.5	   15.7042	   1.97096	3.58748e+07	      76.5	   15.6785	   1.91486	3.23038e+07	      76.5	   15.6236	   1.93355	3.19069e+07	      76.5	   15.6492	   1.98966	  3.527e+07	
         R10	   5818	      76.5	   15.5441	   1.92833	2.87225e+07	      76.5	   15.4804	   1.90204	 2.4536e+07	      76.5	   15.4662	   1.95931	 2.6855e+07	      76.5	   15.5217	   1.97976	3.07435e+07	      76.5	   15.5123	   1.91519	2.65253e+07	      76.5	   15.4733	   1.93068	2.56634e+07	      76.5	    15.494	   1.96954	2.87047e+07	      76.5	   15.5329	   1.95405	2.97045e+07	
         R10	   5819	      76.5	   15.5217	   1.97976	3.05894e+07	      76.5	   15.4662	   1.95931	2.68943e+07	      76.5	   15.4501	    2.0121	2.95908e+07	      76.5	    15.496	     2.027	 3.3136e+07	      76.5	    15.494	   1.96954	2.86385e+07	      76.5	   15.4582	    1.9857	2.82146e+07	      76.5	    15.473	   2.01955	3.12864e+07	      76.5	   15.5089	   2.00338	3.18355e+07	
         R10	   5820	      76.5	    15.496	     2.027	3.28677e+07	      76.5	   15.4501	    2.0121	2.96384e+07	      76.5	   15.4372	   2.06081	3.31314e+07	      76.5	     15.48	   2.07297	3.62772e+07	      76.5	    15.473	   2.01955	3.11728e+07	      76.5	   15.4436	   2.03646	3.13618e+07	      76.5	   15.4586	   2.06689	3.46155e+07	      76.5	    15.488	   2.04998	3.45502e+07	
         R10	   5821	      76.5	     15.48	   2.07297	3.62985e+07	      76.5	   15.4372	   2.06081	3.31202e+07	      76.5	   15.4276	   2.10533	3.73343e+07	      76.5	   15.4696	   2.11706	4.05019e+07	      76.5	   15.4586	   2.06689	3.46228e+07	      76.5	   15.4324	   2.08307	3.52085e+07	      76.5	   15.4486	    2.1112	3.88147e+07	      76.5	   15.4748	   2.09502	3.83787e+07	
         R10	   5822	      76.5	   15.4696	   2.11706	4.04678e+07	      76.5	   15.4276	   2.10533	3.73396e+07	      76.5	   15.4151	   2.14429	4.16786e+07	      76.5	   15.4548	   2.15718	4.50888e+07	      76.5	   15.4486	    2.1112	3.87983e+07	      76.5	   15.4214	   2.12481	3.94957e+07	      76.5	   15.4349	   2.15073	4.32636e+07	      76.5	   15.4622	   2.13712	4.27617e+07	
         R10	   5823	      76.5	   15.4548	   2.15718	4.50329e+07	      76.5	   15.4151	   2.14429	4.16616e+07	      76.5	   15.4036	   2.18325	4.69055e+07	      76.5	   15.4388	    2.1867	4.92033e+07	      76.5	   15.4349	   2.15073	4.32259e+07	      76.5	   15.4093	   2.16377	4.42701e+07	      76.5	   15.4212	   2.18498	4.79437e+07	      76.5	   15.4468	   2.17194	4.71091e+07	
         R10	   5824	      76.5	   15.4036	   2.18325	4.72298e+07	      76.5	   15.3656	   2.16659	4.19536e+07	      76.5	   15.3523	   2.19368	4.53413e+07	      76.5	   15.3756	   2.20538	4.93724e+07	      76.5	   15.3846	   2.17492	 4.4443e+07	      76.5	    15.359	   2.18014	4.36386e+07	      76.5	   15.3639	   2.19953	 4.7289e+07	      76.5	   15.3896	   2.19431	4.82662e+07	
         R10	   5825	      76.5	   15.4151	   2.21872	 5.3919e+07	      76.5	   15.4036	   2.18325	4.69459e+07	      76.5	   15.3756	   2.20538	4.93497e+07	      76.5	   15.3931	   2.22249	5.42725e+07	      76.5	   15.4093	   2.20099	5.03481e+07	      76.5	   15.3896	   2.19431	4.81134e+07	      76.5	   15.3843	   2.21393	5.17473e+07	      76.5	   15.4041	   2.22061	5.40545e+07	
         R10	   5826	      76.5	   15.3931	   2.22249	5.38337e+07	      76.5	   15.3756	   2.20538	4.94012e+07	      76.5	   15.3637	   2.22617	5.28076e+07	      76.5	   15.3825	   2.23961	5.75507e+07	      76.5	   15.3843	   2.21393	5.15502e+07	      76.5	   15.3696	   2.21577	5.10992e+07	      76.5	   15.3731	   2.23289	5.51149e+07	      76.5	   15.3878	   2.23105	 5.5688e+07	
         R10	   5827	      76.5	   15.4886	   2.26539	6.20384e+07	      76.5	   15.4748	   2.28112	6.55503e+07	      76.5	   15.4877	   2.29329	6.66432e+07	      76.5	   15.5006	   2.27769	6.31689e+07	      76.5	   15.4817	   2.27326	6.37893e+07	      76.5	   15.4813	    2.2872	6.60443e+07	      76.5	   15.4942	   2.28549	6.48975e+07	      76.5	   15.4946	   2.27154	6.25629e+07	
         R10	   5828	      76.5	   15.5006	   2.27769	6.31585e+07	      76.5	   15.4877	   2.29329	6.65946e+07	      76.5	   15.5013	   2.30211	6.67062e+07	      76.5	    15.513	   2.28506	6.33717e+07	      76.5	   15.4942	   2.28549	6.48683e+07	      76.5	   15.4945	    2.2977	6.66145e+07	      76.5	   15.5072	   2.29359	6.50248e+07	      76.5	   15.5068	   2.28138	6.32417e+07	
         R10	   5829	      76.5	    15.513	   2.28506	6.33629e+07	      76.5	   15.5013	   2.30211	6.67173e+07	      76.5	   15.5154	   2.31193	6.66276e+07	      76.5	   15.5249	   2.29561	6.37863e+07	      76.5	   15.5072	   2.29359	 6.5026e+07	      76.5	   15.5084	   2.30702	6.66357e+07	      76.5	   15.5202	   2.30377	6.51902e+07	      76.5	    15.519	   2.29034	6.35441e+07	
         R10	   5830	      76.5	   15.5249	   2.29561	6.37465e+07	      76.5	   15.5154	   2.31193	6.66146e+07	      76.5	   15.5298	   2.32182	6.62423e+07	      76.5	   15.5441	   2.30055	 6.2807e+07	      76.5	   15.5202	   2.30377	6.51634e+07	      76.5	   15.5226	   2.31687	6.63966e+07	      76.5	    15.537	   2.31118	6.44969e+07	      76.5	   15.5345	   2.29808	6.32548e+07	
         R10	   5831	      76.5	   15.5441	   2.30055	6.28153e+07	      76.5	   15.5298	   2.32182	6.62354e+07	      76.5	   15.5451	   2.33301	6.56968e+07	      76.5	   15.5575	   2.31719	6.32873e+07	      76.5	    15.537	   2.31118	6.44977e+07	      76.5	   15.5375	   2.32741	6.59316e+07	      76.5	   15.5513	    2.3251	6.44757e+07	      76.5	   15.5508	   2.30887	6.30032e+07	
         R10	   5832	      76.5	   15.5575	   2.31719	6.33221e+07	      76.5	   15.5451	   2.33301	6.56166e+07	      76.5	   15.5585	   2.34324	6.51695e+07	      76.5	   15.5703	   2.33073	6.30759e+07	      76.5	   15.5513	    2.3251	6.44535e+07	      76.5	   15.5518	   2.33812	6.53692e+07	      76.5	   15.5644	   2.33698	6.41119e+07	      76.5	   15.5639	   2.32396	6.31687e+07	
         R10	   5833	      76.5	   15.5816	   2.38271	6.46893e+07	      76.5	   15.5612	    2.3816	6.66077e+07	      76.5	    15.557	   2.40256	6.75408e+07	      76.5	   15.5776	   2.40893	 6.5417e+07	      76.5	   15.5714	   2.38215	6.56447e+07	      76.5	   15.5591	   2.39208	6.70246e+07	      76.5	   15.5673	   2.40574	 6.6472e+07	      76.5	   15.5796	   2.39582	6.49888e+07	
         R10	   5834	      76.5	   15.5704	   2.47027	6.48473e+07	      76.5	   15.5623	    2.5036	6.39312e+07	      76.5	   15.6068	   2.51448	6.06612e+07	      76.5	   15.6223	   2.47416	6.10741e+07	      76.5	   15.5664	   2.48693	6.43055e+07	      76.5	   15.5846	   2.50904	6.22845e+07	      76.5	   15.6145	   2.49432	6.07706e+07	      76.5	   15.5963	   2.47221	6.29396e+07	
         R10	   5835	      76.5	   15.6223	   2.47416	6.09906e+07	      76.5	   15.6068	   2.51448	6.06175e+07	      76.5	   15.6544	   2.53682	5.77854e+07	      76.5	   15.6764	   2.49538	5.81354e+07	      76.5	   15.6145	   2.49432	6.07071e+07	      76.5	   15.6306	   2.52565	5.91883e+07	      76.5	   15.6654	    2.5161	5.78771e+07	      76.5	   15.6494	   2.48477	5.95439e+07	
         R10	   5836	      76.5	   15.6764	   2.49538	5.80892e+07	      76.5	   15.6544	   2.53682	5.77318e+07	      76.5	   15.7018	   2.56674	5.59647e+07	      76.5	   15.7284	   2.52255	5.67666e+07	      76.5	   15.6654	    2.5161	5.78244e+07	      76.5	   15.6781	   2.55178	5.68327e+07	      76.5	   15.7151	   2.54464	5.62945e+07	      76.5	   15.7024	   2.50896	5.74071e+07	
         R10	   5837	      76.5	   15.7284	   2.52255	5.66538e+07	      76.5	   15.7018	   2.56674	5.58197e+07	      76.5	   15.7508	   2.59913	5.56261e+07	      76.5	   15.7738	   2.55229	5.69701e+07	      76.5	   15.7151	   2.54464	5.61618e+07	      76.5	   15.7263	   2.58294	5.56975e+07	      76.5	   15.7623	   2.57571	5.62515e+07	      76.5	   15.7511	   2.53742	5.67936e+07	
         R10	   5838	      76.5	    15.824	   2.40879	 5.6532e+07	      76.5	   15.8938	   2.45438	5.90314e+07	      76.5	   15.9431	    2.3619	5.59131e+07	      76.5	   15.8725	   2.32833	5.39256e+07	      76.5	   15.8589	   2.43159	5.77075e+07	      76.5	   15.9184	   2.40814	5.73883e+07	      76.5	   15.9078	   2.34511	5.48469e+07	      76.5	   15.8483	   2.36856	5.51253e+07	
         R10	   5839	      76.5	   15.8725	   2.32833	5.38907e+07	      76.5	   15.9431	    2.3619	5.58361e+07	      76.5	   15.9879	   2.26414	5.14899e+07	      76.5	   15.9131	   2.22752	4.96031e+07	      76.5	   15.9078	   2.34511	5.47904e+07	      76.5	   15.9655	   2.31302	5.35569e+07	      76.5	   15.9505	   2.24583	5.04558e+07	      76.5	   15.8928	   2.27793	5.16073e+07	
         R10	   5840	      76.5	   15.9131	   2.22752	4.95224e+07	      76.5	   15.9879	   2.26414	5.14169e+07	      76.5	   16.0256	   2.17045	4.75147e+07	      76.5	   15.9476	   2.13299	4.55911e+07	      76.5	   15.9505	   2.24583	5.03798e+07	      76.5	   16.0068	    2.2173	4.93661e+07	      76.5	   15.9866	   2.15172	 4.6463e+07	      76.5	   15.9303	   2.18026	4.74434e+07	
         R10	   5841	      76.5	   15.8453	   2.20389	4.85636e+07	      76.5	   15.9131	   2.22752	4.96884e+07	      76.5	   15.9476	   2.13299	4.58315e+07	      76.5	   15.8617	   2.09868	4.38021e+07	      76.5	   15.8792	   2.21571	4.90557e+07	      76.5	   15.9303	   2.18026	4.76472e+07	      76.5	   15.9047	   2.11583	4.47042e+07	      76.5	   15.8535	   2.15128	4.60119e+07	
         R10	   5842	      76.5	   15.7334	   2.10924	 4.3703e+07	      76.5	   15.7729	   2.04263	4.04687e+07	      76.5	   15.6886	   2.00876	3.74358e+07	      76.5	   15.6614	    2.0768	4.10169e+07	      76.5	   15.7532	   2.07594	4.20331e+07	      76.5	   15.7308	    2.0257	3.87823e+07	      76.5	    15.675	   2.04278	3.91701e+07	      76.5	   15.6974	   2.09302	4.22081e+07	
         R10	   5843	      76.5	   15.6614	    2.0768	4.11412e+07	      76.5	   15.6886	   2.00876	3.74508e+07	      76.5	   15.6099	   1.97055	 3.3345e+07	      76.5	   15.5826	    2.0332	3.66604e+07	      76.5	    15.675	   2.04278	3.92391e+07	      76.5	   15.6492	   1.98966	3.52266e+07	      76.5	   15.5963	   2.00188	3.49611e+07	      76.5	    15.622	     2.055	3.86548e+07	
         R10	   5844	      76.5	   15.5241	   2.08609	 3.9088e+07	      76.5	     15.48	   2.07297	3.62319e+07	      76.5	   15.4696	   2.11706	4.05488e+07	      76.5	   15.5109	   2.12873	4.29726e+07	      76.5	   15.5021	   2.07953	3.75696e+07	      76.5	   15.4748	   2.09502	3.83669e+07	      76.5	   15.4902	    2.1229	4.16617e+07	      76.5	   15.5175	   2.10741	4.10071e+07	
         R10	   5845	      76.5	   15.4947	   2.17571	4.84739e+07	      76.5	   15.4548	   2.15718	4.51634e+07	      76.5	   15.4388	    2.1867	4.89837e+07	      76.5	   15.4582	   2.21203	5.35031e+07	      76.5	   15.4747	   2.16645	4.66767e+07	      76.5	   15.4468	   2.17194	4.70656e+07	      76.5	   15.4485	   2.19936	5.11444e+07	      76.5	   15.4764	   2.19387	5.09643e+07	
         R10	   5846	      76.5	   15.4582	   2.21203	5.36887e+07	      76.5	   15.4388	    2.1867	4.92762e+07	      76.5	   15.4036	   2.18325	4.70517e+07	      76.5	   15.4151	   2.21872	5.43163e+07	      76.5	   15.4485	   2.19936	5.13816e+07	      76.5	   15.4212	   2.18498	4.80624e+07	      76.5	   15.4093	   2.20099	5.06036e+07	      76.5	   15.4366	   2.21537	5.38687e+07	
         R10	   5847	      76.5	    15.481	    2.2488	5.95075e+07	      76.5	   15.4611	   2.26646	6.36184e+07	      76.5	   15.4748	   2.28112	6.55885e+07	      76.5	   15.4886	   2.26539	 6.2006e+07	      76.5	   15.4711	   2.25763	6.15575e+07	      76.5	   15.4679	   2.27379	6.45341e+07	      76.5	   15.4817	   2.27326	6.37915e+07	      76.5	   15.4848	   2.25709	 6.0716e+07	
         R10	   5848	      76.5	   15.5024	   2.25284	5.94922e+07	      76.5	   15.4886	   2.26539	6.18604e+07	      76.5	   15.5006	   2.27769	6.32599e+07	      76.5	   15.5142	    2.2567	 5.9273e+07	      76.5	   15.4955	   2.25911	6.06734e+07	      76.5	   15.4946	   2.27154	6.25203e+07	      76.5	   15.5074	    2.2672	6.12518e+07	      76.5	   15.5083	   2.25477	5.93695e+07	
         R10	   5849	      76.5	   15.5142	    2.2567	5.93673e+07	      76.5	   15.5006	   2.27769	6.31873e+07	      76.5	    15.513	   2.28506	6.33592e+07	      76.5	   15.5262	   2.26594	5.99401e+07	      76.5	   15.5074	    2.2672	6.12632e+07	      76.5	   15.5068	   2.28138	6.32489e+07	      76.5	   15.5196	    2.2755	 6.1636e+07	      76.5	   15.5202	   2.26132	5.96309e+07	
         R10	   5850	      76.5	   15.5262	   2.26594	 6.0014e+07	      76.5	    15.513	   2.28506	 6.3349e+07	      76.5	   15.5249	   2.29561	6.37501e+07	      76.5	   15.5416	   2.27841	6.06074e+07	      76.5	   15.5196	    2.2755	6.16678e+07	      76.5	    15.519	   2.29034	6.35186e+07	      76.5	   15.5333	   2.28701	6.21687e+07	      76.5	   15.5339	   2.27217	 6.0272e+07	
         R10	   5851	      76.5	   15.6177	   2.38533	6.16968e+07	      76.5	   15.5816	   2.38271	6.46218e+07	      76.5	   15.5776	   2.40893	6.53948e+07	      76.5	   15.6113	   2.40923	6.24585e+07	      76.5	   15.5997	   2.38402	6.31479e+07	      76.5	   15.5796	   2.39582	6.49423e+07	      76.5	   15.5944	   2.40908	6.39182e+07	      76.5	   15.6145	   2.39728	 6.2042e+07	
         R10	   5852	      76.5	   15.5724	   2.43746	6.56885e+07	      76.5	   15.5776	   2.40893	6.55084e+07	      76.5	    15.557	   2.40256	6.74865e+07	      76.5	   15.5467	   2.42018	6.86567e+07	      76.5	    15.575	   2.42319	6.55164e+07	      76.5	   15.5673	   2.40574	6.64906e+07	      76.5	   15.5518	   2.41137	6.80337e+07	      76.5	   15.5595	   2.42882	6.71433e+07	
         R10	   5853	      76.5	    15.656	   2.42567	 5.9814e+07	      76.5	   15.6223	   2.47416	6.10787e+07	      76.5	   15.6764	   2.49538	5.82133e+07	      76.5	    15.708	   2.44333	5.78034e+07	      76.5	   15.6391	   2.44991	6.02825e+07	      76.5	   15.6494	   2.48477	5.96266e+07	      76.5	   15.6922	   2.46935	5.78825e+07	      76.5	    15.682	    2.4345	5.87838e+07	
         R10	   5854	      76.5	    15.708	   2.44333	5.78058e+07	      76.5	   15.6764	   2.49538	5.81318e+07	      76.5	   15.7284	   2.52255	5.68272e+07	      76.5	   15.7677	   2.46944	5.71567e+07	      76.5	   15.6922	   2.46935	5.78434e+07	      76.5	   15.7024	   2.50896	5.74583e+07	      76.5	   15.7481	     2.496	5.68931e+07	      76.5	   15.7379	   2.45639	5.74491e+07	
         R10	   5855	      76.5	   15.7677	   2.46944	5.72994e+07	      76.5	   15.7284	   2.52255	5.67851e+07	      76.5	   15.7738	   2.55229	5.69475e+07	      76.5	   15.8105	   2.49883	5.79868e+07	      76.5	   15.7481	     2.496	5.69419e+07	      76.5	   15.7511	   2.53742	5.68493e+07	      76.5	   15.7921	   2.52556	5.74057e+07	      76.5	   15.7891	   2.48414	5.76206e+07	
         R10	   5856	      76.5	   15.8331	   2.58669	5.95248e+07	      76.5	   15.7738	   2.55229	5.67755e+07	      76.5	   15.7508	   2.59913	5.52801e+07	      76.5	    15.817	   2.62796	  5.851e+07	      76.5	   15.8035	   2.56949	5.81091e+07	      76.5	   15.7623	   2.57571	5.59729e+07	      76.5	   15.7839	   2.61355	5.68202e+07	      76.5	   15.8251	   2.60733	5.90119e+07	
         R10	   5857	      76.5	   15.7557	    2.3786	5.61479e+07	      76.5	    15.824	   2.40879	5.65893e+07	      76.5	   15.8725	   2.32833	 5.4159e+07	      76.5	   15.8098	   2.29598	5.27863e+07	      76.5	   15.7899	    2.3937	5.63113e+07	      76.5	   15.8483	   2.36856	5.52733e+07	      76.5	   15.8412	   2.31215	5.33981e+07	      76.5	   15.7828	   2.33729	5.43106e+07	
         R10	   5858	      76.5	   15.8098	   2.29598	5.27784e+07	      76.5	   15.8725	   2.32833	5.40913e+07	      76.5	   15.9131	   2.22752	4.97653e+07	      76.5	   15.8453	   2.20389	4.85669e+07	      76.5	   15.8412	   2.31215	5.33652e+07	      76.5	   15.8928	   2.27793	5.17839e+07	      76.5	   15.8792	   2.21571	4.90975e+07	      76.5	   15.8276	   2.24994	5.05283e+07	
         R10	   5859	      76.5	   15.7517	    2.2673	5.21506e+07	      76.5	   15.8098	   2.29598	5.29113e+07	      76.5	   15.8453	   2.20389	4.85122e+07	      76.5	    15.777	   2.19395	4.82618e+07	      76.5	   15.7808	   2.28164	  5.246e+07	      76.5	   15.8276	   2.24994	5.05627e+07	      76.5	   15.8111	   2.19892	4.83277e+07	      76.5	   15.7643	   2.23062	5.00881e+07	
         R10	   5860	      76.5	   15.7057	   2.17504	4.75736e+07	      76.5	   15.7334	   2.10924	4.36607e+07	      76.5	   15.6614	    2.0768	4.10121e+07	      76.5	   15.6384	   2.14211	4.55732e+07	      76.5	   15.7195	   2.14214	4.55432e+07	      76.5	   15.6974	   2.09302	4.21806e+07	      76.5	   15.6499	   2.10946	4.32234e+07	      76.5	    15.672	   2.15858	4.63964e+07	
         R10	   5861	      76.5	   15.5765	   2.09764	  4.116e+07	      76.5	   15.5241	   2.08609	3.91732e+07	      76.5	   15.5109	   2.12873	4.30031e+07	      76.5	   15.5518	   2.13844	4.48508e+07	      76.5	   15.5503	   2.09186	4.00478e+07	      76.5	   15.5175	   2.10741	4.10647e+07	      76.5	   15.5313	   2.13359	4.38549e+07	      76.5	   15.5641	   2.11804	4.29838e+07	
         R10	   5862	      76.5	   15.5109	   2.12873	4.30557e+07	      76.5	   15.4696	   2.11706	 4.0487e+07	      76.5	   15.4548	   2.15718	4.51368e+07	      76.5	   15.4947	   2.17571	4.84544e+07	      76.5	   15.4902	    2.1229	4.16775e+07	      76.5	   15.4622	   2.13712	4.27957e+07	      76.5	   15.4747	   2.16645	4.66504e+07	      76.5	   15.5028	   2.15222	4.57205e+07	
         R10	   5863	      76.5	    15.481	    2.2488	5.96665e+07	      76.5	   15.4886	   2.26539	 6.2031e+07	      76.5	   15.5024	   2.25284	5.93098e+07	      76.5	   15.4974	   2.22558	5.53043e+07	      76.5	   15.4848	   2.25709	6.08008e+07	      76.5	   15.4955	   2.25911	6.06676e+07	      76.5	   15.4999	   2.23921	 5.7247e+07	      76.5	   15.4892	   2.23719	5.74771e+07	
         R10	   5864	      76.5	   15.5428	   2.24893	5.71296e+07	      76.5	   15.5262	   2.26594	5.99607e+07	      76.5	   15.5416	   2.27841	6.05645e+07	      76.5	   15.5617	   2.26908	5.84682e+07	      76.5	   15.5345	   2.25744	5.85386e+07	      76.5	   15.5339	   2.27217	6.02213e+07	      76.5	   15.5517	   2.27374	5.95126e+07	      76.5	   15.5523	   2.25901	5.77313e+07	
         R10	   5865	      76.5	   15.5555	   2.35957	6.63576e+07	      76.5	   15.5612	    2.3816	  6.669e+07	      76.5	   15.5816	   2.38271	6.46628e+07	      76.5	    15.585	   2.35516	6.32937e+07	      76.5	   15.5583	   2.37058	 6.6464e+07	      76.5	   15.5714	   2.38215	6.56729e+07	      76.5	   15.5833	   2.36894	6.39108e+07	      76.5	   15.5702	   2.35737	6.48192e+07	
         R10	   5866	      76.5	   15.6113	   2.40923	6.24279e+07	      76.5	   15.5776	   2.40893	6.54768e+07	      76.5	   15.5724	   2.43746	6.56729e+07	      76.5	   15.5969	   2.43849	6.36225e+07	      76.5	   15.5944	   2.40908	6.39454e+07	      76.5	    15.575	   2.42319	6.54983e+07	      76.5	   15.5847	   2.43797	6.46432e+07	      76.5	   15.6041	   2.42386	6.29619e+07	
         R10	   5867	      76.5	   15.7557	    2.3786	5.63031e+07	      76.5	   15.8098	   2.29598	5.30359e+07	      76.5	   15.7517	    2.2673	5.19596e+07	      76.5	   15.7281	   2.31949	5.49576e+07	      76.5	   15.7828	   2.33729	5.45001e+07	      76.5	   15.7808	   2.28164	5.24307e+07	      76.5	   15.7399	    2.2934	5.33878e+07	      76.5	   15.7419	   2.34905	5.55002e+07	
         R10	   5868	      76.5	   15.5386	   2.16842	4.77724e+07	      76.5	   15.5518	   2.13844	4.46197e+07	      76.5	   15.5109	   2.12873	4.30052e+07	      76.5	   15.4947	   2.17571	4.83046e+07	      76.5	   15.5452	   2.15343	4.61806e+07	      76.5	   15.5313	   2.13359	4.37275e+07	      76.5	   15.5028	   2.15222	4.56206e+07	      76.5	   15.5166	   2.17206	 4.7971e+07	
         R10	   5869	      76.5	   15.5255	   2.23291	5.58811e+07	      76.5	   15.4974	   2.22558	5.54104e+07	      76.5	   15.5024	   2.25284	5.94344e+07	      76.5	   15.5142	    2.2567	5.92698e+07	      76.5	   15.5115	   2.22925	5.55858e+07	      76.5	   15.4999	   2.23921	5.73589e+07	      76.5	   15.5083	   2.25477	5.93388e+07	      76.5	   15.5199	   2.24481	5.75568e+07	
         R10	   5870	      76.5	   15.5255	   2.23291	5.57197e+07	      76.5	   15.5142	    2.2567	5.93524e+07	      76.5	   15.5262	   2.26594	5.99929e+07	      76.5	   15.5428	   2.24893	5.71264e+07	      76.5	   15.5199	   2.24481	5.75176e+07	      76.5	   15.5202	   2.26132	5.96465e+07	      76.5	   15.5345	   2.25744	5.85531e+07	      76.5	   15.5342	   2.24092	 5.6371e+07	
         R10	   5871	      76.5	   15.5368	   2.21888	 5.3716e+07	      76.5	   15.5255	   2.23291	5.57929e+07	      76.5	   15.5428	   2.24893	 5.7059e+07	      76.5	   15.5608	   2.23494	5.48401e+07	      76.5	   15.5311	    2.2259	5.47509e+07	      76.5	   15.5342	   2.24092	5.63748e+07	      76.5	   15.5518	   2.24193	5.59452e+07	      76.5	   15.5488	   2.22691	5.42175e+07	
         R10	   5872	      76.5	   15.5729	   2.29223	5.99055e+07	      76.5	   15.5617	   2.26908	5.84316e+07	      76.5	   15.5416	   2.27841	6.06396e+07	      76.5	   15.5441	   2.30055	6.27958e+07	      76.5	   15.5673	   2.28066	5.91082e+07	      76.5	   15.5517	   2.27374	5.95314e+07	      76.5	   15.5428	   2.28948	6.16685e+07	      76.5	   15.5585	   2.29639	6.13421e+07	
         R10	   5873	      76.5	   15.6777	   2.30985	5.58434e+07	      76.5	   15.7281	   2.31949	5.49102e+07	      76.5	   15.7517	    2.2673	5.21014e+07	      76.5	   15.6918	   2.24066	5.18604e+07	      76.5	   15.7029	   2.31467	5.53406e+07	      76.5	   15.7399	    2.2934	 5.3437e+07	      76.5	   15.7218	   2.25398	5.18844e+07	      76.5	   15.6848	   2.27526	5.36829e+07	
         R10	   5874	      76.5	   15.5832	   2.15064	4.56219e+07	      76.5	   15.5518	   2.13844	4.50032e+07	      76.5	   15.5386	   2.16842	4.76919e+07	      76.5	   15.5786	   2.17189	4.81622e+07	      76.5	   15.5675	   2.14454	 4.5264e+07	      76.5	   15.5452	   2.15343	 4.6336e+07	      76.5	   15.5586	   2.17016	 4.7856e+07	      76.5	   15.5809	   2.16127	4.68781e+07	
         R10	   5875	      76.5	   15.7557	    2.3786	5.60603e+07	      76.5	   15.7281	   2.31949	5.47544e+07	      76.5	   15.6777	   2.30985	5.61585e+07	      76.5	   15.6771	    2.3798	  5.825e+07	      76.5	   15.7419	   2.34905	5.52944e+07	      76.5	   15.7029	   2.31467	5.54199e+07	      76.5	   15.6774	   2.34482	5.69902e+07	      76.5	   15.7164	    2.3792	 5.7112e+07	
         R10	   5876	      76.5	   15.4151	   2.21872	5.41951e+07	      76.5	   15.3931	   2.22249	5.39419e+07	      76.5	   15.3825	   2.23961	5.73125e+07	      76.5	   15.4105	   2.24985	6.10456e+07	      76.5	   15.4041	   2.22061	5.40247e+07	      76.5	   15.3878	   2.23105	5.56247e+07	      76.5	   15.3965	   2.24473	5.90444e+07	      76.5	   15.4128	   2.23429	5.75915e+07	
         R10	   5877	      76.5	   15.4417	   2.26005	6.28889e+07	      76.5	   15.4278	   2.27102	6.61431e+07	      76.5	   15.4467	   2.28414	6.80942e+07	      76.5	   15.4611	   2.26646	6.36844e+07	      76.5	   15.4347	   2.26553	6.45121e+07	      76.5	   15.4373	   2.27758	6.70042e+07	      76.5	   15.4539	    2.2753	6.58834e+07	      76.5	   15.4514	   2.26326	6.32294e+07	
         R10	   5878	      76.5	   15.4417	   2.26005	 6.3141e+07	      76.5	   15.4611	   2.26646	6.36573e+07	      76.5	   15.4623	   2.24308	5.90373e+07	      76.5	   15.4351	   2.24298	5.95034e+07	      76.5	   15.4514	   2.26326	6.33408e+07	      76.5	   15.4617	   2.25477	6.13102e+07	      76.5	   15.4487	   2.24303	5.92039e+07	      76.5	   15.4384	   2.25152	  6.128e+07	
         R10	   5879	      76.5	   15.4417	   2.26005	6.30783e+07	      76.5	   15.4351	   2.24298	5.94248e+07	      76.5	   15.4105	   2.24985	6.11121e+07	      76.5	   15.4278	   2.27102	6.59554e+07	      76.5	   15.4384	   2.25152	6.12067e+07	      76.5	   15.4228	   2.24641	6.02233e+07	      76.5	   15.4192	   2.26043	6.33945e+07	      76.5	   15.4347	   2.26553	6.45127e+07	
         R10	   5880	      76.5	   15.4582	   2.21203	5.38018e+07	      76.5	   15.4151	   2.21872	 5.3957e+07	      76.5	   15.4105	   2.24985	6.08662e+07	      76.5	   15.4351	   2.24298	5.91533e+07	      76.5	   15.4366	   2.21537	5.37502e+07	      76.5	   15.4128	   2.23429	5.73854e+07	      76.5	   15.4228	   2.24641	5.99595e+07	      76.5	   15.4466	    2.2275	5.64654e+07	
         R10	   5881	      76.5	   15.4974	   2.22558	5.57861e+07	      76.5	   15.4582	   2.21203	5.37127e+07	      76.5	   15.4623	   2.24308	5.89688e+07	      76.5	    15.481	    2.2488	5.95951e+07	      76.5	   15.4778	    2.2188	 5.4578e+07	      76.5	   15.4602	   2.22755	5.62639e+07	      76.5	   15.4717	   2.24594	5.92371e+07	      76.5	   15.4892	   2.23719	5.76796e+07	
         R10	   5882	      76.5	   15.5703	   2.33073	6.32932e+07	      76.5	   15.5585	   2.34324	6.50913e+07	      76.5	    15.585	   2.35516	6.33673e+07	      76.5	   15.5644	   2.33698	6.41829e+07	      76.5	   15.5717	    2.3492	6.41949e+07	      76.5	   15.5776	   2.34295	6.32609e+07	       N/A	       N/A	       N/A	        N/A	       N/A	       N/A	       N/A	        N/A	
         R10	   5883	      76.5	   15.5456	   2.44371	6.80901e+07	      76.5	   15.5371	   2.45443	6.86191e+07	      76.5	   15.5704	   2.47027	 6.4892e+07	      76.5	   15.5724	   2.43746	6.59482e+07	      76.5	   15.5414	   2.44907	6.83349e+07	      76.5	   15.5537	   2.46235	6.67424e+07	      76.5	   15.5714	   2.45386	6.53246e+07	      76.5	    15.559	   2.44058	6.70073e+07	
         R10	   5884	      76.5	   15.5456	   2.44371	6.83145e+07	      76.5	   15.5724	   2.43746	6.56058e+07	      76.5	   15.5467	   2.42018	6.87008e+07	      76.5	   15.5316	   2.43326	7.02239e+07	      76.5	    15.559	   2.44058	6.69502e+07	      76.5	   15.5595	   2.42882	6.71233e+07	      76.5	   15.5391	   2.42672	6.94384e+07	      76.5	   15.5386	   2.43849	6.92603e+07	
         R10	   5885	      76.5	   15.5456	   2.44371	6.81086e+07	      76.5	   15.5316	   2.43326	7.02822e+07	      76.5	   15.5178	   2.44575	7.14409e+07	      76.5	   15.5371	   2.45443	6.88543e+07	      76.5	   15.5386	   2.43849	 6.9183e+07	      76.5	   15.5247	   2.43951	7.08349e+07	      76.5	   15.5275	   2.45009	7.01423e+07	      76.5	   15.5414	   2.44907	6.84695e+07	
         R10	   5886	      76.5	   15.4903	   2.50639	6.89414e+07	      76.5	   15.5139	   2.52159	6.58875e+07	      76.5	    15.529	   2.49683	6.69237e+07	      76.5	   15.5029	   2.48988	6.96999e+07	      76.5	   15.5021	   2.51399	6.74095e+07	      76.5	   15.5215	   2.50921	6.63482e+07	      76.5	    15.516	   2.49336	6.83088e+07	      76.5	   15.4966	   2.49814	6.92882e+07	
         R10	   5887	      76.5	   15.4903	   2.50639	6.89767e+07	      76.5	   15.4726	   2.52798	6.72142e+07	      76.5	   15.4958	   2.54589	6.47298e+07	      76.5	   15.5139	   2.52159	6.58579e+07	      76.5	   15.4814	   2.51718	6.80522e+07	      76.5	   15.4842	   2.53693	6.59685e+07	      76.5	   15.5048	   2.53374	6.52569e+07	      76.5	   15.5021	   2.51399	6.74126e+07	
         R10	   5888	      76.5	   15.4903	   2.50639	6.90516e+07	      76.5	   15.4712	   2.49513	7.17026e+07	      76.5	   15.4602	   2.50524	7.08686e+07	      76.5	   15.4726	   2.52798	6.73019e+07	      76.5	   15.4808	   2.50076	7.03734e+07	      76.5	   15.4657	   2.50019	7.12691e+07	      76.5	   15.4664	   2.51661	6.90678e+07	      76.5	   15.4814	   2.51718	6.81355e+07	
         R10	   5889	      76.5	   15.5029	   2.48988	6.97144e+07	      76.5	   15.4827	   2.48074	7.26487e+07	      76.5	   15.4712	   2.49513	7.17837e+07	      76.5	   15.4903	   2.50639	6.89136e+07	      76.5	   15.4928	   2.48531	7.11787e+07	      76.5	   15.4769	   2.48794	7.21848e+07	      76.5	   15.4808	   2.50076	7.03456e+07	      76.5	   15.4966	   2.49814	6.92818e+07	
         R10	   5890	      76.5	   15.5062	   2.47651	7.06132e+07	      76.5	   15.5285	   2.47502	6.83798e+07	      76.5	   15.5061	   2.45739	7.22162e+07	      76.5	   15.4939	   2.46863	7.27615e+07	      76.5	   15.5173	   2.47577	6.94902e+07	      76.5	   15.5173	   2.46621	7.02771e+07	      76.5	      15.5	   2.46301	7.24662e+07	      76.5	      15.5	   2.47257	7.16838e+07	
         R10	   5891	      76.5	   15.5062	   2.47651	  7.063e+07	      76.5	   15.4939	   2.46863	 7.2789e+07	      76.5	   15.4827	   2.48074	7.26202e+07	      76.5	   15.5029	   2.48988	6.96646e+07	      76.5	      15.5	   2.47257	7.17059e+07	      76.5	   15.4883	   2.47469	7.26792e+07	      76.5	   15.4928	   2.48531	7.11393e+07	      76.5	   15.5045	    2.4832	7.01282e+07	
         R10	   5892	      76.5	   15.5062	   2.47651	7.06327e+07	      76.5	   15.5029	   2.48988	6.96754e+07	      76.5	    15.529	   2.49683	6.68217e+07	      76.5	   15.5285	   2.47502	6.85361e+07	      76.5	   15.5045	    2.4832	7.01337e+07	      76.5	    15.516	   2.49336	6.82457e+07	      76.5	   15.5288	   2.48592	6.76427e+07	      76.5	   15.5173	   2.47577	6.95782e+07	
         R10	   5893	      76.5	   15.5285	   2.47502	6.85115e+07	      76.5	    15.529	   2.49683	6.67834e+07	      76.5	   15.5623	    2.5036	6.39997e+07	      76.5	   15.5704	   2.47027	6.48668e+07	      76.5	   15.5288	   2.48592	6.76078e+07	      76.5	   15.5457	   2.50021	6.53858e+07	      76.5	   15.5664	   2.48693	6.43467e+07	      76.5	   15.5494	   2.47265	6.66633e+07	
         R10	   5894	      76.5	   15.6223	   2.47416	 6.0901e+07	      76.5	   15.5969	   2.43849	6.35067e+07	      76.5	   15.5724	   2.43746	6.57672e+07	      76.5	   15.5704	   2.47027	6.48809e+07	      76.5	   15.6096	   2.45632	6.21501e+07	      76.5	   15.5847	   2.43797	6.46332e+07	      76.5	   15.5714	   2.45386	6.52407e+07	      76.5	   15.5963	   2.47221	6.28706e+07	
         R10	   5895	      76.5	   15.6113	   2.40923	6.24446e+07	      76.5	   15.5969	   2.43849	6.35804e+07	      76.5	   15.6223	   2.47416	 6.1246e+07	      76.5	    15.656	   2.42567	5.99017e+07	      76.5	   15.6041	   2.42386	6.29441e+07	      76.5	   15.6096	   2.45632	6.23506e+07	      76.5	   15.6391	   2.44991	6.03971e+07	      76.5	   15.6336	   2.41745	6.11516e+07	
         R10	   5896	      76.5	   15.8685	    2.7755	6.92825e+07	      76.5	   15.8419	   2.82919	6.24161e+07	      76.5	   15.9033	   2.87798	9.82094e+07	      76.5	   15.9321	   2.79079	8.71812e+07	      76.5	   15.8552	   2.80235	6.58282e+07	      76.5	   15.8726	   2.85359	8.01164e+07	      76.5	   15.9177	   2.83439	9.25989e+07	      76.5	   15.9003	   2.78315	7.81296e+07	
         R10	   5897	      76.5	   15.8685	    2.7755	6.81892e+07	      76.5	   15.9321	   2.79079	8.86272e+07	      76.5	   15.8894	   2.66886	6.50953e+07	      76.5	    15.833	   2.72333	6.07941e+07	      76.5	   15.9003	   2.78315	7.82588e+07	      76.5	   15.9108	   2.72983	7.67434e+07	      76.5	   15.8612	    2.6961	6.29375e+07	      76.5	   15.8508	   2.74942	 6.4453e+07	
         R10	   5898	      76.5	   15.8685	    2.7755	6.95076e+07	      76.5	    15.833	   2.72333	6.04457e+07	      76.5	   15.7874	   2.77603	5.27555e+07	      76.5	   15.8419	   2.82919	6.66851e+07	      76.5	   15.8508	   2.74942	6.48955e+07	      76.5	   15.8102	   2.74968	5.64632e+07	      76.5	   15.8147	   2.80261	5.93658e+07	      76.5	   15.8552	   2.80235	6.79907e+07	
         R10	   5899	      76.5	   15.8894	   2.66886	6.76474e+07	      76.5	    15.817	   2.62796	5.77779e+07	      76.5	   15.7791	   2.68022	 5.4962e+07	      76.5	    15.833	   2.72333	6.03785e+07	      76.5	   15.8532	   2.64841	6.26463e+07	      76.5	    15.798	   2.65409	5.63134e+07	      76.5	    15.806	   2.70177	5.75735e+07	      76.5	   15.8612	    2.6961	6.39844e+07	
         R10	   5900	      76.5	   15.9277	   2.58173	6.61609e+07	      76.5	   15.8331	   2.58669	 5.9469e+07	      76.5	    15.817	   2.62796	5.76092e+07	      76.5	   15.8894	   2.66886	6.77675e+07	      76.5	   15.8804	   2.58421	6.27629e+07	      76.5	   15.8251	   2.60733	5.85223e+07	      76.5	   15.8532	   2.64841	6.26328e+07	      76.5	   15.9086	   2.62529	6.69589e+07	
         R10	   5901	      76.5	   15.8351	   2.53586	5.87123e+07	      76.5	   15.8105	   2.49883	5.81503e+07	      76.5	   15.7738	   2.55229	5.67708e+07	      76.5	   15.8331	   2.58669	5.95753e+07	      76.5	   15.8228	   2.51735	5.84155e+07	      76.5	   15.7921	   2.52556	5.74029e+07	      76.5	   15.8035	   2.56949	5.81371e+07	      76.5	   15.8341	   2.56128	 5.9131e+07	
         R10	   5902	      76.5	   15.8351	   2.53586	5.94209e+07	      76.5	   15.8331	   2.58669	5.95385e+07	      76.5	   15.9277	   2.58173	6.59991e+07	      76.5	   15.8774	   2.52854	 6.0161e+07	      76.5	   15.8341	   2.56128	  5.947e+07	      76.5	   15.8804	   2.58421	6.27119e+07	      76.5	   15.9025	   2.55513	6.30309e+07	      76.5	   15.8563	    2.5322	 5.9781e+07	
         R10	   5903	      76.5	   15.8351	   2.53586	5.91268e+07	      76.5	   15.8774	   2.52854	6.10287e+07	      76.5	   15.8938	   2.45438	5.91548e+07	      76.5	   15.8105	   2.49883	5.79283e+07	      76.5	   15.8563	    2.5322	6.00634e+07	      76.5	   15.8856	   2.49146	6.00466e+07	      76.5	   15.8522	    2.4766	5.84918e+07	      76.5	   15.8228	   2.51735	5.85095e+07	
         R10	   5904	      76.5	   15.7677	   2.46944	5.72334e+07	      76.5	   15.8105	   2.49883	5.80143e+07	      76.5	   15.8938	   2.45438	5.89652e+07	      76.5	    15.824	   2.40879	5.64585e+07	      76.5	   15.7891	   2.48414	5.76033e+07	      76.5	   15.8522	    2.4766	5.84319e+07	      76.5	   15.8589	   2.43159	5.76409e+07	      76.5	   15.7959	   2.43912	5.67532e+07	
         R10	   5905	      76.5	    15.708	   2.44333	5.78971e+07	      76.5	   15.7677	   2.46944	5.71941e+07	      76.5	    15.824	   2.40879	5.66065e+07	      76.5	   15.7557	    2.3786	5.60551e+07	      76.5	   15.7379	   2.45639	5.75146e+07	      76.5	   15.7959	   2.43912	5.68057e+07	      76.5	   15.7899	    2.3937	5.62717e+07	      76.5	   15.7318	   2.41096	5.68204e+07	
         R10	   5906	      76.5	    15.656	   2.42567	5.98072e+07	      76.5	    15.708	   2.44333	5.78791e+07	      76.5	   15.7557	    2.3786	5.61171e+07	      76.5	   15.6771	    2.3798	5.81334e+07	      76.5	    15.682	    2.4345	5.88212e+07	      76.5	   15.7318	   2.41096	5.68352e+07	      76.5	   15.7164	    2.3792	5.70774e+07	      76.5	   15.6665	   2.40273	5.88631e+07	
         R10	   5907	      76.5	   15.6771	    2.3798	5.80853e+07	      76.5	   15.6177	   2.38533	6.16294e+07	      76.5	   15.6113	   2.40923	6.24191e+07	      76.5	    15.656	   2.42567	5.98854e+07	      76.5	   15.6474	   2.38256	5.98318e+07	      76.5	   15.6145	   2.39728	6.19772e+07	      76.5	   15.6336	   2.41745	6.11294e+07	      76.5	   15.6665	   2.40273	5.88731e+07	
         R10	   5908	      76.5	   15.7932	   2.13386	4.50203e+07	      76.5	   15.7334	   2.10924	4.36355e+07	      76.5	   15.7057	   2.17504	4.74986e+07	      76.5	    15.777	   2.19395	4.82665e+07	      76.5	   15.7633	   2.12155	4.42407e+07	      76.5	   15.7195	   2.14214	4.54963e+07	      76.5	   15.7413	   2.18449	 4.7781e+07	      76.5	   15.7851	    2.1639	4.65798e+07	
         R10	   5909	      76.5	   15.7932	   2.13386	4.50322e+07	      76.5	    15.777	   2.19395	4.81263e+07	      76.5	   15.8453	   2.20389	4.87828e+07	      76.5	   15.8617	   2.09868	4.37572e+07	      76.5	   15.7851	    2.1639	4.65062e+07	      76.5	   15.8111	   2.19892	4.84066e+07	      76.5	   15.8535	   2.15128	4.60935e+07	      76.5	   15.8274	   2.11627	4.43601e+07	
         R10	   5910	      76.5	   15.7932	   2.13386	4.53185e+07	      76.5	   15.8617	   2.09868	4.39618e+07	      76.5	   15.7729	   2.04263	4.05369e+07	      76.5	   15.7334	   2.10924	4.34127e+07	      76.5	   15.8274	   2.11627	4.46061e+07	      76.5	   15.8173	   2.07065	4.20271e+07	      76.5	   15.7532	   2.07594	 4.1924e+07	      76.5	   15.7633	   2.12155	4.42781e+07	
         R10	   5911	      76.5	   15.6918	   2.24066	5.17566e+07	      76.5	   15.7517	    2.2673	5.21624e+07	      76.5	    15.777	   2.19395	4.83178e+07	      76.5	   15.7057	   2.17504	4.75402e+07	      76.5	   15.7218	   2.25398	5.18616e+07	      76.5	   15.7643	   2.23062	5.01296e+07	      76.5	   15.7413	   2.18449	4.78285e+07	      76.5	   15.6988	   2.20785	4.95339e+07	
         R10	   5912	      76.5	   15.5984	   2.23455	5.37083e+07	      76.5	   15.5862	   2.25735	5.62982e+07	      76.5	   15.6111	   2.29418	5.79861e+07	      76.5	    15.637	   2.26387	5.46658e+07	      76.5	   15.5923	   2.24595	5.49873e+07	      76.5	   15.5987	   2.27577	5.70012e+07	      76.5	    15.624	   2.27903	5.62955e+07	      76.5	   15.6177	   2.24921	5.40659e+07	
         R10	   5913	      76.5	   15.6116	   2.20846	5.09272e+07	      76.5	    15.649	   2.21643	 5.1331e+07	      76.5	   15.6384	   2.14211	4.56392e+07	      76.5	   15.6014	   2.18794	4.88538e+07	      76.5	   15.6303	   2.21245	5.10973e+07	      76.5	   15.6437	   2.17927	4.82666e+07	      76.5	   15.6199	   2.16503	4.72131e+07	      76.5	   15.6065	    2.1982	4.98519e+07	
         R10	   5914	      76.5	   15.6116	   2.20846	5.07033e+07	      76.5	   15.6014	   2.18794	4.93093e+07	      76.5	   15.5623	   2.20506	5.17534e+07	      76.5	   15.5984	   2.23455	 5.3815e+07	      76.5	   15.6065	    2.1982	4.99824e+07	      76.5	   15.5818	    2.1965	5.05143e+07	      76.5	   15.5804	   2.21981	5.26548e+07	      76.5	    15.605	   2.22151	5.22388e+07	
         R10	   5915	      76.5	   15.6116	   2.20846	5.17069e+07	      76.5	   15.5984	   2.23455	5.33923e+07	      76.5	    15.637	   2.26387	5.50176e+07	      76.5	    15.649	   2.21643	5.03503e+07	      76.5	    15.605	   2.22151	5.25333e+07	      76.5	   15.6177	   2.24921	5.40828e+07	      76.5	    15.643	   2.24015	5.25915e+07	      76.5	   15.6303	   2.21245	 5.0994e+07	
         R10	   5916	      76.5	   15.6918	   2.24066	5.17155e+07	      76.5	   15.7057	   2.17504	4.77775e+07	      76.5	   15.6384	   2.14211	4.54678e+07	      76.5	    15.649	   2.21643	5.12819e+07	      76.5	   15.6988	   2.20785	4.96315e+07	      76.5	    15.672	   2.15858	4.64547e+07	      76.5	   15.6437	   2.17927	4.81731e+07	      76.5	   15.6704	   2.22855	5.14125e+07	
         R10	   5917	      76.5	   15.6777	   2.30985	5.60092e+07	      76.5	   15.6918	   2.24066	5.19864e+07	      76.5	    15.649	   2.21643	5.09774e+07	      76.5	    15.637	   2.26387	5.48601e+07	      76.5	   15.6848	   2.27526	5.38287e+07	      76.5	   15.6704	   2.22855	 5.1398e+07	      76.5	    15.643	   2.24015	5.28353e+07	      76.5	   15.6574	   2.28686	 5.5271e+07	
         R10	   5918	      76.5	   15.6368	   2.32051	5.85401e+07	      76.5	   15.6777	   2.30985	5.56698e+07	      76.5	    15.637	   2.26387	5.49657e+07	      76.5	   15.6111	   2.29418	5.77137e+07	      76.5	   15.6573	   2.31518	5.70885e+07	      76.5	   15.6574	   2.28686	5.51295e+07	      76.5	    15.624	   2.27903	5.63109e+07	      76.5	   15.6239	   2.30734	5.80519e+07	
         R10	   5919	      76.5	   15.6368	   2.32051	5.79755e+07	      76.5	   15.6111	   2.29418	5.80444e+07	      76.5	   15.5986	   2.32704	6.09261e+07	      76.5	   15.6287	   2.34646	5.98324e+07	      76.5	   15.6239	   2.30734	5.79286e+07	      76.5	   15.6048	   2.31061	5.94202e+07	      76.5	   15.6136	   2.33675	6.03338e+07	      76.5	   15.6327	   2.33348	5.88728e+07	
         R10	   5920	      76.5	   15.6368	   2.32051	5.77854e+07	      76.5	   15.6287	   2.34646	 5.9653e+07	      76.5	   15.6771	    2.3798	5.85934e+07	      76.5	   15.6777	   2.30985	5.62721e+07	      76.5	   15.6327	   2.33348	5.86626e+07	      76.5	   15.6529	   2.36313	5.90405e+07	      76.5	   15.6774	   2.34482	 5.7197e+07	      76.5	   15.6573	   2.31518	5.70152e+07	
         R10	   5921	      76.5	   15.6137	   2.36232	6.14026e+07	      76.5	    15.585	   2.35516	6.33741e+07	      76.5	   15.5816	   2.38271	6.46274e+07	      76.5	   15.6177	   2.38533	6.16994e+07	      76.5	   15.5993	   2.35874	6.23708e+07	      76.5	   15.5833	   2.36894	6.39342e+07	      76.5	   15.5997	   2.38402	6.31527e+07	      76.5	   15.6157	   2.37383	6.15156e+07	
         R10	   5922	      76.5	   15.6137	   2.36232	6.14246e+07	      76.5	   15.6177	   2.38533	6.18799e+07	      76.5	   15.6287	   2.34646	5.98701e+07	      76.5	   15.6157	   2.37383	6.16186e+07	      76.5	   15.6232	    2.3659	6.07868e+07	      76.5	   15.6212	   2.35439	6.06325e+07	       N/A	       N/A	       N/A	        N/A	       N/A	       N/A	       N/A	        N/A	
         R10	   5923	      76.5	   15.6137	   2.36232	6.13403e+07	      76.5	   15.6287	   2.34646	5.95407e+07	      76.5	   15.5986	   2.32704	6.08827e+07	      76.5	    15.585	   2.35516	6.31702e+07	      76.5	   15.6212	   2.35439	6.04238e+07	      76.5	   15.6136	   2.33675	6.01557e+07	      76.5	   15.5918	    2.3411	6.19703e+07	      76.5	   15.5993	   2.35874	6.22363e+07	
         R10	   5924	      76.5	   15.5811	   2.31504	6.11121e+07	      76.5	   15.5703	   2.33073	6.32426e+07	      76.5	    15.585	   2.35516	6.34015e+07	      76.5	   15.5986	   2.32704	 6.0938e+07	      76.5	   15.5757	   2.32288	6.21603e+07	      76.5	   15.5776	   2.34295	6.32534e+07	      76.5	   15.5918	    2.3411	6.21173e+07	      76.5	   15.5898	   2.32104	 6.0998e+07	
         R10	   5925	      76.5	   15.5811	   2.31504	6.13969e+07	      76.5	   15.5986	   2.32704	6.06678e+07	      76.5	   15.6111	   2.29418	5.78352e+07	      76.5	   15.5729	   2.29223	6.00248e+07	      76.5	   15.5898	   2.32104	6.10074e+07	      76.5	   15.6048	   2.31061	5.91874e+07	      76.5	    15.592	   2.29321	5.89025e+07	      76.5	    15.577	   2.30363	6.06594e+07	
         R10	   5926	      76.5	   15.5811	   2.31504	6.13244e+07	      76.5	   15.5729	   2.29223	6.00289e+07	      76.5	   15.5575	   2.31719	6.32388e+07	      76.5	   15.5703	   2.33073	6.32445e+07	      76.5	    15.577	   2.30363	6.06256e+07	      76.5	   15.5652	   2.30471	6.16002e+07	      76.5	   15.5639	   2.32396	6.32113e+07	      76.5	   15.5757	   2.32288	6.22687e+07	
         R10	   5927	      76.5	   15.5617	   2.26908	5.83875e+07	      76.5	   15.5729	   2.29223	 5.9927e+07	      76.5	   15.6111	   2.29418	5.80791e+07	      76.5	   15.5862	   2.25735	5.63171e+07	      76.5	   15.5673	   2.28066	5.90928e+07	      76.5	    15.592	   2.29321	5.89738e+07	      76.5	   15.5987	   2.27577	5.70533e+07	      76.5	    15.574	   2.26322	5.73465e+07	
         R10	   5928	      76.5	   15.5862	   2.25735	5.61085e+07	      76.5	   15.5608	   2.23494	5.49255e+07	      76.5	   15.5428	   2.24893	5.71295e+07	      76.5	   15.5617	   2.26908	5.85086e+07	      76.5	   15.5735	   2.24615	5.54318e+07	      76.5	   15.5518	   2.24193	5.60234e+07	      76.5	   15.5523	   2.25901	5.77528e+07	      76.5	    15.574	   2.26322	5.73022e+07	
         R10	   5929	      76.5	   15.5623	   2.20506	5.17831e+07	      76.5	   15.5608	   2.23494	5.49178e+07	      76.5	   15.5862	   2.25735	5.62066e+07	      76.5	   15.5984	   2.23455	 5.3778e+07	      76.5	   15.5615	      2.22	 5.3308e+07	      76.5	   15.5735	   2.24615	5.54778e+07	      76.5	   15.5923	   2.24595	5.49743e+07	      76.5	   15.5804	   2.21981	5.26438e+07	
         R10	   5930	      76.5	   15.4974	   2.22558	5.54052e+07	      76.5	   15.5255	   2.23291	 5.5807e+07	      76.5	   15.5368	   2.21888	5.36191e+07	      76.5	   15.5132	   2.20249	5.22244e+07	      76.5	   15.5115	   2.22925	5.55492e+07	      76.5	   15.5311	    2.2259	5.47093e+07	      76.5	    15.525	   2.21068	5.28552e+07	      76.5	   15.5053	   2.21403	 5.3805e+07	
         R10	   5931	      76.5	   15.5132	   2.20249	5.19113e+07	      76.5	   15.4947	   2.17571	4.83177e+07	      76.5	   15.4582	   2.21203	5.36941e+07	      76.5	   15.4974	   2.22558	5.55474e+07	      76.5	   15.5039	    2.1891	5.00354e+07	      76.5	   15.4764	   2.19387	5.09835e+07	      76.5	   15.4778	    2.2188	 5.4473e+07	      76.5	   15.5053	   2.21403	5.37211e+07	
         R10	   5932	      76.5	   15.5623	   2.20506	5.17384e+07	      76.5	   15.5386	   2.16842	4.79964e+07	      76.5	   15.4947	   2.17571	4.84647e+07	      76.5	   15.5132	   2.20249	5.21807e+07	      76.5	   15.5504	   2.18674	4.97414e+07	      76.5	   15.5166	   2.17206	4.81642e+07	      76.5	   15.5039	    2.1891	5.02367e+07	      76.5	   15.5378	   2.20378	 5.1858e+07	
         R10	   5933	      76.5	   15.6384	   2.14211	4.49894e+07	      76.5	   15.5832	   2.15064	4.65038e+07	      76.5	   15.5786	   2.17189	 4.8259e+07	      76.5	   15.6014	   2.18794	4.94102e+07	      76.5	   15.6108	   2.14638	4.56857e+07	      76.5	   15.5809	   2.16127	4.73733e+07	      76.5	     15.59	   2.17992	4.88037e+07	      76.5	   15.6199	   2.16503	4.71682e+07	
         R10	   5934	      76.5	   15.6384	   2.14211	4.58317e+07	      76.5	   15.5765	   2.09764	4.14863e+07	      76.5	   15.5518	   2.13844	4.43993e+07	      76.5	   15.5832	   2.15064	4.58559e+07	      76.5	   15.6075	   2.11987	 4.3405e+07	      76.5	   15.5641	   2.11804	4.29219e+07	      76.5	   15.5675	   2.14454	 4.5063e+07	      76.5	   15.6108	   2.14638	4.57956e+07	
         R10	   5935	      76.5	   15.5826	    2.0332	 3.6545e+07	      76.5	   15.5765	   2.09764	4.16147e+07	      76.5	   15.6384	   2.14211	4.54686e+07	      76.5	   15.6614	    2.0768	4.11763e+07	      76.5	   15.5796	   2.06542	3.90113e+07	      76.5	   15.6075	   2.11987	4.33055e+07	      76.5	   15.6499	   2.10946	4.32541e+07	      76.5	    15.622	     2.055	3.86185e+07	
         R10	   5936	      76.5	   15.5296	   2.04743	3.61665e+07	      76.5	   15.5241	   2.08609	3.89438e+07	      76.5	   15.5765	   2.09764	4.14141e+07	      76.5	   15.5826	    2.0332	3.61396e+07	      76.5	   15.5269	   2.06676	3.75326e+07	      76.5	   15.5503	   2.09186	4.00801e+07	      76.5	   15.5796	   2.06542	3.87067e+07	      76.5	   15.5561	   2.04032	3.60945e+07	
         R10	   5937	      76.5	   15.5296	   2.04743	3.59795e+07	      76.5	   15.5826	    2.0332	 3.6679e+07	      76.5	   15.5217	   1.97976	3.08481e+07	      76.5	    15.496	     2.027	3.27098e+07	      76.5	   15.5561	   2.04032	3.62769e+07	      76.5	   15.5522	   2.00648	3.35573e+07	      76.5	   15.5089	   2.00338	3.17545e+07	      76.5	   15.5128	   2.03722	3.42815e+07	
         R10	   5938	      76.5	   15.5296	   2.04743	3.56282e+07	      76.5	    15.496	     2.027	 3.3012e+07	      76.5	     15.48	   2.07297	3.62754e+07	      76.5	   15.5241	   2.08609	3.91125e+07	      76.5	   15.5128	   2.03722	3.42663e+07	      76.5	    15.488	   2.04998	3.46253e+07	      76.5	   15.5021	   2.07953	3.76061e+07	      76.5	   15.5269	   2.06676	3.73484e+07	
         R10	   5939	      76.5	   15.5441	   1.92833	2.87658e+07	      76.5	   15.5217	   1.97976	3.08361e+07	      76.5	   15.5826	    2.0332	3.64613e+07	      76.5	   15.6099	   1.97055	  3.329e+07	      76.5	   15.5329	   1.95405	2.97737e+07	      76.5	   15.5522	   2.00648	3.34648e+07	      76.5	   15.5963	   2.00188	3.48353e+07	      76.5	    15.577	   1.94944	3.08861e+07	
         R10	   5940	      76.5	   15.5632	   1.86115	2.64486e+07	      76.5	   15.5441	   1.92833	2.88139e+07	      76.5	   15.6099	   1.97055	3.33568e+07	      76.5	   15.6373	   1.89656	3.04877e+07	      76.5	   15.5537	   1.89474	2.75875e+07	      76.5	    15.577	   1.94944	3.09452e+07	      76.5	   15.6236	   1.93355	3.18689e+07	      76.5	   15.6002	   1.87885	2.83431e+07	
         R10	   5941	      76.5	   15.4938	    1.8307	2.25332e+07	      76.5	   15.4804	   1.90204	2.45028e+07	      76.5	   15.5441	   1.92833	2.88058e+07	      76.5	   15.5632	   1.86115	2.64286e+07	      76.5	   15.4871	   1.86637	2.34687e+07	      76.5	   15.5123	   1.91519	2.65555e+07	      76.5	   15.5537	   1.89474	2.75722e+07	      76.5	   15.5285	   1.84592	2.43842e+07	
         R10	   5942	      76.5	   15.5047	   1.75641	2.09094e+07	      76.5	   15.4938	    1.8307	2.26425e+07	      76.5	   15.5632	   1.86115	2.65459e+07	      76.5	   15.5845	   1.78673	 2.4476e+07	      76.5	   15.4992	   1.79355	2.17123e+07	      76.5	   15.5285	   1.84592	2.44935e+07	      76.5	   15.5738	   1.82394	2.54618e+07	      76.5	   15.5446	   1.77157	2.25715e+07	
         R10	   5943	      76.5	   15.4339	   1.73552	1.81385e+07	      76.5	   15.4326	   1.82068	  1.907e+07	      76.5	   15.4938	    1.8307	2.26942e+07	      76.5	   15.5047	   1.75641	2.09646e+07	      76.5	   15.4332	    1.7781	1.85208e+07	      76.5	   15.4632	   1.82569	2.08427e+07	      76.5	   15.4992	   1.79355	2.17667e+07	      76.5	   15.4693	   1.74596	1.94544e+07	
         R10	   5944	      76.5	   15.4339	   1.73552	 1.8302e+07	      76.5	   15.3687	   1.73882	1.47017e+07	      76.5	   15.3662	   1.81951	1.39274e+07	      76.5	   15.4326	   1.82068	1.92839e+07	      76.5	   15.4013	   1.73717	1.64977e+07	      76.5	   15.3674	   1.77917	1.42691e+07	      76.5	   15.3994	    1.8201	1.64527e+07	      76.5	   15.4332	    1.7781	1.86667e+07	
         R10	   5945	      76.5	   15.3687	   1.73882	1.49243e+07	      76.5	   15.4339	   1.73552	1.86557e+07	      76.5	   15.4484	   1.65091	1.74082e+07	      76.5	   15.3728	   1.62497	 1.9268e+07	      76.5	   15.4013	   1.73717	1.67837e+07	      76.5	   15.4412	   1.69322	 1.7842e+07	      76.5	   15.4106	   1.63794	1.81489e+07	      76.5	   15.3707	    1.6819	1.64727e+07	
         R10	   5946	      76.5	   15.3728	   1.62497	2.12275e+07	      76.5	      15.3	    1.6796	1.00233e+07	      76.5	      15.3	   1.75401	1.05843e+07	      76.5	   15.3687	   1.73882	1.34426e+07	      76.5	   15.3364	   1.65229	1.38483e+07	      76.5	      15.3	    1.7168	9.98019e+06	      76.5	   15.3343	   1.74641	1.15162e+07	      76.5	   15.3707	    1.6819	1.70993e+07	
         R10	   5947	      76.5	   15.3728	   1.62497	2.59595e+07	      76.5	      15.3	       1.6	2.76058e+07	      76.5	      15.3	    1.6796	1.36401e+07	      76.5	   15.3364	   1.61249	 2.6662e+07	      76.5	      15.3	    1.6398	1.87421e+07	      76.5	   15.3364	   1.65229	1.77343e+07	       N/A	       N/A	       N/A	        N/A	       N/A	       N/A	       N/A	        N/A	
         R10	   5948	      76.5	   15.5376	   2.37521	 6.9211e+07	      76.5	   15.5263	    2.3869	7.10522e+07	      76.5	   15.5404	   2.39671	 6.9447e+07	      76.5	   15.5319	   2.38105	7.01156e+07	      76.5	   15.5333	    2.3918	7.02298e+07	      76.5	    15.539	   2.38596	6.92629e+07	       N/A	       N/A	       N/A	        N/A	       N/A	       N/A	       N/A	        N/A	
         R10	   5949	      76.5	    15.345	    2.2154	4.89354e+07	      76.5	   15.3214	   2.21456	4.64674e+07	      76.5	    15.337	   2.23521	5.22911e+07	      76.5	   15.3332	   2.21498	4.76454e+07	      76.5	   15.3292	   2.22489	4.93375e+07	      76.5	    15.341	    2.2253	 5.0609e+07	       N/A	       N/A	       N/A	        N/A	       N/A	       N/A	       N/A	        N/A	
         R10	   5950	      76.5	   15.3825	   2.23961	5.72159e+07	      76.5	   15.3646	   2.25493	 6.0215e+07	      76.5	    15.381	     2.265	6.42209e+07	      76.5	   15.3736	   2.24727	5.86961e+07	      76.5	   15.3728	   2.25996	6.21514e+07	      76.5	   15.3817	   2.25231	6.06996e+07	       N/A	       N/A	       N/A	        N/A	       N/A	       N/A	       N/A	        N/A	
         R10	   5951	      76.5	   15.4278	   2.27102	6.57305e+07	      76.5	   15.4075	   2.28366	6.99434e+07	      76.5	   15.4241	   2.29331	7.20464e+07	      76.5	   15.4177	   2.27734	6.78229e+07	      76.5	   15.4158	   2.28849	 7.0907e+07	      76.5	    15.426	   2.28216	6.88508e+07	       N/A	       N/A	       N/A	        N/A	       N/A	       N/A	       N/A	        N/A	
         R10	   5952	      76.5	   15.5416	   2.27841	6.05709e+07	      76.5	   15.5249	   2.29561	6.37497e+07	      76.5	   15.5441	   2.30055	6.28216e+07	      76.5	   15.5333	   2.28701	6.21493e+07	      76.5	   15.5345	   2.29808	6.32637e+07	      76.5	   15.5428	   2.28948	6.16462e+07	       N/A	       N/A	       N/A	        N/A	       N/A	       N/A	       N/A	        N/A	
         R10	   5953	      76.5	   15.5555	   2.35957	6.64077e+07	      76.5	   15.5376	   2.37521	6.90927e+07	      76.5	   15.5612	    2.3816	 6.6651e+07	      76.5	   15.5465	   2.36739	6.77278e+07	      76.5	   15.5494	    2.3784	6.78556e+07	      76.5	   15.5583	   2.37058	6.64668e+07	       N/A	       N/A	       N/A	        N/A	       N/A	       N/A	       N/A	        N/A	
         R10	   5954	      76.5	   15.5729	   2.29223	5.98415e+07	      76.5	   15.5441	   2.30055	6.27348e+07	      76.5	   15.5575	   2.31719	6.33065e+07	      76.5	   15.5585	   2.29639	6.12799e+07	      76.5	   15.5508	   2.30887	6.29756e+07	      76.5	   15.5652	   2.30471	6.15394e+07	       N/A	       N/A	       N/A	        N/A	       N/A	       N/A	       N/A	        N/A	
         R10	   5955	      76.5	   15.4623	   2.24308	5.94607e+07	      76.5	   15.4611	   2.26646	 6.3448e+07	      76.5	    15.481	    2.2488	5.94068e+07	      76.5	   15.4617	   2.25477	6.14152e+07	      76.5	   15.4711	   2.25763	 6.1423e+07	      76.5	   15.4717	   2.24594	5.93914e+07	       N/A	       N/A	       N/A	        N/A	       N/A	       N/A	       N/A	        N/A	
         R10	   5956	      76.5	   15.4351	   2.24298	5.94545e+07	      76.5	   15.4623	   2.24308	5.91528e+07	      76.5	   15.4582	   2.21203	5.35371e+07	      76.5	   15.4487	   2.24303	5.92482e+07	      76.5	   15.4602	   2.22755	5.62796e+07	      76.5	   15.4466	    2.2275	 5.6484e+07	       N/A	       N/A	       N/A	        N/A	       N/A	       N/A	       N/A	        N/A	
         R10	   5957	      76.5	   15.5623	   2.20506	5.15244e+07	      76.5	   15.5786	   2.17189	4.82684e+07	      76.5	   15.5386	   2.16842	4.77119e+07	      76.5	   15.5704	   2.18848	4.98761e+07	      76.5	   15.5586	   2.17016	4.79324e+07	      76.5	   15.5504	   2.18674	4.94992e+07	       N/A	       N/A	       N/A	        N/A	       N/A	       N/A	       N/A	        N/A	
         R10	   5958	      76.5	   15.5623	   2.20506	5.14835e+07	      76.5	   15.5368	   2.21888	5.36904e+07	      76.5	   15.5608	   2.23494	5.49473e+07	      76.5	   15.5495	   2.21197	5.25781e+07	      76.5	   15.5488	   2.22691	5.42627e+07	      76.5	   15.5615	      2.22	5.31757e+07	       N/A	       N/A	       N/A	        N/A	       N/A	       N/A	       N/A	        N/A	
         R10	   5959	      76.5	   15.5623	   2.20506	5.15564e+07	      76.5	   15.5132	   2.20249	5.21919e+07	      76.5	   15.5368	   2.21888	 5.3618e+07	      76.5	   15.5378	   2.20378	 5.1767e+07	      76.5	    15.525	   2.21068	5.28395e+07	      76.5	   15.5495	   2.21197	 5.2577e+07	       N/A	       N/A	       N/A	        N/A	       N/A	       N/A	       N/A	        N/A	
         R10	   5960	      76.5	   15.5623	   2.20506	5.16364e+07	      76.5	   15.6014	   2.18794	4.89459e+07	      76.5	   15.5786	   2.17189	4.80388e+07	      76.5	   15.5818	    2.1965	5.02665e+07	      76.5	     15.59	   2.17992	4.84468e+07	      76.5	   15.5704	   2.18848	4.98058e+07	       N/A	       N/A	       N/A	        N/A	       N/A	       N/A	       N/A	        N/A	
         R10	   5961	      76.5	   15.9321	   2.79079	9.00845e+07	      76.5	   15.9769	   2.70814	8.22878e+07	      76.5	   15.8894	   2.66886	6.48355e+07	      76.5	   15.9545	   2.74947	8.61627e+07	      76.5	   15.9332	    2.6885	7.33215e+07	      76.5	   15.9108	   2.72983	7.72401e+07	       N/A	       N/A	       N/A	        N/A	       N/A	       N/A	       N/A	        N/A	
         R10	   5962	      76.5	   15.4462	    2.5201	 6.9206e+07	      76.5	   15.4726	   2.52798	6.71871e+07	      76.5	   15.4602	   2.50524	7.08796e+07	      76.5	   15.4594	   2.52404	6.81935e+07	      76.5	   15.4664	   2.51661	6.90205e+07	      76.5	   15.4532	   2.51267	7.00208e+07	       N/A	       N/A	       N/A	        N/A	       N/A	       N/A	       N/A	        N/A	
         R10	   5963	      76.5	   15.5371	   2.45443	6.87731e+07	      76.5	   15.5285	   2.47502	6.85887e+07	      76.5	   15.5704	   2.47027	  6.474e+07	      76.5	   15.5328	   2.46473	6.86354e+07	      76.5	   15.5494	   2.47265	6.66364e+07	      76.5	   15.5537	   2.46235	6.67445e+07	       N/A	       N/A	       N/A	        N/A	       N/A	       N/A	       N/A	        N/A	
         R10	   5964	      76.5	   15.5585	   2.34324	6.51391e+07	      76.5	   15.5555	   2.35957	6.62638e+07	      76.5	    15.585	   2.35516	6.32403e+07	      76.5	    15.557	    2.3514	6.56733e+07	      76.5	   15.5702	   2.35737	6.47457e+07	      76.5	   15.5717	    2.3492	6.41533e+07	       N/A	       N/A	       N/A	        N/A	       N/A	       N/A	       N/A	        N/A	
         R10	   5965	      76.5	   15.6177	   2.38533	6.16214e+07	      76.5	   15.6771	    2.3798	5.80361e+07	      76.5	   15.6287	   2.34646	6.02392e+07	      76.5	   15.6474	   2.38256	5.97981e+07	      76.5	   15.6529	   2.36313	5.90508e+07	      76.5	   15.6232	    2.3659	 6.0849e+07	       N/A	       N/A	       N/A	        N/A	       N/A	       N/A	       N/A	        N/A	
         R10	   5966	    76.347	      15.3	      2.23	3.63415e+07	     76.33	      15.3	      2.23	3.45881e+07	     76.33	      15.3	     2.247	3.44666e+07	    76.347	      15.3	     2.247	3.63051e+07	   76.3385	      15.3	      2.23	3.54575e+07	     76.33	      15.3	    2.2385	3.45216e+07	   76.3385	      15.3	     2.247	3.53777e+07	    76.347	      15.3	    2.2385	3.63166e+07	
         R10	   5967	    76.347	      15.3	     2.247	3.63083e+07	     76.33	      15.3	     2.247	3.44663e+07	     76.33	      15.3	     2.264	3.42041e+07	    76.347	      15.3	     2.264	3.61314e+07	   76.3385	      15.3	     2.247	3.53791e+07	     76.33	      15.3	    2.2555	3.43289e+07	   76.3385	      15.3	     2.264	3.51583e+07	    76.347	      15.3	    2.2555	3.62126e+07	
         R10	   5968	    76.347	      15.3	     2.264	3.61355e+07	     76.33	      15.3	     2.264	3.41998e+07	     76.33	      15.3	     2.281	3.38161e+07	    76.347	      15.3	     2.281	3.57578e+07	   76.3385	      15.3	     2.264	3.51584e+07	     76.33	      15.3	    2.2725	3.40014e+07	   76.3385	      15.3	     2.281	3.47761e+07	    76.347	      15.3	    2.2725	 3.5939e+07	
         R10	   5969	    76.347	      15.3	     2.281	3.57655e+07	     76.33	      15.3	     2.281	3.37946e+07	     76.33	      15.3	     2.298	3.32499e+07	    76.347	      15.3	     2.298	3.51755e+07	   76.3385	      15.3	     2.281	3.47696e+07	     76.33	      15.3	    2.2895	3.35158e+07	   76.3385	      15.3	     2.298	3.42002e+07	    76.347	      15.3	    2.2895	3.54631e+07	
         R10	   5970	    76.347	      15.3	     2.298	3.51757e+07	     76.33	      15.3	     2.298	3.32389e+07	     76.33	      15.3	     2.315	3.25475e+07	    76.347	      15.3	     2.315	3.43585e+07	   76.3385	      15.3	     2.298	 3.4195e+07	     76.33	      15.3	    2.3065	3.28877e+07	   76.3385	      15.3	     2.315	3.34391e+07	    76.347	      15.3	    2.3065	3.47603e+07	
         R10	   5971	    76.347	      15.3	     2.315	3.43524e+07	     76.33	      15.3	     2.315	3.25387e+07	     76.33	      15.3	     2.332	3.17764e+07	    76.347	      15.3	     2.332	3.33568e+07	   76.3385	      15.3	     2.315	3.34317e+07	     76.33	      15.3	    2.3235	3.21528e+07	   76.3385	      15.3	     2.332	3.25515e+07	    76.347	      15.3	    2.3235	3.38491e+07	
         R10	   5972	    76.347	      15.3	     2.332	3.33395e+07	     76.33	      15.3	     2.332	3.17703e+07	     76.33	      15.3	     2.349	3.10482e+07	    76.347	      15.3	     2.349	3.22988e+07	   76.3385	      15.3	     2.332	3.25398e+07	     76.33	      15.3	    2.3405	3.14047e+07	   76.3385	      15.3	     2.349	3.16581e+07	    76.347	      15.3	    2.3405	3.28145e+07	
         R10	   5973	    76.347	      15.3	     2.349	 3.2269e+07	     76.33	      15.3	     2.349	 3.1041e+07	     76.33	      15.3	     2.366	3.05757e+07	    76.347	      15.3	     2.366	3.14174e+07	   76.3385	      15.3	     2.349	3.16398e+07	     76.33	      15.3	    2.3575	3.08032e+07	   76.3385	      15.3	     2.366	3.09826e+07	    76.347	      15.3	    2.3575	3.18375e+07	
         R10	   5974	    76.347	      15.3	     2.366	3.13964e+07	     76.33	      15.3	     2.366	3.05646e+07	     76.33	      15.3	     2.383	3.05179e+07	    76.347	      15.3	     2.383	3.11681e+07	   76.3385	      15.3	     2.366	3.09667e+07	     76.33	      15.3	    2.3745	3.05354e+07	   76.3385	      15.3	     2.383	3.08307e+07	    76.347	      15.3	    2.3745	3.12729e+07	
         R10	   5975	    76.347	      15.3	     2.383	3.11207e+07	     76.33	      15.3	     2.383	3.05268e+07	     76.33	      15.3	       2.4	3.12858e+07	    76.347	      15.3	       2.4	3.16617e+07	   76.3385	      15.3	     2.383	3.08112e+07	     76.33	      15.3	    2.3915	3.08997e+07	   76.3385	      15.3	       2.4	3.14639e+07	    76.347	      15.3	    2.3915	3.13825e+07	
         R10	   5976	    76.364	      15.3	     2.383	3.16645e+07	    76.347	      15.3	     2.383	3.11414e+07	    76.347	      15.3	       2.4	3.17348e+07	    76.364	      15.3	       2.4	3.22744e+07	   76.3555	      15.3	     2.383	3.13866e+07	    76.347	      15.3	    2.3915	3.14289e+07	   76.3555	      15.3	       2.4	3.19884e+07	    76.364	      15.3	    2.3915	3.19491e+07	
         R10	   5977	    76.364	      15.3	     2.383	3.16462e+07	    76.364	      15.3	       2.4	3.22992e+07	    76.381	      15.3	       2.4	3.25683e+07	    76.381	      15.3	     2.383	3.21653e+07	    76.364	      15.3	    2.3915	3.19518e+07	   76.3725	      15.3	       2.4	3.24088e+07	    76.381	      15.3	    2.3915	3.23315e+07	   76.3725	      15.3	     2.383	3.18818e+07	
         R10	   5978	    76.381	      15.3	     2.383	3.21889e+07	    76.381	      15.3	       2.4	3.26219e+07	    76.398	      15.3	       2.4	3.28636e+07	    76.398	      15.3	     2.383	3.28153e+07	    76.381	      15.3	    2.3915	3.23708e+07	   76.3895	      15.3	       2.4	3.26977e+07	    76.398	      15.3	    2.3915	3.27613e+07	   76.3895	      15.3	     2.383	3.24639e+07	
         R10	   5979	    76.398	      15.3	     2.383	3.27936e+07	    76.398	      15.3	       2.4	3.29006e+07	    76.415	      15.3	       2.4	3.28835e+07	    76.415	      15.3	     2.383	3.37312e+07	    76.398	      15.3	    2.3915	  3.277e+07	   76.4065	      15.3	       2.4	3.28032e+07	    76.415	      15.3	    2.3915	3.31589e+07	   76.4065	      15.3	     2.383	3.32019e+07	
         R10	   5980	    76.415	      15.3	     2.383	3.37762e+07	    76.415	      15.3	       2.4	3.28789e+07	    76.432	      15.3	       2.4	3.36471e+07	    76.432	      15.3	     2.383	3.56073e+07	    76.415	      15.3	    2.3915	 3.3186e+07	   76.4235	      15.3	       2.4	3.30584e+07	    76.432	      15.3	    2.3915	3.42837e+07	   76.4235	      15.3	     2.383	3.46046e+07	
         R10	   5981	    76.432	      15.3	     2.383	 3.5535e+07	    76.432	      15.3	       2.4	 3.3526e+07	    76.449	      15.3	       2.4	3.55032e+07	    76.449	      15.3	     2.383	3.92471e+07	    76.432	      15.3	    2.3915	3.41879e+07	   76.4405	      15.3	       2.4	3.41049e+07	    76.449	      15.3	    2.3915	3.65518e+07	   76.4405	      15.3	     2.383	3.72868e+07	
         R10	   5982	    76.449	      15.3	     2.383	3.92673e+07	    76.449	      15.3	       2.4	3.53751e+07	    76.466	      15.3	       2.4	4.21087e+07	    76.466	      15.3	     2.383	4.55892e+07	    76.449	      15.3	    2.3915	3.64955e+07	   76.4575	      15.3	       2.4	3.80998e+07	    76.466	      15.3	    2.3915	4.16218e+07	   76.4575	      15.3	     2.383	 4.2289e+07	
         R10	   5983	    76.466	      15.3	     2.383	4.66616e+07	    76.466	      15.3	       2.4	4.15879e+07	    76.483	      15.3	       2.4	5.22112e+07	    76.483	      15.3	     2.383	5.92907e+07	    76.466	      15.3	    2.3915	4.19133e+07	   76.4745	      15.3	       2.4	4.58609e+07	    76.483	      15.3	    2.3915	5.05441e+07	   76.4745	      15.3	     2.383	 5.2202e+07	
         R10	   5984	    76.483	      15.3	     2.383	6.19084e+07	    76.483	      15.3	       2.4	5.25866e+07	      76.5	      15.3	       2.4	8.14697e+07	      76.5	      15.3	     2.383	 8.6627e+07	    76.483	      15.3	    2.3915	5.19524e+07	   76.4915	      15.3	       2.4	 6.4097e+07	      76.5	      15.3	    2.3915	7.69884e+07	   76.4915	      15.3	     2.383	6.92079e+07	
         R10	   5985	    76.483	      15.3	     2.366	  7.039e+07	    76.483	      15.3	     2.383	6.04256e+07	      76.5	      15.3	     2.383	8.58707e+07	      76.5	      15.3	     2.366	7.99095e+07	    76.483	      15.3	    2.3745	6.48138e+07	   76.4915	      15.3	     2.383	6.82541e+07	      76.5	      15.3	    2.3745	8.25785e+07	   76.4915	      15.3	     2.366	7.35058e+07	
         R10	   5986	    76.483	      15.3	     2.366	6.83878e+07	      76.5	      15.3	     2.366	7.89921e+07	      76.5	      15.3	     2.349	7.22632e+07	    76.483	      15.3	     2.349	6.85486e+07	   76.4915	      15.3	     2.366	7.20707e+07	      76.5	      15.3	    2.3575	7.55512e+07	   76.4915	      15.3	     2.349	6.96754e+07	    76.483	      15.3	    2.3575	6.84358e+07	
         R10	   5987	    76.483	      15.3	     2.349	6.81616e+07	      76.5	      15.3	     2.349	7.19332e+07	      76.5	      15.3	     2.332	6.56306e+07	    76.483	      15.3	     2.332	6.49511e+07	   76.4915	      15.3	     2.349	6.93134e+07	      76.5	      15.3	    2.3405	6.87372e+07	   76.4915	      15.3	     2.332	6.49661e+07	    76.483	      15.3	    2.3405	6.65529e+07	
         R10	   5988	    76.483	      15.3	     2.332	6.48368e+07	      76.5	      15.3	     2.332	6.54978e+07	      76.5	      15.3	     2.315	6.07132e+07	    76.483	      15.3	     2.315	6.10337e+07	   76.4915	      15.3	     2.332	6.48407e+07	      76.5	      15.3	    2.3235	6.30807e+07	   76.4915	      15.3	     2.315	6.07206e+07	    76.483	      15.3	    2.3235	6.29351e+07	
         R10	   5989	    76.483	      15.3	     2.315	6.10371e+07	      76.5	      15.3	     2.315	6.06544e+07	      76.5	      15.3	     2.298	5.70311e+07	    76.483	      15.3	     2.298	5.75762e+07	   76.4915	      15.3	     2.315	6.06917e+07	      76.5	      15.3	    2.3065	5.88298e+07	   76.4915	      15.3	     2.298	5.72257e+07	    76.483	      15.3	    2.3065	5.93065e+07	
         R10	   5990	    76.483	      15.3	     2.298	   5.76e+07	      76.5	      15.3	     2.298	5.70088e+07	      76.5	      15.3	     2.281	5.41869e+07	    76.483	      15.3	     2.281	5.46727e+07	   76.4915	      15.3	     2.298	 5.7226e+07	      76.5	      15.3	    2.2895	5.55913e+07	   76.4915	      15.3	     2.281	5.43864e+07	    76.483	      15.3	    2.2895	5.61361e+07	
         R10	   5991	    76.483	      15.3	     2.281	5.46939e+07	      76.5	      15.3	     2.281	5.41845e+07	      76.5	      15.3	     2.264	5.19125e+07	    76.483	      15.3	     2.264	5.22564e+07	   76.4915	      15.3	     2.281	5.43958e+07	      76.5	      15.3	    2.2725	5.30452e+07	   76.4915	      15.3	     2.264	 5.2058e+07	    76.483	      15.3	    2.2725	5.34749e+07	
         R10	   5992	    76.483	      15.3	     2.264	5.22704e+07	      76.5	      15.3	     2.264	5.19181e+07	      76.5	      15.3	     2.247	5.00383e+07	    76.483	      15.3	     2.247	 5.0235e+07	   76.4915	      15.3	     2.264	 5.2068e+07	      76.5	      15.3	    2.2555	5.09765e+07	   76.4915	      15.3	     2.247	5.01194e+07	    76.483	      15.3	    2.2555	5.12525e+07	
         R10	   5993	    76.483	      15.3	     2.247	5.02471e+07	      76.5	      15.3	     2.247	5.00255e+07	      76.5	      15.3	      2.23	 4.8478e+07	    76.483	      15.3	      2.23	4.84966e+07	   76.4915	      15.3	     2.247	5.01189e+07	      76.5	      15.3	    2.2385	4.92508e+07	   76.4915	      15.3	      2.23	4.84755e+07	    76.483	      15.3	    2.2385	4.93716e+07	
         R10	   5994	    76.466	      15.3	     2.247	4.97584e+07	    76.483	      15.3	     2.247	5.02498e+07	    76.483	      15.3	      2.23	4.85195e+07	    76.466	      15.3	      2.23	4.80674e+07	   76.4745	      15.3	     2.247	4.99821e+07	    76.483	      15.3	    2.2385	4.93844e+07	   76.4745	      15.3	      2.23	4.82779e+07	    76.466	      15.3	    2.2385	4.89121e+07	
         R10	   5995	    76.466	      15.3	     2.247	4.97489e+07	    76.466	      15.3	      2.23	4.80693e+07	    76.449	      15.3	      2.23	4.71119e+07	    76.449	      15.3	     2.247	 4.8616e+07	    76.466	      15.3	    2.2385	4.89082e+07	   76.4575	      15.3	      2.23	4.75738e+07	    76.449	      15.3	    2.2385	4.78614e+07	   76.4575	      15.3	     2.247	4.91592e+07	
         R10	   5996	    76.449	      15.3	     2.247	4.85997e+07	    76.449	      15.3	      2.23	4.71073e+07	    76.432	      15.3	      2.23	 4.5726e+07	    76.432	      15.3	     2.247	 4.6946e+07	    76.449	      15.3	    2.2385	4.78509e+07	   76.4405	      15.3	      2.23	4.64006e+07	    76.432	      15.3	    2.2385	4.63314e+07	   76.4405	      15.3	     2.247	4.77513e+07	
         R10	   5997	    76.432	      15.3	     2.247	4.69284e+07	    76.432	      15.3	      2.23	4.57136e+07	    76.415	      15.3	      2.23	4.40287e+07	    76.415	      15.3	     2.247	4.49258e+07	    76.432	      15.3	    2.2385	4.63164e+07	   76.4235	      15.3	      2.23	4.48568e+07	    76.415	      15.3	    2.2385	4.44709e+07	   76.4235	      15.3	     2.247	4.59088e+07	
         R10	   5998	    76.415	      15.3	     2.247	4.49106e+07	    76.415	      15.3	      2.23	4.40122e+07	    76.398	      15.3	      2.23	4.21347e+07	    76.398	      15.3	     2.247	4.27288e+07	    76.415	      15.3	    2.2385	4.44551e+07	   76.4065	      15.3	      2.23	4.30612e+07	    76.398	      15.3	    2.2385	4.24244e+07	   76.4065	      15.3	     2.247	4.38048e+07	
         R10	   5999	    76.398	      15.3	     2.247	4.27166e+07	    76.398	      15.3	      2.23	4.21205e+07	    76.381	      15.3	      2.23	4.01648e+07	    76.381	      15.3	     2.247	4.04978e+07	    76.398	      15.3	    2.2385	4.24112e+07	   76.3895	      15.3	      2.23	4.11323e+07	    76.381	      15.3	    2.2385	4.03237e+07	   76.3895	      15.3	     2.247	4.15952e+07	
         R10	   6000	    76.381	      15.3	     2.247	4.04888e+07	    76.381	      15.3	      2.23	4.01531e+07	    76.364	      15.3	      2.23	3.82085e+07	    76.364	      15.3	     2.247	3.83347e+07	    76.381	      15.3	    2.2385	4.03135e+07	   76.3725	      15.3	      2.23	3.91719e+07	    76.364	      15.3	    2.2385	3.82643e+07	   76.3725	      15.3	     2.247	3.94016e+07	
         R10	   6001	    76.364	      15.3	     2.247	3.83225e+07	    76.364	      15.3	      2.23	3.82132e+07	    76.347	      15.3	      2.23	3.63279e+07	    76.347	      15.3	     2.247	3.63095e+07	    76.364	      15.3	    2.2385	3.82605e+07	   76.3555	      15.3	      2.23	3.72626e+07	    76.347	      15.3	    2.2385	3.63121e+07	   76.3555	      15.3	     2.247	3.73072e+07	
         R10	   6002	    76.364	      15.3	     2.264	3.82923e+07	    76.364	      15.3	     2.247	3.83307e+07	    76.347	      15.3	     2.247	3.63161e+07	    76.347	      15.3	     2.264	 3.6131e+07	    76.364	      15.3	    2.2555	3.83032e+07	   76.3555	      15.3	     2.247	3.73146e+07	    76.347	      15.3	    2.2555	3.62161e+07	   76.3555	      15.3	     2.264	3.72014e+07	
         R10	   6003	    76.364	      15.3	     2.264	3.82972e+07	    76.347	      15.3	     2.264	3.61372e+07	    76.347	      15.3	     2.281	3.57618e+07	    76.364	      15.3	     2.281	3.80295e+07	   76.3555	      15.3	     2.264	 3.7207e+07	    76.347	      15.3	    2.2725	3.59419e+07	   76.3555	      15.3	     2.281	3.68841e+07	    76.364	      15.3	    2.2725	3.81541e+07	
         R10	   6004	    76.364	      15.3	     2.281	3.80341e+07	    76.347	      15.3	     2.281	3.57662e+07	    76.347	      15.3	     2.298	3.51734e+07	    76.364	      15.3	     2.298	3.74783e+07	   76.3555	      15.3	     2.281	3.68885e+07	    76.347	      15.3	    2.2895	3.54623e+07	   76.3555	      15.3	     2.298	3.63126e+07	    76.364	      15.3	    2.2895	3.77466e+07	
         R10	   6005	    76.364	      15.3	     2.298	3.74801e+07	    76.347	      15.3	     2.298	3.51714e+07	    76.347	      15.3	     2.315	 3.4356e+07	    76.364	      15.3	     2.315	3.65852e+07	   76.3555	      15.3	     2.298	3.63124e+07	    76.347	      15.3	    2.3065	3.47569e+07	   76.3555	      15.3	     2.315	3.54552e+07	    76.364	      15.3	    2.3065	3.70237e+07	
         R10	   6006	    76.364	      15.3	     2.315	3.65816e+07	    76.347	      15.3	     2.315	3.43448e+07	    76.347	      15.3	     2.332	3.33523e+07	    76.364	      15.3	     2.332	3.53486e+07	   76.3555	      15.3	     2.315	3.54479e+07	    76.347	      15.3	    2.3235	 3.3843e+07	   76.3555	      15.3	     2.332	3.43329e+07	    76.364	      15.3	    2.3235	3.59581e+07	
         R10	   6007	    76.364	      15.3	     2.332	 3.5334e+07	    76.347	      15.3	     2.332	3.33305e+07	    76.347	      15.3	     2.349	3.22884e+07	    76.364	      15.3	     2.349	3.38801e+07	   76.3555	      15.3	     2.332	3.43147e+07	    76.347	      15.3	    2.3405	3.28047e+07	   76.3555	      15.3	     2.349	3.30651e+07	    76.364	      15.3	    2.3405	3.46022e+07	
         R10	   6008	    76.364	      15.3	     2.349	3.38474e+07	    76.347	      15.3	     2.349	3.22595e+07	    76.347	      15.3	     2.366	3.14334e+07	    76.364	      15.3	     2.366	3.24708e+07	   76.3555	      15.3	     2.349	3.30344e+07	    76.347	      15.3	    2.3575	3.18408e+07	   76.3555	      15.3	     2.366	3.19336e+07	    76.364	      15.3	    2.3575	3.31535e+07	
         R10	   6009	    76.364	      15.3	     2.366	 3.2419e+07	    76.347	      15.3	     2.366	3.13991e+07	    76.347	      15.3	     2.383	3.11206e+07	    76.364	      15.3	     2.383	3.17076e+07	   76.3555	      15.3	     2.366	3.18907e+07	    76.347	      15.3	    2.3745	3.12509e+07	   76.3555	      15.3	     2.383	3.13972e+07	    76.364	      15.3	    2.3745	 3.2051e+07	
         R10	   6010	    76.381	      15.3	     2.366	3.37724e+07	    76.364	      15.3	     2.366	3.24189e+07	    76.364	      15.3	     2.383	3.16966e+07	    76.381	      15.3	     2.383	3.22978e+07	   76.3725	      15.3	     2.366	3.30706e+07	    76.364	      15.3	    2.3745	3.20453e+07	   76.3725	      15.3	     2.383	 3.1973e+07	    76.381	      15.3	    2.3745	3.30191e+07	
         R10	   6011	    76.381	      15.3	     2.366	3.37574e+07	    76.381	      15.3	     2.383	3.22757e+07	    76.398	      15.3	     2.383	3.30315e+07	    76.398	      15.3	     2.366	3.56652e+07	    76.381	      15.3	    2.3745	3.30001e+07	   76.3895	      15.3	     2.383	3.26142e+07	    76.398	      15.3	    2.3745	3.43318e+07	   76.3895	      15.3	     2.366	3.46782e+07	
         R10	   6012	    76.398	      15.3	     2.366	3.56367e+07	    76.398	      15.3	     2.383	3.30089e+07	    76.415	      15.3	     2.383	3.41726e+07	    76.415	      15.3	     2.366	3.85292e+07	    76.398	      15.3	    2.3745	 3.4305e+07	   76.4065	      15.3	     2.383	3.35307e+07	    76.415	      15.3	    2.3745	3.63359e+07	   76.4065	      15.3	     2.366	3.70409e+07	
         R10	   6013	    76.415	      15.3	     2.366	3.84663e+07	    76.415	      15.3	     2.383	3.41527e+07	    76.432	      15.3	     2.383	3.62912e+07	    76.432	      15.3	     2.366	4.28099e+07	    76.415	      15.3	    2.3745	3.62928e+07	   76.4235	      15.3	     2.383	3.51324e+07	    76.432	      15.3	    2.3745	3.95243e+07	   76.4235	      15.3	     2.366	4.05896e+07	
         R10	   6014	    76.432	      15.3	     2.366	4.27533e+07	    76.432	      15.3	     2.383	3.63356e+07	    76.449	      15.3	     2.383	4.01884e+07	    76.449	      15.3	     2.366	 4.9125e+07	    76.432	      15.3	    2.3745	3.95177e+07	   76.4405	      15.3	     2.383	3.81589e+07	    76.449	      15.3	    2.3745	4.45639e+07	   76.4405	      15.3	     2.366	4.58643e+07	
         R10	   6015	    76.449	      15.3	     2.366	 4.9115e+07	    76.449	      15.3	     2.383	4.03957e+07	    76.466	      15.3	     2.383	4.71583e+07	    76.466	      15.3	     2.366	 5.7519e+07	    76.449	      15.3	    2.3745	4.46611e+07	   76.4575	      15.3	     2.383	4.36095e+07	    76.466	      15.3	    2.3745	5.20538e+07	   76.4575	      15.3	     2.366	5.31285e+07	
         R10	   6016	    76.466	      15.3	     2.366	5.75095e+07	    76.466	      15.3	     2.383	4.85886e+07	    76.483	      15.3	     2.383	5.65139e+07	    76.483	      15.3	     2.366	6.85188e+07	    76.466	      15.3	    2.3745	5.27442e+07	   76.4745	      15.3	     2.383	5.17964e+07	    76.483	      15.3	    2.3745	6.22574e+07	   76.4745	      15.3	     2.366	6.23652e+07	
         R10	   6017	    76.466	      15.3	     2.349	6.17989e+07	    76.466	      15.3	     2.366	5.75849e+07	    76.483	      15.3	     2.366	6.79288e+07	    76.483	      15.3	     2.349	6.78609e+07	    76.466	      15.3	    2.3575	5.96052e+07	   76.4745	      15.3	     2.366	6.20822e+07	    76.483	      15.3	    2.3575	6.78535e+07	   76.4745	      15.3	     2.349	6.44147e+07	
         R10	   6018	    76.466	      15.3	     2.349	 6.1407e+07	    76.483	      15.3	     2.349	 6.7634e+07	    76.483	      15.3	     2.332	6.46977e+07	    76.466	      15.3	     2.332	6.11115e+07	   76.4745	      15.3	     2.349	6.40984e+07	    76.483	      15.3	    2.3405	6.61624e+07	   76.4745	      15.3	     2.332	6.26622e+07	    76.466	      15.3	    2.3405	6.12214e+07	
         R10	   6019	    76.466	      15.3	     2.332	 6.0886e+07	    76.483	      15.3	     2.332	 6.4633e+07	    76.483	      15.3	     2.315	6.09616e+07	    76.466	      15.3	     2.315	5.89339e+07	   76.4745	      15.3	     2.332	6.25159e+07	    76.483	      15.3	    2.3235	6.27969e+07	   76.4745	      15.3	     2.315	5.98058e+07	    76.466	      15.3	    2.3235	5.98942e+07	
         R10	   6020	    76.466	      15.3	     2.315	5.88371e+07	    76.483	      15.3	     2.315	6.09451e+07	    76.483	      15.3	     2.298	  5.757e+07	    76.466	      15.3	     2.298	5.63669e+07	   76.4745	      15.3	     2.315	5.97486e+07	    76.483	      15.3	    2.3065	5.92575e+07	   76.4745	      15.3	     2.298	5.68845e+07	    76.466	      15.3	    2.3065	 5.7595e+07	
         R10	   6021	    76.466	      15.3	     2.298	5.63315e+07	    76.483	      15.3	     2.298	 5.7569e+07	    76.483	      15.3	     2.281	5.46842e+07	    76.466	      15.3	     2.281	5.39025e+07	   76.4745	      15.3	     2.298	5.68659e+07	    76.483	      15.3	    2.2895	5.61265e+07	   76.4745	      15.3	     2.281	 5.4242e+07	    76.466	      15.3	    2.2895	5.51137e+07	
         R10	   6022	    76.466	      15.3	     2.281	5.38945e+07	    76.483	      15.3	     2.281	5.46862e+07	    76.483	      15.3	     2.264	 5.2271e+07	    76.466	      15.3	     2.264	  5.169e+07	   76.4745	      15.3	     2.281	5.42386e+07	    76.483	      15.3	    2.2725	5.34784e+07	   76.4745	      15.3	     2.264	5.19477e+07	    76.466	      15.3	    2.2725	5.27905e+07	
         R10	   6023	    76.466	      15.3	     2.264	5.16921e+07	    76.483	      15.3	     2.264	5.22737e+07	    76.483	      15.3	     2.247	5.02393e+07	    76.466	      15.3	     2.247	4.97553e+07	   76.4745	      15.3	     2.264	5.19499e+07	    76.483	      15.3	    2.2555	5.12563e+07	   76.4745	      15.3	     2.247	4.99753e+07	    76.466	      15.3	    2.2555	5.07225e+07	
         R10	   6024	    76.449	      15.3	     2.264	5.02575e+07	    76.466	      15.3	     2.264	5.16752e+07	    76.466	      15.3	     2.247	4.97499e+07	    76.449	      15.3	     2.247	4.86181e+07	   76.4575	      15.3	     2.264	5.09331e+07	    76.466	      15.3	    2.2555	5.07113e+07	   76.4575	      15.3	     2.247	4.91608e+07	    76.449	      15.3	    2.2555	 4.9434e+07	
         R10	   6025	    76.449	      15.3	     2.264	5.02333e+07	    76.449	      15.3	     2.247	4.86012e+07	    76.432	      15.3	     2.247	 4.6955e+07	    76.432	      15.3	     2.264	4.81954e+07	    76.449	      15.3	    2.2555	4.94134e+07	   76.4405	      15.3	     2.247	4.77565e+07	    76.432	      15.3	    2.2555	4.75686e+07	   76.4405	      15.3	     2.264	4.91853e+07	
         R10	   6026	    76.432	      15.3	     2.264	4.81701e+07	    76.432	      15.3	     2.247	4.69341e+07	    76.415	      15.3	     2.247	4.49371e+07	    76.415	      15.3	     2.264	 4.5768e+07	    76.432	      15.3	    2.2555	4.75455e+07	   76.4235	      15.3	     2.247	4.59173e+07	    76.415	      15.3	    2.2555	 4.5344e+07	   76.4235	      15.3	     2.264	4.69459e+07	
         R10	   6027	    76.415	      15.3	     2.264	4.57474e+07	    76.415	      15.3	     2.247	4.49185e+07	    76.398	      15.3	     2.247	4.27401e+07	    76.398	      15.3	     2.264	4.32035e+07	    76.415	      15.3	    2.2555	4.53244e+07	   76.4065	      15.3	     2.247	4.38144e+07	    76.398	      15.3	    2.2555	4.29624e+07	   76.4065	      15.3	     2.264	4.44576e+07	
         R10	   6028	    76.398	      15.3	     2.264	 4.3189e+07	    76.398	      15.3	     2.247	4.27246e+07	    76.381	      15.3	     2.247	4.05058e+07	    76.381	      15.3	     2.264	4.06752e+07	    76.398	      15.3	    2.2555	4.29474e+07	   76.3895	      15.3	     2.247	4.16031e+07	    76.381	      15.3	    2.2555	4.05813e+07	   76.3895	      15.3	     2.264	4.19181e+07	
         R10	   6029	    76.381	      15.3	     2.264	4.06659e+07	    76.381	      15.3	     2.247	4.04939e+07	    76.364	      15.3	     2.247	3.83392e+07	    76.364	      15.3	     2.264	3.82955e+07	    76.381	      15.3	    2.2555	4.05707e+07	   76.3725	      15.3	     2.247	3.94064e+07	    76.364	      15.3	    2.2555	 3.8309e+07	   76.3725	      15.3	     2.264	3.94691e+07	
         R10	   6030	    76.381	      15.3	     2.281	4.06001e+07	    76.381	      15.3	     2.264	4.06743e+07	    76.364	      15.3	     2.264	3.83023e+07	    76.364	      15.3	     2.281	3.80334e+07	    76.381	      15.3	    2.2725	4.06264e+07	   76.3725	      15.3	     2.264	3.94767e+07	    76.364	      15.3	    2.2725	3.81585e+07	   76.3725	      15.3	     2.281	3.93036e+07	
         R10	   6031	    76.381	      15.3	     2.281	4.06103e+07	    76.364	      15.3	     2.281	3.80379e+07	    76.364	      15.3	     2.298	3.74792e+07	    76.381	      15.3	     2.298	4.01855e+07	   76.3725	      15.3	     2.281	3.93109e+07	    76.364	      15.3	    2.2895	3.77489e+07	   76.3725	      15.3	     2.298	3.88174e+07	    76.381	      15.3	    2.2895	4.03859e+07	
         R10	   6032	    76.381	      15.3	     2.298	4.01956e+07	    76.364	      15.3	     2.298	3.74803e+07	    76.364	      15.3	     2.315	3.65835e+07	    76.381	      15.3	     2.315	3.93145e+07	   76.3725	      15.3	     2.298	 3.8823e+07	    76.364	      15.3	    2.3065	 3.7023e+07	   76.3725	      15.3	     2.315	3.79319e+07	    76.381	      15.3	    2.3065	3.97431e+07	
         R10	   6033	    76.381	      15.3	     2.315	3.93177e+07	    76.364	      15.3	     2.315	3.65752e+07	    76.364	      15.3	     2.332	3.53446e+07	    76.381	      15.3	     2.332	3.79004e+07	   76.3725	      15.3	     2.315	3.79293e+07	    76.364	      15.3	    2.3235	3.59529e+07	   76.3725	      15.3	     2.332	3.66025e+07	    76.381	      15.3	    2.3235	3.85993e+07	
         R10	   6034	    76.381	      15.3	     2.332	3.78883e+07	    76.364	      15.3	     2.332	3.53222e+07	    76.364	      15.3	     2.349	3.38698e+07	    76.381	      15.3	     2.349	3.59792e+07	   76.3725	      15.3	     2.332	3.65852e+07	    76.364	      15.3	    2.3405	 3.4591e+07	   76.3725	      15.3	     2.349	 3.4901e+07	    76.381	      15.3	    2.3405	3.69282e+07	
         R10	   6035	    76.381	      15.3	     2.349	3.59372e+07	    76.364	      15.3	     2.349	3.38322e+07	    76.364	      15.3	     2.366	3.24703e+07	    76.381	      15.3	     2.366	3.38445e+07	   76.3725	      15.3	     2.349	3.48614e+07	    76.364	      15.3	    2.3575	3.31455e+07	   76.3725	      15.3	     2.366	3.31322e+07	    76.381	      15.3	    2.3575	3.48868e+07	
         R10	   6036	    76.398	      15.3	     2.349	3.87785e+07	    76.381	      15.3	     2.349	3.59164e+07	    76.381	      15.3	     2.366	3.38371e+07	    76.398	      15.3	     2.366	3.57829e+07	   76.3895	      15.3	     2.349	3.73199e+07	    76.381	      15.3	    2.3575	3.48726e+07	   76.3895	      15.3	     2.366	3.47765e+07	    76.398	      15.3	    2.3575	 3.7279e+07	
         R10	   6037	    76.398	      15.3	     2.349	3.87509e+07	    76.398	      15.3	     2.366	 3.5773e+07	    76.415	      15.3	     2.366	 3.8661e+07	    76.415	      15.3	     2.349	4.26393e+07	    76.398	      15.3	    2.3575	3.72602e+07	   76.4065	      15.3	     2.366	3.71746e+07	    76.415	      15.3	    2.3575	 4.0647e+07	   76.4065	      15.3	     2.349	4.06627e+07	
         R10	   6038	    76.415	      15.3	     2.349	4.26288e+07	    76.415	      15.3	     2.366	3.86545e+07	    76.432	      15.3	     2.366	4.29703e+07	    76.432	      15.3	     2.349	4.77369e+07	    76.415	      15.3	    2.3575	4.06386e+07	   76.4235	      15.3	     2.366	4.07614e+07	    76.432	      15.3	    2.3575	4.53353e+07	   76.4235	      15.3	     2.349	  4.514e+07	
         R10	   6039	    76.432	      15.3	     2.349	4.77814e+07	    76.432	      15.3	     2.366	 4.3001e+07	    76.449	      15.3	     2.366	4.90806e+07	    76.449	      15.3	     2.349	5.41332e+07	    76.432	      15.3	    2.3575	4.53729e+07	   76.4405	      15.3	     2.366	4.59685e+07	    76.449	      15.3	    2.3575	5.15562e+07	   76.4405	      15.3	     2.349	5.08762e+07	
         R10	   6040	    76.449	      15.3	     2.349	5.43658e+07	    76.449	      15.3	     2.366	4.92741e+07	    76.466	      15.3	     2.366	5.74351e+07	    76.466	      15.3	     2.349	6.11682e+07	    76.449	      15.3	    2.3575	5.17619e+07	   76.4575	      15.3	     2.366	5.31549e+07	    76.466	      15.3	    2.3575	 5.9229e+07	   76.4575	      15.3	     2.349	 5.7575e+07	
         R10	   6041	    76.449	      15.3	     2.332	5.57312e+07	    76.449	      15.3	     2.349	5.41771e+07	    76.466	      15.3	     2.349	6.09778e+07	    76.466	      15.3	     2.332	6.08551e+07	    76.449	      15.3	    2.3405	5.49085e+07	   76.4575	      15.3	     2.349	5.73909e+07	    76.466	      15.3	    2.3405	6.08845e+07	   76.4575	      15.3	     2.332	5.81467e+07	
         R10	   6042	    76.449	      15.3	     2.332	5.55835e+07	    76.466	      15.3	     2.332	6.07167e+07	    76.466	      15.3	     2.315	5.87807e+07	    76.449	      15.3	     2.315	5.52023e+07	   76.4575	      15.3	     2.332	5.80045e+07	    76.466	      15.3	    2.3235	5.97334e+07	   76.4575	      15.3	     2.315	5.68874e+07	    76.449	      15.3	    2.3235	5.53638e+07	
         R10	   6043	    76.449	      15.3	     2.315	5.51033e+07	    76.466	      15.3	     2.315	5.87179e+07	    76.466	      15.3	     2.298	5.62973e+07	    76.449	      15.3	     2.298	5.37574e+07	   76.4575	      15.3	     2.315	 5.6807e+07	    76.466	      15.3	    2.3065	5.75005e+07	   76.4575	      15.3	     2.298	5.49563e+07	    76.449	      15.3	    2.3065	5.44132e+07	
         R10	   6044	    76.449	      15.3	     2.298	5.37077e+07	    76.466	      15.3	     2.298	5.62707e+07	    76.466	      15.3	     2.281	5.38705e+07	    76.449	      15.3	     2.281	5.20205e+07	   76.4575	      15.3	     2.298	5.49182e+07	    76.466	      15.3	    2.2895	5.50671e+07	   76.4575	      15.3	     2.281	5.28972e+07	    76.449	      15.3	    2.2895	5.28542e+07	
         R10	   6045	    76.449	      15.3	     2.281	5.19974e+07	    76.466	      15.3	     2.281	5.38613e+07	    76.466	      15.3	     2.264	5.16778e+07	    76.449	      15.3	     2.264	5.02667e+07	   76.4575	      15.3	     2.281	 5.2881e+07	    76.466	      15.3	    2.2725	5.27676e+07	   76.4575	      15.3	     2.264	5.09391e+07	    76.449	      15.3	    2.2725	5.11261e+07	
         R10	   6046	    76.432	      15.3	     2.281	4.93856e+07	    76.449	      15.3	     2.281	5.19575e+07	    76.449	      15.3	     2.264	5.02398e+07	    76.432	      15.3	     2.264	4.82122e+07	   76.4405	      15.3	     2.281	5.06325e+07	    76.449	      15.3	    2.2725	5.10927e+07	   76.4405	      15.3	     2.264	 4.9197e+07	    76.432	      15.3	    2.2725	4.87892e+07	
         R10	   6047	    76.432	      15.3	     2.281	4.93498e+07	    76.432	      15.3	     2.264	4.81813e+07	    76.415	      15.3	     2.264	4.57856e+07	    76.415	      15.3	     2.281	4.64375e+07	    76.432	      15.3	    2.2725	4.87559e+07	   76.4235	      15.3	     2.264	4.69602e+07	    76.415	      15.3	    2.2725	4.60998e+07	   76.4235	      15.3	     2.281	4.78647e+07	
         R10	   6048	    76.415	      15.3	     2.281	4.64119e+07	    76.415	      15.3	     2.264	 4.5759e+07	    76.398	      15.3	     2.264	 4.3219e+07	    76.398	      15.3	     2.281	4.34466e+07	    76.415	      15.3	    2.2725	4.60738e+07	   76.4065	      15.3	     2.264	4.44711e+07	    76.398	      15.3	    2.2725	4.33209e+07	   76.4065	      15.3	     2.281	4.49082e+07	
         R10	   6049	    76.398	      15.3	     2.281	4.34306e+07	    76.398	      15.3	     2.264	4.31999e+07	    76.381	      15.3	     2.264	4.06864e+07	    76.381	      15.3	     2.281	4.06099e+07	    76.398	      15.3	    2.2725	4.33034e+07	   76.3895	      15.3	     2.264	 4.1929e+07	    76.381	      15.3	    2.2725	4.06373e+07	   76.3895	      15.3	     2.281	4.20042e+07	
         R10	   6050	    76.398	      15.3	     2.298	4.32981e+07	    76.398	      15.3	     2.281	4.34445e+07	    76.381	      15.3	     2.281	4.06209e+07	    76.381	      15.3	     2.298	4.01936e+07	    76.398	      15.3	    2.2895	4.33569e+07	   76.3895	      15.3	     2.281	4.20166e+07	    76.381	      15.3	    2.2895	4.03952e+07	   76.3895	      15.3	     2.298	4.17278e+07	
         R10	   6051	    76.398	      15.3	     2.298	 4.3315e+07	    76.381	      15.3	     2.298	4.02017e+07	    76.381	      15.3	     2.315	3.93173e+07	    76.398	      15.3	     2.315	4.26067e+07	   76.3895	      15.3	     2.298	4.17403e+07	    76.381	      15.3	    2.3065	3.97474e+07	   76.3895	      15.3	     2.315	4.09419e+07	    76.398	      15.3	    2.3065	4.29449e+07	
         R10	   6052	    76.398	      15.3	     2.315	 4.2621e+07	    76.381	      15.3	     2.315	3.93159e+07	    76.381	      15.3	     2.332	3.78983e+07	    76.398	      15.3	     2.332	4.11549e+07	   76.3895	      15.3	     2.315	4.09483e+07	    76.381	      15.3	    2.3235	3.85973e+07	   76.3895	      15.3	     2.332	3.95036e+07	    76.398	      15.3	    2.3235	4.18732e+07	
         R10	   6053	    76.398	      15.3	     2.332	4.11547e+07	    76.381	      15.3	     2.332	3.78759e+07	    76.381	      15.3	     2.349	3.59681e+07	    76.398	      15.3	     2.349	3.88175e+07	   76.3895	      15.3	     2.332	3.94923e+07	    76.381	      15.3	    2.3405	3.69164e+07	   76.3895	      15.3	     2.349	 3.7365e+07	    76.398	      15.3	    2.3405	3.99774e+07	
         R10	   6054	    76.415	      15.3	     2.332	4.52408e+07	    76.398	      15.3	     2.332	4.11502e+07	    76.398	      15.3	     2.349	3.88133e+07	    76.415	      15.3	     2.349	 4.2661e+07	   76.4065	      15.3	     2.332	 4.3167e+07	    76.398	      15.3	    2.3405	 3.9973e+07	   76.4065	      15.3	     2.349	4.07046e+07	    76.415	      15.3	    2.3405	4.39339e+07	
         R10	   6055	    76.415	      15.3	     2.332	4.52641e+07	    76.415	      15.3	     2.349	4.26781e+07	    76.432	      15.3	     2.349	4.77151e+07	    76.432	      15.3	     2.332	5.01353e+07	    76.415	      15.3	    2.3405	 4.3954e+07	   76.4235	      15.3	     2.349	4.51534e+07	    76.432	      15.3	    2.3405	4.88944e+07	   76.4235	      15.3	     2.332	4.76565e+07	
         R10	   6056	    76.432	      15.3	     2.332	 5.0214e+07	    76.432	      15.3	     2.349	4.77878e+07	    76.449	      15.3	     2.349	5.39881e+07	    76.449	      15.3	     2.332	 5.5562e+07	    76.432	      15.3	    2.3405	4.89691e+07	   76.4405	      15.3	     2.349	5.08075e+07	    76.449	      15.3	    2.3405	5.47334e+07	   76.4405	      15.3	     2.332	  5.281e+07	
         R10	   6057	    76.432	      15.3	     2.315	5.08358e+07	    76.432	      15.3	     2.332	5.01445e+07	    76.449	      15.3	     2.332	5.54657e+07	    76.449	      15.3	     2.315	5.50647e+07	    76.432	      15.3	    2.3235	5.04608e+07	   76.4405	      15.3	     2.332	5.27272e+07	    76.449	      15.3	    2.3235	5.52375e+07	   76.4405	      15.3	     2.315	5.28842e+07	
         R10	   6058	    76.432	      15.3	     2.315	5.07636e+07	    76.449	      15.3	     2.315	5.50075e+07	    76.449	      15.3	     2.298	5.36777e+07	    76.432	      15.3	     2.298	5.03948e+07	   76.4405	      15.3	     2.315	5.28198e+07	    76.449	      15.3	    2.3065	 5.4326e+07	   76.4405	      15.3	     2.298	5.19845e+07	    76.432	      15.3	    2.3065	5.05577e+07	
         R10	   6059	    76.432	      15.3	     2.298	5.03438e+07	    76.449	      15.3	     2.298	5.36458e+07	    76.449	      15.3	     2.281	 5.1973e+07	    76.432	      15.3	     2.281	4.94167e+07	   76.4405	      15.3	     2.298	5.19432e+07	    76.449	      15.3	    2.2895	5.27995e+07	   76.4405	      15.3	     2.281	5.06558e+07	    76.432	      15.3	    2.2895	4.98657e+07	
         R10	   6060	    76.415	      15.3	     2.298	 4.6763e+07	    76.432	      15.3	     2.298	5.02989e+07	    76.432	      15.3	     2.281	4.93692e+07	    76.415	      15.3	     2.281	4.64641e+07	   76.4235	      15.3	     2.298	4.84959e+07	    76.432	      15.3	    2.2895	4.98197e+07	   76.4235	      15.3	     2.281	4.78876e+07	    76.415	      15.3	    2.2895	4.65977e+07	
         R10	   6061	    76.415	      15.3	     2.298	4.67315e+07	    76.415	      15.3	     2.281	4.64301e+07	    76.398	      15.3	     2.281	4.34665e+07	    76.398	      15.3	     2.298	 4.3315e+07	    76.415	      15.3	    2.2895	4.65652e+07	   76.4065	      15.3	     2.281	4.49271e+07	    76.398	      15.3	    2.2895	4.33763e+07	   76.4065	      15.3	     2.298	4.49992e+07	
         R10	   6062	    76.415	      15.3	     2.315	4.64495e+07	    76.415	      15.3	     2.298	4.67584e+07	    76.398	      15.3	     2.298	4.33356e+07	    76.398	      15.3	     2.315	4.26215e+07	    76.415	      15.3	    2.3065	4.65842e+07	   76.4065	      15.3	     2.298	4.50228e+07	    76.398	      15.3	    2.3065	4.29624e+07	   76.4065	      15.3	     2.315	4.45091e+07	
         R10	   6063	    76.415	      15.3	     2.315	 4.6482e+07	    76.398	      15.3	     2.315	 4.2634e+07	    76.398	      15.3	     2.332	4.11634e+07	    76.415	      15.3	     2.332	4.52171e+07	   76.4065	      15.3	     2.315	4.45314e+07	    76.398	      15.3	    2.3235	4.18838e+07	   76.4065	      15.3	     2.332	4.31618e+07	    76.415	      15.3	    2.3235	4.58278e+07	
         R10	   6064	    76.415	      15.3	     2.315	4.65212e+07	    76.415	      15.3	     2.332	4.52464e+07	    76.432	      15.3	     2.332	5.00724e+07	    76.432	      15.3	     2.315	5.07511e+07	    76.415	      15.3	    2.3235	4.58616e+07	   76.4235	      15.3	     2.332	4.76167e+07	    76.432	      15.3	    2.3235	5.03836e+07	   76.4235	      15.3	     2.315	4.85957e+07	
         R10	   6065	    76.415	      15.3	     2.298	4.67987e+07	    76.415	      15.3	     2.315	4.64839e+07	    76.432	      15.3	     2.315	5.07022e+07	    76.432	      15.3	     2.298	  5.033e+07	    76.415	      15.3	    2.3065	4.66212e+07	   76.4235	      15.3	     2.315	 4.8553e+07	    76.432	      15.3	    2.3065	5.04951e+07	   76.4235	      15.3	     2.298	4.85291e+07	
         R10	   6066	    76.517	      15.3	      2.23	5.19115e+07	      76.5	      15.3	      2.23	5.19678e+07	      76.5	      15.3	     2.247	5.35498e+07	    76.517	      15.3	     2.247	5.36349e+07	   76.5085	      15.3	      2.23	 5.1927e+07	      76.5	      15.3	    2.2385	 5.2758e+07	   76.5085	      15.3	     2.247	 5.3574e+07	    76.517	      15.3	    2.2385	5.27729e+07	
         R10	   6067	    76.517	      15.3	     2.247	5.36247e+07	      76.5	      15.3	     2.247	5.35547e+07	      76.5	      15.3	     2.264	5.54204e+07	    76.517	      15.3	     2.264	5.56569e+07	   76.5085	      15.3	     2.247	5.35714e+07	      76.5	      15.3	    2.2555	5.44859e+07	   76.5085	      15.3	     2.264	5.55112e+07	    76.517	      15.3	    2.2555	5.46405e+07	
         R10	   6068	    76.517	      15.3	     2.264	 5.5641e+07	      76.5	      15.3	     2.264	5.54195e+07	      76.5	      15.3	     2.281	5.76766e+07	    76.517	      15.3	     2.281	5.80629e+07	   76.5085	      15.3	     2.264	5.55027e+07	      76.5	      15.3	    2.2725	5.65449e+07	   76.5085	      15.3	     2.281	5.78251e+07	    76.517	      15.3	    2.2725	5.68517e+07	
         R10	   6069	    76.517	      15.3	     2.281	5.80413e+07	      76.5	      15.3	     2.281	5.76818e+07	      76.5	      15.3	     2.298	6.04762e+07	    76.517	      15.3	     2.298	6.09445e+07	   76.5085	      15.3	     2.281	 5.7817e+07	      76.5	      15.3	    2.2895	5.90728e+07	   76.5085	      15.3	     2.298	6.06311e+07	    76.517	      15.3	    2.2895	5.94926e+07	
         R10	   6070	    76.517	      15.3	     2.298	6.09209e+07	      76.5	      15.3	     2.298	6.05011e+07	      76.5	      15.3	     2.315	6.40774e+07	    76.517	      15.3	     2.315	6.43472e+07	   76.5085	      15.3	     2.298	6.06322e+07	      76.5	      15.3	    2.3065	6.22768e+07	   76.5085	      15.3	     2.315	6.40583e+07	    76.517	      15.3	    2.3065	6.26339e+07	
         R10	   6071	    76.517	      15.3	     2.315	 6.4344e+07	      76.5	      15.3	     2.315	6.41401e+07	      76.5	      15.3	     2.332	6.88438e+07	    76.517	      15.3	     2.332	6.80969e+07	   76.5085	      15.3	     2.315	6.40892e+07	      76.5	      15.3	    2.3235	6.64678e+07	   76.5085	      15.3	     2.332	6.81467e+07	    76.517	      15.3	    2.3235	6.62202e+07	
         R10	   6072	    76.517	      15.3	     2.332	6.82134e+07	      76.5	      15.3	     2.332	6.89838e+07	      76.5	      15.3	     2.349	7.51578e+07	    76.517	      15.3	     2.349	7.13498e+07	   76.5085	      15.3	     2.332	6.82767e+07	      76.5	      15.3	    2.3405	7.20269e+07	   76.5085	      15.3	     2.349	7.25279e+07	    76.517	      15.3	    2.3405	6.97781e+07	
         R10	   6073	    76.517	      15.3	     2.349	 7.1742e+07	      76.5	      15.3	     2.349	7.54938e+07	      76.5	      15.3	     2.366	8.20076e+07	    76.517	      15.3	     2.366	7.14941e+07	   76.5085	      15.3	     2.349	7.28952e+07	      76.5	      15.3	    2.3575	7.86767e+07	   76.5085	      15.3	     2.366	7.51505e+07	    76.517	      15.3	    2.3575	7.15858e+07	
         R10	   6074	    76.517	      15.3	     2.366	7.34971e+07	      76.5	      15.3	     2.366	8.29341e+07	      76.5	      15.3	     2.383	8.85885e+07	    76.517	      15.3	     2.383	6.33959e+07	   76.5085	      15.3	     2.366	 7.6592e+07	      76.5	      15.3	    2.3745	8.54606e+07	   76.5085	      15.3	     2.383	7.11559e+07	    76.517	      15.3	    2.3745	6.78544e+07	
         R10	   6075	    76.517	      15.3	     2.383	6.48459e+07	      76.5	      15.3	     2.383	8.91945e+07	      76.5	      15.3	       2.4	 8.3181e+07	    76.517	      15.3	       2.4	5.52463e+07	   76.5085	      15.3	     2.383	7.20098e+07	      76.5	      15.3	    2.3915	7.92986e+07	   76.5085	      15.3	       2.4	6.63374e+07	    76.517	      15.3	    2.3915	5.49126e+07	
         R10	   6076	    76.534	      15.3	     2.383	4.91328e+07	    76.517	      15.3	     2.383	6.21713e+07	    76.517	      15.3	       2.4	5.48286e+07	    76.534	      15.3	       2.4	4.39185e+07	   76.5255	      15.3	     2.383	5.48926e+07	    76.517	      15.3	    2.3915	5.33932e+07	   76.5255	      15.3	       2.4	4.84764e+07	    76.534	      15.3	    2.3915	4.43342e+07	
         R10	   6077	    76.534	      15.3	     2.383	4.80599e+07	    76.534	      15.3	       2.4	4.47605e+07	    76.551	      15.3	       2.4	 3.7978e+07	    76.551	      15.3	     2.383	4.12627e+07	    76.534	      15.3	    2.3915	4.42106e+07	   76.5425	      15.3	       2.4	 4.0778e+07	    76.551	      15.3	    2.3915	3.88014e+07	   76.5425	      15.3	     2.383	4.45441e+07	
         R10	   6078	    76.551	      15.3	     2.383	4.12799e+07	    76.551	      15.3	       2.4	3.79073e+07	    76.568	      15.3	       2.4	3.54896e+07	    76.568	      15.3	     2.383	3.71608e+07	    76.551	      15.3	    2.3915	 3.8774e+07	   76.5595	      15.3	       2.4	 3.6337e+07	    76.568	      15.3	    2.3915	3.59765e+07	   76.5595	      15.3	     2.383	3.91265e+07	
         R10	   6079	    76.568	      15.3	     2.383	 3.7237e+07	    76.568	      15.3	       2.4	3.53933e+07	    76.585	      15.3	       2.4	3.44843e+07	    76.585	      15.3	     2.383	 3.5105e+07	    76.568	      15.3	    2.3915	3.59765e+07	   76.5765	      15.3	       2.4	3.47391e+07	    76.585	      15.3	    2.3915	3.46359e+07	   76.5765	      15.3	     2.383	 3.6094e+07	
         R10	   6080	    76.585	      15.3	     2.383	3.51516e+07	    76.585	      15.3	       2.4	 3.4405e+07	    76.602	      15.3	       2.4	3.40364e+07	    76.602	      15.3	     2.383	3.39375e+07	    76.585	      15.3	    2.3915	3.46251e+07	   76.5935	      15.3	       2.4	3.41306e+07	    76.602	      15.3	    2.3915	3.39122e+07	   76.5935	      15.3	     2.383	3.44888e+07	
         R10	   6081	    76.602	      15.3	     2.383	3.39446e+07	    76.602	      15.3	       2.4	3.40427e+07	    76.619	      15.3	       2.4	3.35634e+07	    76.619	      15.3	     2.383	3.31705e+07	    76.602	      15.3	    2.3915	3.39166e+07	   76.6105	      15.3	       2.4	3.37586e+07	    76.619	      15.3	    2.3915	  3.333e+07	   76.6105	      15.3	     2.383	3.35219e+07	
         R10	   6082	    76.619	      15.3	     2.383	3.31491e+07	    76.619	      15.3	       2.4	3.35552e+07	    76.636	      15.3	       2.4	3.30626e+07	    76.636	      15.3	     2.383	  3.253e+07	    76.619	      15.3	    2.3915	 3.3314e+07	   76.6275	      15.3	       2.4	3.32842e+07	    76.636	      15.3	    2.3915	 3.2776e+07	   76.6275	      15.3	     2.383	3.28171e+07	
         R10	   6083	    76.636	      15.3	     2.383	3.25292e+07	    76.636	      15.3	       2.4	 3.3014e+07	    76.653	      15.3	       2.4	3.24976e+07	    76.653	      15.3	     2.383	3.18862e+07	    76.636	      15.3	    2.3915	3.27517e+07	   76.6445	      15.3	       2.4	3.27404e+07	    76.653	      15.3	    2.3915	3.21803e+07	   76.6445	      15.3	     2.383	3.21923e+07	
         R10	   6084	    76.653	      15.3	     2.383	3.18906e+07	    76.653	      15.3	       2.4	3.24494e+07	     76.67	      15.3	       2.4	3.18253e+07	     76.67	      15.3	     2.383	3.14106e+07	    76.653	      15.3	    2.3915	 3.2159e+07	   76.6615	      15.3	       2.4	3.21283e+07	     76.67	      15.3	    2.3915	3.16115e+07	   76.6615	      15.3	     2.383	3.16395e+07	
         R10	   6085	    76.653	      15.3	     2.366	 3.2299e+07	    76.653	      15.3	     2.383	3.19521e+07	     76.67	      15.3	     2.383	3.12464e+07	     76.67	      15.3	     2.366	3.14195e+07	    76.653	      15.3	    2.3745	3.21157e+07	   76.6615	      15.3	     2.383	3.15875e+07	     76.67	      15.3	    2.3745	3.13265e+07	   76.6615	      15.3	     2.366	3.18463e+07	
         R10	   6086	    76.653	      15.3	     2.366	3.23256e+07	     76.67	      15.3	     2.366	3.14405e+07	     76.67	      15.3	     2.349	3.20325e+07	    76.653	      15.3	     2.349	3.33393e+07	   76.6615	      15.3	     2.366	3.18699e+07	     76.67	      15.3	    2.3575	3.17313e+07	   76.6615	      15.3	     2.349	3.26718e+07	    76.653	      15.3	    2.3575	 3.2827e+07	
         R10	   6087	    76.653	      15.3	     2.349	3.33693e+07	     76.67	      15.3	     2.349	3.20423e+07	     76.67	      15.3	     2.332	3.29194e+07	    76.653	      15.3	     2.332	3.45969e+07	   76.6615	      15.3	     2.349	3.26915e+07	     76.67	      15.3	    2.3405	3.24768e+07	   76.6615	      15.3	     2.332	3.37447e+07	    76.653	      15.3	    2.3405	3.39792e+07	
         R10	   6088	    76.653	      15.3	     2.332	3.46131e+07	     76.67	      15.3	     2.332	3.29323e+07	     76.67	      15.3	     2.315	3.38712e+07	    76.653	      15.3	     2.315	3.58095e+07	   76.6615	      15.3	     2.332	3.37591e+07	     76.67	      15.3	    2.3235	3.33978e+07	   76.6615	      15.3	     2.315	3.48282e+07	    76.653	      15.3	    2.3235	3.52067e+07	
         R10	   6089	    76.653	      15.3	     2.315	3.58171e+07	     76.67	      15.3	     2.315	3.38857e+07	     76.67	      15.3	     2.298	3.47475e+07	    76.653	      15.3	     2.298	3.68185e+07	   76.6615	      15.3	     2.315	3.48392e+07	     76.67	      15.3	    2.3065	3.43119e+07	   76.6615	      15.3	     2.298	3.57725e+07	    76.653	      15.3	    2.3065	3.63118e+07	
         R10	   6090	    76.653	      15.3	     2.298	3.68203e+07	     76.67	      15.3	     2.298	3.47502e+07	     76.67	      15.3	     2.281	3.54719e+07	    76.653	      15.3	     2.281	3.75788e+07	   76.6615	      15.3	     2.298	3.57748e+07	     76.67	      15.3	    2.2895	3.51056e+07	   76.6615	      15.3	     2.281	3.65163e+07	    76.653	      15.3	    2.2895	3.71926e+07	
         R10	   6091	    76.653	      15.3	     2.281	3.75769e+07	     76.67	      15.3	     2.281	3.54727e+07	     76.67	      15.3	     2.264	3.60258e+07	    76.653	      15.3	     2.264	3.80969e+07	   76.6615	      15.3	     2.281	3.65158e+07	     76.67	      15.3	    2.2725	3.57434e+07	   76.6615	      15.3	     2.264	3.70537e+07	    76.653	      15.3	    2.2725	3.78297e+07	
         R10	   6092	    76.653	      15.3	     2.264	3.80927e+07	     76.67	      15.3	     2.264	3.60294e+07	     76.67	      15.3	     2.247	 3.6413e+07	    76.653	      15.3	     2.247	3.84028e+07	   76.6615	      15.3	     2.264	3.70532e+07	     76.67	      15.3	    2.2555	3.62151e+07	   76.6615	      15.3	     2.247	3.74012e+07	    76.653	      15.3	    2.2555	3.82408e+07	
         R10	   6093	    76.653	      15.3	     2.247	3.83991e+07	     76.67	      15.3	     2.247	3.64145e+07	     76.67	      15.3	      2.23	3.66582e+07	    76.653	      15.3	      2.23	 3.8543e+07	   76.6615	      15.3	     2.247	3.74001e+07	     76.67	      15.3	    2.2385	3.65307e+07	   76.6615	      15.3	      2.23	3.75947e+07	    76.653	      15.3	    2.2385	3.84646e+07	
         R10	   6094	    76.636	      15.3	     2.247	4.05717e+07	    76.653	      15.3	     2.247	3.84024e+07	    76.653	      15.3	      2.23	3.85379e+07	    76.636	      15.3	      2.23	4.05569e+07	   76.6445	      15.3	     2.247	3.94797e+07	    76.653	      15.3	    2.2385	3.84638e+07	   76.6445	      15.3	      2.23	3.95408e+07	    76.636	      15.3	    2.2385	4.05572e+07	
         R10	   6095	    76.636	      15.3	     2.247	4.05799e+07	    76.636	      15.3	      2.23	4.05648e+07	    76.619	      15.3	      2.23	4.26542e+07	    76.619	      15.3	     2.247	4.28978e+07	    76.636	      15.3	    2.2385	4.05653e+07	   76.6275	      15.3	      2.23	4.16019e+07	    76.619	      15.3	    2.2385	4.27685e+07	   76.6275	      15.3	     2.247	4.17302e+07	
         R10	   6096	    76.619	      15.3	     2.247	4.29041e+07	    76.619	      15.3	      2.23	4.26627e+07	    76.602	      15.3	      2.23	4.47887e+07	    76.602	      15.3	     2.247	4.52937e+07	    76.619	      15.3	    2.2385	4.27759e+07	   76.6105	      15.3	      2.23	4.37164e+07	    76.602	      15.3	    2.2385	 4.5034e+07	   76.6105	      15.3	     2.247	4.40881e+07	
         R10	   6097	    76.602	      15.3	     2.247	4.53096e+07	    76.602	      15.3	      2.23	4.47966e+07	    76.585	      15.3	      2.23	4.68304e+07	    76.585	      15.3	     2.247	4.76641e+07	    76.602	      15.3	    2.2385	4.50458e+07	   76.5935	      15.3	      2.23	 4.5802e+07	    76.585	      15.3	    2.2385	4.72409e+07	   76.5935	      15.3	     2.247	 4.6473e+07	
         R10	   6098	    76.585	      15.3	     2.247	4.76804e+07	    76.585	      15.3	      2.23	4.68465e+07	    76.568	      15.3	      2.23	4.86939e+07	    76.568	      15.3	     2.247	4.98538e+07	    76.585	      15.3	    2.2385	4.72571e+07	   76.5765	      15.3	      2.23	4.77562e+07	    76.568	      15.3	    2.2385	4.92691e+07	   76.5765	      15.3	     2.247	4.87495e+07	
         R10	   6099	    76.568	      15.3	     2.247	4.98717e+07	    76.568	      15.3	      2.23	4.87102e+07	    76.551	      15.3	      2.23	5.02375e+07	    76.551	      15.3	     2.247	5.16978e+07	    76.568	      15.3	    2.2385	4.92862e+07	   76.5595	      15.3	      2.23	4.94577e+07	    76.551	      15.3	    2.2385	5.09649e+07	   76.5595	      15.3	     2.247	5.07635e+07	
         R10	   6100	    76.551	      15.3	     2.247	 5.1716e+07	    76.551	      15.3	      2.23	5.02191e+07	    76.534	      15.3	      2.23	5.13647e+07	    76.534	      15.3	     2.247	5.29924e+07	    76.551	      15.3	    2.2385	5.09649e+07	   76.5425	      15.3	      2.23	5.07748e+07	    76.534	      15.3	    2.2385	5.21776e+07	   76.5425	      15.3	     2.247	5.23307e+07	
         R10	   6101	    76.534	      15.3	     2.247	 5.3014e+07	    76.534	      15.3	      2.23	5.13557e+07	    76.517	      15.3	      2.23	  5.189e+07	    76.517	      15.3	     2.247	5.36458e+07	    76.534	      15.3	    2.2385	5.21839e+07	   76.5255	      15.3	      2.23	5.16069e+07	    76.517	      15.3	    2.2385	5.27676e+07	   76.5255	      15.3	     2.247	 5.3307e+07	
         R10	   6102	    76.534	      15.3	     2.264	5.49208e+07	    76.534	      15.3	     2.247	 5.3007e+07	    76.517	      15.3	     2.247	5.36365e+07	    76.517	      15.3	     2.264	5.56558e+07	    76.534	      15.3	    2.2555	5.39626e+07	   76.5255	      15.3	     2.247	5.32989e+07	    76.517	      15.3	    2.2555	5.46459e+07	   76.5255	      15.3	     2.264	5.52546e+07	
         R10	   6103	    76.534	      15.3	     2.264	5.49213e+07	    76.517	      15.3	     2.264	5.56517e+07	    76.517	      15.3	     2.281	5.80526e+07	    76.534	      15.3	     2.281	5.70909e+07	   76.5255	      15.3	     2.264	5.52529e+07	    76.517	      15.3	    2.2725	5.68519e+07	   76.5255	      15.3	     2.281	5.75194e+07	    76.534	      15.3	    2.2725	5.60041e+07	
         R10	   6104	    76.534	      15.3	     2.281	   5.71e+07	    76.517	      15.3	     2.281	5.80491e+07	    76.517	      15.3	     2.298	6.09102e+07	    76.534	      15.3	     2.298	5.94836e+07	   76.5255	      15.3	     2.281	5.75225e+07	    76.517	      15.3	    2.2895	5.94794e+07	   76.5255	      15.3	     2.298	6.01123e+07	    76.534	      15.3	    2.2895	5.82882e+07	
         R10	   6105	    76.534	      15.3	     2.298	5.95203e+07	    76.517	      15.3	     2.298	6.09101e+07	    76.517	      15.3	     2.315	  6.425e+07	    76.534	      15.3	     2.315	6.19255e+07	   76.5255	      15.3	     2.298	6.01309e+07	    76.517	      15.3	    2.3065	6.25799e+07	   76.5255	      15.3	     2.315	6.29459e+07	    76.534	      15.3	    2.3065	6.07156e+07	
         R10	   6106	    76.534	      15.3	     2.315	6.20261e+07	    76.517	      15.3	     2.315	6.42643e+07	    76.517	      15.3	     2.332	6.78877e+07	    76.534	      15.3	     2.332	6.38796e+07	   76.5255	      15.3	     2.315	6.30038e+07	    76.517	      15.3	    2.3235	6.60755e+07	   76.5255	      15.3	     2.332	6.56426e+07	    76.534	      15.3	    2.3235	6.29368e+07	
         R10	   6107	    76.534	      15.3	     2.332	6.41089e+07	    76.517	      15.3	     2.332	6.79465e+07	    76.517	      15.3	     2.349	7.08062e+07	    76.534	      15.3	     2.349	6.42755e+07	   76.5255	      15.3	     2.332	6.57877e+07	    76.517	      15.3	    2.3405	6.93728e+07	   76.5255	      15.3	     2.349	6.71253e+07	    76.534	      15.3	    2.3405	 6.4154e+07	
         R10	   6108	    76.534	      15.3	     2.349	6.46663e+07	    76.517	      15.3	     2.349	7.10276e+07	    76.517	      15.3	     2.366	7.10026e+07	    76.534	      15.3	     2.366	6.02269e+07	   76.5255	      15.3	     2.349	6.74374e+07	    76.517	      15.3	    2.3575	7.09735e+07	   76.5255	      15.3	     2.366	6.49618e+07	    76.534	      15.3	    2.3575	6.23603e+07	
         R10	   6109	    76.534	      15.3	     2.366	6.01621e+07	    76.517	      15.3	     2.366	7.15771e+07	    76.517	      15.3	     2.383	5.94298e+07	    76.534	      15.3	     2.383	5.11825e+07	   76.5255	      15.3	     2.366	6.52406e+07	    76.517	      15.3	    2.3745	6.52438e+07	   76.5255	      15.3	     2.383	5.45602e+07	    76.534	      15.3	    2.3745	5.53583e+07	
         R10	   6110	    76.551	      15.3	     2.366	5.12851e+07	    76.534	      15.3	     2.366	6.01706e+07	    76.534	      15.3	     2.383	4.96023e+07	    76.551	      15.3	     2.383	4.24449e+07	   76.5425	      15.3	     2.366	5.55485e+07	    76.534	      15.3	    2.3745	5.45936e+07	   76.5425	      15.3	     2.383	4.58828e+07	    76.551	      15.3	    2.3745	4.67636e+07	
         R10	   6111	    76.551	      15.3	     2.366	 5.1313e+07	    76.551	      15.3	     2.383	4.23027e+07	    76.568	      15.3	     2.383	3.79469e+07	    76.568	      15.3	     2.366	4.45729e+07	    76.551	      15.3	    2.3745	4.67018e+07	   76.5595	      15.3	     2.383	4.00313e+07	    76.568	      15.3	    2.3745	4.12266e+07	   76.5595	      15.3	     2.366	 4.7879e+07	
         R10	   6112	    76.568	      15.3	     2.366	4.46174e+07	    76.568	      15.3	     2.383	3.79887e+07	    76.585	      15.3	     2.383	3.55145e+07	    76.585	      15.3	     2.366	3.99727e+07	    76.568	      15.3	    2.3745	4.12689e+07	   76.5765	      15.3	     2.383	3.66717e+07	    76.585	      15.3	    2.3745	3.77241e+07	   76.5765	      15.3	     2.366	4.22533e+07	
         R10	   6113	    76.585	      15.3	     2.366	4.00233e+07	    76.585	      15.3	     2.383	3.55343e+07	    76.602	      15.3	     2.383	3.41553e+07	    76.602	      15.3	     2.366	3.69103e+07	    76.585	      15.3	    2.3745	  3.776e+07	   76.5935	      15.3	     2.383	3.47892e+07	    76.602	      15.3	    2.3745	3.55128e+07	   76.5935	      15.3	     2.366	3.84292e+07	
         R10	   6114	    76.602	      15.3	     2.366	3.69489e+07	    76.602	      15.3	     2.383	 3.4166e+07	    76.619	      15.3	     2.383	3.32629e+07	    76.619	      15.3	     2.366	3.48604e+07	    76.602	      15.3	    2.3745	3.55387e+07	   76.6105	      15.3	     2.383	3.36784e+07	    76.619	      15.3	    2.3745	3.40442e+07	   76.6105	      15.3	     2.366	3.58743e+07	
         R10	   6115	    76.619	      15.3	     2.366	3.48791e+07	    76.619	      15.3	     2.383	3.32791e+07	    76.636	      15.3	     2.383	3.25447e+07	    76.636	      15.3	     2.366	3.34126e+07	    76.619	      15.3	    2.3745	3.40621e+07	   76.6275	      15.3	     2.383	3.28889e+07	    76.636	      15.3	    2.3745	3.29654e+07	   76.6275	      15.3	     2.366	3.41226e+07	
         R10	   6116	    76.636	      15.3	     2.366	3.34144e+07	    76.636	      15.3	     2.383	3.25615e+07	    76.653	      15.3	     2.383	3.19235e+07	    76.653	      15.3	     2.366	3.22979e+07	    76.636	      15.3	    2.3745	3.29745e+07	   76.6445	      15.3	     2.383	3.22273e+07	    76.653	      15.3	    2.3745	 3.2101e+07	   76.6445	      15.3	     2.366	3.28388e+07	
         R10	   6117	    76.636	      15.3	     2.349	3.50237e+07	    76.636	      15.3	     2.366	3.34616e+07	    76.653	      15.3	     2.366	3.23384e+07	    76.653	      15.3	     2.349	3.33288e+07	    76.636	      15.3	    2.3575	3.42374e+07	   76.6445	      15.3	     2.366	3.28826e+07	    76.653	      15.3	    2.3575	 3.2828e+07	   76.6445	      15.3	     2.349	3.41588e+07	
         R10	   6118	    76.636	      15.3	     2.349	3.50586e+07	    76.653	      15.3	     2.349	3.33567e+07	    76.653	      15.3	     2.332	3.45877e+07	    76.636	      15.3	     2.332	3.67249e+07	   76.6445	      15.3	     2.349	3.41902e+07	    76.653	      15.3	    2.3405	3.39683e+07	   76.6445	      15.3	     2.332	3.56407e+07	    76.636	      15.3	    2.3405	 3.5888e+07	
         R10	   6119	    76.636	      15.3	     2.332	3.67416e+07	    76.653	      15.3	     2.332	3.46102e+07	    76.653	      15.3	     2.315	3.58005e+07	    76.636	      15.3	     2.315	3.81874e+07	   76.6445	      15.3	     2.332	3.56604e+07	    76.653	      15.3	    2.3235	3.52007e+07	   76.6445	      15.3	     2.315	3.69807e+07	    76.636	      15.3	    2.3235	3.74586e+07	
         R10	   6120	    76.636	      15.3	     2.315	3.81922e+07	    76.653	      15.3	     2.315	 3.5812e+07	    76.653	      15.3	     2.298	3.68149e+07	    76.636	      15.3	     2.298	3.92828e+07	   76.6445	      15.3	     2.315	3.69889e+07	    76.653	      15.3	    2.3065	3.63075e+07	   76.6445	      15.3	     2.298	3.80376e+07	    76.636	      15.3	    2.3065	3.87295e+07	
         R10	   6121	    76.636	      15.3	     2.298	3.92803e+07	    76.653	      15.3	     2.298	 3.6819e+07	    76.653	      15.3	     2.281	3.75782e+07	    76.636	      15.3	     2.281	4.00094e+07	   76.6445	      15.3	     2.298	3.80384e+07	    76.653	      15.3	    2.2895	3.71916e+07	   76.6445	      15.3	     2.281	3.87841e+07	    76.636	      15.3	    2.2895	3.96359e+07	
         R10	   6122	    76.636	      15.3	     2.281	4.00041e+07	    76.653	      15.3	     2.281	3.75776e+07	    76.653	      15.3	     2.264	3.80983e+07	    76.636	      15.3	     2.264	4.04193e+07	   76.6445	      15.3	     2.281	3.87812e+07	    76.653	      15.3	    2.2725	3.78307e+07	   76.6445	      15.3	     2.264	3.92503e+07	    76.636	      15.3	    2.2725	4.02028e+07	
         R10	   6123	    76.636	      15.3	     2.264	4.04137e+07	    76.653	      15.3	     2.264	3.80949e+07	    76.653	      15.3	     2.247	3.84088e+07	    76.636	      15.3	     2.247	4.05781e+07	   76.6445	      15.3	     2.264	3.92459e+07	    76.653	      15.3	    2.2555	3.82449e+07	   76.6445	      15.3	     2.247	 3.9486e+07	    76.636	      15.3	    2.2555	4.04878e+07	
         R10	   6124	    76.619	      15.3	     2.264	4.29587e+07	    76.636	      15.3	     2.264	 4.0418e+07	    76.636	      15.3	     2.247	 4.0585e+07	    76.619	      15.3	     2.247	4.29034e+07	   76.6275	      15.3	     2.264	4.16785e+07	    76.636	      15.3	    2.2555	4.04934e+07	   76.6275	      15.3	     2.247	4.17355e+07	    76.619	      15.3	    2.2555	4.29221e+07	
         R10	   6125	    76.619	      15.3	     2.264	4.29687e+07	    76.619	      15.3	     2.247	4.29149e+07	    76.602	      15.3	     2.247	4.53028e+07	    76.602	      15.3	     2.264	4.56651e+07	    76.619	      15.3	    2.2555	4.29327e+07	   76.6105	      15.3	     2.247	 4.4098e+07	    76.602	      15.3	    2.2555	4.54747e+07	   76.6105	      15.3	     2.264	4.43045e+07	
         R10	   6126	    76.602	      15.3	     2.264	4.56796e+07	    76.602	      15.3	     2.247	4.53195e+07	    76.585	      15.3	     2.247	4.76716e+07	    76.585	      15.3	     2.264	4.84169e+07	    76.602	      15.3	    2.2555	4.54902e+07	   76.5935	      15.3	     2.247	4.64816e+07	    76.585	      15.3	    2.2555	4.80356e+07	   76.5935	      15.3	     2.264	4.70317e+07	
         R10	   6127	    76.585	      15.3	     2.264	4.84383e+07	    76.585	      15.3	     2.247	4.76921e+07	    76.568	      15.3	     2.247	4.98618e+07	    76.568	      15.3	     2.264	5.10332e+07	    76.585	      15.3	    2.2555	4.80566e+07	   76.5765	      15.3	     2.247	4.87593e+07	    76.568	      15.3	    2.2555	5.04408e+07	   76.5765	      15.3	     2.264	4.97136e+07	
         R10	   6128	    76.568	      15.3	     2.264	5.10596e+07	    76.568	      15.3	     2.247	4.98826e+07	    76.551	      15.3	     2.247	5.16951e+07	    76.551	      15.3	     2.264	5.32852e+07	    76.568	      15.3	    2.2555	5.04643e+07	   76.5595	      15.3	     2.247	5.07675e+07	    76.551	      15.3	    2.2555	5.24862e+07	   76.5595	      15.3	     2.264	5.21438e+07	
         R10	   6129	    76.551	      15.3	     2.264	5.33102e+07	    76.551	      15.3	     2.247	5.17198e+07	    76.534	      15.3	     2.247	5.30003e+07	    76.534	      15.3	     2.264	5.49045e+07	    76.551	      15.3	    2.2555	5.25111e+07	   76.5425	      15.3	     2.247	5.23366e+07	    76.534	      15.3	    2.2555	 5.3951e+07	   76.5425	      15.3	     2.264	 5.4074e+07	
         R10	   6130	    76.551	      15.3	     2.281	5.49943e+07	    76.551	      15.3	     2.264	5.33195e+07	    76.534	      15.3	     2.264	5.49067e+07	    76.534	      15.3	     2.281	5.70572e+07	    76.551	      15.3	    2.2725	5.41508e+07	   76.5425	      15.3	     2.264	5.40798e+07	    76.534	      15.3	    2.2725	5.59799e+07	   76.5425	      15.3	     2.281	5.59776e+07	
         R10	   6131	    76.551	      15.3	     2.281	5.50186e+07	    76.534	      15.3	     2.281	5.70666e+07	    76.534	      15.3	     2.298	5.94207e+07	    76.551	      15.3	     2.298	5.66263e+07	   76.5425	      15.3	     2.281	5.59944e+07	    76.534	      15.3	    2.2895	5.82399e+07	   76.5425	      15.3	     2.298	5.79532e+07	    76.551	      15.3	    2.2895	5.58123e+07	
         R10	   6132	    76.551	      15.3	     2.298	5.66784e+07	    76.534	      15.3	     2.298	5.94478e+07	    76.534	      15.3	     2.315	 6.1803e+07	    76.551	      15.3	     2.315	5.79156e+07	   76.5425	      15.3	     2.298	5.79927e+07	    76.534	      15.3	    2.3065	6.06181e+07	   76.5425	      15.3	     2.315	5.97573e+07	    76.551	      15.3	    2.3065	5.72797e+07	
         R10	   6133	    76.551	      15.3	     2.315	5.80143e+07	    76.534	      15.3	     2.315	6.18659e+07	    76.534	      15.3	     2.332	6.37061e+07	    76.551	      15.3	     2.332	5.82484e+07	   76.5425	      15.3	     2.315	5.98377e+07	    76.534	      15.3	    2.3235	6.27703e+07	   76.5425	      15.3	     2.332	6.08353e+07	    76.551	      15.3	    2.3235	5.81022e+07	
         R10	   6134	    76.551	      15.3	     2.332	5.83925e+07	    76.534	      15.3	     2.332	6.38463e+07	    76.534	      15.3	     2.349	6.38226e+07	    76.551	      15.3	     2.349	5.66345e+07	   76.5425	      15.3	     2.332	6.09768e+07	    76.534	      15.3	    2.3405	6.38021e+07	   76.5425	      15.3	     2.349	6.00487e+07	    76.551	      15.3	    2.3405	 5.7468e+07	
         R10	   6135	    76.551	      15.3	     2.349	5.68223e+07	    76.534	      15.3	     2.349	 6.4022e+07	    76.534	      15.3	     2.366	6.01082e+07	    76.551	      15.3	     2.366	5.14767e+07	   76.5425	      15.3	     2.349	6.02372e+07	    76.534	      15.3	    2.3575	6.19922e+07	   76.5425	      15.3	     2.366	5.56026e+07	    76.551	      15.3	    2.3575	5.40907e+07	
         R10	   6136	    76.568	      15.3	     2.349	4.98597e+07	    76.551	      15.3	     2.349	5.65787e+07	    76.551	      15.3	     2.366	5.12737e+07	    76.568	      15.3	     2.366	4.48387e+07	   76.5595	      15.3	     2.349	5.31453e+07	    76.551	      15.3	    2.3575	5.38756e+07	   76.5595	      15.3	     2.366	4.79937e+07	    76.568	      15.3	    2.3575	4.73309e+07	
         R10	   6137	    76.568	      15.3	     2.349	4.98209e+07	    76.568	      15.3	     2.366	4.47842e+07	    76.585	      15.3	     2.366	4.01658e+07	    76.585	      15.3	     2.349	4.43895e+07	    76.568	      15.3	    2.3575	4.72841e+07	   76.5765	      15.3	     2.366	4.24313e+07	    76.585	      15.3	    2.3575	4.22754e+07	   76.5765	      15.3	     2.349	4.70684e+07	
         R10	   6138	    76.585	      15.3	     2.349	 4.4407e+07	    76.585	      15.3	     2.366	4.01743e+07	    76.602	      15.3	     2.366	3.70486e+07	    76.602	      15.3	     2.349	4.02661e+07	    76.585	      15.3	    2.3575	4.22882e+07	   76.5935	      15.3	     2.366	3.85736e+07	    76.602	      15.3	    2.3575	3.86564e+07	   76.5935	      15.3	     2.349	4.23091e+07	
         R10	   6139	    76.602	      15.3	     2.349	4.02939e+07	    76.602	      15.3	     2.366	3.70652e+07	    76.619	      15.3	     2.366	3.49489e+07	    76.619	      15.3	     2.349	3.72381e+07	    76.602	      15.3	    2.3575	3.86787e+07	   76.6105	      15.3	     2.366	3.59764e+07	    76.619	      15.3	    2.3575	  3.609e+07	   76.6105	      15.3	     2.349	3.87419e+07	
         R10	   6140	    76.619	      15.3	     2.349	3.72607e+07	    76.619	      15.3	     2.366	3.49585e+07	    76.636	      15.3	     2.366	3.34576e+07	    76.636	      15.3	     2.349	3.50071e+07	    76.619	      15.3	    2.3575	3.61062e+07	   76.6275	      15.3	     2.366	3.41847e+07	    76.636	      15.3	    2.3575	 3.4227e+07	   76.6275	      15.3	     2.349	 3.6113e+07	
         R10	   6141	    76.619	      15.3	     2.332	3.94486e+07	    76.619	      15.3	     2.349	 3.7304e+07	    76.636	      15.3	     2.349	3.50468e+07	    76.636	      15.3	     2.332	3.67121e+07	    76.619	      15.3	    2.3405	3.83721e+07	   76.6275	      15.3	     2.349	3.61543e+07	    76.636	      15.3	    2.3405	3.58756e+07	   76.6275	      15.3	     2.332	 3.8063e+07	
         R10	   6142	    76.619	      15.3	     2.332	3.94626e+07	    76.636	      15.3	     2.332	3.67366e+07	    76.636	      15.3	     2.315	  3.818e+07	    76.619	      15.3	     2.315	4.11036e+07	   76.6275	      15.3	     2.332	3.80822e+07	    76.636	      15.3	    2.3235	3.74524e+07	   76.6275	      15.3	     2.315	3.96273e+07	    76.619	      15.3	    2.3235	4.02745e+07	
         R10	   6143	    76.619	      15.3	     2.315	4.11015e+07	    76.636	      15.3	     2.315	3.81896e+07	    76.636	      15.3	     2.298	3.92819e+07	    76.619	      15.3	     2.298	 4.2181e+07	   76.6275	      15.3	     2.315	3.96311e+07	    76.636	      15.3	    2.3065	3.87277e+07	   76.6275	      15.3	     2.298	4.07189e+07	    76.619	      15.3	    2.3065	4.16301e+07	
         R10	   6144	    76.619	      15.3	     2.298	4.21723e+07	    76.636	      15.3	     2.298	3.92818e+07	    76.636	      15.3	     2.281	4.00132e+07	    76.619	      15.3	     2.281	4.27636e+07	   76.6275	      15.3	     2.298	4.07145e+07	    76.636	      15.3	    2.2895	3.96385e+07	   76.6275	      15.3	     2.281	4.13773e+07	    76.619	      15.3	    2.2895	4.24564e+07	
         R10	   6145	    76.619	      15.3	     2.281	4.27538e+07	    76.636	      15.3	     2.281	4.00079e+07	    76.636	      15.3	     2.264	4.04254e+07	    76.619	      15.3	     2.264	4.29673e+07	   76.6275	      15.3	     2.281	4.13698e+07	    76.636	      15.3	    2.2725	4.02077e+07	   76.6275	      15.3	     2.264	4.16865e+07	    76.619	      15.3	    2.2725	4.28501e+07	
         R10	   6146	    76.602	      15.3	     2.281	  4.578e+07	    76.619	      15.3	     2.281	4.27627e+07	    76.619	      15.3	     2.264	4.29796e+07	    76.602	      15.3	     2.264	4.56767e+07	   76.6105	      15.3	     2.281	4.42574e+07	    76.619	      15.3	    2.2725	4.28606e+07	   76.6105	      15.3	     2.264	4.43157e+07	    76.602	      15.3	    2.2725	4.57167e+07	
         R10	   6147	    76.602	      15.3	     2.281	4.57966e+07	    76.602	      15.3	     2.264	4.56956e+07	    76.585	      15.3	     2.264	4.84286e+07	    76.585	      15.3	     2.281	4.89725e+07	    76.602	      15.3	    2.2725	4.57343e+07	   76.5935	      15.3	     2.264	4.70455e+07	    76.585	      15.3	    2.2725	4.86889e+07	   76.5935	      15.3	     2.281	4.73654e+07	
         R10	   6148	    76.585	      15.3	     2.281	4.90003e+07	    76.585	      15.3	     2.264	4.84564e+07	    76.568	      15.3	     2.264	5.10451e+07	    76.568	      15.3	     2.281	5.21302e+07	    76.585	      15.3	    2.2725	4.87166e+07	   76.5765	      15.3	     2.264	4.97285e+07	    76.568	      15.3	    2.2725	5.15779e+07	   76.5765	      15.3	     2.281	5.05379e+07	
         R10	   6149	    76.568	      15.3	     2.281	5.21664e+07	    76.568	      15.3	     2.264	 5.1077e+07	    76.551	      15.3	     2.264	5.32923e+07	    76.551	      15.3	     2.281	5.49512e+07	    76.568	      15.3	    2.2725	5.16118e+07	   76.5595	      15.3	     2.264	5.21561e+07	    76.551	      15.3	    2.2725	5.41156e+07	   76.5595	      15.3	     2.281	5.35208e+07	
         R10	   6150	    76.568	      15.3	     2.298	5.30134e+07	    76.568	      15.3	     2.281	5.21981e+07	    76.551	      15.3	     2.281	5.49674e+07	    76.551	      15.3	     2.298	5.65626e+07	    76.568	      15.3	    2.2895	5.25911e+07	   76.5595	      15.3	     2.281	5.35447e+07	    76.551	      15.3	    2.2895	 5.5755e+07	   76.5595	      15.3	     2.298	 5.4738e+07	
         R10	   6151	    76.568	      15.3	     2.298	5.30642e+07	    76.551	      15.3	     2.298	5.65943e+07	    76.551	      15.3	     2.315	5.78145e+07	    76.568	      15.3	     2.315	5.32869e+07	   76.5595	      15.3	     2.298	5.47792e+07	    76.551	      15.3	    2.3065	5.71875e+07	   76.5595	      15.3	     2.315	5.54879e+07	    76.568	      15.3	    2.3065	5.31541e+07	
         R10	   6152	    76.568	      15.3	     2.315	5.33596e+07	    76.551	      15.3	     2.315	5.78729e+07	    76.551	      15.3	     2.332	5.81228e+07	    76.568	      15.3	     2.332	5.24734e+07	   76.5595	      15.3	     2.315	 5.5553e+07	    76.551	      15.3	    2.3235	  5.797e+07	   76.5595	      15.3	     2.332	 5.5225e+07	    76.568	      15.3	    2.3235	5.28875e+07	
         R10	   6153	    76.568	      15.3	     2.332	5.25439e+07	    76.551	      15.3	     2.332	5.82222e+07	    76.551	      15.3	     2.349	 5.6441e+07	    76.568	      15.3	     2.349	4.98683e+07	   76.5595	      15.3	     2.332	5.53098e+07	    76.551	      15.3	    2.3405	5.72901e+07	   76.5595	      15.3	     2.349	5.30813e+07	    76.568	      15.3	    2.3405	5.11751e+07	
         R10	   6154	    76.585	      15.3	     2.332	4.72898e+07	    76.568	      15.3	     2.332	5.24599e+07	    76.568	      15.3	     2.349	4.98064e+07	    76.585	      15.3	     2.349	4.44461e+07	   76.5765	      15.3	     2.332	4.98365e+07	    76.568	      15.3	    2.3405	5.11033e+07	   76.5765	      15.3	     2.349	4.70891e+07	    76.585	      15.3	    2.3405	4.58521e+07	
         R10	   6155	    76.585	      15.3	     2.332	4.72662e+07	    76.585	      15.3	     2.349	4.44304e+07	    76.602	      15.3	     2.349	4.03331e+07	    76.602	      15.3	     2.332	 4.2916e+07	    76.585	      15.3	    2.3405	4.58327e+07	   76.5935	      15.3	     2.349	4.23541e+07	    76.602	      15.3	    2.3405	4.16174e+07	   76.5935	      15.3	     2.332	4.50669e+07	
         R10	   6156	    76.602	      15.3	     2.332	 4.2923e+07	    76.602	      15.3	     2.349	4.03388e+07	    76.619	      15.3	     2.349	3.72936e+07	    76.619	      15.3	     2.332	3.94342e+07	    76.602	      15.3	    2.3405	4.16237e+07	   76.6105	      15.3	     2.349	3.87919e+07	    76.619	      15.3	    2.3405	3.83597e+07	   76.6105	      15.3	     2.332	4.11592e+07	
         R10	   6157	    76.602	      15.3	     2.315	4.46198e+07	    76.602	      15.3	     2.332	4.29264e+07	    76.619	      15.3	     2.332	3.94593e+07	    76.619	      15.3	     2.315	4.11017e+07	    76.602	      15.3	    2.3235	4.37594e+07	   76.6105	      15.3	     2.332	4.11733e+07	    76.619	      15.3	    2.3235	4.02719e+07	   76.6105	      15.3	     2.315	4.28437e+07	
         R10	   6158	    76.602	      15.3	     2.315	4.46061e+07	    76.619	      15.3	     2.315	4.11044e+07	    76.619	      15.3	     2.298	4.21876e+07	    76.602	      15.3	     2.298	4.55073e+07	   76.6105	      15.3	     2.315	4.28383e+07	    76.619	      15.3	    2.3065	4.16347e+07	   76.6105	      15.3	     2.298	 4.3832e+07	    76.602	      15.3	    2.3065	4.50414e+07	
         R10	   6159	    76.602	      15.3	     2.298	 4.5491e+07	    76.619	      15.3	     2.298	4.21794e+07	    76.619	      15.3	     2.281	4.27744e+07	    76.602	      15.3	     2.281	4.57946e+07	   76.6105	      15.3	     2.298	4.38199e+07	    76.619	      15.3	    2.2895	4.24653e+07	   76.6105	      15.3	     2.281	4.42705e+07	    76.602	      15.3	    2.2895	4.56288e+07	
         R10	   6160	    76.585	      15.3	     2.298	 4.9153e+07	    76.602	      15.3	     2.298	4.55071e+07	    76.602	      15.3	     2.281	 4.5816e+07	    76.585	      15.3	     2.281	4.89916e+07	   76.5935	      15.3	     2.298	4.73086e+07	    76.602	      15.3	    2.2895	4.56474e+07	   76.5935	      15.3	     2.281	4.73846e+07	    76.585	      15.3	    2.2895	4.90568e+07	
         R10	   6161	    76.585	      15.3	     2.298	4.91853e+07	    76.585	      15.3	     2.281	4.90266e+07	    76.568	      15.3	     2.281	5.21494e+07	    76.568	      15.3	     2.298	5.29638e+07	    76.585	      15.3	    2.2895	4.90902e+07	   76.5765	      15.3	     2.281	5.05605e+07	    76.568	      15.3	    2.2895	5.25421e+07	   76.5765	      15.3	     2.298	5.10419e+07	
         R10	   6162	    76.585	      15.3	     2.315	4.87284e+07	    76.585	      15.3	     2.298	4.92204e+07	    76.568	      15.3	     2.298	5.29976e+07	    76.568	      15.3	     2.315	5.32222e+07	    76.585	      15.3	    2.3065	4.89547e+07	   76.5765	      15.3	     2.298	5.10761e+07	    76.568	      15.3	    2.3065	 5.3089e+07	   76.5765	      15.3	     2.315	5.09387e+07	
         R10	   6163	    76.585	      15.3	     2.315	4.87644e+07	    76.568	      15.3	     2.315	5.32729e+07	    76.568	      15.3	     2.332	5.23993e+07	    76.585	      15.3	     2.332	 4.7274e+07	   76.5765	      15.3	     2.315	5.09816e+07	    76.568	      15.3	    2.3235	5.28083e+07	   76.5765	      15.3	     2.332	4.97988e+07	    76.585	      15.3	    2.3235	4.79978e+07	
         R10	   6164	    76.585	      15.3	     2.315	4.87266e+07	    76.585	      15.3	     2.332	4.72428e+07	    76.602	      15.3	     2.332	4.29311e+07	    76.602	      15.3	     2.315	4.46322e+07	    76.585	      15.3	    2.3235	4.79637e+07	   76.5935	      15.3	     2.332	4.50627e+07	    76.602	      15.3	    2.3235	4.37679e+07	   76.5935	      15.3	     2.315	4.66563e+07	
         R10	   6165	    76.585	      15.3	     2.298	4.91801e+07	    76.585	      15.3	     2.315	4.86957e+07	    76.602	      15.3	     2.315	4.46204e+07	    76.602	      15.3	     2.298	4.55281e+07	    76.585	      15.3	    2.3065	4.89185e+07	   76.5935	      15.3	     2.315	4.66351e+07	    76.602	      15.3	    2.3065	4.50587e+07	   76.5935	      15.3	     2.298	4.73325e+07	
